 <VTKFile type="UnstructuredGrid"  version="0.1"   >
 <UnstructuredGrid>
 <Piece  NumberOfPoints="          1600 "  NumberOfCells="         1024 ">
 <Points>
 <DataArray  type="Float64" NumberOfComponents="3"  format="ascii" >
   0.0000000000000000        0.0000000000000000        0.0000000000000000     
   3.1250000000000000E-002   0.0000000000000000        0.0000000000000000     
   6.2500000000000000E-002   0.0000000000000000        0.0000000000000000     
   9.3750000000000000E-002   0.0000000000000000        0.0000000000000000     
  0.12500000000000000        0.0000000000000000        0.0000000000000000     
   0.0000000000000000        3.1250000000000000E-002   0.0000000000000000     
   3.1250000000000000E-002   3.1250000000000000E-002   0.0000000000000000     
   6.2500000000000000E-002   3.1250000000000000E-002   0.0000000000000000     
   9.3750000000000000E-002   3.1250000000000000E-002   0.0000000000000000     
  0.12500000000000000        3.1250000000000000E-002   0.0000000000000000     
   0.0000000000000000        6.2500000000000000E-002   0.0000000000000000     
   3.1250000000000000E-002   6.2500000000000000E-002   0.0000000000000000     
   6.2500000000000000E-002   6.2500000000000000E-002   0.0000000000000000     
   9.3750000000000000E-002   6.2500000000000000E-002   0.0000000000000000     
  0.12500000000000000        6.2500000000000000E-002   0.0000000000000000     
   0.0000000000000000        9.3750000000000000E-002   0.0000000000000000     
   3.1250000000000000E-002   9.3750000000000000E-002   0.0000000000000000     
   6.2500000000000000E-002   9.3750000000000000E-002   0.0000000000000000     
   9.3750000000000000E-002   9.3750000000000000E-002   0.0000000000000000     
  0.12500000000000000        9.3750000000000000E-002   0.0000000000000000     
   0.0000000000000000       0.12500000000000000        0.0000000000000000     
   3.1250000000000000E-002  0.12500000000000000        0.0000000000000000     
   6.2500000000000000E-002  0.12500000000000000        0.0000000000000000     
   9.3750000000000000E-002  0.12500000000000000        0.0000000000000000     
  0.12500000000000000       0.12500000000000000        0.0000000000000000     
  0.12500000000000000        0.0000000000000000        0.0000000000000000     
  0.15625000000000000        0.0000000000000000        0.0000000000000000     
  0.18750000000000000        0.0000000000000000        0.0000000000000000     
  0.21875000000000000        0.0000000000000000        0.0000000000000000     
  0.25000000000000000        0.0000000000000000        0.0000000000000000     
  0.12500000000000000        3.1250000000000000E-002   0.0000000000000000     
  0.15625000000000000        3.1250000000000000E-002   0.0000000000000000     
  0.18750000000000000        3.1250000000000000E-002   0.0000000000000000     
  0.21875000000000000        3.1250000000000000E-002   0.0000000000000000     
  0.25000000000000000        3.1250000000000000E-002   0.0000000000000000     
  0.12500000000000000        6.2500000000000000E-002   0.0000000000000000     
  0.15625000000000000        6.2500000000000000E-002   0.0000000000000000     
  0.18750000000000000        6.2500000000000000E-002   0.0000000000000000     
  0.21875000000000000        6.2500000000000000E-002   0.0000000000000000     
  0.25000000000000000        6.2500000000000000E-002   0.0000000000000000     
  0.12500000000000000        9.3750000000000000E-002   0.0000000000000000     
  0.15625000000000000        9.3750000000000000E-002   0.0000000000000000     
  0.18750000000000000        9.3750000000000000E-002   0.0000000000000000     
  0.21875000000000000        9.3750000000000000E-002   0.0000000000000000     
  0.25000000000000000        9.3750000000000000E-002   0.0000000000000000     
  0.12500000000000000       0.12500000000000000        0.0000000000000000     
  0.15625000000000000       0.12500000000000000        0.0000000000000000     
  0.18750000000000000       0.12500000000000000        0.0000000000000000     
  0.21875000000000000       0.12500000000000000        0.0000000000000000     
  0.25000000000000000       0.12500000000000000        0.0000000000000000     
  0.25000000000000000        0.0000000000000000        0.0000000000000000     
  0.28125000000000000        0.0000000000000000        0.0000000000000000     
  0.31250000000000000        0.0000000000000000        0.0000000000000000     
  0.34375000000000000        0.0000000000000000        0.0000000000000000     
  0.37500000000000000        0.0000000000000000        0.0000000000000000     
  0.25000000000000000        3.1250000000000000E-002   0.0000000000000000     
  0.28125000000000000        3.1250000000000000E-002   0.0000000000000000     
  0.31250000000000000        3.1250000000000000E-002   0.0000000000000000     
  0.34375000000000000        3.1250000000000000E-002   0.0000000000000000     
  0.37500000000000000        3.1250000000000000E-002   0.0000000000000000     
  0.25000000000000000        6.2500000000000000E-002   0.0000000000000000     
  0.28125000000000000        6.2500000000000000E-002   0.0000000000000000     
  0.31250000000000000        6.2500000000000000E-002   0.0000000000000000     
  0.34375000000000000        6.2500000000000000E-002   0.0000000000000000     
  0.37500000000000000        6.2500000000000000E-002   0.0000000000000000     
  0.25000000000000000        9.3750000000000000E-002   0.0000000000000000     
  0.28125000000000000        9.3750000000000000E-002   0.0000000000000000     
  0.31250000000000000        9.3750000000000000E-002   0.0000000000000000     
  0.34375000000000000        9.3750000000000000E-002   0.0000000000000000     
  0.37500000000000000        9.3750000000000000E-002   0.0000000000000000     
  0.25000000000000000       0.12500000000000000        0.0000000000000000     
  0.28125000000000000       0.12500000000000000        0.0000000000000000     
  0.31250000000000000       0.12500000000000000        0.0000000000000000     
  0.34375000000000000       0.12500000000000000        0.0000000000000000     
  0.37500000000000000       0.12500000000000000        0.0000000000000000     
  0.37500000000000000        0.0000000000000000        0.0000000000000000     
  0.40625000000000000        0.0000000000000000        0.0000000000000000     
  0.43750000000000000        0.0000000000000000        0.0000000000000000     
  0.46875000000000000        0.0000000000000000        0.0000000000000000     
  0.50000000000000000        0.0000000000000000        0.0000000000000000     
  0.37500000000000000        3.1250000000000000E-002   0.0000000000000000     
  0.40625000000000000        3.1250000000000000E-002   0.0000000000000000     
  0.43750000000000000        3.1250000000000000E-002   0.0000000000000000     
  0.46875000000000000        3.1250000000000000E-002   0.0000000000000000     
  0.50000000000000000        3.1250000000000000E-002   0.0000000000000000     
  0.37500000000000000        6.2500000000000000E-002   0.0000000000000000     
  0.40625000000000000        6.2500000000000000E-002   0.0000000000000000     
  0.43750000000000000        6.2500000000000000E-002   0.0000000000000000     
  0.46875000000000000        6.2500000000000000E-002   0.0000000000000000     
  0.50000000000000000        6.2500000000000000E-002   0.0000000000000000     
  0.37500000000000000        9.3750000000000000E-002   0.0000000000000000     
  0.40625000000000000        9.3750000000000000E-002   0.0000000000000000     
  0.43750000000000000        9.3750000000000000E-002   0.0000000000000000     
  0.46875000000000000        9.3750000000000000E-002   0.0000000000000000     
  0.50000000000000000        9.3750000000000000E-002   0.0000000000000000     
  0.37500000000000000       0.12500000000000000        0.0000000000000000     
  0.40625000000000000       0.12500000000000000        0.0000000000000000     
  0.43750000000000000       0.12500000000000000        0.0000000000000000     
  0.46875000000000000       0.12500000000000000        0.0000000000000000     
  0.50000000000000000       0.12500000000000000        0.0000000000000000     
  0.50000000000000000        0.0000000000000000        0.0000000000000000     
  0.53125000000000000        0.0000000000000000        0.0000000000000000     
  0.56250000000000000        0.0000000000000000        0.0000000000000000     
  0.59375000000000000        0.0000000000000000        0.0000000000000000     
  0.62500000000000000        0.0000000000000000        0.0000000000000000     
  0.50000000000000000        3.1250000000000000E-002   0.0000000000000000     
  0.53125000000000000        3.1250000000000000E-002   0.0000000000000000     
  0.56250000000000000        3.1250000000000000E-002   0.0000000000000000     
  0.59375000000000000        3.1250000000000000E-002   0.0000000000000000     
  0.62500000000000000        3.1250000000000000E-002   0.0000000000000000     
  0.50000000000000000        6.2500000000000000E-002   0.0000000000000000     
  0.53125000000000000        6.2500000000000000E-002   0.0000000000000000     
  0.56250000000000000        6.2500000000000000E-002   0.0000000000000000     
  0.59375000000000000        6.2500000000000000E-002   0.0000000000000000     
  0.62500000000000000        6.2500000000000000E-002   0.0000000000000000     
  0.50000000000000000        9.3750000000000000E-002   0.0000000000000000     
  0.53125000000000000        9.3750000000000000E-002   0.0000000000000000     
  0.56250000000000000        9.3750000000000000E-002   0.0000000000000000     
  0.59375000000000000        9.3750000000000000E-002   0.0000000000000000     
  0.62500000000000000        9.3750000000000000E-002   0.0000000000000000     
  0.50000000000000000       0.12500000000000000        0.0000000000000000     
  0.53125000000000000       0.12500000000000000        0.0000000000000000     
  0.56250000000000000       0.12500000000000000        0.0000000000000000     
  0.59375000000000000       0.12500000000000000        0.0000000000000000     
  0.62500000000000000       0.12500000000000000        0.0000000000000000     
  0.62500000000000000        0.0000000000000000        0.0000000000000000     
  0.65625000000000000        0.0000000000000000        0.0000000000000000     
  0.68750000000000000        0.0000000000000000        0.0000000000000000     
  0.71875000000000000        0.0000000000000000        0.0000000000000000     
  0.75000000000000000        0.0000000000000000        0.0000000000000000     
  0.62500000000000000        3.1250000000000000E-002   0.0000000000000000     
  0.65625000000000000        3.1250000000000000E-002   0.0000000000000000     
  0.68750000000000000        3.1250000000000000E-002   0.0000000000000000     
  0.71875000000000000        3.1250000000000000E-002   0.0000000000000000     
  0.75000000000000000        3.1250000000000000E-002   0.0000000000000000     
  0.62500000000000000        6.2500000000000000E-002   0.0000000000000000     
  0.65625000000000000        6.2500000000000000E-002   0.0000000000000000     
  0.68750000000000000        6.2500000000000000E-002   0.0000000000000000     
  0.71875000000000000        6.2500000000000000E-002   0.0000000000000000     
  0.75000000000000000        6.2500000000000000E-002   0.0000000000000000     
  0.62500000000000000        9.3750000000000000E-002   0.0000000000000000     
  0.65625000000000000        9.3750000000000000E-002   0.0000000000000000     
  0.68750000000000000        9.3750000000000000E-002   0.0000000000000000     
  0.71875000000000000        9.3750000000000000E-002   0.0000000000000000     
  0.75000000000000000        9.3750000000000000E-002   0.0000000000000000     
  0.62500000000000000       0.12500000000000000        0.0000000000000000     
  0.65625000000000000       0.12500000000000000        0.0000000000000000     
  0.68750000000000000       0.12500000000000000        0.0000000000000000     
  0.71875000000000000       0.12500000000000000        0.0000000000000000     
  0.75000000000000000       0.12500000000000000        0.0000000000000000     
  0.75000000000000000        0.0000000000000000        0.0000000000000000     
  0.78125000000000000        0.0000000000000000        0.0000000000000000     
  0.81250000000000000        0.0000000000000000        0.0000000000000000     
  0.84375000000000000        0.0000000000000000        0.0000000000000000     
  0.87500000000000000        0.0000000000000000        0.0000000000000000     
  0.75000000000000000        3.1250000000000000E-002   0.0000000000000000     
  0.78125000000000000        3.1250000000000000E-002   0.0000000000000000     
  0.81250000000000000        3.1250000000000000E-002   0.0000000000000000     
  0.84375000000000000        3.1250000000000000E-002   0.0000000000000000     
  0.87500000000000000        3.1250000000000000E-002   0.0000000000000000     
  0.75000000000000000        6.2500000000000000E-002   0.0000000000000000     
  0.78125000000000000        6.2500000000000000E-002   0.0000000000000000     
  0.81250000000000000        6.2500000000000000E-002   0.0000000000000000     
  0.84375000000000000        6.2500000000000000E-002   0.0000000000000000     
  0.87500000000000000        6.2500000000000000E-002   0.0000000000000000     
  0.75000000000000000        9.3750000000000000E-002   0.0000000000000000     
  0.78125000000000000        9.3750000000000000E-002   0.0000000000000000     
  0.81250000000000000        9.3750000000000000E-002   0.0000000000000000     
  0.84375000000000000        9.3750000000000000E-002   0.0000000000000000     
  0.87500000000000000        9.3750000000000000E-002   0.0000000000000000     
  0.75000000000000000       0.12500000000000000        0.0000000000000000     
  0.78125000000000000       0.12500000000000000        0.0000000000000000     
  0.81250000000000000       0.12500000000000000        0.0000000000000000     
  0.84375000000000000       0.12500000000000000        0.0000000000000000     
  0.87500000000000000       0.12500000000000000        0.0000000000000000     
  0.87500000000000000        0.0000000000000000        0.0000000000000000     
  0.90625000000000000        0.0000000000000000        0.0000000000000000     
  0.93750000000000000        0.0000000000000000        0.0000000000000000     
  0.96875000000000000        0.0000000000000000        0.0000000000000000     
   1.0000000000000000        0.0000000000000000        0.0000000000000000     
  0.87500000000000000        3.1250000000000000E-002   0.0000000000000000     
  0.90625000000000000        3.1250000000000000E-002   0.0000000000000000     
  0.93750000000000000        3.1250000000000000E-002   0.0000000000000000     
  0.96875000000000000        3.1250000000000000E-002   0.0000000000000000     
   1.0000000000000000        3.1250000000000000E-002   0.0000000000000000     
  0.87500000000000000        6.2500000000000000E-002   0.0000000000000000     
  0.90625000000000000        6.2500000000000000E-002   0.0000000000000000     
  0.93750000000000000        6.2500000000000000E-002   0.0000000000000000     
  0.96875000000000000        6.2500000000000000E-002   0.0000000000000000     
   1.0000000000000000        6.2500000000000000E-002   0.0000000000000000     
  0.87500000000000000        9.3750000000000000E-002   0.0000000000000000     
  0.90625000000000000        9.3750000000000000E-002   0.0000000000000000     
  0.93750000000000000        9.3750000000000000E-002   0.0000000000000000     
  0.96875000000000000        9.3750000000000000E-002   0.0000000000000000     
   1.0000000000000000        9.3750000000000000E-002   0.0000000000000000     
  0.87500000000000000       0.12500000000000000        0.0000000000000000     
  0.90625000000000000       0.12500000000000000        0.0000000000000000     
  0.93750000000000000       0.12500000000000000        0.0000000000000000     
  0.96875000000000000       0.12500000000000000        0.0000000000000000     
   1.0000000000000000       0.12500000000000000        0.0000000000000000     
   0.0000000000000000       0.12500000000000000        0.0000000000000000     
   3.1250000000000000E-002  0.12500000000000000        0.0000000000000000     
   6.2500000000000000E-002  0.12500000000000000        0.0000000000000000     
   9.3750000000000000E-002  0.12500000000000000        0.0000000000000000     
  0.12500000000000000       0.12500000000000000        0.0000000000000000     
   0.0000000000000000       0.15625000000000000        0.0000000000000000     
   3.1250000000000000E-002  0.15625000000000000        0.0000000000000000     
   6.2500000000000000E-002  0.15625000000000000        0.0000000000000000     
   9.3750000000000000E-002  0.15625000000000000        0.0000000000000000     
  0.12500000000000000       0.15625000000000000        0.0000000000000000     
   0.0000000000000000       0.18750000000000000        0.0000000000000000     
   3.1250000000000000E-002  0.18750000000000000        0.0000000000000000     
   6.2500000000000000E-002  0.18750000000000000        0.0000000000000000     
   9.3750000000000000E-002  0.18750000000000000        0.0000000000000000     
  0.12500000000000000       0.18750000000000000        0.0000000000000000     
   0.0000000000000000       0.21875000000000000        0.0000000000000000     
   3.1250000000000000E-002  0.21875000000000000        0.0000000000000000     
   6.2500000000000000E-002  0.21875000000000000        0.0000000000000000     
   9.3750000000000000E-002  0.21875000000000000        0.0000000000000000     
  0.12500000000000000       0.21875000000000000        0.0000000000000000     
   0.0000000000000000       0.25000000000000000        0.0000000000000000     
   3.1250000000000000E-002  0.25000000000000000        0.0000000000000000     
   6.2500000000000000E-002  0.25000000000000000        0.0000000000000000     
   9.3750000000000000E-002  0.25000000000000000        0.0000000000000000     
  0.12500000000000000       0.25000000000000000        0.0000000000000000     
  0.12500000000000000       0.12500000000000000        0.0000000000000000     
  0.15625000000000000       0.12500000000000000        0.0000000000000000     
  0.18750000000000000       0.12500000000000000        0.0000000000000000     
  0.21875000000000000       0.12500000000000000        0.0000000000000000     
  0.25000000000000000       0.12500000000000000        0.0000000000000000     
  0.12500000000000000       0.15625000000000000        0.0000000000000000     
  0.15625000000000000       0.15625000000000000        0.0000000000000000     
  0.18750000000000000       0.15625000000000000        0.0000000000000000     
  0.21875000000000000       0.15625000000000000        0.0000000000000000     
  0.25000000000000000       0.15625000000000000        0.0000000000000000     
  0.12500000000000000       0.18750000000000000        0.0000000000000000     
  0.15625000000000000       0.18750000000000000        0.0000000000000000     
  0.18750000000000000       0.18750000000000000        0.0000000000000000     
  0.21875000000000000       0.18750000000000000        0.0000000000000000     
  0.25000000000000000       0.18750000000000000        0.0000000000000000     
  0.12500000000000000       0.21875000000000000        0.0000000000000000     
  0.15625000000000000       0.21875000000000000        0.0000000000000000     
  0.18750000000000000       0.21875000000000000        0.0000000000000000     
  0.21875000000000000       0.21875000000000000        0.0000000000000000     
  0.25000000000000000       0.21875000000000000        0.0000000000000000     
  0.12500000000000000       0.25000000000000000        0.0000000000000000     
  0.15625000000000000       0.25000000000000000        0.0000000000000000     
  0.18750000000000000       0.25000000000000000        0.0000000000000000     
  0.21875000000000000       0.25000000000000000        0.0000000000000000     
  0.25000000000000000       0.25000000000000000        0.0000000000000000     
  0.25000000000000000       0.12500000000000000        0.0000000000000000     
  0.28125000000000000       0.12500000000000000        0.0000000000000000     
  0.31250000000000000       0.12500000000000000        0.0000000000000000     
  0.34375000000000000       0.12500000000000000        0.0000000000000000     
  0.37500000000000000       0.12500000000000000        0.0000000000000000     
  0.25000000000000000       0.15625000000000000        0.0000000000000000     
  0.28125000000000000       0.15625000000000000        0.0000000000000000     
  0.31250000000000000       0.15625000000000000        0.0000000000000000     
  0.34375000000000000       0.15625000000000000        0.0000000000000000     
  0.37500000000000000       0.15625000000000000        0.0000000000000000     
  0.25000000000000000       0.18750000000000000        0.0000000000000000     
  0.28125000000000000       0.18750000000000000        0.0000000000000000     
  0.31250000000000000       0.18750000000000000        0.0000000000000000     
  0.34375000000000000       0.18750000000000000        0.0000000000000000     
  0.37500000000000000       0.18750000000000000        0.0000000000000000     
  0.25000000000000000       0.21875000000000000        0.0000000000000000     
  0.28125000000000000       0.21875000000000000        0.0000000000000000     
  0.31250000000000000       0.21875000000000000        0.0000000000000000     
  0.34375000000000000       0.21875000000000000        0.0000000000000000     
  0.37500000000000000       0.21875000000000000        0.0000000000000000     
  0.25000000000000000       0.25000000000000000        0.0000000000000000     
  0.28125000000000000       0.25000000000000000        0.0000000000000000     
  0.31250000000000000       0.25000000000000000        0.0000000000000000     
  0.34375000000000000       0.25000000000000000        0.0000000000000000     
  0.37500000000000000       0.25000000000000000        0.0000000000000000     
  0.37500000000000000       0.12500000000000000        0.0000000000000000     
  0.40625000000000000       0.12500000000000000        0.0000000000000000     
  0.43750000000000000       0.12500000000000000        0.0000000000000000     
  0.46875000000000000       0.12500000000000000        0.0000000000000000     
  0.50000000000000000       0.12500000000000000        0.0000000000000000     
  0.37500000000000000       0.15625000000000000        0.0000000000000000     
  0.40625000000000000       0.15625000000000000        0.0000000000000000     
  0.43750000000000000       0.15625000000000000        0.0000000000000000     
  0.46875000000000000       0.15625000000000000        0.0000000000000000     
  0.50000000000000000       0.15625000000000000        0.0000000000000000     
  0.37500000000000000       0.18750000000000000        0.0000000000000000     
  0.40625000000000000       0.18750000000000000        0.0000000000000000     
  0.43750000000000000       0.18750000000000000        0.0000000000000000     
  0.46875000000000000       0.18750000000000000        0.0000000000000000     
  0.50000000000000000       0.18750000000000000        0.0000000000000000     
  0.37500000000000000       0.21875000000000000        0.0000000000000000     
  0.40625000000000000       0.21875000000000000        0.0000000000000000     
  0.43750000000000000       0.21875000000000000        0.0000000000000000     
  0.46875000000000000       0.21875000000000000        0.0000000000000000     
  0.50000000000000000       0.21875000000000000        0.0000000000000000     
  0.37500000000000000       0.25000000000000000        0.0000000000000000     
  0.40625000000000000       0.25000000000000000        0.0000000000000000     
  0.43750000000000000       0.25000000000000000        0.0000000000000000     
  0.46875000000000000       0.25000000000000000        0.0000000000000000     
  0.50000000000000000       0.25000000000000000        0.0000000000000000     
  0.50000000000000000       0.12500000000000000        0.0000000000000000     
  0.53125000000000000       0.12500000000000000        0.0000000000000000     
  0.56250000000000000       0.12500000000000000        0.0000000000000000     
  0.59375000000000000       0.12500000000000000        0.0000000000000000     
  0.62500000000000000       0.12500000000000000        0.0000000000000000     
  0.50000000000000000       0.15625000000000000        0.0000000000000000     
  0.53125000000000000       0.15625000000000000        0.0000000000000000     
  0.56250000000000000       0.15625000000000000        0.0000000000000000     
  0.59375000000000000       0.15625000000000000        0.0000000000000000     
  0.62500000000000000       0.15625000000000000        0.0000000000000000     
  0.50000000000000000       0.18750000000000000        0.0000000000000000     
  0.53125000000000000       0.18750000000000000        0.0000000000000000     
  0.56250000000000000       0.18750000000000000        0.0000000000000000     
  0.59375000000000000       0.18750000000000000        0.0000000000000000     
  0.62500000000000000       0.18750000000000000        0.0000000000000000     
  0.50000000000000000       0.21875000000000000        0.0000000000000000     
  0.53125000000000000       0.21875000000000000        0.0000000000000000     
  0.56250000000000000       0.21875000000000000        0.0000000000000000     
  0.59375000000000000       0.21875000000000000        0.0000000000000000     
  0.62500000000000000       0.21875000000000000        0.0000000000000000     
  0.50000000000000000       0.25000000000000000        0.0000000000000000     
  0.53125000000000000       0.25000000000000000        0.0000000000000000     
  0.56250000000000000       0.25000000000000000        0.0000000000000000     
  0.59375000000000000       0.25000000000000000        0.0000000000000000     
  0.62500000000000000       0.25000000000000000        0.0000000000000000     
  0.62500000000000000       0.12500000000000000        0.0000000000000000     
  0.65625000000000000       0.12500000000000000        0.0000000000000000     
  0.68750000000000000       0.12500000000000000        0.0000000000000000     
  0.71875000000000000       0.12500000000000000        0.0000000000000000     
  0.75000000000000000       0.12500000000000000        0.0000000000000000     
  0.62500000000000000       0.15625000000000000        0.0000000000000000     
  0.65625000000000000       0.15625000000000000        0.0000000000000000     
  0.68750000000000000       0.15625000000000000        0.0000000000000000     
  0.71875000000000000       0.15625000000000000        0.0000000000000000     
  0.75000000000000000       0.15625000000000000        0.0000000000000000     
  0.62500000000000000       0.18750000000000000        0.0000000000000000     
  0.65625000000000000       0.18750000000000000        0.0000000000000000     
  0.68750000000000000       0.18750000000000000        0.0000000000000000     
  0.71875000000000000       0.18750000000000000        0.0000000000000000     
  0.75000000000000000       0.18750000000000000        0.0000000000000000     
  0.62500000000000000       0.21875000000000000        0.0000000000000000     
  0.65625000000000000       0.21875000000000000        0.0000000000000000     
  0.68750000000000000       0.21875000000000000        0.0000000000000000     
  0.71875000000000000       0.21875000000000000        0.0000000000000000     
  0.75000000000000000       0.21875000000000000        0.0000000000000000     
  0.62500000000000000       0.25000000000000000        0.0000000000000000     
  0.65625000000000000       0.25000000000000000        0.0000000000000000     
  0.68750000000000000       0.25000000000000000        0.0000000000000000     
  0.71875000000000000       0.25000000000000000        0.0000000000000000     
  0.75000000000000000       0.25000000000000000        0.0000000000000000     
  0.75000000000000000       0.12500000000000000        0.0000000000000000     
  0.78125000000000000       0.12500000000000000        0.0000000000000000     
  0.81250000000000000       0.12500000000000000        0.0000000000000000     
  0.84375000000000000       0.12500000000000000        0.0000000000000000     
  0.87500000000000000       0.12500000000000000        0.0000000000000000     
  0.75000000000000000       0.15625000000000000        0.0000000000000000     
  0.78125000000000000       0.15625000000000000        0.0000000000000000     
  0.81250000000000000       0.15625000000000000        0.0000000000000000     
  0.84375000000000000       0.15625000000000000        0.0000000000000000     
  0.87500000000000000       0.15625000000000000        0.0000000000000000     
  0.75000000000000000       0.18750000000000000        0.0000000000000000     
  0.78125000000000000       0.18750000000000000        0.0000000000000000     
  0.81250000000000000       0.18750000000000000        0.0000000000000000     
  0.84375000000000000       0.18750000000000000        0.0000000000000000     
  0.87500000000000000       0.18750000000000000        0.0000000000000000     
  0.75000000000000000       0.21875000000000000        0.0000000000000000     
  0.78125000000000000       0.21875000000000000        0.0000000000000000     
  0.81250000000000000       0.21875000000000000        0.0000000000000000     
  0.84375000000000000       0.21875000000000000        0.0000000000000000     
  0.87500000000000000       0.21875000000000000        0.0000000000000000     
  0.75000000000000000       0.25000000000000000        0.0000000000000000     
  0.78125000000000000       0.25000000000000000        0.0000000000000000     
  0.81250000000000000       0.25000000000000000        0.0000000000000000     
  0.84375000000000000       0.25000000000000000        0.0000000000000000     
  0.87500000000000000       0.25000000000000000        0.0000000000000000     
  0.87500000000000000       0.12500000000000000        0.0000000000000000     
  0.90625000000000000       0.12500000000000000        0.0000000000000000     
  0.93750000000000000       0.12500000000000000        0.0000000000000000     
  0.96875000000000000       0.12500000000000000        0.0000000000000000     
   1.0000000000000000       0.12500000000000000        0.0000000000000000     
  0.87500000000000000       0.15625000000000000        0.0000000000000000     
  0.90625000000000000       0.15625000000000000        0.0000000000000000     
  0.93750000000000000       0.15625000000000000        0.0000000000000000     
  0.96875000000000000       0.15625000000000000        0.0000000000000000     
   1.0000000000000000       0.15625000000000000        0.0000000000000000     
  0.87500000000000000       0.18750000000000000        0.0000000000000000     
  0.90625000000000000       0.18750000000000000        0.0000000000000000     
  0.93750000000000000       0.18750000000000000        0.0000000000000000     
  0.96875000000000000       0.18750000000000000        0.0000000000000000     
   1.0000000000000000       0.18750000000000000        0.0000000000000000     
  0.87500000000000000       0.21875000000000000        0.0000000000000000     
  0.90625000000000000       0.21875000000000000        0.0000000000000000     
  0.93750000000000000       0.21875000000000000        0.0000000000000000     
  0.96875000000000000       0.21875000000000000        0.0000000000000000     
   1.0000000000000000       0.21875000000000000        0.0000000000000000     
  0.87500000000000000       0.25000000000000000        0.0000000000000000     
  0.90625000000000000       0.25000000000000000        0.0000000000000000     
  0.93750000000000000       0.25000000000000000        0.0000000000000000     
  0.96875000000000000       0.25000000000000000        0.0000000000000000     
   1.0000000000000000       0.25000000000000000        0.0000000000000000     
   0.0000000000000000       0.25000000000000000        0.0000000000000000     
   3.1250000000000000E-002  0.25000000000000000        0.0000000000000000     
   6.2500000000000000E-002  0.25000000000000000        0.0000000000000000     
   9.3750000000000000E-002  0.25000000000000000        0.0000000000000000     
  0.12500000000000000       0.25000000000000000        0.0000000000000000     
   0.0000000000000000       0.28125000000000000        0.0000000000000000     
   3.1250000000000000E-002  0.28125000000000000        0.0000000000000000     
   6.2500000000000000E-002  0.28125000000000000        0.0000000000000000     
   9.3750000000000000E-002  0.28125000000000000        0.0000000000000000     
  0.12500000000000000       0.28125000000000000        0.0000000000000000     
   0.0000000000000000       0.31250000000000000        0.0000000000000000     
   3.1250000000000000E-002  0.31250000000000000        0.0000000000000000     
   6.2500000000000000E-002  0.31250000000000000        0.0000000000000000     
   9.3750000000000000E-002  0.31250000000000000        0.0000000000000000     
  0.12500000000000000       0.31250000000000000        0.0000000000000000     
   0.0000000000000000       0.34375000000000000        0.0000000000000000     
   3.1250000000000000E-002  0.34375000000000000        0.0000000000000000     
   6.2500000000000000E-002  0.34375000000000000        0.0000000000000000     
   9.3750000000000000E-002  0.34375000000000000        0.0000000000000000     
  0.12500000000000000       0.34375000000000000        0.0000000000000000     
   0.0000000000000000       0.37500000000000000        0.0000000000000000     
   3.1250000000000000E-002  0.37500000000000000        0.0000000000000000     
   6.2500000000000000E-002  0.37500000000000000        0.0000000000000000     
   9.3750000000000000E-002  0.37500000000000000        0.0000000000000000     
  0.12500000000000000       0.37500000000000000        0.0000000000000000     
  0.12500000000000000       0.25000000000000000        0.0000000000000000     
  0.15625000000000000       0.25000000000000000        0.0000000000000000     
  0.18750000000000000       0.25000000000000000        0.0000000000000000     
  0.21875000000000000       0.25000000000000000        0.0000000000000000     
  0.25000000000000000       0.25000000000000000        0.0000000000000000     
  0.12500000000000000       0.28125000000000000        0.0000000000000000     
  0.15625000000000000       0.28125000000000000        0.0000000000000000     
  0.18750000000000000       0.28125000000000000        0.0000000000000000     
  0.21875000000000000       0.28125000000000000        0.0000000000000000     
  0.25000000000000000       0.28125000000000000        0.0000000000000000     
  0.12500000000000000       0.31250000000000000        0.0000000000000000     
  0.15625000000000000       0.31250000000000000        0.0000000000000000     
  0.18750000000000000       0.31250000000000000        0.0000000000000000     
  0.21875000000000000       0.31250000000000000        0.0000000000000000     
  0.25000000000000000       0.31250000000000000        0.0000000000000000     
  0.12500000000000000       0.34375000000000000        0.0000000000000000     
  0.15625000000000000       0.34375000000000000        0.0000000000000000     
  0.18750000000000000       0.34375000000000000        0.0000000000000000     
  0.21875000000000000       0.34375000000000000        0.0000000000000000     
  0.25000000000000000       0.34375000000000000        0.0000000000000000     
  0.12500000000000000       0.37500000000000000        0.0000000000000000     
  0.15625000000000000       0.37500000000000000        0.0000000000000000     
  0.18750000000000000       0.37500000000000000        0.0000000000000000     
  0.21875000000000000       0.37500000000000000        0.0000000000000000     
  0.25000000000000000       0.37500000000000000        0.0000000000000000     
  0.25000000000000000       0.25000000000000000        0.0000000000000000     
  0.28125000000000000       0.25000000000000000        0.0000000000000000     
  0.31250000000000000       0.25000000000000000        0.0000000000000000     
  0.34375000000000000       0.25000000000000000        0.0000000000000000     
  0.37500000000000000       0.25000000000000000        0.0000000000000000     
  0.25000000000000000       0.28125000000000000        0.0000000000000000     
  0.28125000000000000       0.28125000000000000        0.0000000000000000     
  0.31250000000000000       0.28125000000000000        0.0000000000000000     
  0.34375000000000000       0.28125000000000000        0.0000000000000000     
  0.37500000000000000       0.28125000000000000        0.0000000000000000     
  0.25000000000000000       0.31250000000000000        0.0000000000000000     
  0.28125000000000000       0.31250000000000000        0.0000000000000000     
  0.31250000000000000       0.31250000000000000        0.0000000000000000     
  0.34375000000000000       0.31250000000000000        0.0000000000000000     
  0.37500000000000000       0.31250000000000000        0.0000000000000000     
  0.25000000000000000       0.34375000000000000        0.0000000000000000     
  0.28125000000000000       0.34375000000000000        0.0000000000000000     
  0.31250000000000000       0.34375000000000000        0.0000000000000000     
  0.34375000000000000       0.34375000000000000        0.0000000000000000     
  0.37500000000000000       0.34375000000000000        0.0000000000000000     
  0.25000000000000000       0.37500000000000000        0.0000000000000000     
  0.28125000000000000       0.37500000000000000        0.0000000000000000     
  0.31250000000000000       0.37500000000000000        0.0000000000000000     
  0.34375000000000000       0.37500000000000000        0.0000000000000000     
  0.37500000000000000       0.37500000000000000        0.0000000000000000     
  0.37500000000000000       0.25000000000000000        0.0000000000000000     
  0.40625000000000000       0.25000000000000000        0.0000000000000000     
  0.43750000000000000       0.25000000000000000        0.0000000000000000     
  0.46875000000000000       0.25000000000000000        0.0000000000000000     
  0.50000000000000000       0.25000000000000000        0.0000000000000000     
  0.37500000000000000       0.28125000000000000        0.0000000000000000     
  0.40625000000000000       0.28125000000000000        0.0000000000000000     
  0.43750000000000000       0.28125000000000000        0.0000000000000000     
  0.46875000000000000       0.28125000000000000        0.0000000000000000     
  0.50000000000000000       0.28125000000000000        0.0000000000000000     
  0.37500000000000000       0.31250000000000000        0.0000000000000000     
  0.40625000000000000       0.31250000000000000        0.0000000000000000     
  0.43750000000000000       0.31250000000000000        0.0000000000000000     
  0.46875000000000000       0.31250000000000000        0.0000000000000000     
  0.50000000000000000       0.31250000000000000        0.0000000000000000     
  0.37500000000000000       0.34375000000000000        0.0000000000000000     
  0.40625000000000000       0.34375000000000000        0.0000000000000000     
  0.43750000000000000       0.34375000000000000        0.0000000000000000     
  0.46875000000000000       0.34375000000000000        0.0000000000000000     
  0.50000000000000000       0.34375000000000000        0.0000000000000000     
  0.37500000000000000       0.37500000000000000        0.0000000000000000     
  0.40625000000000000       0.37500000000000000        0.0000000000000000     
  0.43750000000000000       0.37500000000000000        0.0000000000000000     
  0.46875000000000000       0.37500000000000000        0.0000000000000000     
  0.50000000000000000       0.37500000000000000        0.0000000000000000     
  0.50000000000000000       0.25000000000000000        0.0000000000000000     
  0.53125000000000000       0.25000000000000000        0.0000000000000000     
  0.56250000000000000       0.25000000000000000        0.0000000000000000     
  0.59375000000000000       0.25000000000000000        0.0000000000000000     
  0.62500000000000000       0.25000000000000000        0.0000000000000000     
  0.50000000000000000       0.28125000000000000        0.0000000000000000     
  0.53125000000000000       0.28125000000000000        0.0000000000000000     
  0.56250000000000000       0.28125000000000000        0.0000000000000000     
  0.59375000000000000       0.28125000000000000        0.0000000000000000     
  0.62500000000000000       0.28125000000000000        0.0000000000000000     
  0.50000000000000000       0.31250000000000000        0.0000000000000000     
  0.53125000000000000       0.31250000000000000        0.0000000000000000     
  0.56250000000000000       0.31250000000000000        0.0000000000000000     
  0.59375000000000000       0.31250000000000000        0.0000000000000000     
  0.62500000000000000       0.31250000000000000        0.0000000000000000     
  0.50000000000000000       0.34375000000000000        0.0000000000000000     
  0.53125000000000000       0.34375000000000000        0.0000000000000000     
  0.56250000000000000       0.34375000000000000        0.0000000000000000     
  0.59375000000000000       0.34375000000000000        0.0000000000000000     
  0.62500000000000000       0.34375000000000000        0.0000000000000000     
  0.50000000000000000       0.37500000000000000        0.0000000000000000     
  0.53125000000000000       0.37500000000000000        0.0000000000000000     
  0.56250000000000000       0.37500000000000000        0.0000000000000000     
  0.59375000000000000       0.37500000000000000        0.0000000000000000     
  0.62500000000000000       0.37500000000000000        0.0000000000000000     
  0.62500000000000000       0.25000000000000000        0.0000000000000000     
  0.65625000000000000       0.25000000000000000        0.0000000000000000     
  0.68750000000000000       0.25000000000000000        0.0000000000000000     
  0.71875000000000000       0.25000000000000000        0.0000000000000000     
  0.75000000000000000       0.25000000000000000        0.0000000000000000     
  0.62500000000000000       0.28125000000000000        0.0000000000000000     
  0.65625000000000000       0.28125000000000000        0.0000000000000000     
  0.68750000000000000       0.28125000000000000        0.0000000000000000     
  0.71875000000000000       0.28125000000000000        0.0000000000000000     
  0.75000000000000000       0.28125000000000000        0.0000000000000000     
  0.62500000000000000       0.31250000000000000        0.0000000000000000     
  0.65625000000000000       0.31250000000000000        0.0000000000000000     
  0.68750000000000000       0.31250000000000000        0.0000000000000000     
  0.71875000000000000       0.31250000000000000        0.0000000000000000     
  0.75000000000000000       0.31250000000000000        0.0000000000000000     
  0.62500000000000000       0.34375000000000000        0.0000000000000000     
  0.65625000000000000       0.34375000000000000        0.0000000000000000     
  0.68750000000000000       0.34375000000000000        0.0000000000000000     
  0.71875000000000000       0.34375000000000000        0.0000000000000000     
  0.75000000000000000       0.34375000000000000        0.0000000000000000     
  0.62500000000000000       0.37500000000000000        0.0000000000000000     
  0.65625000000000000       0.37500000000000000        0.0000000000000000     
  0.68750000000000000       0.37500000000000000        0.0000000000000000     
  0.71875000000000000       0.37500000000000000        0.0000000000000000     
  0.75000000000000000       0.37500000000000000        0.0000000000000000     
  0.75000000000000000       0.25000000000000000        0.0000000000000000     
  0.78125000000000000       0.25000000000000000        0.0000000000000000     
  0.81250000000000000       0.25000000000000000        0.0000000000000000     
  0.84375000000000000       0.25000000000000000        0.0000000000000000     
  0.87500000000000000       0.25000000000000000        0.0000000000000000     
  0.75000000000000000       0.28125000000000000        0.0000000000000000     
  0.78125000000000000       0.28125000000000000        0.0000000000000000     
  0.81250000000000000       0.28125000000000000        0.0000000000000000     
  0.84375000000000000       0.28125000000000000        0.0000000000000000     
  0.87500000000000000       0.28125000000000000        0.0000000000000000     
  0.75000000000000000       0.31250000000000000        0.0000000000000000     
  0.78125000000000000       0.31250000000000000        0.0000000000000000     
  0.81250000000000000       0.31250000000000000        0.0000000000000000     
  0.84375000000000000       0.31250000000000000        0.0000000000000000     
  0.87500000000000000       0.31250000000000000        0.0000000000000000     
  0.75000000000000000       0.34375000000000000        0.0000000000000000     
  0.78125000000000000       0.34375000000000000        0.0000000000000000     
  0.81250000000000000       0.34375000000000000        0.0000000000000000     
  0.84375000000000000       0.34375000000000000        0.0000000000000000     
  0.87500000000000000       0.34375000000000000        0.0000000000000000     
  0.75000000000000000       0.37500000000000000        0.0000000000000000     
  0.78125000000000000       0.37500000000000000        0.0000000000000000     
  0.81250000000000000       0.37500000000000000        0.0000000000000000     
  0.84375000000000000       0.37500000000000000        0.0000000000000000     
  0.87500000000000000       0.37500000000000000        0.0000000000000000     
  0.87500000000000000       0.25000000000000000        0.0000000000000000     
  0.90625000000000000       0.25000000000000000        0.0000000000000000     
  0.93750000000000000       0.25000000000000000        0.0000000000000000     
  0.96875000000000000       0.25000000000000000        0.0000000000000000     
   1.0000000000000000       0.25000000000000000        0.0000000000000000     
  0.87500000000000000       0.28125000000000000        0.0000000000000000     
  0.90625000000000000       0.28125000000000000        0.0000000000000000     
  0.93750000000000000       0.28125000000000000        0.0000000000000000     
  0.96875000000000000       0.28125000000000000        0.0000000000000000     
   1.0000000000000000       0.28125000000000000        0.0000000000000000     
  0.87500000000000000       0.31250000000000000        0.0000000000000000     
  0.90625000000000000       0.31250000000000000        0.0000000000000000     
  0.93750000000000000       0.31250000000000000        0.0000000000000000     
  0.96875000000000000       0.31250000000000000        0.0000000000000000     
   1.0000000000000000       0.31250000000000000        0.0000000000000000     
  0.87500000000000000       0.34375000000000000        0.0000000000000000     
  0.90625000000000000       0.34375000000000000        0.0000000000000000     
  0.93750000000000000       0.34375000000000000        0.0000000000000000     
  0.96875000000000000       0.34375000000000000        0.0000000000000000     
   1.0000000000000000       0.34375000000000000        0.0000000000000000     
  0.87500000000000000       0.37500000000000000        0.0000000000000000     
  0.90625000000000000       0.37500000000000000        0.0000000000000000     
  0.93750000000000000       0.37500000000000000        0.0000000000000000     
  0.96875000000000000       0.37500000000000000        0.0000000000000000     
   1.0000000000000000       0.37500000000000000        0.0000000000000000     
   0.0000000000000000       0.37500000000000000        0.0000000000000000     
   3.1250000000000000E-002  0.37500000000000000        0.0000000000000000     
   6.2500000000000000E-002  0.37500000000000000        0.0000000000000000     
   9.3750000000000000E-002  0.37500000000000000        0.0000000000000000     
  0.12500000000000000       0.37500000000000000        0.0000000000000000     
   0.0000000000000000       0.40625000000000000        0.0000000000000000     
   3.1250000000000000E-002  0.40625000000000000        0.0000000000000000     
   6.2500000000000000E-002  0.40625000000000000        0.0000000000000000     
   9.3750000000000000E-002  0.40625000000000000        0.0000000000000000     
  0.12500000000000000       0.40625000000000000        0.0000000000000000     
   0.0000000000000000       0.43750000000000000        0.0000000000000000     
   3.1250000000000000E-002  0.43750000000000000        0.0000000000000000     
   6.2500000000000000E-002  0.43750000000000000        0.0000000000000000     
   9.3750000000000000E-002  0.43750000000000000        0.0000000000000000     
  0.12500000000000000       0.43750000000000000        0.0000000000000000     
   0.0000000000000000       0.46875000000000000        0.0000000000000000     
   3.1250000000000000E-002  0.46875000000000000        0.0000000000000000     
   6.2500000000000000E-002  0.46875000000000000        0.0000000000000000     
   9.3750000000000000E-002  0.46875000000000000        0.0000000000000000     
  0.12500000000000000       0.46875000000000000        0.0000000000000000     
   0.0000000000000000       0.50000000000000000        0.0000000000000000     
   3.1250000000000000E-002  0.50000000000000000        0.0000000000000000     
   6.2500000000000000E-002  0.50000000000000000        0.0000000000000000     
   9.3750000000000000E-002  0.50000000000000000        0.0000000000000000     
  0.12500000000000000       0.50000000000000000        0.0000000000000000     
  0.12500000000000000       0.37500000000000000        0.0000000000000000     
  0.15625000000000000       0.37500000000000000        0.0000000000000000     
  0.18750000000000000       0.37500000000000000        0.0000000000000000     
  0.21875000000000000       0.37500000000000000        0.0000000000000000     
  0.25000000000000000       0.37500000000000000        0.0000000000000000     
  0.12500000000000000       0.40625000000000000        0.0000000000000000     
  0.15625000000000000       0.40625000000000000        0.0000000000000000     
  0.18750000000000000       0.40625000000000000        0.0000000000000000     
  0.21875000000000000       0.40625000000000000        0.0000000000000000     
  0.25000000000000000       0.40625000000000000        0.0000000000000000     
  0.12500000000000000       0.43750000000000000        0.0000000000000000     
  0.15625000000000000       0.43750000000000000        0.0000000000000000     
  0.18750000000000000       0.43750000000000000        0.0000000000000000     
  0.21875000000000000       0.43750000000000000        0.0000000000000000     
  0.25000000000000000       0.43750000000000000        0.0000000000000000     
  0.12500000000000000       0.46875000000000000        0.0000000000000000     
  0.15625000000000000       0.46875000000000000        0.0000000000000000     
  0.18750000000000000       0.46875000000000000        0.0000000000000000     
  0.21875000000000000       0.46875000000000000        0.0000000000000000     
  0.25000000000000000       0.46875000000000000        0.0000000000000000     
  0.12500000000000000       0.50000000000000000        0.0000000000000000     
  0.15625000000000000       0.50000000000000000        0.0000000000000000     
  0.18750000000000000       0.50000000000000000        0.0000000000000000     
  0.21875000000000000       0.50000000000000000        0.0000000000000000     
  0.25000000000000000       0.50000000000000000        0.0000000000000000     
  0.25000000000000000       0.37500000000000000        0.0000000000000000     
  0.28125000000000000       0.37500000000000000        0.0000000000000000     
  0.31250000000000000       0.37500000000000000        0.0000000000000000     
  0.34375000000000000       0.37500000000000000        0.0000000000000000     
  0.37500000000000000       0.37500000000000000        0.0000000000000000     
  0.25000000000000000       0.40625000000000000        0.0000000000000000     
  0.28125000000000000       0.40625000000000000        0.0000000000000000     
  0.31250000000000000       0.40625000000000000        0.0000000000000000     
  0.34375000000000000       0.40625000000000000        0.0000000000000000     
  0.37500000000000000       0.40625000000000000        0.0000000000000000     
  0.25000000000000000       0.43750000000000000        0.0000000000000000     
  0.28125000000000000       0.43750000000000000        0.0000000000000000     
  0.31250000000000000       0.43750000000000000        0.0000000000000000     
  0.34375000000000000       0.43750000000000000        0.0000000000000000     
  0.37500000000000000       0.43750000000000000        0.0000000000000000     
  0.25000000000000000       0.46875000000000000        0.0000000000000000     
  0.28125000000000000       0.46875000000000000        0.0000000000000000     
  0.31250000000000000       0.46875000000000000        0.0000000000000000     
  0.34375000000000000       0.46875000000000000        0.0000000000000000     
  0.37500000000000000       0.46875000000000000        0.0000000000000000     
  0.25000000000000000       0.50000000000000000        0.0000000000000000     
  0.28125000000000000       0.50000000000000000        0.0000000000000000     
  0.31250000000000000       0.50000000000000000        0.0000000000000000     
  0.34375000000000000       0.50000000000000000        0.0000000000000000     
  0.37500000000000000       0.50000000000000000        0.0000000000000000     
  0.37500000000000000       0.37500000000000000        0.0000000000000000     
  0.40625000000000000       0.37500000000000000        0.0000000000000000     
  0.43750000000000000       0.37500000000000000        0.0000000000000000     
  0.46875000000000000       0.37500000000000000        0.0000000000000000     
  0.50000000000000000       0.37500000000000000        0.0000000000000000     
  0.37500000000000000       0.40625000000000000        0.0000000000000000     
  0.40625000000000000       0.40625000000000000        0.0000000000000000     
  0.43750000000000000       0.40625000000000000        0.0000000000000000     
  0.46875000000000000       0.40625000000000000        0.0000000000000000     
  0.50000000000000000       0.40625000000000000        0.0000000000000000     
  0.37500000000000000       0.43750000000000000        0.0000000000000000     
  0.40625000000000000       0.43750000000000000        0.0000000000000000     
  0.43750000000000000       0.43750000000000000        0.0000000000000000     
  0.46875000000000000       0.43750000000000000        0.0000000000000000     
  0.50000000000000000       0.43750000000000000        0.0000000000000000     
  0.37500000000000000       0.46875000000000000        0.0000000000000000     
  0.40625000000000000       0.46875000000000000        0.0000000000000000     
  0.43750000000000000       0.46875000000000000        0.0000000000000000     
  0.46875000000000000       0.46875000000000000        0.0000000000000000     
  0.50000000000000000       0.46875000000000000        0.0000000000000000     
  0.37500000000000000       0.50000000000000000        0.0000000000000000     
  0.40625000000000000       0.50000000000000000        0.0000000000000000     
  0.43750000000000000       0.50000000000000000        0.0000000000000000     
  0.46875000000000000       0.50000000000000000        0.0000000000000000     
  0.50000000000000000       0.50000000000000000        0.0000000000000000     
  0.50000000000000000       0.37500000000000000        0.0000000000000000     
  0.53125000000000000       0.37500000000000000        0.0000000000000000     
  0.56250000000000000       0.37500000000000000        0.0000000000000000     
  0.59375000000000000       0.37500000000000000        0.0000000000000000     
  0.62500000000000000       0.37500000000000000        0.0000000000000000     
  0.50000000000000000       0.40625000000000000        0.0000000000000000     
  0.53125000000000000       0.40625000000000000        0.0000000000000000     
  0.56250000000000000       0.40625000000000000        0.0000000000000000     
  0.59375000000000000       0.40625000000000000        0.0000000000000000     
  0.62500000000000000       0.40625000000000000        0.0000000000000000     
  0.50000000000000000       0.43750000000000000        0.0000000000000000     
  0.53125000000000000       0.43750000000000000        0.0000000000000000     
  0.56250000000000000       0.43750000000000000        0.0000000000000000     
  0.59375000000000000       0.43750000000000000        0.0000000000000000     
  0.62500000000000000       0.43750000000000000        0.0000000000000000     
  0.50000000000000000       0.46875000000000000        0.0000000000000000     
  0.53125000000000000       0.46875000000000000        0.0000000000000000     
  0.56250000000000000       0.46875000000000000        0.0000000000000000     
  0.59375000000000000       0.46875000000000000        0.0000000000000000     
  0.62500000000000000       0.46875000000000000        0.0000000000000000     
  0.50000000000000000       0.50000000000000000        0.0000000000000000     
  0.53125000000000000       0.50000000000000000        0.0000000000000000     
  0.56250000000000000       0.50000000000000000        0.0000000000000000     
  0.59375000000000000       0.50000000000000000        0.0000000000000000     
  0.62500000000000000       0.50000000000000000        0.0000000000000000     
  0.62500000000000000       0.37500000000000000        0.0000000000000000     
  0.65625000000000000       0.37500000000000000        0.0000000000000000     
  0.68750000000000000       0.37500000000000000        0.0000000000000000     
  0.71875000000000000       0.37500000000000000        0.0000000000000000     
  0.75000000000000000       0.37500000000000000        0.0000000000000000     
  0.62500000000000000       0.40625000000000000        0.0000000000000000     
  0.65625000000000000       0.40625000000000000        0.0000000000000000     
  0.68750000000000000       0.40625000000000000        0.0000000000000000     
  0.71875000000000000       0.40625000000000000        0.0000000000000000     
  0.75000000000000000       0.40625000000000000        0.0000000000000000     
  0.62500000000000000       0.43750000000000000        0.0000000000000000     
  0.65625000000000000       0.43750000000000000        0.0000000000000000     
  0.68750000000000000       0.43750000000000000        0.0000000000000000     
  0.71875000000000000       0.43750000000000000        0.0000000000000000     
  0.75000000000000000       0.43750000000000000        0.0000000000000000     
  0.62500000000000000       0.46875000000000000        0.0000000000000000     
  0.65625000000000000       0.46875000000000000        0.0000000000000000     
  0.68750000000000000       0.46875000000000000        0.0000000000000000     
  0.71875000000000000       0.46875000000000000        0.0000000000000000     
  0.75000000000000000       0.46875000000000000        0.0000000000000000     
  0.62500000000000000       0.50000000000000000        0.0000000000000000     
  0.65625000000000000       0.50000000000000000        0.0000000000000000     
  0.68750000000000000       0.50000000000000000        0.0000000000000000     
  0.71875000000000000       0.50000000000000000        0.0000000000000000     
  0.75000000000000000       0.50000000000000000        0.0000000000000000     
  0.75000000000000000       0.37500000000000000        0.0000000000000000     
  0.78125000000000000       0.37500000000000000        0.0000000000000000     
  0.81250000000000000       0.37500000000000000        0.0000000000000000     
  0.84375000000000000       0.37500000000000000        0.0000000000000000     
  0.87500000000000000       0.37500000000000000        0.0000000000000000     
  0.75000000000000000       0.40625000000000000        0.0000000000000000     
  0.78125000000000000       0.40625000000000000        0.0000000000000000     
  0.81250000000000000       0.40625000000000000        0.0000000000000000     
  0.84375000000000000       0.40625000000000000        0.0000000000000000     
  0.87500000000000000       0.40625000000000000        0.0000000000000000     
  0.75000000000000000       0.43750000000000000        0.0000000000000000     
  0.78125000000000000       0.43750000000000000        0.0000000000000000     
  0.81250000000000000       0.43750000000000000        0.0000000000000000     
  0.84375000000000000       0.43750000000000000        0.0000000000000000     
  0.87500000000000000       0.43750000000000000        0.0000000000000000     
  0.75000000000000000       0.46875000000000000        0.0000000000000000     
  0.78125000000000000       0.46875000000000000        0.0000000000000000     
  0.81250000000000000       0.46875000000000000        0.0000000000000000     
  0.84375000000000000       0.46875000000000000        0.0000000000000000     
  0.87500000000000000       0.46875000000000000        0.0000000000000000     
  0.75000000000000000       0.50000000000000000        0.0000000000000000     
  0.78125000000000000       0.50000000000000000        0.0000000000000000     
  0.81250000000000000       0.50000000000000000        0.0000000000000000     
  0.84375000000000000       0.50000000000000000        0.0000000000000000     
  0.87500000000000000       0.50000000000000000        0.0000000000000000     
  0.87500000000000000       0.37500000000000000        0.0000000000000000     
  0.90625000000000000       0.37500000000000000        0.0000000000000000     
  0.93750000000000000       0.37500000000000000        0.0000000000000000     
  0.96875000000000000       0.37500000000000000        0.0000000000000000     
   1.0000000000000000       0.37500000000000000        0.0000000000000000     
  0.87500000000000000       0.40625000000000000        0.0000000000000000     
  0.90625000000000000       0.40625000000000000        0.0000000000000000     
  0.93750000000000000       0.40625000000000000        0.0000000000000000     
  0.96875000000000000       0.40625000000000000        0.0000000000000000     
   1.0000000000000000       0.40625000000000000        0.0000000000000000     
  0.87500000000000000       0.43750000000000000        0.0000000000000000     
  0.90625000000000000       0.43750000000000000        0.0000000000000000     
  0.93750000000000000       0.43750000000000000        0.0000000000000000     
  0.96875000000000000       0.43750000000000000        0.0000000000000000     
   1.0000000000000000       0.43750000000000000        0.0000000000000000     
  0.87500000000000000       0.46875000000000000        0.0000000000000000     
  0.90625000000000000       0.46875000000000000        0.0000000000000000     
  0.93750000000000000       0.46875000000000000        0.0000000000000000     
  0.96875000000000000       0.46875000000000000        0.0000000000000000     
   1.0000000000000000       0.46875000000000000        0.0000000000000000     
  0.87500000000000000       0.50000000000000000        0.0000000000000000     
  0.90625000000000000       0.50000000000000000        0.0000000000000000     
  0.93750000000000000       0.50000000000000000        0.0000000000000000     
  0.96875000000000000       0.50000000000000000        0.0000000000000000     
   1.0000000000000000       0.50000000000000000        0.0000000000000000     
   0.0000000000000000       0.50000000000000000        0.0000000000000000     
   3.1250000000000000E-002  0.50000000000000000        0.0000000000000000     
   6.2500000000000000E-002  0.50000000000000000        0.0000000000000000     
   9.3750000000000000E-002  0.50000000000000000        0.0000000000000000     
  0.12500000000000000       0.50000000000000000        0.0000000000000000     
   0.0000000000000000       0.53125000000000000        0.0000000000000000     
   3.1250000000000000E-002  0.53125000000000000        0.0000000000000000     
   6.2500000000000000E-002  0.53125000000000000        0.0000000000000000     
   9.3750000000000000E-002  0.53125000000000000        0.0000000000000000     
  0.12500000000000000       0.53125000000000000        0.0000000000000000     
   0.0000000000000000       0.56250000000000000        0.0000000000000000     
   3.1250000000000000E-002  0.56250000000000000        0.0000000000000000     
   6.2500000000000000E-002  0.56250000000000000        0.0000000000000000     
   9.3750000000000000E-002  0.56250000000000000        0.0000000000000000     
  0.12500000000000000       0.56250000000000000        0.0000000000000000     
   0.0000000000000000       0.59375000000000000        0.0000000000000000     
   3.1250000000000000E-002  0.59375000000000000        0.0000000000000000     
   6.2500000000000000E-002  0.59375000000000000        0.0000000000000000     
   9.3750000000000000E-002  0.59375000000000000        0.0000000000000000     
  0.12500000000000000       0.59375000000000000        0.0000000000000000     
   0.0000000000000000       0.62500000000000000        0.0000000000000000     
   3.1250000000000000E-002  0.62500000000000000        0.0000000000000000     
   6.2500000000000000E-002  0.62500000000000000        0.0000000000000000     
   9.3750000000000000E-002  0.62500000000000000        0.0000000000000000     
  0.12500000000000000       0.62500000000000000        0.0000000000000000     
  0.12500000000000000       0.50000000000000000        0.0000000000000000     
  0.15625000000000000       0.50000000000000000        0.0000000000000000     
  0.18750000000000000       0.50000000000000000        0.0000000000000000     
  0.21875000000000000       0.50000000000000000        0.0000000000000000     
  0.25000000000000000       0.50000000000000000        0.0000000000000000     
  0.12500000000000000       0.53125000000000000        0.0000000000000000     
  0.15625000000000000       0.53125000000000000        0.0000000000000000     
  0.18750000000000000       0.53125000000000000        0.0000000000000000     
  0.21875000000000000       0.53125000000000000        0.0000000000000000     
  0.25000000000000000       0.53125000000000000        0.0000000000000000     
  0.12500000000000000       0.56250000000000000        0.0000000000000000     
  0.15625000000000000       0.56250000000000000        0.0000000000000000     
  0.18750000000000000       0.56250000000000000        0.0000000000000000     
  0.21875000000000000       0.56250000000000000        0.0000000000000000     
  0.25000000000000000       0.56250000000000000        0.0000000000000000     
  0.12500000000000000       0.59375000000000000        0.0000000000000000     
  0.15625000000000000       0.59375000000000000        0.0000000000000000     
  0.18750000000000000       0.59375000000000000        0.0000000000000000     
  0.21875000000000000       0.59375000000000000        0.0000000000000000     
  0.25000000000000000       0.59375000000000000        0.0000000000000000     
  0.12500000000000000       0.62500000000000000        0.0000000000000000     
  0.15625000000000000       0.62500000000000000        0.0000000000000000     
  0.18750000000000000       0.62500000000000000        0.0000000000000000     
  0.21875000000000000       0.62500000000000000        0.0000000000000000     
  0.25000000000000000       0.62500000000000000        0.0000000000000000     
  0.25000000000000000       0.50000000000000000        0.0000000000000000     
  0.28125000000000000       0.50000000000000000        0.0000000000000000     
  0.31250000000000000       0.50000000000000000        0.0000000000000000     
  0.34375000000000000       0.50000000000000000        0.0000000000000000     
  0.37500000000000000       0.50000000000000000        0.0000000000000000     
  0.25000000000000000       0.53125000000000000        0.0000000000000000     
  0.28125000000000000       0.53125000000000000        0.0000000000000000     
  0.31250000000000000       0.53125000000000000        0.0000000000000000     
  0.34375000000000000       0.53125000000000000        0.0000000000000000     
  0.37500000000000000       0.53125000000000000        0.0000000000000000     
  0.25000000000000000       0.56250000000000000        0.0000000000000000     
  0.28125000000000000       0.56250000000000000        0.0000000000000000     
  0.31250000000000000       0.56250000000000000        0.0000000000000000     
  0.34375000000000000       0.56250000000000000        0.0000000000000000     
  0.37500000000000000       0.56250000000000000        0.0000000000000000     
  0.25000000000000000       0.59375000000000000        0.0000000000000000     
  0.28125000000000000       0.59375000000000000        0.0000000000000000     
  0.31250000000000000       0.59375000000000000        0.0000000000000000     
  0.34375000000000000       0.59375000000000000        0.0000000000000000     
  0.37500000000000000       0.59375000000000000        0.0000000000000000     
  0.25000000000000000       0.62500000000000000        0.0000000000000000     
  0.28125000000000000       0.62500000000000000        0.0000000000000000     
  0.31250000000000000       0.62500000000000000        0.0000000000000000     
  0.34375000000000000       0.62500000000000000        0.0000000000000000     
  0.37500000000000000       0.62500000000000000        0.0000000000000000     
  0.37500000000000000       0.50000000000000000        0.0000000000000000     
  0.40625000000000000       0.50000000000000000        0.0000000000000000     
  0.43750000000000000       0.50000000000000000        0.0000000000000000     
  0.46875000000000000       0.50000000000000000        0.0000000000000000     
  0.50000000000000000       0.50000000000000000        0.0000000000000000     
  0.37500000000000000       0.53125000000000000        0.0000000000000000     
  0.40625000000000000       0.53125000000000000        0.0000000000000000     
  0.43750000000000000       0.53125000000000000        0.0000000000000000     
  0.46875000000000000       0.53125000000000000        0.0000000000000000     
  0.50000000000000000       0.53125000000000000        0.0000000000000000     
  0.37500000000000000       0.56250000000000000        0.0000000000000000     
  0.40625000000000000       0.56250000000000000        0.0000000000000000     
  0.43750000000000000       0.56250000000000000        0.0000000000000000     
  0.46875000000000000       0.56250000000000000        0.0000000000000000     
  0.50000000000000000       0.56250000000000000        0.0000000000000000     
  0.37500000000000000       0.59375000000000000        0.0000000000000000     
  0.40625000000000000       0.59375000000000000        0.0000000000000000     
  0.43750000000000000       0.59375000000000000        0.0000000000000000     
  0.46875000000000000       0.59375000000000000        0.0000000000000000     
  0.50000000000000000       0.59375000000000000        0.0000000000000000     
  0.37500000000000000       0.62500000000000000        0.0000000000000000     
  0.40625000000000000       0.62500000000000000        0.0000000000000000     
  0.43750000000000000       0.62500000000000000        0.0000000000000000     
  0.46875000000000000       0.62500000000000000        0.0000000000000000     
  0.50000000000000000       0.62500000000000000        0.0000000000000000     
  0.50000000000000000       0.50000000000000000        0.0000000000000000     
  0.53125000000000000       0.50000000000000000        0.0000000000000000     
  0.56250000000000000       0.50000000000000000        0.0000000000000000     
  0.59375000000000000       0.50000000000000000        0.0000000000000000     
  0.62500000000000000       0.50000000000000000        0.0000000000000000     
  0.50000000000000000       0.53125000000000000        0.0000000000000000     
  0.53125000000000000       0.53125000000000000        0.0000000000000000     
  0.56250000000000000       0.53125000000000000        0.0000000000000000     
  0.59375000000000000       0.53125000000000000        0.0000000000000000     
  0.62500000000000000       0.53125000000000000        0.0000000000000000     
  0.50000000000000000       0.56250000000000000        0.0000000000000000     
  0.53125000000000000       0.56250000000000000        0.0000000000000000     
  0.56250000000000000       0.56250000000000000        0.0000000000000000     
  0.59375000000000000       0.56250000000000000        0.0000000000000000     
  0.62500000000000000       0.56250000000000000        0.0000000000000000     
  0.50000000000000000       0.59375000000000000        0.0000000000000000     
  0.53125000000000000       0.59375000000000000        0.0000000000000000     
  0.56250000000000000       0.59375000000000000        0.0000000000000000     
  0.59375000000000000       0.59375000000000000        0.0000000000000000     
  0.62500000000000000       0.59375000000000000        0.0000000000000000     
  0.50000000000000000       0.62500000000000000        0.0000000000000000     
  0.53125000000000000       0.62500000000000000        0.0000000000000000     
  0.56250000000000000       0.62500000000000000        0.0000000000000000     
  0.59375000000000000       0.62500000000000000        0.0000000000000000     
  0.62500000000000000       0.62500000000000000        0.0000000000000000     
  0.62500000000000000       0.50000000000000000        0.0000000000000000     
  0.65625000000000000       0.50000000000000000        0.0000000000000000     
  0.68750000000000000       0.50000000000000000        0.0000000000000000     
  0.71875000000000000       0.50000000000000000        0.0000000000000000     
  0.75000000000000000       0.50000000000000000        0.0000000000000000     
  0.62500000000000000       0.53125000000000000        0.0000000000000000     
  0.65625000000000000       0.53125000000000000        0.0000000000000000     
  0.68750000000000000       0.53125000000000000        0.0000000000000000     
  0.71875000000000000       0.53125000000000000        0.0000000000000000     
  0.75000000000000000       0.53125000000000000        0.0000000000000000     
  0.62500000000000000       0.56250000000000000        0.0000000000000000     
  0.65625000000000000       0.56250000000000000        0.0000000000000000     
  0.68750000000000000       0.56250000000000000        0.0000000000000000     
  0.71875000000000000       0.56250000000000000        0.0000000000000000     
  0.75000000000000000       0.56250000000000000        0.0000000000000000     
  0.62500000000000000       0.59375000000000000        0.0000000000000000     
  0.65625000000000000       0.59375000000000000        0.0000000000000000     
  0.68750000000000000       0.59375000000000000        0.0000000000000000     
  0.71875000000000000       0.59375000000000000        0.0000000000000000     
  0.75000000000000000       0.59375000000000000        0.0000000000000000     
  0.62500000000000000       0.62500000000000000        0.0000000000000000     
  0.65625000000000000       0.62500000000000000        0.0000000000000000     
  0.68750000000000000       0.62500000000000000        0.0000000000000000     
  0.71875000000000000       0.62500000000000000        0.0000000000000000     
  0.75000000000000000       0.62500000000000000        0.0000000000000000     
  0.75000000000000000       0.50000000000000000        0.0000000000000000     
  0.78125000000000000       0.50000000000000000        0.0000000000000000     
  0.81250000000000000       0.50000000000000000        0.0000000000000000     
  0.84375000000000000       0.50000000000000000        0.0000000000000000     
  0.87500000000000000       0.50000000000000000        0.0000000000000000     
  0.75000000000000000       0.53125000000000000        0.0000000000000000     
  0.78125000000000000       0.53125000000000000        0.0000000000000000     
  0.81250000000000000       0.53125000000000000        0.0000000000000000     
  0.84375000000000000       0.53125000000000000        0.0000000000000000     
  0.87500000000000000       0.53125000000000000        0.0000000000000000     
  0.75000000000000000       0.56250000000000000        0.0000000000000000     
  0.78125000000000000       0.56250000000000000        0.0000000000000000     
  0.81250000000000000       0.56250000000000000        0.0000000000000000     
  0.84375000000000000       0.56250000000000000        0.0000000000000000     
  0.87500000000000000       0.56250000000000000        0.0000000000000000     
  0.75000000000000000       0.59375000000000000        0.0000000000000000     
  0.78125000000000000       0.59375000000000000        0.0000000000000000     
  0.81250000000000000       0.59375000000000000        0.0000000000000000     
  0.84375000000000000       0.59375000000000000        0.0000000000000000     
  0.87500000000000000       0.59375000000000000        0.0000000000000000     
  0.75000000000000000       0.62500000000000000        0.0000000000000000     
  0.78125000000000000       0.62500000000000000        0.0000000000000000     
  0.81250000000000000       0.62500000000000000        0.0000000000000000     
  0.84375000000000000       0.62500000000000000        0.0000000000000000     
  0.87500000000000000       0.62500000000000000        0.0000000000000000     
  0.87500000000000000       0.50000000000000000        0.0000000000000000     
  0.90625000000000000       0.50000000000000000        0.0000000000000000     
  0.93750000000000000       0.50000000000000000        0.0000000000000000     
  0.96875000000000000       0.50000000000000000        0.0000000000000000     
   1.0000000000000000       0.50000000000000000        0.0000000000000000     
  0.87500000000000000       0.53125000000000000        0.0000000000000000     
  0.90625000000000000       0.53125000000000000        0.0000000000000000     
  0.93750000000000000       0.53125000000000000        0.0000000000000000     
  0.96875000000000000       0.53125000000000000        0.0000000000000000     
   1.0000000000000000       0.53125000000000000        0.0000000000000000     
  0.87500000000000000       0.56250000000000000        0.0000000000000000     
  0.90625000000000000       0.56250000000000000        0.0000000000000000     
  0.93750000000000000       0.56250000000000000        0.0000000000000000     
  0.96875000000000000       0.56250000000000000        0.0000000000000000     
   1.0000000000000000       0.56250000000000000        0.0000000000000000     
  0.87500000000000000       0.59375000000000000        0.0000000000000000     
  0.90625000000000000       0.59375000000000000        0.0000000000000000     
  0.93750000000000000       0.59375000000000000        0.0000000000000000     
  0.96875000000000000       0.59375000000000000        0.0000000000000000     
   1.0000000000000000       0.59375000000000000        0.0000000000000000     
  0.87500000000000000       0.62500000000000000        0.0000000000000000     
  0.90625000000000000       0.62500000000000000        0.0000000000000000     
  0.93750000000000000       0.62500000000000000        0.0000000000000000     
  0.96875000000000000       0.62500000000000000        0.0000000000000000     
   1.0000000000000000       0.62500000000000000        0.0000000000000000     
   0.0000000000000000       0.62500000000000000        0.0000000000000000     
   3.1250000000000000E-002  0.62500000000000000        0.0000000000000000     
   6.2500000000000000E-002  0.62500000000000000        0.0000000000000000     
   9.3750000000000000E-002  0.62500000000000000        0.0000000000000000     
  0.12500000000000000       0.62500000000000000        0.0000000000000000     
   0.0000000000000000       0.65625000000000000        0.0000000000000000     
   3.1250000000000000E-002  0.65625000000000000        0.0000000000000000     
   6.2500000000000000E-002  0.65625000000000000        0.0000000000000000     
   9.3750000000000000E-002  0.65625000000000000        0.0000000000000000     
  0.12500000000000000       0.65625000000000000        0.0000000000000000     
   0.0000000000000000       0.68750000000000000        0.0000000000000000     
   3.1250000000000000E-002  0.68750000000000000        0.0000000000000000     
   6.2500000000000000E-002  0.68750000000000000        0.0000000000000000     
   9.3750000000000000E-002  0.68750000000000000        0.0000000000000000     
  0.12500000000000000       0.68750000000000000        0.0000000000000000     
   0.0000000000000000       0.71875000000000000        0.0000000000000000     
   3.1250000000000000E-002  0.71875000000000000        0.0000000000000000     
   6.2500000000000000E-002  0.71875000000000000        0.0000000000000000     
   9.3750000000000000E-002  0.71875000000000000        0.0000000000000000     
  0.12500000000000000       0.71875000000000000        0.0000000000000000     
   0.0000000000000000       0.75000000000000000        0.0000000000000000     
   3.1250000000000000E-002  0.75000000000000000        0.0000000000000000     
   6.2500000000000000E-002  0.75000000000000000        0.0000000000000000     
   9.3750000000000000E-002  0.75000000000000000        0.0000000000000000     
  0.12500000000000000       0.75000000000000000        0.0000000000000000     
  0.12500000000000000       0.62500000000000000        0.0000000000000000     
  0.15625000000000000       0.62500000000000000        0.0000000000000000     
  0.18750000000000000       0.62500000000000000        0.0000000000000000     
  0.21875000000000000       0.62500000000000000        0.0000000000000000     
  0.25000000000000000       0.62500000000000000        0.0000000000000000     
  0.12500000000000000       0.65625000000000000        0.0000000000000000     
  0.15625000000000000       0.65625000000000000        0.0000000000000000     
  0.18750000000000000       0.65625000000000000        0.0000000000000000     
  0.21875000000000000       0.65625000000000000        0.0000000000000000     
  0.25000000000000000       0.65625000000000000        0.0000000000000000     
  0.12500000000000000       0.68750000000000000        0.0000000000000000     
  0.15625000000000000       0.68750000000000000        0.0000000000000000     
  0.18750000000000000       0.68750000000000000        0.0000000000000000     
  0.21875000000000000       0.68750000000000000        0.0000000000000000     
  0.25000000000000000       0.68750000000000000        0.0000000000000000     
  0.12500000000000000       0.71875000000000000        0.0000000000000000     
  0.15625000000000000       0.71875000000000000        0.0000000000000000     
  0.18750000000000000       0.71875000000000000        0.0000000000000000     
  0.21875000000000000       0.71875000000000000        0.0000000000000000     
  0.25000000000000000       0.71875000000000000        0.0000000000000000     
  0.12500000000000000       0.75000000000000000        0.0000000000000000     
  0.15625000000000000       0.75000000000000000        0.0000000000000000     
  0.18750000000000000       0.75000000000000000        0.0000000000000000     
  0.21875000000000000       0.75000000000000000        0.0000000000000000     
  0.25000000000000000       0.75000000000000000        0.0000000000000000     
  0.25000000000000000       0.62500000000000000        0.0000000000000000     
  0.28125000000000000       0.62500000000000000        0.0000000000000000     
  0.31250000000000000       0.62500000000000000        0.0000000000000000     
  0.34375000000000000       0.62500000000000000        0.0000000000000000     
  0.37500000000000000       0.62500000000000000        0.0000000000000000     
  0.25000000000000000       0.65625000000000000        0.0000000000000000     
  0.28125000000000000       0.65625000000000000        0.0000000000000000     
  0.31250000000000000       0.65625000000000000        0.0000000000000000     
  0.34375000000000000       0.65625000000000000        0.0000000000000000     
  0.37500000000000000       0.65625000000000000        0.0000000000000000     
  0.25000000000000000       0.68750000000000000        0.0000000000000000     
  0.28125000000000000       0.68750000000000000        0.0000000000000000     
  0.31250000000000000       0.68750000000000000        0.0000000000000000     
  0.34375000000000000       0.68750000000000000        0.0000000000000000     
  0.37500000000000000       0.68750000000000000        0.0000000000000000     
  0.25000000000000000       0.71875000000000000        0.0000000000000000     
  0.28125000000000000       0.71875000000000000        0.0000000000000000     
  0.31250000000000000       0.71875000000000000        0.0000000000000000     
  0.34375000000000000       0.71875000000000000        0.0000000000000000     
  0.37500000000000000       0.71875000000000000        0.0000000000000000     
  0.25000000000000000       0.75000000000000000        0.0000000000000000     
  0.28125000000000000       0.75000000000000000        0.0000000000000000     
  0.31250000000000000       0.75000000000000000        0.0000000000000000     
  0.34375000000000000       0.75000000000000000        0.0000000000000000     
  0.37500000000000000       0.75000000000000000        0.0000000000000000     
  0.37500000000000000       0.62500000000000000        0.0000000000000000     
  0.40625000000000000       0.62500000000000000        0.0000000000000000     
  0.43750000000000000       0.62500000000000000        0.0000000000000000     
  0.46875000000000000       0.62500000000000000        0.0000000000000000     
  0.50000000000000000       0.62500000000000000        0.0000000000000000     
  0.37500000000000000       0.65625000000000000        0.0000000000000000     
  0.40625000000000000       0.65625000000000000        0.0000000000000000     
  0.43750000000000000       0.65625000000000000        0.0000000000000000     
  0.46875000000000000       0.65625000000000000        0.0000000000000000     
  0.50000000000000000       0.65625000000000000        0.0000000000000000     
  0.37500000000000000       0.68750000000000000        0.0000000000000000     
  0.40625000000000000       0.68750000000000000        0.0000000000000000     
  0.43750000000000000       0.68750000000000000        0.0000000000000000     
  0.46875000000000000       0.68750000000000000        0.0000000000000000     
  0.50000000000000000       0.68750000000000000        0.0000000000000000     
  0.37500000000000000       0.71875000000000000        0.0000000000000000     
  0.40625000000000000       0.71875000000000000        0.0000000000000000     
  0.43750000000000000       0.71875000000000000        0.0000000000000000     
  0.46875000000000000       0.71875000000000000        0.0000000000000000     
  0.50000000000000000       0.71875000000000000        0.0000000000000000     
  0.37500000000000000       0.75000000000000000        0.0000000000000000     
  0.40625000000000000       0.75000000000000000        0.0000000000000000     
  0.43750000000000000       0.75000000000000000        0.0000000000000000     
  0.46875000000000000       0.75000000000000000        0.0000000000000000     
  0.50000000000000000       0.75000000000000000        0.0000000000000000     
  0.50000000000000000       0.62500000000000000        0.0000000000000000     
  0.53125000000000000       0.62500000000000000        0.0000000000000000     
  0.56250000000000000       0.62500000000000000        0.0000000000000000     
  0.59375000000000000       0.62500000000000000        0.0000000000000000     
  0.62500000000000000       0.62500000000000000        0.0000000000000000     
  0.50000000000000000       0.65625000000000000        0.0000000000000000     
  0.53125000000000000       0.65625000000000000        0.0000000000000000     
  0.56250000000000000       0.65625000000000000        0.0000000000000000     
  0.59375000000000000       0.65625000000000000        0.0000000000000000     
  0.62500000000000000       0.65625000000000000        0.0000000000000000     
  0.50000000000000000       0.68750000000000000        0.0000000000000000     
  0.53125000000000000       0.68750000000000000        0.0000000000000000     
  0.56250000000000000       0.68750000000000000        0.0000000000000000     
  0.59375000000000000       0.68750000000000000        0.0000000000000000     
  0.62500000000000000       0.68750000000000000        0.0000000000000000     
  0.50000000000000000       0.71875000000000000        0.0000000000000000     
  0.53125000000000000       0.71875000000000000        0.0000000000000000     
  0.56250000000000000       0.71875000000000000        0.0000000000000000     
  0.59375000000000000       0.71875000000000000        0.0000000000000000     
  0.62500000000000000       0.71875000000000000        0.0000000000000000     
  0.50000000000000000       0.75000000000000000        0.0000000000000000     
  0.53125000000000000       0.75000000000000000        0.0000000000000000     
  0.56250000000000000       0.75000000000000000        0.0000000000000000     
  0.59375000000000000       0.75000000000000000        0.0000000000000000     
  0.62500000000000000       0.75000000000000000        0.0000000000000000     
  0.62500000000000000       0.62500000000000000        0.0000000000000000     
  0.65625000000000000       0.62500000000000000        0.0000000000000000     
  0.68750000000000000       0.62500000000000000        0.0000000000000000     
  0.71875000000000000       0.62500000000000000        0.0000000000000000     
  0.75000000000000000       0.62500000000000000        0.0000000000000000     
  0.62500000000000000       0.65625000000000000        0.0000000000000000     
  0.65625000000000000       0.65625000000000000        0.0000000000000000     
  0.68750000000000000       0.65625000000000000        0.0000000000000000     
  0.71875000000000000       0.65625000000000000        0.0000000000000000     
  0.75000000000000000       0.65625000000000000        0.0000000000000000     
  0.62500000000000000       0.68750000000000000        0.0000000000000000     
  0.65625000000000000       0.68750000000000000        0.0000000000000000     
  0.68750000000000000       0.68750000000000000        0.0000000000000000     
  0.71875000000000000       0.68750000000000000        0.0000000000000000     
  0.75000000000000000       0.68750000000000000        0.0000000000000000     
  0.62500000000000000       0.71875000000000000        0.0000000000000000     
  0.65625000000000000       0.71875000000000000        0.0000000000000000     
  0.68750000000000000       0.71875000000000000        0.0000000000000000     
  0.71875000000000000       0.71875000000000000        0.0000000000000000     
  0.75000000000000000       0.71875000000000000        0.0000000000000000     
  0.62500000000000000       0.75000000000000000        0.0000000000000000     
  0.65625000000000000       0.75000000000000000        0.0000000000000000     
  0.68750000000000000       0.75000000000000000        0.0000000000000000     
  0.71875000000000000       0.75000000000000000        0.0000000000000000     
  0.75000000000000000       0.75000000000000000        0.0000000000000000     
  0.75000000000000000       0.62500000000000000        0.0000000000000000     
  0.78125000000000000       0.62500000000000000        0.0000000000000000     
  0.81250000000000000       0.62500000000000000        0.0000000000000000     
  0.84375000000000000       0.62500000000000000        0.0000000000000000     
  0.87500000000000000       0.62500000000000000        0.0000000000000000     
  0.75000000000000000       0.65625000000000000        0.0000000000000000     
  0.78125000000000000       0.65625000000000000        0.0000000000000000     
  0.81250000000000000       0.65625000000000000        0.0000000000000000     
  0.84375000000000000       0.65625000000000000        0.0000000000000000     
  0.87500000000000000       0.65625000000000000        0.0000000000000000     
  0.75000000000000000       0.68750000000000000        0.0000000000000000     
  0.78125000000000000       0.68750000000000000        0.0000000000000000     
  0.81250000000000000       0.68750000000000000        0.0000000000000000     
  0.84375000000000000       0.68750000000000000        0.0000000000000000     
  0.87500000000000000       0.68750000000000000        0.0000000000000000     
  0.75000000000000000       0.71875000000000000        0.0000000000000000     
  0.78125000000000000       0.71875000000000000        0.0000000000000000     
  0.81250000000000000       0.71875000000000000        0.0000000000000000     
  0.84375000000000000       0.71875000000000000        0.0000000000000000     
  0.87500000000000000       0.71875000000000000        0.0000000000000000     
  0.75000000000000000       0.75000000000000000        0.0000000000000000     
  0.78125000000000000       0.75000000000000000        0.0000000000000000     
  0.81250000000000000       0.75000000000000000        0.0000000000000000     
  0.84375000000000000       0.75000000000000000        0.0000000000000000     
  0.87500000000000000       0.75000000000000000        0.0000000000000000     
  0.87500000000000000       0.62500000000000000        0.0000000000000000     
  0.90625000000000000       0.62500000000000000        0.0000000000000000     
  0.93750000000000000       0.62500000000000000        0.0000000000000000     
  0.96875000000000000       0.62500000000000000        0.0000000000000000     
   1.0000000000000000       0.62500000000000000        0.0000000000000000     
  0.87500000000000000       0.65625000000000000        0.0000000000000000     
  0.90625000000000000       0.65625000000000000        0.0000000000000000     
  0.93750000000000000       0.65625000000000000        0.0000000000000000     
  0.96875000000000000       0.65625000000000000        0.0000000000000000     
   1.0000000000000000       0.65625000000000000        0.0000000000000000     
  0.87500000000000000       0.68750000000000000        0.0000000000000000     
  0.90625000000000000       0.68750000000000000        0.0000000000000000     
  0.93750000000000000       0.68750000000000000        0.0000000000000000     
  0.96875000000000000       0.68750000000000000        0.0000000000000000     
   1.0000000000000000       0.68750000000000000        0.0000000000000000     
  0.87500000000000000       0.71875000000000000        0.0000000000000000     
  0.90625000000000000       0.71875000000000000        0.0000000000000000     
  0.93750000000000000       0.71875000000000000        0.0000000000000000     
  0.96875000000000000       0.71875000000000000        0.0000000000000000     
   1.0000000000000000       0.71875000000000000        0.0000000000000000     
  0.87500000000000000       0.75000000000000000        0.0000000000000000     
  0.90625000000000000       0.75000000000000000        0.0000000000000000     
  0.93750000000000000       0.75000000000000000        0.0000000000000000     
  0.96875000000000000       0.75000000000000000        0.0000000000000000     
   1.0000000000000000       0.75000000000000000        0.0000000000000000     
   0.0000000000000000       0.75000000000000000        0.0000000000000000     
   3.1250000000000000E-002  0.75000000000000000        0.0000000000000000     
   6.2500000000000000E-002  0.75000000000000000        0.0000000000000000     
   9.3750000000000000E-002  0.75000000000000000        0.0000000000000000     
  0.12500000000000000       0.75000000000000000        0.0000000000000000     
   0.0000000000000000       0.78125000000000000        0.0000000000000000     
   3.1250000000000000E-002  0.78125000000000000        0.0000000000000000     
   6.2500000000000000E-002  0.78125000000000000        0.0000000000000000     
   9.3750000000000000E-002  0.78125000000000000        0.0000000000000000     
  0.12500000000000000       0.78125000000000000        0.0000000000000000     
   0.0000000000000000       0.81250000000000000        0.0000000000000000     
   3.1250000000000000E-002  0.81250000000000000        0.0000000000000000     
   6.2500000000000000E-002  0.81250000000000000        0.0000000000000000     
   9.3750000000000000E-002  0.81250000000000000        0.0000000000000000     
  0.12500000000000000       0.81250000000000000        0.0000000000000000     
   0.0000000000000000       0.84375000000000000        0.0000000000000000     
   3.1250000000000000E-002  0.84375000000000000        0.0000000000000000     
   6.2500000000000000E-002  0.84375000000000000        0.0000000000000000     
   9.3750000000000000E-002  0.84375000000000000        0.0000000000000000     
  0.12500000000000000       0.84375000000000000        0.0000000000000000     
   0.0000000000000000       0.87500000000000000        0.0000000000000000     
   3.1250000000000000E-002  0.87500000000000000        0.0000000000000000     
   6.2500000000000000E-002  0.87500000000000000        0.0000000000000000     
   9.3750000000000000E-002  0.87500000000000000        0.0000000000000000     
  0.12500000000000000       0.87500000000000000        0.0000000000000000     
  0.12500000000000000       0.75000000000000000        0.0000000000000000     
  0.15625000000000000       0.75000000000000000        0.0000000000000000     
  0.18750000000000000       0.75000000000000000        0.0000000000000000     
  0.21875000000000000       0.75000000000000000        0.0000000000000000     
  0.25000000000000000       0.75000000000000000        0.0000000000000000     
  0.12500000000000000       0.78125000000000000        0.0000000000000000     
  0.15625000000000000       0.78125000000000000        0.0000000000000000     
  0.18750000000000000       0.78125000000000000        0.0000000000000000     
  0.21875000000000000       0.78125000000000000        0.0000000000000000     
  0.25000000000000000       0.78125000000000000        0.0000000000000000     
  0.12500000000000000       0.81250000000000000        0.0000000000000000     
  0.15625000000000000       0.81250000000000000        0.0000000000000000     
  0.18750000000000000       0.81250000000000000        0.0000000000000000     
  0.21875000000000000       0.81250000000000000        0.0000000000000000     
  0.25000000000000000       0.81250000000000000        0.0000000000000000     
  0.12500000000000000       0.84375000000000000        0.0000000000000000     
  0.15625000000000000       0.84375000000000000        0.0000000000000000     
  0.18750000000000000       0.84375000000000000        0.0000000000000000     
  0.21875000000000000       0.84375000000000000        0.0000000000000000     
  0.25000000000000000       0.84375000000000000        0.0000000000000000     
  0.12500000000000000       0.87500000000000000        0.0000000000000000     
  0.15625000000000000       0.87500000000000000        0.0000000000000000     
  0.18750000000000000       0.87500000000000000        0.0000000000000000     
  0.21875000000000000       0.87500000000000000        0.0000000000000000     
  0.25000000000000000       0.87500000000000000        0.0000000000000000     
  0.25000000000000000       0.75000000000000000        0.0000000000000000     
  0.28125000000000000       0.75000000000000000        0.0000000000000000     
  0.31250000000000000       0.75000000000000000        0.0000000000000000     
  0.34375000000000000       0.75000000000000000        0.0000000000000000     
  0.37500000000000000       0.75000000000000000        0.0000000000000000     
  0.25000000000000000       0.78125000000000000        0.0000000000000000     
  0.28125000000000000       0.78125000000000000        0.0000000000000000     
  0.31250000000000000       0.78125000000000000        0.0000000000000000     
  0.34375000000000000       0.78125000000000000        0.0000000000000000     
  0.37500000000000000       0.78125000000000000        0.0000000000000000     
  0.25000000000000000       0.81250000000000000        0.0000000000000000     
  0.28125000000000000       0.81250000000000000        0.0000000000000000     
  0.31250000000000000       0.81250000000000000        0.0000000000000000     
  0.34375000000000000       0.81250000000000000        0.0000000000000000     
  0.37500000000000000       0.81250000000000000        0.0000000000000000     
  0.25000000000000000       0.84375000000000000        0.0000000000000000     
  0.28125000000000000       0.84375000000000000        0.0000000000000000     
  0.31250000000000000       0.84375000000000000        0.0000000000000000     
  0.34375000000000000       0.84375000000000000        0.0000000000000000     
  0.37500000000000000       0.84375000000000000        0.0000000000000000     
  0.25000000000000000       0.87500000000000000        0.0000000000000000     
  0.28125000000000000       0.87500000000000000        0.0000000000000000     
  0.31250000000000000       0.87500000000000000        0.0000000000000000     
  0.34375000000000000       0.87500000000000000        0.0000000000000000     
  0.37500000000000000       0.87500000000000000        0.0000000000000000     
  0.37500000000000000       0.75000000000000000        0.0000000000000000     
  0.40625000000000000       0.75000000000000000        0.0000000000000000     
  0.43750000000000000       0.75000000000000000        0.0000000000000000     
  0.46875000000000000       0.75000000000000000        0.0000000000000000     
  0.50000000000000000       0.75000000000000000        0.0000000000000000     
  0.37500000000000000       0.78125000000000000        0.0000000000000000     
  0.40625000000000000       0.78125000000000000        0.0000000000000000     
  0.43750000000000000       0.78125000000000000        0.0000000000000000     
  0.46875000000000000       0.78125000000000000        0.0000000000000000     
  0.50000000000000000       0.78125000000000000        0.0000000000000000     
  0.37500000000000000       0.81250000000000000        0.0000000000000000     
  0.40625000000000000       0.81250000000000000        0.0000000000000000     
  0.43750000000000000       0.81250000000000000        0.0000000000000000     
  0.46875000000000000       0.81250000000000000        0.0000000000000000     
  0.50000000000000000       0.81250000000000000        0.0000000000000000     
  0.37500000000000000       0.84375000000000000        0.0000000000000000     
  0.40625000000000000       0.84375000000000000        0.0000000000000000     
  0.43750000000000000       0.84375000000000000        0.0000000000000000     
  0.46875000000000000       0.84375000000000000        0.0000000000000000     
  0.50000000000000000       0.84375000000000000        0.0000000000000000     
  0.37500000000000000       0.87500000000000000        0.0000000000000000     
  0.40625000000000000       0.87500000000000000        0.0000000000000000     
  0.43750000000000000       0.87500000000000000        0.0000000000000000     
  0.46875000000000000       0.87500000000000000        0.0000000000000000     
  0.50000000000000000       0.87500000000000000        0.0000000000000000     
  0.50000000000000000       0.75000000000000000        0.0000000000000000     
  0.53125000000000000       0.75000000000000000        0.0000000000000000     
  0.56250000000000000       0.75000000000000000        0.0000000000000000     
  0.59375000000000000       0.75000000000000000        0.0000000000000000     
  0.62500000000000000       0.75000000000000000        0.0000000000000000     
  0.50000000000000000       0.78125000000000000        0.0000000000000000     
  0.53125000000000000       0.78125000000000000        0.0000000000000000     
  0.56250000000000000       0.78125000000000000        0.0000000000000000     
  0.59375000000000000       0.78125000000000000        0.0000000000000000     
  0.62500000000000000       0.78125000000000000        0.0000000000000000     
  0.50000000000000000       0.81250000000000000        0.0000000000000000     
  0.53125000000000000       0.81250000000000000        0.0000000000000000     
  0.56250000000000000       0.81250000000000000        0.0000000000000000     
  0.59375000000000000       0.81250000000000000        0.0000000000000000     
  0.62500000000000000       0.81250000000000000        0.0000000000000000     
  0.50000000000000000       0.84375000000000000        0.0000000000000000     
  0.53125000000000000       0.84375000000000000        0.0000000000000000     
  0.56250000000000000       0.84375000000000000        0.0000000000000000     
  0.59375000000000000       0.84375000000000000        0.0000000000000000     
  0.62500000000000000       0.84375000000000000        0.0000000000000000     
  0.50000000000000000       0.87500000000000000        0.0000000000000000     
  0.53125000000000000       0.87500000000000000        0.0000000000000000     
  0.56250000000000000       0.87500000000000000        0.0000000000000000     
  0.59375000000000000       0.87500000000000000        0.0000000000000000     
  0.62500000000000000       0.87500000000000000        0.0000000000000000     
  0.62500000000000000       0.75000000000000000        0.0000000000000000     
  0.65625000000000000       0.75000000000000000        0.0000000000000000     
  0.68750000000000000       0.75000000000000000        0.0000000000000000     
  0.71875000000000000       0.75000000000000000        0.0000000000000000     
  0.75000000000000000       0.75000000000000000        0.0000000000000000     
  0.62500000000000000       0.78125000000000000        0.0000000000000000     
  0.65625000000000000       0.78125000000000000        0.0000000000000000     
  0.68750000000000000       0.78125000000000000        0.0000000000000000     
  0.71875000000000000       0.78125000000000000        0.0000000000000000     
  0.75000000000000000       0.78125000000000000        0.0000000000000000     
  0.62500000000000000       0.81250000000000000        0.0000000000000000     
  0.65625000000000000       0.81250000000000000        0.0000000000000000     
  0.68750000000000000       0.81250000000000000        0.0000000000000000     
  0.71875000000000000       0.81250000000000000        0.0000000000000000     
  0.75000000000000000       0.81250000000000000        0.0000000000000000     
  0.62500000000000000       0.84375000000000000        0.0000000000000000     
  0.65625000000000000       0.84375000000000000        0.0000000000000000     
  0.68750000000000000       0.84375000000000000        0.0000000000000000     
  0.71875000000000000       0.84375000000000000        0.0000000000000000     
  0.75000000000000000       0.84375000000000000        0.0000000000000000     
  0.62500000000000000       0.87500000000000000        0.0000000000000000     
  0.65625000000000000       0.87500000000000000        0.0000000000000000     
  0.68750000000000000       0.87500000000000000        0.0000000000000000     
  0.71875000000000000       0.87500000000000000        0.0000000000000000     
  0.75000000000000000       0.87500000000000000        0.0000000000000000     
  0.75000000000000000       0.75000000000000000        0.0000000000000000     
  0.78125000000000000       0.75000000000000000        0.0000000000000000     
  0.81250000000000000       0.75000000000000000        0.0000000000000000     
  0.84375000000000000       0.75000000000000000        0.0000000000000000     
  0.87500000000000000       0.75000000000000000        0.0000000000000000     
  0.75000000000000000       0.78125000000000000        0.0000000000000000     
  0.78125000000000000       0.78125000000000000        0.0000000000000000     
  0.81250000000000000       0.78125000000000000        0.0000000000000000     
  0.84375000000000000       0.78125000000000000        0.0000000000000000     
  0.87500000000000000       0.78125000000000000        0.0000000000000000     
  0.75000000000000000       0.81250000000000000        0.0000000000000000     
  0.78125000000000000       0.81250000000000000        0.0000000000000000     
  0.81250000000000000       0.81250000000000000        0.0000000000000000     
  0.84375000000000000       0.81250000000000000        0.0000000000000000     
  0.87500000000000000       0.81250000000000000        0.0000000000000000     
  0.75000000000000000       0.84375000000000000        0.0000000000000000     
  0.78125000000000000       0.84375000000000000        0.0000000000000000     
  0.81250000000000000       0.84375000000000000        0.0000000000000000     
  0.84375000000000000       0.84375000000000000        0.0000000000000000     
  0.87500000000000000       0.84375000000000000        0.0000000000000000     
  0.75000000000000000       0.87500000000000000        0.0000000000000000     
  0.78125000000000000       0.87500000000000000        0.0000000000000000     
  0.81250000000000000       0.87500000000000000        0.0000000000000000     
  0.84375000000000000       0.87500000000000000        0.0000000000000000     
  0.87500000000000000       0.87500000000000000        0.0000000000000000     
  0.87500000000000000       0.75000000000000000        0.0000000000000000     
  0.90625000000000000       0.75000000000000000        0.0000000000000000     
  0.93750000000000000       0.75000000000000000        0.0000000000000000     
  0.96875000000000000       0.75000000000000000        0.0000000000000000     
   1.0000000000000000       0.75000000000000000        0.0000000000000000     
  0.87500000000000000       0.78125000000000000        0.0000000000000000     
  0.90625000000000000       0.78125000000000000        0.0000000000000000     
  0.93750000000000000       0.78125000000000000        0.0000000000000000     
  0.96875000000000000       0.78125000000000000        0.0000000000000000     
   1.0000000000000000       0.78125000000000000        0.0000000000000000     
  0.87500000000000000       0.81250000000000000        0.0000000000000000     
  0.90625000000000000       0.81250000000000000        0.0000000000000000     
  0.93750000000000000       0.81250000000000000        0.0000000000000000     
  0.96875000000000000       0.81250000000000000        0.0000000000000000     
   1.0000000000000000       0.81250000000000000        0.0000000000000000     
  0.87500000000000000       0.84375000000000000        0.0000000000000000     
  0.90625000000000000       0.84375000000000000        0.0000000000000000     
  0.93750000000000000       0.84375000000000000        0.0000000000000000     
  0.96875000000000000       0.84375000000000000        0.0000000000000000     
   1.0000000000000000       0.84375000000000000        0.0000000000000000     
  0.87500000000000000       0.87500000000000000        0.0000000000000000     
  0.90625000000000000       0.87500000000000000        0.0000000000000000     
  0.93750000000000000       0.87500000000000000        0.0000000000000000     
  0.96875000000000000       0.87500000000000000        0.0000000000000000     
   1.0000000000000000       0.87500000000000000        0.0000000000000000     
   0.0000000000000000       0.87500000000000000        0.0000000000000000     
   3.1250000000000000E-002  0.87500000000000000        0.0000000000000000     
   6.2500000000000000E-002  0.87500000000000000        0.0000000000000000     
   9.3750000000000000E-002  0.87500000000000000        0.0000000000000000     
  0.12500000000000000       0.87500000000000000        0.0000000000000000     
   0.0000000000000000       0.90625000000000000        0.0000000000000000     
   3.1250000000000000E-002  0.90625000000000000        0.0000000000000000     
   6.2500000000000000E-002  0.90625000000000000        0.0000000000000000     
   9.3750000000000000E-002  0.90625000000000000        0.0000000000000000     
  0.12500000000000000       0.90625000000000000        0.0000000000000000     
   0.0000000000000000       0.93750000000000000        0.0000000000000000     
   3.1250000000000000E-002  0.93750000000000000        0.0000000000000000     
   6.2500000000000000E-002  0.93750000000000000        0.0000000000000000     
   9.3750000000000000E-002  0.93750000000000000        0.0000000000000000     
  0.12500000000000000       0.93750000000000000        0.0000000000000000     
   0.0000000000000000       0.96875000000000000        0.0000000000000000     
   3.1250000000000000E-002  0.96875000000000000        0.0000000000000000     
   6.2500000000000000E-002  0.96875000000000000        0.0000000000000000     
   9.3750000000000000E-002  0.96875000000000000        0.0000000000000000     
  0.12500000000000000       0.96875000000000000        0.0000000000000000     
   0.0000000000000000        1.0000000000000000        0.0000000000000000     
   3.1250000000000000E-002   1.0000000000000000        0.0000000000000000     
   6.2500000000000000E-002   1.0000000000000000        0.0000000000000000     
   9.3750000000000000E-002   1.0000000000000000        0.0000000000000000     
  0.12500000000000000        1.0000000000000000        0.0000000000000000     
  0.12500000000000000       0.87500000000000000        0.0000000000000000     
  0.15625000000000000       0.87500000000000000        0.0000000000000000     
  0.18750000000000000       0.87500000000000000        0.0000000000000000     
  0.21875000000000000       0.87500000000000000        0.0000000000000000     
  0.25000000000000000       0.87500000000000000        0.0000000000000000     
  0.12500000000000000       0.90625000000000000        0.0000000000000000     
  0.15625000000000000       0.90625000000000000        0.0000000000000000     
  0.18750000000000000       0.90625000000000000        0.0000000000000000     
  0.21875000000000000       0.90625000000000000        0.0000000000000000     
  0.25000000000000000       0.90625000000000000        0.0000000000000000     
  0.12500000000000000       0.93750000000000000        0.0000000000000000     
  0.15625000000000000       0.93750000000000000        0.0000000000000000     
  0.18750000000000000       0.93750000000000000        0.0000000000000000     
  0.21875000000000000       0.93750000000000000        0.0000000000000000     
  0.25000000000000000       0.93750000000000000        0.0000000000000000     
  0.12500000000000000       0.96875000000000000        0.0000000000000000     
  0.15625000000000000       0.96875000000000000        0.0000000000000000     
  0.18750000000000000       0.96875000000000000        0.0000000000000000     
  0.21875000000000000       0.96875000000000000        0.0000000000000000     
  0.25000000000000000       0.96875000000000000        0.0000000000000000     
  0.12500000000000000        1.0000000000000000        0.0000000000000000     
  0.15625000000000000        1.0000000000000000        0.0000000000000000     
  0.18750000000000000        1.0000000000000000        0.0000000000000000     
  0.21875000000000000        1.0000000000000000        0.0000000000000000     
  0.25000000000000000        1.0000000000000000        0.0000000000000000     
  0.25000000000000000       0.87500000000000000        0.0000000000000000     
  0.28125000000000000       0.87500000000000000        0.0000000000000000     
  0.31250000000000000       0.87500000000000000        0.0000000000000000     
  0.34375000000000000       0.87500000000000000        0.0000000000000000     
  0.37500000000000000       0.87500000000000000        0.0000000000000000     
  0.25000000000000000       0.90625000000000000        0.0000000000000000     
  0.28125000000000000       0.90625000000000000        0.0000000000000000     
  0.31250000000000000       0.90625000000000000        0.0000000000000000     
  0.34375000000000000       0.90625000000000000        0.0000000000000000     
  0.37500000000000000       0.90625000000000000        0.0000000000000000     
  0.25000000000000000       0.93750000000000000        0.0000000000000000     
  0.28125000000000000       0.93750000000000000        0.0000000000000000     
  0.31250000000000000       0.93750000000000000        0.0000000000000000     
  0.34375000000000000       0.93750000000000000        0.0000000000000000     
  0.37500000000000000       0.93750000000000000        0.0000000000000000     
  0.25000000000000000       0.96875000000000000        0.0000000000000000     
  0.28125000000000000       0.96875000000000000        0.0000000000000000     
  0.31250000000000000       0.96875000000000000        0.0000000000000000     
  0.34375000000000000       0.96875000000000000        0.0000000000000000     
  0.37500000000000000       0.96875000000000000        0.0000000000000000     
  0.25000000000000000        1.0000000000000000        0.0000000000000000     
  0.28125000000000000        1.0000000000000000        0.0000000000000000     
  0.31250000000000000        1.0000000000000000        0.0000000000000000     
  0.34375000000000000        1.0000000000000000        0.0000000000000000     
  0.37500000000000000        1.0000000000000000        0.0000000000000000     
  0.37500000000000000       0.87500000000000000        0.0000000000000000     
  0.40625000000000000       0.87500000000000000        0.0000000000000000     
  0.43750000000000000       0.87500000000000000        0.0000000000000000     
  0.46875000000000000       0.87500000000000000        0.0000000000000000     
  0.50000000000000000       0.87500000000000000        0.0000000000000000     
  0.37500000000000000       0.90625000000000000        0.0000000000000000     
  0.40625000000000000       0.90625000000000000        0.0000000000000000     
  0.43750000000000000       0.90625000000000000        0.0000000000000000     
  0.46875000000000000       0.90625000000000000        0.0000000000000000     
  0.50000000000000000       0.90625000000000000        0.0000000000000000     
  0.37500000000000000       0.93750000000000000        0.0000000000000000     
  0.40625000000000000       0.93750000000000000        0.0000000000000000     
  0.43750000000000000       0.93750000000000000        0.0000000000000000     
  0.46875000000000000       0.93750000000000000        0.0000000000000000     
  0.50000000000000000       0.93750000000000000        0.0000000000000000     
  0.37500000000000000       0.96875000000000000        0.0000000000000000     
  0.40625000000000000       0.96875000000000000        0.0000000000000000     
  0.43750000000000000       0.96875000000000000        0.0000000000000000     
  0.46875000000000000       0.96875000000000000        0.0000000000000000     
  0.50000000000000000       0.96875000000000000        0.0000000000000000     
  0.37500000000000000        1.0000000000000000        0.0000000000000000     
  0.40625000000000000        1.0000000000000000        0.0000000000000000     
  0.43750000000000000        1.0000000000000000        0.0000000000000000     
  0.46875000000000000        1.0000000000000000        0.0000000000000000     
  0.50000000000000000        1.0000000000000000        0.0000000000000000     
  0.50000000000000000       0.87500000000000000        0.0000000000000000     
  0.53125000000000000       0.87500000000000000        0.0000000000000000     
  0.56250000000000000       0.87500000000000000        0.0000000000000000     
  0.59375000000000000       0.87500000000000000        0.0000000000000000     
  0.62500000000000000       0.87500000000000000        0.0000000000000000     
  0.50000000000000000       0.90625000000000000        0.0000000000000000     
  0.53125000000000000       0.90625000000000000        0.0000000000000000     
  0.56250000000000000       0.90625000000000000        0.0000000000000000     
  0.59375000000000000       0.90625000000000000        0.0000000000000000     
  0.62500000000000000       0.90625000000000000        0.0000000000000000     
  0.50000000000000000       0.93750000000000000        0.0000000000000000     
  0.53125000000000000       0.93750000000000000        0.0000000000000000     
  0.56250000000000000       0.93750000000000000        0.0000000000000000     
  0.59375000000000000       0.93750000000000000        0.0000000000000000     
  0.62500000000000000       0.93750000000000000        0.0000000000000000     
  0.50000000000000000       0.96875000000000000        0.0000000000000000     
  0.53125000000000000       0.96875000000000000        0.0000000000000000     
  0.56250000000000000       0.96875000000000000        0.0000000000000000     
  0.59375000000000000       0.96875000000000000        0.0000000000000000     
  0.62500000000000000       0.96875000000000000        0.0000000000000000     
  0.50000000000000000        1.0000000000000000        0.0000000000000000     
  0.53125000000000000        1.0000000000000000        0.0000000000000000     
  0.56250000000000000        1.0000000000000000        0.0000000000000000     
  0.59375000000000000        1.0000000000000000        0.0000000000000000     
  0.62500000000000000        1.0000000000000000        0.0000000000000000     
  0.62500000000000000       0.87500000000000000        0.0000000000000000     
  0.65625000000000000       0.87500000000000000        0.0000000000000000     
  0.68750000000000000       0.87500000000000000        0.0000000000000000     
  0.71875000000000000       0.87500000000000000        0.0000000000000000     
  0.75000000000000000       0.87500000000000000        0.0000000000000000     
  0.62500000000000000       0.90625000000000000        0.0000000000000000     
  0.65625000000000000       0.90625000000000000        0.0000000000000000     
  0.68750000000000000       0.90625000000000000        0.0000000000000000     
  0.71875000000000000       0.90625000000000000        0.0000000000000000     
  0.75000000000000000       0.90625000000000000        0.0000000000000000     
  0.62500000000000000       0.93750000000000000        0.0000000000000000     
  0.65625000000000000       0.93750000000000000        0.0000000000000000     
  0.68750000000000000       0.93750000000000000        0.0000000000000000     
  0.71875000000000000       0.93750000000000000        0.0000000000000000     
  0.75000000000000000       0.93750000000000000        0.0000000000000000     
  0.62500000000000000       0.96875000000000000        0.0000000000000000     
  0.65625000000000000       0.96875000000000000        0.0000000000000000     
  0.68750000000000000       0.96875000000000000        0.0000000000000000     
  0.71875000000000000       0.96875000000000000        0.0000000000000000     
  0.75000000000000000       0.96875000000000000        0.0000000000000000     
  0.62500000000000000        1.0000000000000000        0.0000000000000000     
  0.65625000000000000        1.0000000000000000        0.0000000000000000     
  0.68750000000000000        1.0000000000000000        0.0000000000000000     
  0.71875000000000000        1.0000000000000000        0.0000000000000000     
  0.75000000000000000        1.0000000000000000        0.0000000000000000     
  0.75000000000000000       0.87500000000000000        0.0000000000000000     
  0.78125000000000000       0.87500000000000000        0.0000000000000000     
  0.81250000000000000       0.87500000000000000        0.0000000000000000     
  0.84375000000000000       0.87500000000000000        0.0000000000000000     
  0.87500000000000000       0.87500000000000000        0.0000000000000000     
  0.75000000000000000       0.90625000000000000        0.0000000000000000     
  0.78125000000000000       0.90625000000000000        0.0000000000000000     
  0.81250000000000000       0.90625000000000000        0.0000000000000000     
  0.84375000000000000       0.90625000000000000        0.0000000000000000     
  0.87500000000000000       0.90625000000000000        0.0000000000000000     
  0.75000000000000000       0.93750000000000000        0.0000000000000000     
  0.78125000000000000       0.93750000000000000        0.0000000000000000     
  0.81250000000000000       0.93750000000000000        0.0000000000000000     
  0.84375000000000000       0.93750000000000000        0.0000000000000000     
  0.87500000000000000       0.93750000000000000        0.0000000000000000     
  0.75000000000000000       0.96875000000000000        0.0000000000000000     
  0.78125000000000000       0.96875000000000000        0.0000000000000000     
  0.81250000000000000       0.96875000000000000        0.0000000000000000     
  0.84375000000000000       0.96875000000000000        0.0000000000000000     
  0.87500000000000000       0.96875000000000000        0.0000000000000000     
  0.75000000000000000        1.0000000000000000        0.0000000000000000     
  0.78125000000000000        1.0000000000000000        0.0000000000000000     
  0.81250000000000000        1.0000000000000000        0.0000000000000000     
  0.84375000000000000        1.0000000000000000        0.0000000000000000     
  0.87500000000000000        1.0000000000000000        0.0000000000000000     
  0.87500000000000000       0.87500000000000000        0.0000000000000000     
  0.90625000000000000       0.87500000000000000        0.0000000000000000     
  0.93750000000000000       0.87500000000000000        0.0000000000000000     
  0.96875000000000000       0.87500000000000000        0.0000000000000000     
   1.0000000000000000       0.87500000000000000        0.0000000000000000     
  0.87500000000000000       0.90625000000000000        0.0000000000000000     
  0.90625000000000000       0.90625000000000000        0.0000000000000000     
  0.93750000000000000       0.90625000000000000        0.0000000000000000     
  0.96875000000000000       0.90625000000000000        0.0000000000000000     
   1.0000000000000000       0.90625000000000000        0.0000000000000000     
  0.87500000000000000       0.93750000000000000        0.0000000000000000     
  0.90625000000000000       0.93750000000000000        0.0000000000000000     
  0.93750000000000000       0.93750000000000000        0.0000000000000000     
  0.96875000000000000       0.93750000000000000        0.0000000000000000     
   1.0000000000000000       0.93750000000000000        0.0000000000000000     
  0.87500000000000000       0.96875000000000000        0.0000000000000000     
  0.90625000000000000       0.96875000000000000        0.0000000000000000     
  0.93750000000000000       0.96875000000000000        0.0000000000000000     
  0.96875000000000000       0.96875000000000000        0.0000000000000000     
   1.0000000000000000       0.96875000000000000        0.0000000000000000     
  0.87500000000000000        1.0000000000000000        0.0000000000000000     
  0.90625000000000000        1.0000000000000000        0.0000000000000000     
  0.93750000000000000        1.0000000000000000        0.0000000000000000     
  0.96875000000000000        1.0000000000000000        0.0000000000000000     
   1.0000000000000000        1.0000000000000000        0.0000000000000000     
 </DataArray>
 </Points>
 <Cells>
 <DataArray  type="Int32"  Name="connectivity"  format="ascii">
           0           1           6           5
           1           2           7           6
           2           3           8           7
           3           4           9           8
           5           6          11          10
           6           7          12          11
           7           8          13          12
           8           9          14          13
          10          11          16          15
          11          12          17          16
          12          13          18          17
          13          14          19          18
          15          16          21          20
          16          17          22          21
          17          18          23          22
          18          19          24          23
          25          26          31          30
          26          27          32          31
          27          28          33          32
          28          29          34          33
          30          31          36          35
          31          32          37          36
          32          33          38          37
          33          34          39          38
          35          36          41          40
          36          37          42          41
          37          38          43          42
          38          39          44          43
          40          41          46          45
          41          42          47          46
          42          43          48          47
          43          44          49          48
          50          51          56          55
          51          52          57          56
          52          53          58          57
          53          54          59          58
          55          56          61          60
          56          57          62          61
          57          58          63          62
          58          59          64          63
          60          61          66          65
          61          62          67          66
          62          63          68          67
          63          64          69          68
          65          66          71          70
          66          67          72          71
          67          68          73          72
          68          69          74          73
          75          76          81          80
          76          77          82          81
          77          78          83          82
          78          79          84          83
          80          81          86          85
          81          82          87          86
          82          83          88          87
          83          84          89          88
          85          86          91          90
          86          87          92          91
          87          88          93          92
          88          89          94          93
          90          91          96          95
          91          92          97          96
          92          93          98          97
          93          94          99          98
         100         101         106         105
         101         102         107         106
         102         103         108         107
         103         104         109         108
         105         106         111         110
         106         107         112         111
         107         108         113         112
         108         109         114         113
         110         111         116         115
         111         112         117         116
         112         113         118         117
         113         114         119         118
         115         116         121         120
         116         117         122         121
         117         118         123         122
         118         119         124         123
         125         126         131         130
         126         127         132         131
         127         128         133         132
         128         129         134         133
         130         131         136         135
         131         132         137         136
         132         133         138         137
         133         134         139         138
         135         136         141         140
         136         137         142         141
         137         138         143         142
         138         139         144         143
         140         141         146         145
         141         142         147         146
         142         143         148         147
         143         144         149         148
         150         151         156         155
         151         152         157         156
         152         153         158         157
         153         154         159         158
         155         156         161         160
         156         157         162         161
         157         158         163         162
         158         159         164         163
         160         161         166         165
         161         162         167         166
         162         163         168         167
         163         164         169         168
         165         166         171         170
         166         167         172         171
         167         168         173         172
         168         169         174         173
         175         176         181         180
         176         177         182         181
         177         178         183         182
         178         179         184         183
         180         181         186         185
         181         182         187         186
         182         183         188         187
         183         184         189         188
         185         186         191         190
         186         187         192         191
         187         188         193         192
         188         189         194         193
         190         191         196         195
         191         192         197         196
         192         193         198         197
         193         194         199         198
         200         201         206         205
         201         202         207         206
         202         203         208         207
         203         204         209         208
         205         206         211         210
         206         207         212         211
         207         208         213         212
         208         209         214         213
         210         211         216         215
         211         212         217         216
         212         213         218         217
         213         214         219         218
         215         216         221         220
         216         217         222         221
         217         218         223         222
         218         219         224         223
         225         226         231         230
         226         227         232         231
         227         228         233         232
         228         229         234         233
         230         231         236         235
         231         232         237         236
         232         233         238         237
         233         234         239         238
         235         236         241         240
         236         237         242         241
         237         238         243         242
         238         239         244         243
         240         241         246         245
         241         242         247         246
         242         243         248         247
         243         244         249         248
         250         251         256         255
         251         252         257         256
         252         253         258         257
         253         254         259         258
         255         256         261         260
         256         257         262         261
         257         258         263         262
         258         259         264         263
         260         261         266         265
         261         262         267         266
         262         263         268         267
         263         264         269         268
         265         266         271         270
         266         267         272         271
         267         268         273         272
         268         269         274         273
         275         276         281         280
         276         277         282         281
         277         278         283         282
         278         279         284         283
         280         281         286         285
         281         282         287         286
         282         283         288         287
         283         284         289         288
         285         286         291         290
         286         287         292         291
         287         288         293         292
         288         289         294         293
         290         291         296         295
         291         292         297         296
         292         293         298         297
         293         294         299         298
         300         301         306         305
         301         302         307         306
         302         303         308         307
         303         304         309         308
         305         306         311         310
         306         307         312         311
         307         308         313         312
         308         309         314         313
         310         311         316         315
         311         312         317         316
         312         313         318         317
         313         314         319         318
         315         316         321         320
         316         317         322         321
         317         318         323         322
         318         319         324         323
         325         326         331         330
         326         327         332         331
         327         328         333         332
         328         329         334         333
         330         331         336         335
         331         332         337         336
         332         333         338         337
         333         334         339         338
         335         336         341         340
         336         337         342         341
         337         338         343         342
         338         339         344         343
         340         341         346         345
         341         342         347         346
         342         343         348         347
         343         344         349         348
         350         351         356         355
         351         352         357         356
         352         353         358         357
         353         354         359         358
         355         356         361         360
         356         357         362         361
         357         358         363         362
         358         359         364         363
         360         361         366         365
         361         362         367         366
         362         363         368         367
         363         364         369         368
         365         366         371         370
         366         367         372         371
         367         368         373         372
         368         369         374         373
         375         376         381         380
         376         377         382         381
         377         378         383         382
         378         379         384         383
         380         381         386         385
         381         382         387         386
         382         383         388         387
         383         384         389         388
         385         386         391         390
         386         387         392         391
         387         388         393         392
         388         389         394         393
         390         391         396         395
         391         392         397         396
         392         393         398         397
         393         394         399         398
         400         401         406         405
         401         402         407         406
         402         403         408         407
         403         404         409         408
         405         406         411         410
         406         407         412         411
         407         408         413         412
         408         409         414         413
         410         411         416         415
         411         412         417         416
         412         413         418         417
         413         414         419         418
         415         416         421         420
         416         417         422         421
         417         418         423         422
         418         419         424         423
         425         426         431         430
         426         427         432         431
         427         428         433         432
         428         429         434         433
         430         431         436         435
         431         432         437         436
         432         433         438         437
         433         434         439         438
         435         436         441         440
         436         437         442         441
         437         438         443         442
         438         439         444         443
         440         441         446         445
         441         442         447         446
         442         443         448         447
         443         444         449         448
         450         451         456         455
         451         452         457         456
         452         453         458         457
         453         454         459         458
         455         456         461         460
         456         457         462         461
         457         458         463         462
         458         459         464         463
         460         461         466         465
         461         462         467         466
         462         463         468         467
         463         464         469         468
         465         466         471         470
         466         467         472         471
         467         468         473         472
         468         469         474         473
         475         476         481         480
         476         477         482         481
         477         478         483         482
         478         479         484         483
         480         481         486         485
         481         482         487         486
         482         483         488         487
         483         484         489         488
         485         486         491         490
         486         487         492         491
         487         488         493         492
         488         489         494         493
         490         491         496         495
         491         492         497         496
         492         493         498         497
         493         494         499         498
         500         501         506         505
         501         502         507         506
         502         503         508         507
         503         504         509         508
         505         506         511         510
         506         507         512         511
         507         508         513         512
         508         509         514         513
         510         511         516         515
         511         512         517         516
         512         513         518         517
         513         514         519         518
         515         516         521         520
         516         517         522         521
         517         518         523         522
         518         519         524         523
         525         526         531         530
         526         527         532         531
         527         528         533         532
         528         529         534         533
         530         531         536         535
         531         532         537         536
         532         533         538         537
         533         534         539         538
         535         536         541         540
         536         537         542         541
         537         538         543         542
         538         539         544         543
         540         541         546         545
         541         542         547         546
         542         543         548         547
         543         544         549         548
         550         551         556         555
         551         552         557         556
         552         553         558         557
         553         554         559         558
         555         556         561         560
         556         557         562         561
         557         558         563         562
         558         559         564         563
         560         561         566         565
         561         562         567         566
         562         563         568         567
         563         564         569         568
         565         566         571         570
         566         567         572         571
         567         568         573         572
         568         569         574         573
         575         576         581         580
         576         577         582         581
         577         578         583         582
         578         579         584         583
         580         581         586         585
         581         582         587         586
         582         583         588         587
         583         584         589         588
         585         586         591         590
         586         587         592         591
         587         588         593         592
         588         589         594         593
         590         591         596         595
         591         592         597         596
         592         593         598         597
         593         594         599         598
         600         601         606         605
         601         602         607         606
         602         603         608         607
         603         604         609         608
         605         606         611         610
         606         607         612         611
         607         608         613         612
         608         609         614         613
         610         611         616         615
         611         612         617         616
         612         613         618         617
         613         614         619         618
         615         616         621         620
         616         617         622         621
         617         618         623         622
         618         619         624         623
         625         626         631         630
         626         627         632         631
         627         628         633         632
         628         629         634         633
         630         631         636         635
         631         632         637         636
         632         633         638         637
         633         634         639         638
         635         636         641         640
         636         637         642         641
         637         638         643         642
         638         639         644         643
         640         641         646         645
         641         642         647         646
         642         643         648         647
         643         644         649         648
         650         651         656         655
         651         652         657         656
         652         653         658         657
         653         654         659         658
         655         656         661         660
         656         657         662         661
         657         658         663         662
         658         659         664         663
         660         661         666         665
         661         662         667         666
         662         663         668         667
         663         664         669         668
         665         666         671         670
         666         667         672         671
         667         668         673         672
         668         669         674         673
         675         676         681         680
         676         677         682         681
         677         678         683         682
         678         679         684         683
         680         681         686         685
         681         682         687         686
         682         683         688         687
         683         684         689         688
         685         686         691         690
         686         687         692         691
         687         688         693         692
         688         689         694         693
         690         691         696         695
         691         692         697         696
         692         693         698         697
         693         694         699         698
         700         701         706         705
         701         702         707         706
         702         703         708         707
         703         704         709         708
         705         706         711         710
         706         707         712         711
         707         708         713         712
         708         709         714         713
         710         711         716         715
         711         712         717         716
         712         713         718         717
         713         714         719         718
         715         716         721         720
         716         717         722         721
         717         718         723         722
         718         719         724         723
         725         726         731         730
         726         727         732         731
         727         728         733         732
         728         729         734         733
         730         731         736         735
         731         732         737         736
         732         733         738         737
         733         734         739         738
         735         736         741         740
         736         737         742         741
         737         738         743         742
         738         739         744         743
         740         741         746         745
         741         742         747         746
         742         743         748         747
         743         744         749         748
         750         751         756         755
         751         752         757         756
         752         753         758         757
         753         754         759         758
         755         756         761         760
         756         757         762         761
         757         758         763         762
         758         759         764         763
         760         761         766         765
         761         762         767         766
         762         763         768         767
         763         764         769         768
         765         766         771         770
         766         767         772         771
         767         768         773         772
         768         769         774         773
         775         776         781         780
         776         777         782         781
         777         778         783         782
         778         779         784         783
         780         781         786         785
         781         782         787         786
         782         783         788         787
         783         784         789         788
         785         786         791         790
         786         787         792         791
         787         788         793         792
         788         789         794         793
         790         791         796         795
         791         792         797         796
         792         793         798         797
         793         794         799         798
         800         801         806         805
         801         802         807         806
         802         803         808         807
         803         804         809         808
         805         806         811         810
         806         807         812         811
         807         808         813         812
         808         809         814         813
         810         811         816         815
         811         812         817         816
         812         813         818         817
         813         814         819         818
         815         816         821         820
         816         817         822         821
         817         818         823         822
         818         819         824         823
         825         826         831         830
         826         827         832         831
         827         828         833         832
         828         829         834         833
         830         831         836         835
         831         832         837         836
         832         833         838         837
         833         834         839         838
         835         836         841         840
         836         837         842         841
         837         838         843         842
         838         839         844         843
         840         841         846         845
         841         842         847         846
         842         843         848         847
         843         844         849         848
         850         851         856         855
         851         852         857         856
         852         853         858         857
         853         854         859         858
         855         856         861         860
         856         857         862         861
         857         858         863         862
         858         859         864         863
         860         861         866         865
         861         862         867         866
         862         863         868         867
         863         864         869         868
         865         866         871         870
         866         867         872         871
         867         868         873         872
         868         869         874         873
         875         876         881         880
         876         877         882         881
         877         878         883         882
         878         879         884         883
         880         881         886         885
         881         882         887         886
         882         883         888         887
         883         884         889         888
         885         886         891         890
         886         887         892         891
         887         888         893         892
         888         889         894         893
         890         891         896         895
         891         892         897         896
         892         893         898         897
         893         894         899         898
         900         901         906         905
         901         902         907         906
         902         903         908         907
         903         904         909         908
         905         906         911         910
         906         907         912         911
         907         908         913         912
         908         909         914         913
         910         911         916         915
         911         912         917         916
         912         913         918         917
         913         914         919         918
         915         916         921         920
         916         917         922         921
         917         918         923         922
         918         919         924         923
         925         926         931         930
         926         927         932         931
         927         928         933         932
         928         929         934         933
         930         931         936         935
         931         932         937         936
         932         933         938         937
         933         934         939         938
         935         936         941         940
         936         937         942         941
         937         938         943         942
         938         939         944         943
         940         941         946         945
         941         942         947         946
         942         943         948         947
         943         944         949         948
         950         951         956         955
         951         952         957         956
         952         953         958         957
         953         954         959         958
         955         956         961         960
         956         957         962         961
         957         958         963         962
         958         959         964         963
         960         961         966         965
         961         962         967         966
         962         963         968         967
         963         964         969         968
         965         966         971         970
         966         967         972         971
         967         968         973         972
         968         969         974         973
         975         976         981         980
         976         977         982         981
         977         978         983         982
         978         979         984         983
         980         981         986         985
         981         982         987         986
         982         983         988         987
         983         984         989         988
         985         986         991         990
         986         987         992         991
         987         988         993         992
         988         989         994         993
         990         991         996         995
         991         992         997         996
         992         993         998         997
         993         994         999         998
        1000        1001        1006        1005
        1001        1002        1007        1006
        1002        1003        1008        1007
        1003        1004        1009        1008
        1005        1006        1011        1010
        1006        1007        1012        1011
        1007        1008        1013        1012
        1008        1009        1014        1013
        1010        1011        1016        1015
        1011        1012        1017        1016
        1012        1013        1018        1017
        1013        1014        1019        1018
        1015        1016        1021        1020
        1016        1017        1022        1021
        1017        1018        1023        1022
        1018        1019        1024        1023
        1025        1026        1031        1030
        1026        1027        1032        1031
        1027        1028        1033        1032
        1028        1029        1034        1033
        1030        1031        1036        1035
        1031        1032        1037        1036
        1032        1033        1038        1037
        1033        1034        1039        1038
        1035        1036        1041        1040
        1036        1037        1042        1041
        1037        1038        1043        1042
        1038        1039        1044        1043
        1040        1041        1046        1045
        1041        1042        1047        1046
        1042        1043        1048        1047
        1043        1044        1049        1048
        1050        1051        1056        1055
        1051        1052        1057        1056
        1052        1053        1058        1057
        1053        1054        1059        1058
        1055        1056        1061        1060
        1056        1057        1062        1061
        1057        1058        1063        1062
        1058        1059        1064        1063
        1060        1061        1066        1065
        1061        1062        1067        1066
        1062        1063        1068        1067
        1063        1064        1069        1068
        1065        1066        1071        1070
        1066        1067        1072        1071
        1067        1068        1073        1072
        1068        1069        1074        1073
        1075        1076        1081        1080
        1076        1077        1082        1081
        1077        1078        1083        1082
        1078        1079        1084        1083
        1080        1081        1086        1085
        1081        1082        1087        1086
        1082        1083        1088        1087
        1083        1084        1089        1088
        1085        1086        1091        1090
        1086        1087        1092        1091
        1087        1088        1093        1092
        1088        1089        1094        1093
        1090        1091        1096        1095
        1091        1092        1097        1096
        1092        1093        1098        1097
        1093        1094        1099        1098
        1100        1101        1106        1105
        1101        1102        1107        1106
        1102        1103        1108        1107
        1103        1104        1109        1108
        1105        1106        1111        1110
        1106        1107        1112        1111
        1107        1108        1113        1112
        1108        1109        1114        1113
        1110        1111        1116        1115
        1111        1112        1117        1116
        1112        1113        1118        1117
        1113        1114        1119        1118
        1115        1116        1121        1120
        1116        1117        1122        1121
        1117        1118        1123        1122
        1118        1119        1124        1123
        1125        1126        1131        1130
        1126        1127        1132        1131
        1127        1128        1133        1132
        1128        1129        1134        1133
        1130        1131        1136        1135
        1131        1132        1137        1136
        1132        1133        1138        1137
        1133        1134        1139        1138
        1135        1136        1141        1140
        1136        1137        1142        1141
        1137        1138        1143        1142
        1138        1139        1144        1143
        1140        1141        1146        1145
        1141        1142        1147        1146
        1142        1143        1148        1147
        1143        1144        1149        1148
        1150        1151        1156        1155
        1151        1152        1157        1156
        1152        1153        1158        1157
        1153        1154        1159        1158
        1155        1156        1161        1160
        1156        1157        1162        1161
        1157        1158        1163        1162
        1158        1159        1164        1163
        1160        1161        1166        1165
        1161        1162        1167        1166
        1162        1163        1168        1167
        1163        1164        1169        1168
        1165        1166        1171        1170
        1166        1167        1172        1171
        1167        1168        1173        1172
        1168        1169        1174        1173
        1175        1176        1181        1180
        1176        1177        1182        1181
        1177        1178        1183        1182
        1178        1179        1184        1183
        1180        1181        1186        1185
        1181        1182        1187        1186
        1182        1183        1188        1187
        1183        1184        1189        1188
        1185        1186        1191        1190
        1186        1187        1192        1191
        1187        1188        1193        1192
        1188        1189        1194        1193
        1190        1191        1196        1195
        1191        1192        1197        1196
        1192        1193        1198        1197
        1193        1194        1199        1198
        1200        1201        1206        1205
        1201        1202        1207        1206
        1202        1203        1208        1207
        1203        1204        1209        1208
        1205        1206        1211        1210
        1206        1207        1212        1211
        1207        1208        1213        1212
        1208        1209        1214        1213
        1210        1211        1216        1215
        1211        1212        1217        1216
        1212        1213        1218        1217
        1213        1214        1219        1218
        1215        1216        1221        1220
        1216        1217        1222        1221
        1217        1218        1223        1222
        1218        1219        1224        1223
        1225        1226        1231        1230
        1226        1227        1232        1231
        1227        1228        1233        1232
        1228        1229        1234        1233
        1230        1231        1236        1235
        1231        1232        1237        1236
        1232        1233        1238        1237
        1233        1234        1239        1238
        1235        1236        1241        1240
        1236        1237        1242        1241
        1237        1238        1243        1242
        1238        1239        1244        1243
        1240        1241        1246        1245
        1241        1242        1247        1246
        1242        1243        1248        1247
        1243        1244        1249        1248
        1250        1251        1256        1255
        1251        1252        1257        1256
        1252        1253        1258        1257
        1253        1254        1259        1258
        1255        1256        1261        1260
        1256        1257        1262        1261
        1257        1258        1263        1262
        1258        1259        1264        1263
        1260        1261        1266        1265
        1261        1262        1267        1266
        1262        1263        1268        1267
        1263        1264        1269        1268
        1265        1266        1271        1270
        1266        1267        1272        1271
        1267        1268        1273        1272
        1268        1269        1274        1273
        1275        1276        1281        1280
        1276        1277        1282        1281
        1277        1278        1283        1282
        1278        1279        1284        1283
        1280        1281        1286        1285
        1281        1282        1287        1286
        1282        1283        1288        1287
        1283        1284        1289        1288
        1285        1286        1291        1290
        1286        1287        1292        1291
        1287        1288        1293        1292
        1288        1289        1294        1293
        1290        1291        1296        1295
        1291        1292        1297        1296
        1292        1293        1298        1297
        1293        1294        1299        1298
        1300        1301        1306        1305
        1301        1302        1307        1306
        1302        1303        1308        1307
        1303        1304        1309        1308
        1305        1306        1311        1310
        1306        1307        1312        1311
        1307        1308        1313        1312
        1308        1309        1314        1313
        1310        1311        1316        1315
        1311        1312        1317        1316
        1312        1313        1318        1317
        1313        1314        1319        1318
        1315        1316        1321        1320
        1316        1317        1322        1321
        1317        1318        1323        1322
        1318        1319        1324        1323
        1325        1326        1331        1330
        1326        1327        1332        1331
        1327        1328        1333        1332
        1328        1329        1334        1333
        1330        1331        1336        1335
        1331        1332        1337        1336
        1332        1333        1338        1337
        1333        1334        1339        1338
        1335        1336        1341        1340
        1336        1337        1342        1341
        1337        1338        1343        1342
        1338        1339        1344        1343
        1340        1341        1346        1345
        1341        1342        1347        1346
        1342        1343        1348        1347
        1343        1344        1349        1348
        1350        1351        1356        1355
        1351        1352        1357        1356
        1352        1353        1358        1357
        1353        1354        1359        1358
        1355        1356        1361        1360
        1356        1357        1362        1361
        1357        1358        1363        1362
        1358        1359        1364        1363
        1360        1361        1366        1365
        1361        1362        1367        1366
        1362        1363        1368        1367
        1363        1364        1369        1368
        1365        1366        1371        1370
        1366        1367        1372        1371
        1367        1368        1373        1372
        1368        1369        1374        1373
        1375        1376        1381        1380
        1376        1377        1382        1381
        1377        1378        1383        1382
        1378        1379        1384        1383
        1380        1381        1386        1385
        1381        1382        1387        1386
        1382        1383        1388        1387
        1383        1384        1389        1388
        1385        1386        1391        1390
        1386        1387        1392        1391
        1387        1388        1393        1392
        1388        1389        1394        1393
        1390        1391        1396        1395
        1391        1392        1397        1396
        1392        1393        1398        1397
        1393        1394        1399        1398
        1400        1401        1406        1405
        1401        1402        1407        1406
        1402        1403        1408        1407
        1403        1404        1409        1408
        1405        1406        1411        1410
        1406        1407        1412        1411
        1407        1408        1413        1412
        1408        1409        1414        1413
        1410        1411        1416        1415
        1411        1412        1417        1416
        1412        1413        1418        1417
        1413        1414        1419        1418
        1415        1416        1421        1420
        1416        1417        1422        1421
        1417        1418        1423        1422
        1418        1419        1424        1423
        1425        1426        1431        1430
        1426        1427        1432        1431
        1427        1428        1433        1432
        1428        1429        1434        1433
        1430        1431        1436        1435
        1431        1432        1437        1436
        1432        1433        1438        1437
        1433        1434        1439        1438
        1435        1436        1441        1440
        1436        1437        1442        1441
        1437        1438        1443        1442
        1438        1439        1444        1443
        1440        1441        1446        1445
        1441        1442        1447        1446
        1442        1443        1448        1447
        1443        1444        1449        1448
        1450        1451        1456        1455
        1451        1452        1457        1456
        1452        1453        1458        1457
        1453        1454        1459        1458
        1455        1456        1461        1460
        1456        1457        1462        1461
        1457        1458        1463        1462
        1458        1459        1464        1463
        1460        1461        1466        1465
        1461        1462        1467        1466
        1462        1463        1468        1467
        1463        1464        1469        1468
        1465        1466        1471        1470
        1466        1467        1472        1471
        1467        1468        1473        1472
        1468        1469        1474        1473
        1475        1476        1481        1480
        1476        1477        1482        1481
        1477        1478        1483        1482
        1478        1479        1484        1483
        1480        1481        1486        1485
        1481        1482        1487        1486
        1482        1483        1488        1487
        1483        1484        1489        1488
        1485        1486        1491        1490
        1486        1487        1492        1491
        1487        1488        1493        1492
        1488        1489        1494        1493
        1490        1491        1496        1495
        1491        1492        1497        1496
        1492        1493        1498        1497
        1493        1494        1499        1498
        1500        1501        1506        1505
        1501        1502        1507        1506
        1502        1503        1508        1507
        1503        1504        1509        1508
        1505        1506        1511        1510
        1506        1507        1512        1511
        1507        1508        1513        1512
        1508        1509        1514        1513
        1510        1511        1516        1515
        1511        1512        1517        1516
        1512        1513        1518        1517
        1513        1514        1519        1518
        1515        1516        1521        1520
        1516        1517        1522        1521
        1517        1518        1523        1522
        1518        1519        1524        1523
        1525        1526        1531        1530
        1526        1527        1532        1531
        1527        1528        1533        1532
        1528        1529        1534        1533
        1530        1531        1536        1535
        1531        1532        1537        1536
        1532        1533        1538        1537
        1533        1534        1539        1538
        1535        1536        1541        1540
        1536        1537        1542        1541
        1537        1538        1543        1542
        1538        1539        1544        1543
        1540        1541        1546        1545
        1541        1542        1547        1546
        1542        1543        1548        1547
        1543        1544        1549        1548
        1550        1551        1556        1555
        1551        1552        1557        1556
        1552        1553        1558        1557
        1553        1554        1559        1558
        1555        1556        1561        1560
        1556        1557        1562        1561
        1557        1558        1563        1562
        1558        1559        1564        1563
        1560        1561        1566        1565
        1561        1562        1567        1566
        1562        1563        1568        1567
        1563        1564        1569        1568
        1565        1566        1571        1570
        1566        1567        1572        1571
        1567        1568        1573        1572
        1568        1569        1574        1573
        1575        1576        1581        1580
        1576        1577        1582        1581
        1577        1578        1583        1582
        1578        1579        1584        1583
        1580        1581        1586        1585
        1581        1582        1587        1586
        1582        1583        1588        1587
        1583        1584        1589        1588
        1585        1586        1591        1590
        1586        1587        1592        1591
        1587        1588        1593        1592
        1588        1589        1594        1593
        1590        1591        1596        1595
        1591        1592        1597        1596
        1592        1593        1598        1597
        1593        1594        1599        1598
 </DataArray>
 <DataArray  type="Int32"  Name="offsets"  format="ascii"> 
           4
           8
          12
          16
          20
          24
          28
          32
          36
          40
          44
          48
          52
          56
          60
          64
          68
          72
          76
          80
          84
          88
          92
          96
         100
         104
         108
         112
         116
         120
         124
         128
         132
         136
         140
         144
         148
         152
         156
         160
         164
         168
         172
         176
         180
         184
         188
         192
         196
         200
         204
         208
         212
         216
         220
         224
         228
         232
         236
         240
         244
         248
         252
         256
         260
         264
         268
         272
         276
         280
         284
         288
         292
         296
         300
         304
         308
         312
         316
         320
         324
         328
         332
         336
         340
         344
         348
         352
         356
         360
         364
         368
         372
         376
         380
         384
         388
         392
         396
         400
         404
         408
         412
         416
         420
         424
         428
         432
         436
         440
         444
         448
         452
         456
         460
         464
         468
         472
         476
         480
         484
         488
         492
         496
         500
         504
         508
         512
         516
         520
         524
         528
         532
         536
         540
         544
         548
         552
         556
         560
         564
         568
         572
         576
         580
         584
         588
         592
         596
         600
         604
         608
         612
         616
         620
         624
         628
         632
         636
         640
         644
         648
         652
         656
         660
         664
         668
         672
         676
         680
         684
         688
         692
         696
         700
         704
         708
         712
         716
         720
         724
         728
         732
         736
         740
         744
         748
         752
         756
         760
         764
         768
         772
         776
         780
         784
         788
         792
         796
         800
         804
         808
         812
         816
         820
         824
         828
         832
         836
         840
         844
         848
         852
         856
         860
         864
         868
         872
         876
         880
         884
         888
         892
         896
         900
         904
         908
         912
         916
         920
         924
         928
         932
         936
         940
         944
         948
         952
         956
         960
         964
         968
         972
         976
         980
         984
         988
         992
         996
        1000
        1004
        1008
        1012
        1016
        1020
        1024
        1028
        1032
        1036
        1040
        1044
        1048
        1052
        1056
        1060
        1064
        1068
        1072
        1076
        1080
        1084
        1088
        1092
        1096
        1100
        1104
        1108
        1112
        1116
        1120
        1124
        1128
        1132
        1136
        1140
        1144
        1148
        1152
        1156
        1160
        1164
        1168
        1172
        1176
        1180
        1184
        1188
        1192
        1196
        1200
        1204
        1208
        1212
        1216
        1220
        1224
        1228
        1232
        1236
        1240
        1244
        1248
        1252
        1256
        1260
        1264
        1268
        1272
        1276
        1280
        1284
        1288
        1292
        1296
        1300
        1304
        1308
        1312
        1316
        1320
        1324
        1328
        1332
        1336
        1340
        1344
        1348
        1352
        1356
        1360
        1364
        1368
        1372
        1376
        1380
        1384
        1388
        1392
        1396
        1400
        1404
        1408
        1412
        1416
        1420
        1424
        1428
        1432
        1436
        1440
        1444
        1448
        1452
        1456
        1460
        1464
        1468
        1472
        1476
        1480
        1484
        1488
        1492
        1496
        1500
        1504
        1508
        1512
        1516
        1520
        1524
        1528
        1532
        1536
        1540
        1544
        1548
        1552
        1556
        1560
        1564
        1568
        1572
        1576
        1580
        1584
        1588
        1592
        1596
        1600
        1604
        1608
        1612
        1616
        1620
        1624
        1628
        1632
        1636
        1640
        1644
        1648
        1652
        1656
        1660
        1664
        1668
        1672
        1676
        1680
        1684
        1688
        1692
        1696
        1700
        1704
        1708
        1712
        1716
        1720
        1724
        1728
        1732
        1736
        1740
        1744
        1748
        1752
        1756
        1760
        1764
        1768
        1772
        1776
        1780
        1784
        1788
        1792
        1796
        1800
        1804
        1808
        1812
        1816
        1820
        1824
        1828
        1832
        1836
        1840
        1844
        1848
        1852
        1856
        1860
        1864
        1868
        1872
        1876
        1880
        1884
        1888
        1892
        1896
        1900
        1904
        1908
        1912
        1916
        1920
        1924
        1928
        1932
        1936
        1940
        1944
        1948
        1952
        1956
        1960
        1964
        1968
        1972
        1976
        1980
        1984
        1988
        1992
        1996
        2000
        2004
        2008
        2012
        2016
        2020
        2024
        2028
        2032
        2036
        2040
        2044
        2048
        2052
        2056
        2060
        2064
        2068
        2072
        2076
        2080
        2084
        2088
        2092
        2096
        2100
        2104
        2108
        2112
        2116
        2120
        2124
        2128
        2132
        2136
        2140
        2144
        2148
        2152
        2156
        2160
        2164
        2168
        2172
        2176
        2180
        2184
        2188
        2192
        2196
        2200
        2204
        2208
        2212
        2216
        2220
        2224
        2228
        2232
        2236
        2240
        2244
        2248
        2252
        2256
        2260
        2264
        2268
        2272
        2276
        2280
        2284
        2288
        2292
        2296
        2300
        2304
        2308
        2312
        2316
        2320
        2324
        2328
        2332
        2336
        2340
        2344
        2348
        2352
        2356
        2360
        2364
        2368
        2372
        2376
        2380
        2384
        2388
        2392
        2396
        2400
        2404
        2408
        2412
        2416
        2420
        2424
        2428
        2432
        2436
        2440
        2444
        2448
        2452
        2456
        2460
        2464
        2468
        2472
        2476
        2480
        2484
        2488
        2492
        2496
        2500
        2504
        2508
        2512
        2516
        2520
        2524
        2528
        2532
        2536
        2540
        2544
        2548
        2552
        2556
        2560
        2564
        2568
        2572
        2576
        2580
        2584
        2588
        2592
        2596
        2600
        2604
        2608
        2612
        2616
        2620
        2624
        2628
        2632
        2636
        2640
        2644
        2648
        2652
        2656
        2660
        2664
        2668
        2672
        2676
        2680
        2684
        2688
        2692
        2696
        2700
        2704
        2708
        2712
        2716
        2720
        2724
        2728
        2732
        2736
        2740
        2744
        2748
        2752
        2756
        2760
        2764
        2768
        2772
        2776
        2780
        2784
        2788
        2792
        2796
        2800
        2804
        2808
        2812
        2816
        2820
        2824
        2828
        2832
        2836
        2840
        2844
        2848
        2852
        2856
        2860
        2864
        2868
        2872
        2876
        2880
        2884
        2888
        2892
        2896
        2900
        2904
        2908
        2912
        2916
        2920
        2924
        2928
        2932
        2936
        2940
        2944
        2948
        2952
        2956
        2960
        2964
        2968
        2972
        2976
        2980
        2984
        2988
        2992
        2996
        3000
        3004
        3008
        3012
        3016
        3020
        3024
        3028
        3032
        3036
        3040
        3044
        3048
        3052
        3056
        3060
        3064
        3068
        3072
        3076
        3080
        3084
        3088
        3092
        3096
        3100
        3104
        3108
        3112
        3116
        3120
        3124
        3128
        3132
        3136
        3140
        3144
        3148
        3152
        3156
        3160
        3164
        3168
        3172
        3176
        3180
        3184
        3188
        3192
        3196
        3200
        3204
        3208
        3212
        3216
        3220
        3224
        3228
        3232
        3236
        3240
        3244
        3248
        3252
        3256
        3260
        3264
        3268
        3272
        3276
        3280
        3284
        3288
        3292
        3296
        3300
        3304
        3308
        3312
        3316
        3320
        3324
        3328
        3332
        3336
        3340
        3344
        3348
        3352
        3356
        3360
        3364
        3368
        3372
        3376
        3380
        3384
        3388
        3392
        3396
        3400
        3404
        3408
        3412
        3416
        3420
        3424
        3428
        3432
        3436
        3440
        3444
        3448
        3452
        3456
        3460
        3464
        3468
        3472
        3476
        3480
        3484
        3488
        3492
        3496
        3500
        3504
        3508
        3512
        3516
        3520
        3524
        3528
        3532
        3536
        3540
        3544
        3548
        3552
        3556
        3560
        3564
        3568
        3572
        3576
        3580
        3584
        3588
        3592
        3596
        3600
        3604
        3608
        3612
        3616
        3620
        3624
        3628
        3632
        3636
        3640
        3644
        3648
        3652
        3656
        3660
        3664
        3668
        3672
        3676
        3680
        3684
        3688
        3692
        3696
        3700
        3704
        3708
        3712
        3716
        3720
        3724
        3728
        3732
        3736
        3740
        3744
        3748
        3752
        3756
        3760
        3764
        3768
        3772
        3776
        3780
        3784
        3788
        3792
        3796
        3800
        3804
        3808
        3812
        3816
        3820
        3824
        3828
        3832
        3836
        3840
        3844
        3848
        3852
        3856
        3860
        3864
        3868
        3872
        3876
        3880
        3884
        3888
        3892
        3896
        3900
        3904
        3908
        3912
        3916
        3920
        3924
        3928
        3932
        3936
        3940
        3944
        3948
        3952
        3956
        3960
        3964
        3968
        3972
        3976
        3980
        3984
        3988
        3992
        3996
        4000
        4004
        4008
        4012
        4016
        4020
        4024
        4028
        4032
        4036
        4040
        4044
        4048
        4052
        4056
        4060
        4064
        4068
        4072
        4076
        4080
        4084
        4088
        4092
        4096
 </DataArray>
 <DataArray  type="UInt8"  Name="types"  format="ascii">
 9
 9
 9
 9
 9
 9
 9
 9
 9
 9
 9
 9
 9
 9
 9
 9
 9
 9
 9
 9
 9
 9
 9
 9
 9
 9
 9
 9
 9
 9
 9
 9
 9
 9
 9
 9
 9
 9
 9
 9
 9
 9
 9
 9
 9
 9
 9
 9
 9
 9
 9
 9
 9
 9
 9
 9
 9
 9
 9
 9
 9
 9
 9
 9
 9
 9
 9
 9
 9
 9
 9
 9
 9
 9
 9
 9
 9
 9
 9
 9
 9
 9
 9
 9
 9
 9
 9
 9
 9
 9
 9
 9
 9
 9
 9
 9
 9
 9
 9
 9
 9
 9
 9
 9
 9
 9
 9
 9
 9
 9
 9
 9
 9
 9
 9
 9
 9
 9
 9
 9
 9
 9
 9
 9
 9
 9
 9
 9
 9
 9
 9
 9
 9
 9
 9
 9
 9
 9
 9
 9
 9
 9
 9
 9
 9
 9
 9
 9
 9
 9
 9
 9
 9
 9
 9
 9
 9
 9
 9
 9
 9
 9
 9
 9
 9
 9
 9
 9
 9
 9
 9
 9
 9
 9
 9
 9
 9
 9
 9
 9
 9
 9
 9
 9
 9
 9
 9
 9
 9
 9
 9
 9
 9
 9
 9
 9
 9
 9
 9
 9
 9
 9
 9
 9
 9
 9
 9
 9
 9
 9
 9
 9
 9
 9
 9
 9
 9
 9
 9
 9
 9
 9
 9
 9
 9
 9
 9
 9
 9
 9
 9
 9
 9
 9
 9
 9
 9
 9
 9
 9
 9
 9
 9
 9
 9
 9
 9
 9
 9
 9
 9
 9
 9
 9
 9
 9
 9
 9
 9
 9
 9
 9
 9
 9
 9
 9
 9
 9
 9
 9
 9
 9
 9
 9
 9
 9
 9
 9
 9
 9
 9
 9
 9
 9
 9
 9
 9
 9
 9
 9
 9
 9
 9
 9
 9
 9
 9
 9
 9
 9
 9
 9
 9
 9
 9
 9
 9
 9
 9
 9
 9
 9
 9
 9
 9
 9
 9
 9
 9
 9
 9
 9
 9
 9
 9
 9
 9
 9
 9
 9
 9
 9
 9
 9
 9
 9
 9
 9
 9
 9
 9
 9
 9
 9
 9
 9
 9
 9
 9
 9
 9
 9
 9
 9
 9
 9
 9
 9
 9
 9
 9
 9
 9
 9
 9
 9
 9
 9
 9
 9
 9
 9
 9
 9
 9
 9
 9
 9
 9
 9
 9
 9
 9
 9
 9
 9
 9
 9
 9
 9
 9
 9
 9
 9
 9
 9
 9
 9
 9
 9
 9
 9
 9
 9
 9
 9
 9
 9
 9
 9
 9
 9
 9
 9
 9
 9
 9
 9
 9
 9
 9
 9
 9
 9
 9
 9
 9
 9
 9
 9
 9
 9
 9
 9
 9
 9
 9
 9
 9
 9
 9
 9
 9
 9
 9
 9
 9
 9
 9
 9
 9
 9
 9
 9
 9
 9
 9
 9
 9
 9
 9
 9
 9
 9
 9
 9
 9
 9
 9
 9
 9
 9
 9
 9
 9
 9
 9
 9
 9
 9
 9
 9
 9
 9
 9
 9
 9
 9
 9
 9
 9
 9
 9
 9
 9
 9
 9
 9
 9
 9
 9
 9
 9
 9
 9
 9
 9
 9
 9
 9
 9
 9
 9
 9
 9
 9
 9
 9
 9
 9
 9
 9
 9
 9
 9
 9
 9
 9
 9
 9
 9
 9
 9
 9
 9
 9
 9
 9
 9
 9
 9
 9
 9
 9
 9
 9
 9
 9
 9
 9
 9
 9
 9
 9
 9
 9
 9
 9
 9
 9
 9
 9
 9
 9
 9
 9
 9
 9
 9
 9
 9
 9
 9
 9
 9
 9
 9
 9
 9
 9
 9
 9
 9
 9
 9
 9
 9
 9
 9
 9
 9
 9
 9
 9
 9
 9
 9
 9
 9
 9
 9
 9
 9
 9
 9
 9
 9
 9
 9
 9
 9
 9
 9
 9
 9
 9
 9
 9
 9
 9
 9
 9
 9
 9
 9
 9
 9
 9
 9
 9
 9
 9
 9
 9
 9
 9
 9
 9
 9
 9
 9
 9
 9
 9
 9
 9
 9
 9
 9
 9
 9
 9
 9
 9
 9
 9
 9
 9
 9
 9
 9
 9
 9
 9
 9
 9
 9
 9
 9
 9
 9
 9
 9
 9
 9
 9
 9
 9
 9
 9
 9
 9
 9
 9
 9
 9
 9
 9
 9
 9
 9
 9
 9
 9
 9
 9
 9
 9
 9
 9
 9
 9
 9
 9
 9
 9
 9
 9
 9
 9
 9
 9
 9
 9
 9
 9
 9
 9
 9
 9
 9
 9
 9
 9
 9
 9
 9
 9
 9
 9
 9
 9
 9
 9
 9
 9
 9
 9
 9
 9
 9
 9
 9
 9
 9
 9
 9
 9
 9
 9
 9
 9
 9
 9
 9
 9
 9
 9
 9
 9
 9
 9
 9
 9
 9
 9
 9
 9
 9
 9
 9
 9
 9
 9
 9
 9
 9
 9
 9
 9
 9
 9
 9
 9
 9
 9
 9
 9
 9
 9
 9
 9
 9
 9
 9
 9
 9
 9
 9
 9
 9
 9
 9
 9
 9
 9
 9
 9
 9
 9
 9
 9
 9
 9
 9
 9
 9
 9
 9
 9
 9
 9
 9
 9
 9
 9
 9
 9
 9
 9
 9
 9
 9
 9
 9
 9
 9
 9
 9
 9
 9
 9
 9
 9
 9
 9
 9
 9
 9
 9
 9
 9
 9
 9
 9
 9
 9
 9
 9
 9
 9
 9
 9
 9
 9
 9
 9
 9
 9
 9
 9
 9
 9
 9
 9
 9
 9
 9
 9
 9
 9
 9
 9
 9
 9
 9
 9
 9
 9
 9
 9
 9
 9
 9
 9
 9
 9
 9
 9
 9
 9
 9
 9
 9
 9
 9
 9
 9
 9
 9
 9
 9
 9
 9
 9
 9
 9
 9
 9
 9
 9
 9
 9
 9
 9
 9
 9
 9
 9
 9
 9
 9
 9
 9
 9
 9
 9
 9
 9
 9
 9
 9
 9
 9
 9
 9
 9
 9
 9
 9
 9
 9
 9
 9
 9
 9
 9
 9
 9
 9
 9
 9
 9
 9
 9
 9
 9
 9
 9
 9
 9
 9
 9
 9
 9
 9
 9
 9
 9
 9
 9
 9
 9
 9
 9
 9
 9
 9
 9
 9
 9
 9
 9
 9
 9
 9
 9
 9
 9
 9
 9
 9
 9
 9
 9
 9
 9
 9
 9
 9
 9
 9
 9
 9
 9
 9
 9
 9
 9
 9
 9
 9
 9
 9
 </DataArray>
 </Cells> 
 <PointData>
 <DataArray  type="Float64" Name="disp" NumberOfComponents="3" format="ascii">
   0.0000000000000000        0.0000000000000000        0.0000000000000000     
   6.0958536103733387E-003   3.7903288333759251E-003   0.0000000000000000     
   1.1665856670284058E-002   7.3237084900396512E-003   0.0000000000000000     
   1.6710009179732158E-002   1.0600138969991180E-002   0.0000000000000000     
   2.1228311138717641E-002   1.3619620273230510E-002   0.0000000000000000     
   0.0000000000000000        0.0000000000000000        0.0000000000000000     
   4.8910891851858184E-003   3.0220958245717653E-003   0.0000000000000000     
   9.5735453010298115E-003   6.0604594484616765E-003   0.0000000000000000     
   1.4047368347531980E-002   9.1150908716697340E-003   0.0000000000000000     
   1.8312558324692325E-002   1.2185990094195936E-002   0.0000000000000000     
   0.0000000000000000        0.0000000000000000        0.0000000000000000     
   3.9535381090414854E-003   2.4251041330667234E-003   0.0000000000000000     
   7.9105738660169705E-003   5.0628634917268527E-003   0.0000000000000000     
   1.1871107270926457E-002   7.9132780759803897E-003   0.0000000000000000     
   1.5835138323769940E-002   1.0976347885827333E-002   0.0000000000000000     
   0.0000000000000000        0.0000000000000000        0.0000000000000000     
   3.2832003819403379E-003   1.9993537588607994E-003   0.0000000000000000     
   6.6769423652455317E-003   4.3309206198351826E-003   0.0000000000000000     
   1.0181225949915584E-002   6.9947005829231503E-003   0.0000000000000000     
   1.3796051135950491E-002   9.9906936481247016E-003   0.0000000000000000     
   0.0000000000000000        0.0000000000000000        0.0000000000000000     
   2.8800760038823767E-003   1.7448447019539938E-003   0.0000000000000000     
   5.8726507987154975E-003   3.8646308327866643E-003   0.0000000000000000     
   8.9777243844993623E-003   6.3593583924980122E-003   0.0000000000000000     
   1.2195296761233971E-002   9.2290273810880369E-003   0.0000000000000000     
   2.1228311138717641E-002   1.3619620273230510E-002   0.0000000000000000     
   2.5433506987067461E-002   1.6612650099399710E-002   0.0000000000000000     
   2.9538341164608579E-002   1.9809726148140857E-002   0.0000000000000000     
   3.3542813671340994E-002   2.3210848419453936E-002   0.0000000000000000     
   3.7446924507264709E-002   2.6816016913338965E-002   0.0000000000000000     
   1.8312558324692325E-002   1.2185990094195936E-002   0.0000000000000000     
   2.2407268421889365E-002   1.5341463837436077E-002   0.0000000000000000     
   2.6369651828501622E-002   1.8649818822785939E-002   0.0000000000000000     
   3.0199708544529087E-002   2.2111055050245527E-002   0.0000000000000000     
   3.3897438569971780E-002   2.5725172519814841E-002   0.0000000000000000     
   1.5835138323769940E-002   1.0976347885827333E-002   0.0000000000000000     
   1.9730876899350804E-002   1.4210887594641329E-002   0.0000000000000000     
   2.3486532872472432E-002   1.7575711875796027E-002   0.0000000000000000     
   2.7102106243134805E-002   2.1070820729291433E-002   0.0000000000000000     
   3.0577597011337946E-002   2.4696214155127537E-002   0.0000000000000000     
   1.3796051135950491E-002   9.9906936481247016E-003   0.0000000000000000     
   1.7404332419451787E-002   1.3220921371015479E-002   0.0000000000000000     
   2.0888984296521005E-002   1.6587405307171132E-002   0.0000000000000000     
   2.4250006767158144E-002   2.0090145456591654E-002   0.0000000000000000     
   2.7487399831363210E-002   2.3729141819277041E-002   0.0000000000000000     
   1.2195296761233971E-002   9.2290273810880369E-003   0.0000000000000000     
   1.5427634982192306E-002   1.2371565166558518E-002   0.0000000000000000     
   1.8577006100647352E-002   1.5684899116911229E-002   0.0000000000000000     
   2.1643410116599111E-002   1.9169029232146178E-002   0.0000000000000000     
   2.4626847030047576E-002   2.2823955512263360E-002   0.0000000000000000     
   3.7446924507264709E-002   2.6816016913338965E-002   0.0000000000000000     
   4.1255395305874853E-002   3.0620781367046868E-002   0.0000000000000000     
   4.4972947700666559E-002   3.4620691517828574E-002   0.0000000000000000     
   4.8599581691639818E-002   3.8815747365684092E-002   0.0000000000000000     
   5.2135297278794651E-002   4.3205948910613405E-002   0.0000000000000000     
   3.3897438569971780E-002   2.5725172519814841E-002   0.0000000000000000     
   3.7486167698530880E-002   2.9521064660658923E-002   0.0000000000000000     
   4.0989221723907607E-002   3.3527624901942811E-002   0.0000000000000000     
   4.4406600646101940E-002   3.7744853243666492E-002   0.0000000000000000     
   4.7738304465113901E-002   4.2172749685829979E-002   0.0000000000000000     
   3.0577597011337946E-002   2.4696214155127537E-002   0.0000000000000000     
   3.3942441172956014E-002   2.8496431418829075E-002   0.0000000000000000     
   3.7226074723863189E-002   3.2516011785920791E-002   0.0000000000000000     
   4.0428497664059482E-002   3.6754955256402676E-002   0.0000000000000000     
   4.3549709993544877E-002   4.1213261830274732E-002   0.0000000000000000     
   2.7487399831363210E-002   2.3729141819277041E-002   0.0000000000000000     
   3.0624215729150261E-002   2.7546881641557330E-002   0.0000000000000000     
   3.3683506700533335E-002   3.1585852169762528E-002   0.0000000000000000     
   3.6665272745512449E-002   3.5846053403892651E-002   0.0000000000000000     
   3.9569513864087594E-002   4.0327485343947686E-002   0.0000000000000000     
   2.4626847030047576E-002   2.2823955512263360E-002   0.0000000000000000     
   2.7531491367113595E-002   2.6672415328843672E-002   0.0000000000000000     
   3.0361517653918015E-002   3.0737146053468022E-002   0.0000000000000000     
   3.3116925890460835E-002   3.5018147686136390E-002   0.0000000000000000     
   3.5797716076742050E-002   3.9515420226848799E-002   0.0000000000000000     
   5.2135297278794651E-002   4.3205948910613405E-002   0.0000000000000000     
   5.5576388611397042E-002   4.7795524346546901E-002   0.0000000000000000     
   5.8919149838713013E-002   5.2588701867414968E-002   0.0000000000000000     
   6.2163580960742544E-002   5.7585481473217591E-002   0.0000000000000000     
   6.5309681977485656E-002   6.2785863163954778E-002   0.0000000000000000     
   4.7738304465113901E-002   4.2172749685829979E-002   0.0000000000000000     
   5.0979911348112354E-002   4.6804969977467692E-002   0.0000000000000000     
   5.4126999462266213E-002   5.1635169867614045E-002   0.0000000000000000     
   5.7179568807575472E-002   5.6663349356269044E-002   0.0000000000000000     
   6.0137619384040122E-002   6.1889508443432696E-002   0.0000000000000000     
   4.3549709993544877E-002   4.1213261830274732E-002   0.0000000000000000     
   4.6585606839912821E-002   4.5878801067380293E-002   0.0000000000000000     
   4.9532083330756801E-002   5.0739442527562684E-002   0.0000000000000000     
   5.2389139466076776E-002   5.5795186210821891E-002   0.0000000000000000     
   5.5156775245872765E-002   6.1046032117157936E-002   0.0000000000000000     
   3.9569513864087594E-002   4.0327485343947686E-002   0.0000000000000000     
   4.2393475086798471E-002   4.5017017616284724E-002   0.0000000000000000     
   4.5134401444184770E-002   4.9901519847260878E-002   0.0000000000000000     
   4.7792292936246483E-002   5.4980992036876140E-002   0.0000000000000000     
   5.0367149562983604E-002   6.0255434185130519E-002   0.0000000000000000     
   3.5797716076742050E-002   3.9515420226848799E-002   0.0000000000000000     
   3.8403516088769275E-002   4.4219619624180972E-002   0.0000000000000000     
   4.0933953802550112E-002   4.9121401826708627E-002   0.0000000000000000     
   4.3389029218084560E-002   5.4220766834431777E-002   0.0000000000000000     
   4.5768742335372620E-002   5.9517714647350423E-002   0.0000000000000000     
   6.5309681977485656E-002   6.2785863163954778E-002   0.0000000000000000     
   6.8362347843988744E-002   6.8176754159528730E-002   0.0000000000000000     
   7.1326473515298194E-002   7.3745061679841697E-002   0.0000000000000000     
   7.4202058991413980E-002   7.9490785724893639E-002   0.0000000000000000     
   7.6989104272336142E-002   8.5413926294684570E-002   0.0000000000000000     
   6.0137619384040122E-002   6.1889508443432696E-002   0.0000000000000000     
   6.3006406826056641E-002   6.7304406458175217E-002   0.0000000000000000     
   6.5791186768021509E-002   7.2898802729566850E-002   0.0000000000000000     
   6.8491959209934700E-002   7.8672697257607574E-002   0.0000000000000000     
   7.1108724151796254E-002   8.4626090042297430E-002   0.0000000000000000     
   5.5156775245872765E-002   6.1046032117157936E-002   0.0000000000000000     
   5.7839999115803502E-002   6.6484766232142889E-002   0.0000000000000000     
   6.0443819521527699E-002   7.2104174541348834E-002   0.0000000000000000     
   6.2968236463045377E-002   7.7904257044775771E-002   0.0000000000000000     
   6.5413249940356494E-002   8.3885013742423686E-002   0.0000000000000000     
   5.0367149562983604E-002   6.0255434185130519E-002   0.0000000000000000     
   5.2863124713229306E-002   6.5717833481431759E-002   0.0000000000000000     
   5.5284371775816750E-002   7.1361177115187649E-002   0.0000000000000000     
   5.7630890750745935E-002   7.7185465086398189E-002   0.0000000000000000     
   5.9902681638016861E-002   8.3190697395063365E-002   0.0000000000000000     
   4.5768742335372620E-002   5.9517714647350423E-002   0.0000000000000000     
   4.8075783618334075E-002   6.5003608206041827E-002   0.0000000000000000     
   5.0312843530888669E-002   7.0669810451083309E-002   0.0000000000000000     
   5.2479922073036436E-002   7.6516321382474842E-002   0.0000000000000000     
   5.4577019244777349E-002   8.2543141000216452E-002   0.0000000000000000     
   7.6989104272336142E-002   8.5413926294684570E-002   0.0000000000000000     
   7.9679054261675167E-002   9.1505591146865753E-002   0.0000000000000000     
   8.2263353863041566E-002   9.7756888039088427E-002   0.0000000000000000     
   8.4742003076435354E-002  0.10416781697135262        0.0000000000000000     
   8.7115001901856504E-002  0.11073837794365829        0.0000000000000000     
   7.1108724151796254E-002   8.4626090042297430E-002   0.0000000000000000     
   7.3633664878843763E-002   9.0748521894910950E-002   0.0000000000000000     
   7.6058964676314844E-002   9.7029533626722786E-002   0.0000000000000000     
   7.8384623544209511E-002  0.10346912523773288        0.0000000000000000     
   8.0610641482527751E-002  0.11006729672794123        0.0000000000000000     
   6.5413249940356494E-002   8.3885013742423686E-002   0.0000000000000000     
   6.7771881939673151E-002   9.0035146809630123E-002   0.0000000000000000     
   7.0037154447207386E-002   9.6343358421732611E-002   0.0000000000000000     
   7.2209067462959187E-002  0.10280964857873112        0.0000000000000000     
   7.4287620986928551E-002  0.10943401728062570        0.0000000000000000     
   5.9902681638016861E-002   8.3190697395063365E-002   0.0000000000000000     
   6.2093705444163330E-002   8.9365465891023260E-002   0.0000000000000000     
   6.4197923175719179E-002   9.5698362424117930E-002   0.0000000000000000     
   6.6215334832684353E-002  0.10218938699434739        0.0000000000000000     
   6.8145940415058934E-002  0.10883853960171161        0.0000000000000000     
   5.4577019244777349E-002   8.2543141000216452E-002   0.0000000000000000     
   5.6599135392314308E-002   8.8739479139090333E-002   0.0000000000000000     
   5.8541270861850209E-002   9.5094545633878716E-002   0.0000000000000000     
   6.0403425653385072E-002  0.10160834048458162        0.0000000000000000     
   6.2185599766918863E-002  0.10828086369119902        0.0000000000000000     
   8.7115001901856504E-002  0.11073837794365829        0.0000000000000000     
   8.9392506154089141E-002  0.11745500409709581        0.0000000000000000     
   9.1584671647917310E-002  0.12430412857275551        0.0000000000000000     
   9.3691498383341051E-002  0.13128575137063739        0.0000000000000000     
   9.5712986360360325E-002  0.13839987249074143        0.0000000000000000     
   8.0610641482527751E-002  0.11006729672794123        0.0000000000000000     
   8.2747585867571860E-002  0.11681166969256902        0.0000000000000000     
   8.4806024075644110E-002  0.12368986572683734        0.0000000000000000     
   8.6785956106744513E-002  0.13070188483074618        0.0000000000000000     
   8.8687381960873057E-002  0.13784772700429554        0.0000000000000000     
   7.4287620986928551E-002  0.10943401728062570        0.0000000000000000     
   7.6283055348971146E-002  0.11620445756030510        0.0000000000000000     
   7.8205610878942594E-002  0.12310896245065817        0.0000000000000000     
   8.0055287576842882E-002  0.13014753195168491        0.0000000000000000     
   8.1832085442672037E-002  0.13732016606338529        0.0000000000000000     
   6.8145940415058934E-002  0.10883853960171161        0.0000000000000000     
   6.9998914598287013E-002  0.11563336770030401        0.0000000000000000     
   7.1783432057812749E-002  0.12256141874421797        0.0000000000000000     
   7.3499492793636184E-002  0.12962269273345353        0.0000000000000000     
   7.5147096805757277E-002  0.13681718966801060        0.0000000000000000     
   6.2185599766918863E-002  0.10828086369119902        0.0000000000000000     
   6.3895163615519432E-002  0.11509840011256578        0.0000000000000000     
   6.5539487612254616E-002  0.12204723460751679        0.0000000000000000     
   6.7118571757124379E-002  0.12912736717605203        0.0000000000000000     
   6.8632416050128764E-002  0.13633879781817154        0.0000000000000000     
   9.5712986360360325E-002  0.13839987249074143        0.0000000000000000     
   9.7637012953761745E-002  0.14562802209967363        0.0000000000000000     
   9.9451455538331832E-002  0.15295173036403989        0.0000000000000000     
  0.10115631411407064       0.16037099728384016        0.0000000000000000     
  0.10275158868097814       0.16788582285907458        0.0000000000000000     
   8.8687381960873057E-002  0.13784772700429554        0.0000000000000000     
   9.0498313117898327E-002  0.14511370687709835        0.0000000000000000     
   9.2206761057688935E-002  0.15248613907876737        0.0000000000000000     
   9.3812725780244841E-002  0.15996502360930270        0.0000000000000000     
   9.5316207285566057E-002  0.16755036046870431        0.0000000000000000     
   8.1832085442672037E-002  0.13732016606338529        0.0000000000000000     
   8.3524625361737659E-002  0.14461635756893876        0.0000000000000000     
   8.5121528219347375E-002  0.15202559925152478        0.0000000000000000     
   8.6622794015501201E-002  0.15954789111114334        0.0000000000000000     
   8.8028422750199092E-002  0.16718323314779446        0.0000000000000000     
   7.5147096805757277E-002  0.13681718966801060        0.0000000000000000     
   7.6715949685279713E-002  0.14413597417519494        0.0000000000000000     
   7.8195757023307194E-002  0.15157011088231206        0.0000000000000000     
   7.9586518819839677E-002  0.15911959978936210        0.0000000000000000     
   8.0888235074877191E-002  0.16678444089634495        0.0000000000000000     
   6.8632416050128764E-002  0.13633879781817154        0.0000000000000000     
   7.0072286088524505E-002  0.14367255669586676        0.0000000000000000     
   7.1429447469568350E-002  0.15111967397112921        0.0000000000000000     
   7.2703900193260312E-002  0.15868014964395888        0.0000000000000000     
   7.3895644259600379E-002  0.16635398371435578        0.0000000000000000     
   0.0000000000000000        0.0000000000000000        0.0000000000000000     
   2.8800760038823767E-003   1.7448447019539938E-003   0.0000000000000000     
   5.8726507987154975E-003   3.8646308327866643E-003   0.0000000000000000     
   8.9777243844993623E-003   6.3593583924980122E-003   0.0000000000000000     
   1.2195296761233971E-002   9.2290273810880369E-003   0.0000000000000000     
   0.0000000000000000        0.0000000000000000        0.0000000000000000     
   2.6103286698232939E-003   1.5889270482979342E-003   0.0000000000000000     
   5.2897290008384794E-003   3.5566904646895528E-003   0.0000000000000000     
   8.0382009930455543E-003   5.9032902491748555E-003   0.0000000000000000     
   1.0855744646444520E-002   8.6287264017538418E-003   0.0000000000000000     
   0.0000000000000000        0.0000000000000000        0.0000000000000000     
   2.3401220747187811E-003   1.4589508838442500E-003   0.0000000000000000     
   4.7202068060260890E-003   3.2997958496521020E-003   0.0000000000000000     
   7.1402541939219223E-003   5.5225348974235564E-003   0.0000000000000000     
   9.6002642384062815E-003   8.1271680271586128E-003   0.0000000000000000     
   0.0000000000000000        0.0000000000000000        0.0000000000000000     
   2.0694562185688387E-003   1.3549162085929407E-003   0.0000000000000000     
   4.1640842142783270E-003   3.0939469876743123E-003   0.0000000000000000     
   6.2838839871284672E-003   5.2170923372441133E-003   0.0000000000000000     
   8.4288555371192560E-003   7.7243522573023464E-003   0.0000000000000000     
   0.0000000000000000        0.0000000000000000        0.0000000000000000     
   1.7983311013734656E-003   1.2768230225440064E-003   0.0000000000000000     
   3.6213612255951945E-003   2.9391438787561832E-003   0.0000000000000000     
   5.4690903726651871E-003   4.9869625686365295E-003   0.0000000000000000     
   7.3415185425834417E-003   7.4202790921850470E-003   0.0000000000000000     
   1.2195296761233971E-002   9.2290273810880369E-003   0.0000000000000000     
   1.5427634982192306E-002   1.2371565166558518E-002   0.0000000000000000     
   1.8577006100647352E-002   1.5684899116911229E-002   0.0000000000000000     
   2.1643410116599111E-002   1.9169029232146178E-002   0.0000000000000000     
   2.4626847030047576E-002   2.2823955512263360E-002   0.0000000000000000     
   1.0855744646444520E-002   8.6287264017538418E-003   0.0000000000000000     
   1.3689011545244630E-002   1.1650719926687444E-002   0.0000000000000000     
   1.6484653273655135E-002   1.4886991828236600E-002   0.0000000000000000     
   1.9242669831676038E-002   1.8337542106401303E-002   0.0000000000000000     
   2.1963061219307332E-002   2.2002370761181552E-002   0.0000000000000000     
   9.6002642384062815E-003   8.1271680271586128E-003   0.0000000000000000     
   1.2076689066281031E-002   1.1046286596819260E-002   0.0000000000000000     
   1.4545980804348027E-002   1.4212481964367484E-002   0.0000000000000000     
   1.7008139452607277E-002   1.7625754129803294E-002   0.0000000000000000     
   1.9463165011058770E-002   2.1286103093126681E-002   0.0000000000000000     
   8.4288555371192560E-003   7.7243522573023464E-003   0.0000000000000000     
   1.0590667545301509E-002   1.0558265176953957E-002   0.0000000000000000     
   1.2760988692726034E-002   1.3661369525303892E-002   0.0000000000000000     
   1.4939818979392831E-002   1.7033665302352154E-002   0.0000000000000000     
   1.7127158405301900E-002   2.0675152508098739E-002   0.0000000000000000     
   7.3415185425834417E-003   7.4202790921850470E-003   0.0000000000000000     
   9.2309469823060614E-003   1.0186655667091541E-002   0.0000000000000000     
   1.1129676938789145E-002   1.3233654511045821E-002   0.0000000000000000     
   1.3037708412032695E-002   1.6561275624047887E-002   0.0000000000000000     
   1.4955041402036712E-002   2.0169519006097737E-002   0.0000000000000000     
   2.4626847030047576E-002   2.2823955512263360E-002   0.0000000000000000     
   2.7531491367113595E-002   2.6672415328843672E-002   0.0000000000000000     
   3.0361517653918015E-002   3.0737146053468022E-002   0.0000000000000000     
   3.3116925890460835E-002   3.5018147686136390E-002   0.0000000000000000     
   3.5797716076742050E-002   3.9515420226848799E-002   0.0000000000000000     
   2.1963061219307332E-002   2.2002370761181552E-002   0.0000000000000000     
   2.4629320578732818E-002   2.5879564739186789E-002   0.0000000000000000     
   2.7224941052136294E-002   2.9967210987026434E-002   0.0000000000000000     
   2.9749922639517763E-002   3.4265309504700504E-002   0.0000000000000000     
   3.2204265340877218E-002   3.8773860292208980E-002   0.0000000000000000     
   1.9463165011058770E-002   2.1286103093126681E-002   0.0000000000000000     
   2.1882755855894696E-002   2.5174862131085333E-002   0.0000000000000000     
   2.4238610363307222E-002   2.9273364520426958E-002   0.0000000000000000     
   2.6530728533296355E-002   3.3581610261151536E-002   0.0000000000000000     
   2.8759110365862085E-002   3.8099599353259087E-002   0.0000000000000000     
   1.7127158405301900E-002   2.0675152508098739E-002   0.0000000000000000     
   1.9291797198599227E-002   2.4558307504539325E-002   0.0000000000000000     
   2.1402525587430794E-002   2.8655606653669577E-002   0.0000000000000000     
   2.3459343571796607E-002   3.2967049955489505E-002   0.0000000000000000     
   2.5462251151696653E-002   3.7492637409999099E-002   0.0000000000000000     
   1.4955041402036712E-002   2.0169519006097737E-002   0.0000000000000000     
   1.6856444606846408E-002   2.4029900859548748E-002   0.0000000000000000     
   1.8716686724507006E-002   2.8113937386754308E-002   0.0000000000000000     
   2.0535767755018509E-002   3.2421628587714399E-002   0.0000000000000000     
   2.2313687698380914E-002   3.6952974462429039E-002   0.0000000000000000     
   3.5797716076742050E-002   3.9515420226848799E-002   0.0000000000000000     
   3.8403516088769275E-002   4.4219619624180972E-002   0.0000000000000000     
   4.0933953802550112E-002   4.9121401826708627E-002   0.0000000000000000     
   4.3389029218084560E-002   5.4220766834431777E-002   0.0000000000000000     
   4.5768742335372620E-002   5.9517714647350423E-002   0.0000000000000000     
   3.2204265340877218E-002   3.8773860292208980E-002   0.0000000000000000     
   3.4589595511995044E-002   4.3488182640392385E-002   0.0000000000000000     
   3.6907539508651617E-002   4.8403595840091219E-002   0.0000000000000000     
   3.9158097330846929E-002   5.3520099891305489E-002   0.0000000000000000     
   4.1341268978580994E-002   5.8837694794035181E-002   0.0000000000000000     
   2.8759110365862085E-002   3.8099599353259087E-002   0.0000000000000000     
   3.0925579022645602E-002   4.2824282214242303E-002   0.0000000000000000     
   3.3031957665288068E-002   4.7752609261593915E-002   0.0000000000000000     
   3.5078246293789493E-002   5.2884580495313936E-002   0.0000000000000000     
   3.7064444908149863E-002   5.8220195915402367E-002   0.0000000000000000     
   2.5462251151696653E-002   3.7492637409999099E-002   0.0000000000000000     
   2.7411466620720942E-002   4.2227918345730718E-002   0.0000000000000000     
   2.9307208272459476E-002   4.7168442091216733E-002   0.0000000000000000     
   3.1149476106912245E-002   5.2314208646457125E-002   0.0000000000000000     
   3.2938270124079252E-002   5.7665218011451920E-002   0.0000000000000000     
   2.2313687698380914E-002   3.6952974462429039E-002   0.0000000000000000     
   2.4047258306221068E-002   4.1699091034857659E-002   0.0000000000000000     
   2.5733291330165820E-002   4.6651094328959662E-002   0.0000000000000000     
   2.7371786770215185E-002   5.1808984344735076E-002   0.0000000000000000     
   2.8962744626369146E-002   5.7172761082183894E-002   0.0000000000000000     
   4.5768742335372620E-002   5.9517714647350423E-002   0.0000000000000000     
   4.8075783618334075E-002   6.5003608206041827E-002   0.0000000000000000     
   5.0312843530888669E-002   7.0669810451083309E-002   0.0000000000000000     
   5.2479922073036436E-002   7.6516321382474842E-002   0.0000000000000000     
   5.4577019244777349E-002   8.2543141000216452E-002   0.0000000000000000     
   4.1341268978580994E-002   5.8837694794035181E-002   0.0000000000000000     
   4.3458257874900270E-002   6.4345602521341971E-002   0.0000000000000000     
   4.5510267442851242E-002   7.0033045046287490E-002   0.0000000000000000     
   4.7497297682433888E-002   7.5900022368871736E-002   0.0000000000000000     
   4.9419348593648244E-002   8.1946534489094724E-002   0.0000000000000000     
   3.7064444908149863E-002   5.8220195915402367E-002   0.0000000000000000     
   3.8990829526710388E-002   6.3747328542701043E-002   0.0000000000000000     
   4.0857676167812211E-002   6.9453851398051866E-002   0.0000000000000000     
   4.2664984831455366E-002   7.5339764481454838E-002   0.0000000000000000     
   4.4412755517639825E-002   8.1405067792909944E-002   0.0000000000000000     
   3.2938270124079252E-002   5.7665218011451920E-002   0.0000000000000000     
   3.4673498573764408E-002   6.3208786270119041E-002   0.0000000000000000     
   3.6355069705771605E-002   6.8932229506376466E-002   0.0000000000000000     
   3.7982983520100842E-002   7.4835547720224174E-002   0.0000000000000000     
   3.9557240016752121E-002   8.0918740911662165E-002   0.0000000000000000     
   2.8962744626369146E-002   5.7172761082183894E-002   0.0000000000000000     
   3.0506265016062344E-002   6.2729975703595980E-002   0.0000000000000000     
   3.2002448056729402E-002   6.8468179371261262E-002   0.0000000000000000     
   3.3451293748370324E-002   7.4387372085179704E-002   0.0000000000000000     
   3.4852802090985104E-002   8.0487553845351320E-002   0.0000000000000000     
   5.4577019244777349E-002   8.2543141000216452E-002   0.0000000000000000     
   5.6599135392314308E-002   8.8739479139090333E-002   0.0000000000000000     
   5.8541270861850209E-002   9.5094545633878716E-002   0.0000000000000000     
   6.0403425653385072E-002  0.10160834048458162        0.0000000000000000     
   6.2185599766918863E-002  0.10828086369119902        0.0000000000000000     
   4.9419348593648244E-002   8.1946534489094724E-002   0.0000000000000000     
   5.1272331612268088E-002   8.8162540960537439E-002   0.0000000000000000     
   5.3052158174067228E-002   9.4538001336780822E-002   0.0000000000000000     
   5.4758828279045678E-002  0.10107291561782490        0.0000000000000000     
   5.6392341927203431E-002  0.10776728380366968        0.0000000000000000     
   4.4412755517639825E-002   8.1405067792909944E-002   0.0000000000000000     
   4.6097453932166667E-002   8.7640005762070580E-002   0.0000000000000000     
   4.7715545780836928E-002   9.4034822818590005E-002   0.0000000000000000     
   4.9267031063650601E-002  0.10058951896246826        0.0000000000000000     
   5.0751909780607687E-002  0.10730409419370535        0.0000000000000000     
   3.9557240016752121E-002   8.0918740911662165E-002   0.0000000000000000     
   4.1074502352010066E-002   8.7171873543689771E-002   0.0000000000000000     
   4.2531433682159295E-002   9.3585010079306266E-002   0.0000000000000000     
   4.3928034007199808E-002  0.10015815051851171        0.0000000000000000     
   4.5264303327131612E-002  0.10689129486130604        0.0000000000000000     
   3.4852802090985104E-002   8.0487553845351320E-002   0.0000000000000000     
   3.6203476871798264E-002   8.6758144305394996E-002   0.0000000000000000     
   3.7499821878034342E-002   9.3188563118929632E-002   0.0000000000000000     
   3.8741837109693325E-002   9.9778810285955213E-002   0.0000000000000000     
   3.9929522566775233E-002  0.10652888580647174        0.0000000000000000     
   6.2185599766918863E-002  0.10828086369119902        0.0000000000000000     
   6.3895163615519432E-002  0.11509840011256578        0.0000000000000000     
   6.5539487612254616E-002  0.12204723460751679        0.0000000000000000     
   6.7118571757124379E-002  0.12912736717605203        0.0000000000000000     
   6.8632416050128764E-002  0.13633879781817154        0.0000000000000000     
   5.6392341927203431E-002  0.10776728380366968        0.0000000000000000     
   5.7958236325670147E-002  0.11460608656985619        0.0000000000000000     
   5.9462048681575501E-002  0.12157430459192546        0.0000000000000000     
   6.0903778994919465E-002  0.12867193786987752        0.0000000000000000     
   6.2283427265702067E-002  0.13589898640371237        0.0000000000000000     
   5.0751909780607687E-002  0.10730409419370535        0.0000000000000000     
   5.2174566653740845E-002  0.11416295884494097        0.0000000000000000     
   5.3539386405082746E-002  0.12115052324881485        0.0000000000000000     
   5.4846369034633378E-002  0.12826678740532696        0.0000000000000000     
   5.6095514542392755E-002  0.13551175131447735        0.0000000000000000     
   4.5264303327131612E-002  0.10689129486130604        0.0000000000000000     
   4.6544154599731519E-002  0.11376901693782016        0.0000000000000000     
   4.7771500782776366E-002  0.12077589057818494        0.0000000000000000     
   4.8946341876266126E-002  0.12791191578240038        0.0000000000000000     
   5.0068677880200821E-002  0.13517709255046650        0.0000000000000000     
   3.9929522566775233E-002  0.10652888580647174        0.0000000000000000     
   4.1067000163642189E-002  0.11342426084849375        0.0000000000000000     
   4.2158391814656346E-002  0.12045040658003575        0.0000000000000000     
   4.3203697519817702E-002  0.12760732300109778        0.0000000000000000     
   4.4202917279126265E-002  0.13489501011167979        0.0000000000000000     
   6.8632416050128764E-002  0.13633879781817154        0.0000000000000000     
   7.0072286088524505E-002  0.14367255669586676        0.0000000000000000     
   7.1429447469568350E-002  0.15111967397112921        0.0000000000000000     
   7.2703900193260312E-002  0.15868014964395888        0.0000000000000000     
   7.3895644259600379E-002  0.16635398371435578        0.0000000000000000     
   6.2283427265702067E-002  0.13589898640371237        0.0000000000000000     
   6.3593758230840097E-002  0.14324601550677815        0.0000000000000000     
   6.4827536627250382E-002  0.15070359049242310        0.0000000000000000     
   6.5984762454932885E-002  0.15827171136064713        0.0000000000000000     
   6.7065435713887636E-002  0.16595037811145036        0.0000000000000000     
   5.6095514542392755E-002  0.13551175131447735        0.0000000000000000     
   5.7280489771594632E-002  0.14287626098375289        0.0000000000000000     
   5.8394961565472789E-002  0.15035116242064051        0.0000000000000000     
   5.9438929924027217E-002  0.15793645562514019        0.0000000000000000     
   6.0412394847257939E-002  0.16563214059725206        0.0000000000000000     
   5.0068677880200821E-002  0.13517709255046650        0.0000000000000000     
   5.1132480710788082E-002  0.14256329312679097        0.0000000000000000     
   5.2131722284235592E-002  0.15006238975578148        0.0000000000000000     
   5.3066402600543322E-002  0.15767438243743817        0.0000000000000000     
   5.3936521659711280E-002  0.16539927117176090        0.0000000000000000     
   4.4202917279126265E-002  0.13489501011167979        0.0000000000000000     
   4.5149731048420468E-002  0.14230711193589238        0.0000000000000000     
   4.6037818783538770E-002  0.14983727249784606        0.0000000000000000     
   4.6867180484481179E-002  0.15748549179754087        0.0000000000000000     
   4.7637816151247667E-002  0.16525176983497683        0.0000000000000000     
   0.0000000000000000        0.0000000000000000        0.0000000000000000     
   1.7983311013734656E-003   1.2768230225440064E-003   0.0000000000000000     
   3.6213612255951945E-003   2.9391438787561832E-003   0.0000000000000000     
   5.4690903726651871E-003   4.9869625686365295E-003   0.0000000000000000     
   7.3415185425834417E-003   7.4202790921850470E-003   0.0000000000000000     
   0.0000000000000000        0.0000000000000000        0.0000000000000000     
   1.5350241759338812E-003   1.2175543055693953E-003   0.0000000000000000     
   3.0993927474976244E-003   2.8208709271324494E-003   0.0000000000000000     
   4.6931057146912310E-003   4.8099498646891614E-003   0.0000000000000000     
   6.3161630775146983E-003   7.1847911182395304E-003   0.0000000000000000     
   0.0000000000000000        0.0000000000000000        0.0000000000000000     
   1.2878128950513028E-003   1.1699930375410562E-003   0.0000000000000000     
   2.6055336875065510E-003   2.7246125370378451E-003   0.0000000000000000     
   3.9531623773657459E-003   4.6638584984903661E-003   0.0000000000000000     
   5.3306989646288864E-003   6.9877309218986201E-003   0.0000000000000000     
   0.0000000000000000        0.0000000000000000        0.0000000000000000     
   1.0566972587257308E-003   1.1341392184589887E-003   0.0000000000000000     
   2.1397840456219754E-003   2.6503687084723703E-003   0.0000000000000000     
   3.2492603606887331E-003   4.5486884700401461E-003   0.0000000000000000     
   4.3851262039260059E-003   6.8290985031623118E-003   0.0000000000000000     
   0.0000000000000000        0.0000000000000000        0.0000000000000000     
   8.4167726695716491E-004   1.1099928483231931E-003   0.0000000000000000     
   1.7021438218438960E-003   2.5981394414360259E-003   0.0000000000000000     
   2.5813996646601939E-003   4.4644397793384980E-003   0.0000000000000000     
   3.4794447954060574E-003   6.7088938620306106E-003   0.0000000000000000     
   7.3415185425834417E-003   7.4202790921850470E-003   0.0000000000000000     
   9.2309469823060614E-003   1.0186655667091541E-002   0.0000000000000000     
   1.1129676938789145E-002   1.3233654511045821E-002   0.0000000000000000     
   1.3037708412032695E-002   1.6561275624047887E-002   0.0000000000000000     
   1.4955041402036712E-002   2.0169519006097737E-002   0.0000000000000000     
   6.3161630775146983E-003   7.1847911182395304E-003   0.0000000000000000     
   7.9558363762420106E-003   9.8958234939398385E-003   0.0000000000000000     
   9.5993971511471494E-003   1.2893475797946368E-002   0.0000000000000000     
   1.1246845402230117E-002   1.6177748030259113E-002   0.0000000000000000     
   1.2898181129490906E-002   1.9748640190878079E-002   0.0000000000000000     
   5.3306989646288864E-003   6.9877309218986201E-003   0.0000000000000000     
   6.7236447260566774E-003   9.6501340842066827E-003   0.0000000000000000     
   8.1175009384098253E-003   1.2604972262358630E-002   0.0000000000000000     
   9.5122676016883290E-003   1.5852245456354462E-002   0.0000000000000000     
   1.0907944715892189E-002   1.9391953666194176E-002   0.0000000000000000     
   4.3851262039260059E-003   6.8290985031623118E-003   0.0000000000000000     
   5.5343720317500610E-003   9.4495874378920687E-003   0.0000000000000000     
   6.6839883005771709E-003   1.2368143904282609E-002   0.0000000000000000     
   7.8339750104073347E-003   1.5584767902333931E-002   0.0000000000000000     
   8.9843321612405533E-003   1.9099459432046034E-002   0.0000000000000000     
   3.4794447954060574E-003   6.7088938620306106E-003   0.0000000000000000     
   4.3880182933221639E-003   9.2941835549959981E-003   0.0000000000000000     
   5.2988592376491906E-003   1.2182990723718302E-002   0.0000000000000000     
   6.2119676283871354E-003   1.5375315368197518E-002   0.0000000000000000     
   7.1273434655360016E-003   1.8871157488433647E-002   0.0000000000000000     
   1.4955041402036712E-002   2.0169519006097737E-002   0.0000000000000000     
   1.6856444606846408E-002   2.4029900859548748E-002   0.0000000000000000     
   1.8716686724507006E-002   2.8113937386754308E-002   0.0000000000000000     
   2.0535767755018509E-002   3.2421628587714399E-002   0.0000000000000000     
   2.2313687698380914E-002   3.6952974462429039E-002   0.0000000000000000     
   1.2898181129490906E-002   1.9748640190878079E-002   0.0000000000000000     
   1.4537159010911425E-002   2.3580068327263334E-002   0.0000000000000000     
   1.6147533724473563E-002   2.7645948486874950E-002   0.0000000000000000     
   1.7729305270177326E-002   3.1946280669712931E-002   0.0000000000000000     
   1.9282473648022710E-002   3.6481064875777285E-002   0.0000000000000000     
   1.0907944715892189E-002   1.9391953666194176E-002   0.0000000000000000     
   1.2294401341069447E-002   2.3199236038832796E-002   0.0000000000000000     
   1.3661506537268152E-002   2.7249231721225339E-002   0.0000000000000000     
   1.5009260304488299E-002   3.1541940713371797E-002   0.0000000000000000     
   1.6337662642729889E-002   3.6077363015272187E-002   0.0000000000000000     
   8.9843321612405533E-003   1.9099459432046034E-002   0.0000000000000000     
   1.0128171597320480E-002   2.2887403994257139E-002   0.0000000000000000     
   1.1258605162890773E-002   2.6923787089805463E-002   0.0000000000000000     
   1.2375632857951430E-002   3.1208608718691005E-002   0.0000000000000000     
   1.3479254682502453E-002   3.5741868880913769E-002   0.0000000000000000     
   7.1273434655360016E-003   1.8871157488433647E-002   0.0000000000000000     
   8.0384697796645199E-003   2.2644572193536362E-002   0.0000000000000000     
   8.9388296013414251E-003   2.6669614592615326E-002   0.0000000000000000     
   9.8284229305667173E-003   3.0946284685670546E-002   0.0000000000000000     
   1.0707249767340396E-002   3.5474582472702014E-002   0.0000000000000000     
   2.2313687698380914E-002   3.6952974462429039E-002   0.0000000000000000     
   2.4047258306221068E-002   4.1699091034857659E-002   0.0000000000000000     
   2.5733291330165820E-002   4.6651094328959662E-002   0.0000000000000000     
   2.7371786770215185E-002   5.1808984344735076E-002   0.0000000000000000     
   2.8962744626369146E-002   5.7172761082183894E-002   0.0000000000000000     
   1.9282473648022710E-002   3.6481064875777285E-002   0.0000000000000000     
   2.0800461799462235E-002   4.1236265463424883E-002   0.0000000000000000     
   2.2276692665948412E-002   4.6197846791012638E-002   0.0000000000000000     
   2.3711166247481243E-002   5.1365808858540550E-002   0.0000000000000000     
   2.5103882544060731E-002   5.6740151666008612E-002   0.0000000000000000     
   1.6337662642729889E-002   3.6077363015272187E-002   0.0000000000000000     
   1.7638584820760705E-002   4.0837906813234216E-002   0.0000000000000000     
   1.8903898107348528E-002   4.5805980293565612E-002   0.0000000000000000     
   2.0133602502493356E-002   5.0981583456266376E-002   0.0000000000000000     
   2.1327698006195189E-002   5.6364716301336507E-002   0.0000000000000000     
   1.3479254682502453E-002   3.5741868880913769E-002   0.0000000000000000     
   1.4561627370116488E-002   4.0504015084285652E-002   0.0000000000000000     
   1.5614907654366173E-002   4.5475494836618585E-002   0.0000000000000000     
   1.6639095535251520E-002   5.0656308137912540E-002   0.0000000000000000     
   1.7634191012772523E-002   5.6046454988167543E-002   0.0000000000000000     
   1.0707249767340396E-002   3.5474582472702014E-002   0.0000000000000000     
   1.1569589447529571E-002   4.0234590276579191E-002   0.0000000000000000     
   1.2409721307001350E-002   4.5206390420171529E-002   0.0000000000000000     
   1.3227645345755734E-002   5.0389982903479048E-002   0.0000000000000000     
   1.4023361563792724E-002   5.5785367726501715E-002   0.0000000000000000     
   2.8962744626369146E-002   5.7172761082183894E-002   0.0000000000000000     
   3.0506265016062344E-002   6.2729975703595980E-002   0.0000000000000000     
   3.2002448056729402E-002   6.8468179371261262E-002   0.0000000000000000     
   3.3451293748370324E-002   7.4387372085179704E-002   0.0000000000000000     
   3.4852802090985104E-002   8.0487553845351320E-002   0.0000000000000000     
   2.5103882544060731E-002   5.6740151666008612E-002   0.0000000000000000     
   2.6455253902078327E-002   6.2308811356268701E-002   0.0000000000000000     
   2.7765692667925484E-002   6.8059724072172631E-002   0.0000000000000000     
   2.9035198841602199E-002   7.3992889813720417E-002   0.0000000000000000     
   3.0263772423108470E-002   8.0108308580912058E-002   0.0000000000000000     
   2.1327698006195189E-002   5.6364716301336507E-002   0.0000000000000000     
   2.2486590280286489E-002   6.1943207741274028E-002   0.0000000000000000     
   2.3610684986599711E-002   6.7704886688576951E-002   0.0000000000000000     
   2.4699982125134849E-002   7.3649753143245261E-002   0.0000000000000000     
   2.5754481695891916E-002   7.9777807105278986E-002   0.0000000000000000     
   1.7634191012772523E-002   5.6046454988167543E-002   0.0000000000000000     
   1.8600274150686828E-002   6.1633164858611963E-002   0.0000000000000000     
   1.9537425012752078E-002   6.7403667220474209E-002   0.0000000000000000     
   2.0445643598968284E-002   7.3357962073754251E-002   0.0000000000000000     
   2.1324929909335440E-002   7.9496049418452092E-002   0.0000000000000000     
   1.4023361563792724E-002   5.5785367726501715E-002   0.0000000000000000     
   1.4796305513279338E-002   6.1378682708282513E-002   0.0000000000000000     
   1.5545912746382597E-002   6.7156065667864390E-002   0.0000000000000000     
   1.6272183263102494E-002   7.3117516605247346E-002   0.0000000000000000     
   1.6975117063439044E-002   7.9263035520431388E-002   0.0000000000000000     
   3.4852802090985104E-002   8.0487553845351320E-002   0.0000000000000000     
   3.6203476871798264E-002   8.6758144305394996E-002   0.0000000000000000     
   3.7499821878034342E-002   9.3188563118929632E-002   0.0000000000000000     
   3.8741837109693325E-002   9.9778810285955213E-002   0.0000000000000000     
   3.9929522566775233E-002  0.10652888580647174        0.0000000000000000     
   3.0263772423108470E-002   8.0108308580912058E-002   0.0000000000000000     
   3.1447734441151586E-002   8.6394656258478073E-002   0.0000000000000000     
   3.2583405924438834E-002   9.2840608731148924E-002   0.0000000000000000     
   3.3670786872970211E-002   9.9446165998924682E-002   0.0000000000000000     
   3.4709877286745711E-002  0.10621132806180532        0.0000000000000000     
   2.5754481695891916E-002   7.9777807105278986E-002   0.0000000000000000     
   2.6770632009690327E-002   8.6077247614230704E-002   0.0000000000000000     
   2.7744881377349519E-002   9.2536273709653061E-002   0.0000000000000000     
   2.8677229798869483E-002   9.9154885391546030E-002   0.0000000000000000     
   2.9567677274250220E-002  0.10593308265990961        0.0000000000000000     
   2.1324929909335440E-002   7.9496049418452092E-002   0.0000000000000000     
   2.2172169577414497E-002   8.5805918372652945E-002   0.0000000000000000     
   2.2984248236766400E-002   9.2275558054441986E-002   0.0000000000000000     
   2.3761165887391158E-002   9.8904968463819201E-002   0.0000000000000000     
   2.4502922529288762E-002  0.10569414960078462        0.0000000000000000     
   1.6975117063439044E-002   7.9263035520431388E-002   0.0000000000000000     
   1.7652347144324086E-002   8.5580668533744769E-002   0.0000000000000000     
   1.8301506502689486E-002   9.2058461765515728E-002   0.0000000000000000     
   1.8922595138535236E-002   9.8696415215744224E-002   0.0000000000000000     
   1.9515613051861339E-002  0.10549452888443032        0.0000000000000000     
   3.9929522566775233E-002  0.10652888580647174        0.0000000000000000     
   4.1067000163642189E-002  0.11342426084849375        0.0000000000000000     
   4.2158391814656346E-002  0.12045040658003575        0.0000000000000000     
   4.3203697519817702E-002  0.12760732300109778        0.0000000000000000     
   4.4202917279126265E-002  0.13489501011167979        0.0000000000000000     
   3.4709877286745711E-002  0.10621132806180532        0.0000000000000000     
   3.5705119174849545E-002  0.11312265659159811        0.0000000000000000     
   3.6660954546365920E-002  0.12016671326011034        0.0000000000000000     
   3.7577383401294816E-002  0.12734349806734205        0.0000000000000000     
   3.8454405739636252E-002  0.13465301101329322        0.0000000000000000     
   2.9567677274250220E-002  0.10593308265990961        0.0000000000000000     
   3.0420527462730298E-002  0.11285817018176958        0.0000000000000000     
   3.1240084023548283E-002  0.11991745262415178        0.0000000000000000     
   3.2026346956704158E-002  0.12711092998705614        0.0000000000000000     
   3.2779316262197947E-002  0.13443860227048277        0.0000000000000000     
   2.4502922529288762E-002  0.10569414960078462        0.0000000000000000     
   2.5213225027284448E-002  0.11263080161900821        0.0000000000000000     
   2.5895780246203443E-002  0.11970262467216003        0.0000000000000000     
   2.6550588186045745E-002  0.12690961876024012        0.0000000000000000     
   2.7177648846811352E-002  0.13425178388324835        0.0000000000000000     
   1.9515613051861339E-002  0.10549452888443032        0.0000000000000000     
   2.0083211868511995E-002  0.11244055090331398        0.0000000000000000     
   2.0628043214331399E-002  0.11952222940413515        0.0000000000000000     
   2.1150107089319557E-002  0.12673956438689385        0.0000000000000000     
   2.1649403493476459E-002  0.13409255585159005        0.0000000000000000     
   4.4202917279126265E-002  0.13489501011167979        0.0000000000000000     
   4.5149731048420468E-002  0.14230711193589238        0.0000000000000000     
   4.6037818783538770E-002  0.14983727249784606        0.0000000000000000     
   4.6867180484481179E-002  0.15748549179754087        0.0000000000000000     
   4.7637816151247667E-002  0.16525176983497683        0.0000000000000000     
   3.8454405739636252E-002  0.13465301101329322        0.0000000000000000     
   3.9285347142106485E-002  0.14209012321354531        0.0000000000000000     
   4.0063533189421768E-002  0.14964970578367975        0.0000000000000000     
   4.0788963881582110E-002  0.15733175872369654        0.0000000000000000     
   4.1461639218587504E-002  0.16513628203359565        0.0000000000000000     
   3.2779316262197947E-002  0.13443860227048277        0.0000000000000000     
   3.3492435349460829E-002  0.14189473276223791        0.0000000000000000     
   3.4159147627923998E-002  0.14947358475012801        0.0000000000000000     
   3.4779453097587461E-002  0.15717515823415310        0.0000000000000000     
   3.5353351758451203E-002  0.16499945321431314        0.0000000000000000     
   2.7177648846811352E-002  0.13425178388324835        0.0000000000000000     
   2.7770995670483509E-002  0.14172094058197021        0.0000000000000000     
   2.8324662099045463E-002  0.14930890939719096        0.0000000000000000     
   2.8838648132497209E-002  0.15701569032891063        0.0000000000000000     
   2.9312953770838750E-002  0.16484128337712931        0.0000000000000000     
   2.1649403493476459E-002  0.13409255585159005        0.0000000000000000     
   2.2121028105174523E-002  0.14156874667274216        0.0000000000000000     
   2.2560076602786163E-002  0.14915567972486851        0.0000000000000000     
   2.2966548986311373E-002  0.15685335500796918        0.0000000000000000     
   2.3340445255750158E-002  0.16466177252204409        0.0000000000000000     
   0.0000000000000000        0.0000000000000000        0.0000000000000000     
   8.4167726695716491E-004   1.1099928483231931E-003   0.0000000000000000     
   1.7021438218438960E-003   2.5981394414360259E-003   0.0000000000000000     
   2.5813996646601939E-003   4.4644397793384980E-003   0.0000000000000000     
   3.4794447954060574E-003   6.7088938620306106E-003   0.0000000000000000     
   0.0000000000000000        0.0000000000000000        0.0000000000000000     
   6.3384403160605235E-004   1.0939860196414149E-003   0.0000000000000000     
   1.2780714525749974E-003   2.5620700892701204E-003   0.0000000000000000     
   1.9326822629068346E-003   4.4042522088861159E-003   0.0000000000000000     
   2.5976764626015644E-003   6.6205323784894032E-003   0.0000000000000000     
   0.0000000000000000        0.0000000000000000        0.0000000000000000     
   4.2428866453284015E-004   1.0825508249214010E-003   0.0000000000000000     
   8.5302537421796194E-004   2.5363060053159646E-003   0.0000000000000000     
   1.2862101290553652E-003   4.3612655411836903E-003   0.0000000000000000     
   1.7238429290450505E-003   6.5574294325245778E-003   0.0000000000000000     
   0.0000000000000000        0.0000000000000000        0.0000000000000000     
   2.1301116573752812E-004   1.0756872641631506E-003   0.0000000000000000     
   4.2700558677279018E-004   2.5208471895735570E-003   0.0000000000000000     
   6.4198326310578623E-004   4.3354797762312188E-003   0.0000000000000000     
   8.5794419473651632E-004   6.5195850241361371E-003   0.0000000000000000     
   0.0000000000000000        0.0000000000000000        0.0000000000000000     
   1.1535220116419683E-008   1.0733953373666641E-003   0.0000000000000000     
   1.2090239482037256E-008   2.5156936420428987E-003   0.0000000000000000     
   1.6650580967714039E-009   4.3268949140287038E-003   0.0000000000000000     
  -1.9740324038998404E-008   6.5069991533240803E-003   0.0000000000000000     
   3.4794447954060574E-003   6.7088938620306106E-003   0.0000000000000000     
   4.3880182933221639E-003   9.2941835549959981E-003   0.0000000000000000     
   5.2988592376491906E-003   1.2182990723718302E-002   0.0000000000000000     
   6.2119676283871354E-003   1.5375315368197518E-002   0.0000000000000000     
   7.1273434655360016E-003   1.8871157488433647E-002   0.0000000000000000     
   2.5976764626015644E-003   6.6205323784894032E-003   0.0000000000000000     
   3.2700937363314107E-003   9.1779633166013015E-003   0.0000000000000000     
   3.9469737687685960E-003   1.2043597741743134E-002   0.0000000000000000     
   4.6283165599131215E-003   1.5217435653914896E-002   0.0000000000000000     
   5.3141221097649880E-003   1.8699477053116594E-002   0.0000000000000000     
   1.7238429290450505E-003   6.5574294325245778E-003   0.0000000000000000     
   2.1661085863362269E-003   9.0949676037907976E-003   0.0000000000000000     
   2.6131919130781048E-003   1.1944049979434516E-002   0.0000000000000000     
   3.0650929092706845E-003   1.5104676559455734E-002   0.0000000000000000     
   3.5218115749139647E-003   1.8576847343854459E-002   0.0000000000000000     
   8.5794419473651632E-004   6.5195850241361371E-003   0.0000000000000000     
   1.0760628433366148E-003   9.0451964165644896E-003   0.0000000000000000     
   1.2975136705777172E-003   1.1884347436792456E-002   0.0000000000000000     
   1.5222966764598231E-003   1.5037038084820037E-002   0.0000000000000000     
   1.7504118609829328E-003   1.8503268360647238E-002   0.0000000000000000     
  -1.9740324038998404E-008   6.5069991533240803E-003   0.0000000000000000     
  -4.3492667426616046E-008   9.0286497549223778E-003   0.0000000000000000     
  -6.0958732567391522E-008   1.1864490113816951E-002   0.0000000000000000     
  -7.2138519460550644E-008   1.5014520230007801E-002   0.0000000000000000     
  -7.7032028106965855E-008   1.8478740103494925E-002   0.0000000000000000     
   7.1273434655360016E-003   1.8871157488433647E-002   0.0000000000000000     
   8.0384697796645199E-003   2.2644572193536362E-002   0.0000000000000000     
   8.9388296013414251E-003   2.6669614592615326E-002   0.0000000000000000     
   9.8284229305667173E-003   3.0946284685670546E-002   0.0000000000000000     
   1.0707249767340396E-002   3.5474582472702014E-002   0.0000000000000000     
   5.3141221097649880E-003   1.8699477053116594E-002   0.0000000000000000     
   5.9974798010683887E-003   2.2462280424598143E-002   0.0000000000000000     
   6.6714790165675227E-003   2.6478404253609446E-002   0.0000000000000000     
   7.3361197562623881E-003   3.0747848540150512E-002   0.0000000000000000     
   7.9914020201529868E-003   3.5270613284221333E-002   0.0000000000000000     
   3.5218115749139647E-003   1.8576847343854459E-002   0.0000000000000000     
   3.9773855744989076E-003   2.2332068475370163E-002   0.0000000000000000     
   4.4258525725164770E-003   2.6341846096742349E-002   0.0000000000000000     
   4.8672125689666716E-003   3.0606180207971005E-002   0.0000000000000000     
   5.3014655638494914E-003   3.5125070809056136E-002   0.0000000000000000     
   1.7504118609829328E-003   1.8503268360647238E-002   0.0000000000000000     
   1.9781870999560774E-003   2.2253936345852439E-002   0.0000000000000000     
   2.2019502691882887E-003   2.6259940122014033E-002   0.0000000000000000     
   2.4217013686795657E-003   3.0521279689132031E-002   0.0000000000000000     
   2.6374403984299093E-003   3.5037955047206422E-002   0.0000000000000000     
  -7.7032028106965855E-008   1.8478740103494925E-002   0.0000000000000000     
  -1.1562256010185391E-007   2.2227884036044948E-002   0.0000000000000000     
  -2.2789341704270837E-007   2.6232686329424500E-002   0.0000000000000000     
  -4.1384459892830953E-007   3.0493146983633580E-002   0.0000000000000000     
  -6.7347610575906394E-007   3.5009265998672177E-002   0.0000000000000000     
   1.0707249767340396E-002   3.5474582472702014E-002   0.0000000000000000     
   1.1569589447529571E-002   4.0234590276579191E-002   0.0000000000000000     
   1.2409721307001350E-002   4.5206390420171529E-002   0.0000000000000000     
   1.3227645345755734E-002   5.0389982903479048E-002   0.0000000000000000     
   1.4023361563792724E-002   5.5785367726501715E-002   0.0000000000000000     
   7.9914020201529868E-003   3.5270613284221333E-002   0.0000000000000000     
   8.6342405587916376E-003   4.0027145801049990E-002   0.0000000000000000     
   9.2615501227306645E-003   4.4997893405864541E-002   0.0000000000000000     
   9.8733307119700606E-003   5.0182856098664998E-002   0.0000000000000000     
   1.0469582326509833E-002   5.5582033879451355E-002   0.0000000000000000     
   5.3014655638494914E-003   3.5125070809056136E-002   0.0000000000000000     
   5.7273502096943643E-003   3.9879195068633196E-002   0.0000000000000000     
   6.1436051590307217E-003   4.4849230155337656E-002   0.0000000000000000     
   6.5502304118585609E-003   5.0035176069169497E-002   0.0000000000000000     
   6.9472259681778829E-003   5.5437032810128746E-002   0.0000000000000000     
   2.6374403984299093E-003   3.5037955047206422E-002   0.0000000000000000     
   2.8489184002377520E-003   3.9790738079328827E-002   0.0000000000000000     
   3.0558864159015262E-003   4.4760400668590883E-002   0.0000000000000000     
   3.2583444454212331E-003   4.9946942814992568E-002   0.0000000000000000     
   3.4562924887968720E-003   5.5350364518533916E-002   0.0000000000000000     
  -6.7347610575906394E-007   3.5009265998672177E-002   0.0000000000000000     
  -1.0548695782018787E-006   3.9761774833136865E-002   0.0000000000000000     
  -1.6061066569220887E-006   4.4731404945624199E-002   0.0000000000000000     
  -2.3271873419215236E-006   4.9918156336134202E-002   0.0000000000000000     
  -3.2181116331984894E-006   5.5322029004666845E-002   0.0000000000000000     
   1.4023361563792724E-002   5.5785367726501715E-002   0.0000000000000000     
   1.4796305513279338E-002   6.1378682708282513E-002   0.0000000000000000     
   1.5545912746382597E-002   6.7156065667864390E-002   0.0000000000000000     
   1.6272183263102494E-002   7.3117516605247346E-002   0.0000000000000000     
   1.6975117063439044E-002   7.9263035520431388E-002   0.0000000000000000     
   1.0469582326509833E-002   5.5582033879451355E-002   0.0000000000000000     
   1.1049184830845778E-002   6.1180401677037435E-002   0.0000000000000000     
   1.1611018089473693E-002   6.6962934420237125E-002   0.0000000000000000     
   1.2155082102393577E-002   7.2929632109050374E-002   0.0000000000000000     
   1.2681376869605436E-002   7.9080494743477225E-002   0.0000000000000000     
   6.9472259681778829E-003   5.5437032810128746E-002   0.0000000000000000     
   7.3334125661678956E-003   6.1038962151628517E-002   0.0000000000000000     
   7.7076109440078087E-003   6.6825125867081975E-002   0.0000000000000000     
   8.0698211016976204E-003   7.2795523956489083E-002   0.0000000000000000     
   8.4200430392373325E-003   7.8950156419849912E-002   0.0000000000000000     
   3.4562924887968720E-003   5.5350364518533916E-002   0.0000000000000000     
   3.6489887192456918E-003   6.0954364132055752E-002   0.0000000000000000     
   3.8356913099849422E-003   6.6742640008398954E-002   0.0000000000000000     
   4.0164002610146238E-003   7.2715192147563529E-002   0.0000000000000000     
   4.1911155723347365E-003   7.8872020549549463E-002   0.0000000000000000     
  -3.2181116331984894E-006   5.5322029004666845E-002   0.0000000000000000     
  -4.0867099208332074E-006   6.0926607618319140E-002   0.0000000000000000     
  -4.7408125949045441E-006   6.6715476844188076E-002   0.0000000000000000     
  -5.1804196554118895E-006   7.2688636682273641E-002   0.0000000000000000     
  -5.4055311023558806E-006   7.8846087132575876E-002   0.0000000000000000     
   1.6975117063439044E-002   7.9263035520431388E-002   0.0000000000000000     
   1.7652347144324086E-002   8.5580668533744769E-002   0.0000000000000000     
   1.8301506502689486E-002   9.2058461765515728E-002   0.0000000000000000     
   1.8922595138535236E-002   9.8696415215744224E-002   0.0000000000000000     
   1.9515613051861339E-002  0.10549452888443032        0.0000000000000000     
   1.2681376869605436E-002   7.9080494743477225E-002   0.0000000000000000     
   1.3188353382223395E-002   8.5403762063548314E-002   0.0000000000000000     
   1.3674462631361592E-002   9.1887673809294385E-002   0.0000000000000000     
   1.4139704617020025E-002   9.8532229980715383E-002   0.0000000000000000     
   1.4584079339198697E-002  0.10533743057781136        0.0000000000000000     
   8.4200430392373325E-003   7.8950156419849912E-002   0.0000000000000000     
   8.7573769629167193E-003   8.5277462928105771E-002   0.0000000000000000     
   9.0809230790255564E-003   9.1765883152198163E-002   0.0000000000000000     
   9.3906813875638470E-003   9.8415417092126992E-002   0.0000000000000000     
   9.6866518885315861E-003  0.10522606474789230        0.0000000000000000     
   4.1911155723347365E-003   7.8872020549549463E-002   0.0000000000000000     
   4.3594178864040612E-003   8.5201771127417156E-002   0.0000000000000000     
   4.5208878456813829E-003   9.1693089794226995E-002   0.0000000000000000     
   4.6755254501666980E-003   9.8345976549978981E-002   0.0000000000000000     
   4.8233306998600100E-003  0.10516043139467315        0.0000000000000000     
  -5.4055311023558806E-006   7.8846087132575876E-002   0.0000000000000000     
  -5.5238473145818954E-006   8.5176686661482412E-002   0.0000000000000000     
  -5.6430686709368840E-006   9.1669293735380922E-002   0.0000000000000000     
  -5.7631951714209683E-006   9.8323908354271405E-002   0.0000000000000000     
  -5.8842268160341077E-006  0.10514053051815388        0.0000000000000000     
   1.9515613051861339E-002  0.10549452888443032        0.0000000000000000     
   2.0083211868511995E-002  0.11244055090331398        0.0000000000000000     
   2.0628043214331399E-002  0.11952222940413515        0.0000000000000000     
   2.1150107089319557E-002  0.12673956438689385        0.0000000000000000     
   2.1649403493476459E-002  0.13409255585159005        0.0000000000000000     
   1.4584079339198697E-002  0.10533743057781136        0.0000000000000000     
   1.5009090817211659E-002  0.11229077712545814        0.0000000000000000     
   1.5416243070372961E-002  0.11937977114853159        0.0000000000000000     
   1.5805536098682613E-002  0.12660441264703173        0.0000000000000000     
   1.6176969902140608E-002  0.13396470162095855        0.0000000000000000     
   9.6866518885315861E-003  0.10522606474789230        0.0000000000000000     
   9.9694647041821578E-003  0.11218483937621197        0.0000000000000000     
   1.0239749956768939E-002  0.11927875423380392        0.0000000000000000     
   1.0497507646291933E-002  0.12650780932066810        0.0000000000000000     
   1.0742737772751141E-002  0.13387200463680457        0.0000000000000000     
   4.8233306998600100E-003  0.10516043139467315        0.0000000000000000     
   4.9643335294234942E-003  0.11212273765557550        0.0000000000000000     
   5.0985638735193293E-003  0.11921917865995209        0.0000000000000000     
   5.2260217321475145E-003  0.12644975440780298        0.0000000000000000     
   5.3467071053080505E-003  0.13381446489912818        0.0000000000000000     
  -5.8842268160341077E-006  0.10514053051815388        0.0000000000000000     
  -6.3027070643312602E-006  0.11210447196354867        0.0000000000000000     
  -7.3151793758669502E-006  0.11920104442697617        0.0000000000000000     
  -8.9216437506433460E-006  0.12643024790843635        0.0000000000000000     
  -1.1122100188657846E-005  0.13379208240792925        0.0000000000000000     
   2.1649403493476459E-002  0.13409255585159005        0.0000000000000000     
   2.2121028105174523E-002  0.14156874667274216        0.0000000000000000     
   2.2560076602786163E-002  0.14915567972486851        0.0000000000000000     
   2.2966548986311373E-002  0.15685335500796918        0.0000000000000000     
   2.3340445255750158E-002  0.16466177252204409        0.0000000000000000     
   1.6176969902140608E-002  0.13396470162095855        0.0000000000000000     
   1.6526955005937451E-002  0.14144448453588171        0.0000000000000000     
   1.6851901935263640E-002  0.14902760785737088        0.0000000000000000     
   1.7151810690119170E-002  0.15671407158542608        0.0000000000000000     
   1.7426681270504049E-002  0.16450387572004724        0.0000000000000000     
   1.0742737772751141E-002  0.13387200463680457        0.0000000000000000     
   1.0973198725175869E-002  0.14135448767271677        0.0000000000000000     
   1.1186648892595430E-002  0.14893840591890820        0.0000000000000000     
   1.1383088275009825E-002  0.15662375937537876        0.0000000000000000     
   1.1562516872419052E-002  0.16441054804212851        0.0000000000000000     
   5.3467071053080505E-003  0.13381446489912818        0.0000000000000000     
   5.4597592628897801E-003  0.14129875608324738        0.0000000000000000     
   5.5643174747815405E-003  0.14888807390948039        0.0000000000000000     
   5.6603817409833354E-003  0.15658241837782719        0.0000000000000000     
   5.7479520614951637E-003  0.16438178948828785        0.0000000000000000     
  -1.1122100188657846E-005  0.13379208240792925        0.0000000000000000     
  -1.3363380920819153E-005  0.14127728976747345        0.0000000000000000     
  -1.5092318178031418E-005  0.14887661182908751        0.0000000000000000     
  -1.6308911960295780E-005  0.15659004859277148        0.0000000000000000     
  -1.7013162267613159E-005  0.16441760005852535        0.0000000000000000     
   0.0000000000000000        0.0000000000000000        0.0000000000000000     
   1.1535220116419683E-008   1.0733953373666641E-003   0.0000000000000000     
   1.2090239482037256E-008   2.5156936420428987E-003   0.0000000000000000     
   1.6650580967714039E-009   4.3268949140287038E-003   0.0000000000000000     
  -1.9740324038998404E-008   6.5069991533240803E-003   0.0000000000000000     
   0.0000000000000000        0.0000000000000000        0.0000000000000000     
  -2.1298904980019629E-004   1.0756784499116982E-003   0.0000000000000000     
  -4.2698159357738689E-004   2.5208474747700988E-003   0.0000000000000000     
  -6.4197763133157194E-004   4.3355070745752016E-003   0.0000000000000000     
  -8.5797716306275113E-004   6.5196572493270051E-003   0.0000000000000000     
   0.0000000000000000        0.0000000000000000        0.0000000000000000     
  -4.2426941210421123E-004   1.0825400071780096E-003   0.0000000000000000     
  -8.5300194287324122E-004   2.5363107998012651E-003   0.0000000000000000     
  -1.2861975923070899E-003   4.3613123778697676E-003   0.0000000000000000     
  -1.7238563604057568E-003   6.5575447413835147E-003   0.0000000000000000     
   0.0000000000000000        0.0000000000000000        0.0000000000000000     
  -6.3382955169192850E-004   1.0939800091655980E-003   0.0000000000000000     
  -1.2780489576480806E-003   2.5620836171363990E-003   0.0000000000000000     
  -1.9326582178684566E-003   4.4043108239124025E-003   0.0000000000000000     
  -2.5976573323530563E-003   6.6206616294936091E-003   0.0000000000000000     
   0.0000000000000000        0.0000000000000000        0.0000000000000000     
  -8.4166946856334781E-004   1.1099984558744639E-003   0.0000000000000000     
  -1.7021226379019053E-003   2.5981659267754992E-003   0.0000000000000000     
  -2.5813595080156721E-003   4.4645024127031065E-003   0.0000000000000000     
  -3.4793800789046491E-003   6.7090079136572856E-003   0.0000000000000000     
  -1.9740324038998404E-008   6.5069991533240803E-003   0.0000000000000000     
  -4.3492667426616046E-008   9.0286497549223778E-003   0.0000000000000000     
  -6.0958732567391522E-008   1.1864490113816951E-002   0.0000000000000000     
  -7.2138519460550644E-008   1.5014520230007801E-002   0.0000000000000000     
  -7.7032028106965855E-008   1.8478740103494925E-002   0.0000000000000000     
  -8.5797716306275113E-004   6.5196572493270051E-003   0.0000000000000000     
  -1.0761386636810890E-003   9.0453044839334164E-003   0.0000000000000000     
  -1.2976206080967496E-003   1.1884455263302337E-002   0.0000000000000000     
  -1.5224229963097336E-003   1.5037109587433770E-002   0.0000000000000000     
  -1.7505458283200389E-003   1.8503267456327712E-002   0.0000000000000000     
  -1.7238563604057568E-003   6.5575447413835147E-003   0.0000000000000000     
  -2.1661509117095645E-003   9.0951374686665601E-003   0.0000000000000000     
  -2.6132539107588315E-003   1.1944220138042952E-002   0.0000000000000000     
  -3.0651653575535587E-003   1.5104792749512694E-002   0.0000000000000000     
  -3.5218852520937476E-003   1.8576855303075780E-002   0.0000000000000000     
  -2.5976573323530563E-003   6.6206616294936091E-003   0.0000000000000000     
  -3.2700802367528511E-003   9.1781487091218070E-003   0.0000000000000000     
  -3.9469608667188124E-003   1.2043784738038797E-002   0.0000000000000000     
  -4.6282992222509379E-003   1.5217569716244567E-002   0.0000000000000000     
  -5.3140953033492316E-003   1.8699503643739131E-002   0.0000000000000000     
  -3.4793800789046491E-003   6.7090079136572856E-003   0.0000000000000000     
  -4.3879266388109506E-003   9.2943382052991623E-003   0.0000000000000000     
  -5.2987414759766913E-003   1.2183149063289867E-002   0.0000000000000000     
  -6.2118245904018718E-003   1.5375440487629399E-002   0.0000000000000000     
  -7.1271759820864932E-003   1.8871212478317755E-002   0.0000000000000000     
  -7.7032028106965855E-008   1.8478740103494925E-002   0.0000000000000000     
  -1.1562256010185391E-007   2.2227884036044948E-002   0.0000000000000000     
  -2.2789341704270837E-007   2.6232686329424500E-002   0.0000000000000000     
  -4.1384459892830953E-007   3.0493146983633580E-002   0.0000000000000000     
  -6.7347610575906394E-007   3.5009265998672177E-002   0.0000000000000000     
  -1.7505458283200389E-003   1.8503267456327712E-002   0.0000000000000000     
  -1.9783901176465574E-003   2.2253920618890730E-002   0.0000000000000000     
  -2.2023568778081781E-003   2.6260060824029388E-002   0.0000000000000000     
  -2.4224461088048991E-003   3.0521688071743675E-002   0.0000000000000000     
  -2.6386578106367231E-003   3.5038802362033612E-002   0.0000000000000000     
  -3.5218852520937476E-003   1.8576855303075780E-002   0.0000000000000000     
  -3.9775039099002145E-003   2.2332055167332793E-002   0.0000000000000000     
  -4.4261116464937777E-003   2.6342039710884321E-002   0.0000000000000000     
  -4.8677084618744372E-003   3.0606808933730360E-002   0.0000000000000000     
  -5.3022943560421931E-003   3.5126362835870902E-002   0.0000000000000000     
  -5.3140953033492316E-003   1.8699503643739131E-002   0.0000000000000000     
  -5.9974569993210729E-003   2.2462287681371151E-002   0.0000000000000000     
  -6.6714921994738430E-003   2.6478622989989316E-002   0.0000000000000000     
  -7.3362009038075411E-003   3.0748509569593629E-002   0.0000000000000000     
  -7.9915831123221689E-003   3.5271947420184080E-002   0.0000000000000000     
  -7.1271759820864932E-003   1.8871212478317755E-002   0.0000000000000000     
  -8.0382493859091336E-003   2.2644618161005790E-002   0.0000000000000000     
  -8.9384985367483728E-003   2.6669810661344363E-002   0.0000000000000000     
  -9.8279234346042108E-003   3.0946789979333464E-002   0.0000000000000000     
  -1.0706524079476649E-002   3.5475556114973099E-002   0.0000000000000000     
  -6.7347610575906394E-007   3.5009265998672177E-002   0.0000000000000000     
  -1.0548695782018787E-006   3.9761774833136865E-002   0.0000000000000000     
  -1.6061066569220887E-006   4.4731404945624199E-002   0.0000000000000000     
  -2.3271873419215236E-006   4.9918156336134202E-002   0.0000000000000000     
  -3.2181116331984894E-006   5.5322029004666845E-002   0.0000000000000000     
  -2.6386578106367231E-003   3.5038802362033612E-002   0.0000000000000000     
  -2.8508235975514087E-003   3.9791990083148002E-002   0.0000000000000000     
  -3.0587750837967158E-003   4.4761837623335687E-002   0.0000000000000000     
  -3.2625122693726435E-003   4.9948344982596676E-002   0.0000000000000000     
  -3.4620351542791932E-003   5.5351512160930955E-002   0.0000000000000000     
  -5.3022943560421931E-003   3.5126362835870902E-002   0.0000000000000000     
  -5.7286417814797807E-003   3.9881068582452925E-002   0.0000000000000000     
  -6.1455231906699433E-003   4.4851293338623401E-002   0.0000000000000000     
  -6.5529385836126742E-003   5.0037037104382301E-002   0.0000000000000000     
  -6.9508879603079757E-003   5.5438299879729640E-002   0.0000000000000000     
  -7.9915831123221689E-003   3.5271947420184080E-002   0.0000000000000000     
  -8.6345094213633230E-003   4.0029010331051634E-002   0.0000000000000000     
  -9.2618504272766033E-003   4.4999772091487304E-002   0.0000000000000000     
  -9.8736061300620133E-003   5.0184232701491055E-002   0.0000000000000000     
  -1.0469776529719548E-002   5.5582392161062921E-002   0.0000000000000000     
  -1.0706524079476649E-002   3.5475556114973099E-002   0.0000000000000000     
  -1.1568426517202029E-002   4.0235815328944137E-002   0.0000000000000000     
  -1.2407756793616703E-002   4.5207273881927419E-002   0.0000000000000000     
  -1.3224514908720659E-002   5.0389931773922973E-002   0.0000000000000000     
  -1.4018700862513906E-002   5.5783789004930771E-002   0.0000000000000000     
  -3.2181116331984894E-006   5.5322029004666845E-002   0.0000000000000000     
  -4.0867099208332074E-006   6.0926607618319140E-002   0.0000000000000000     
  -4.7408125949045441E-006   6.6715476844188076E-002   0.0000000000000000     
  -5.1804196554118895E-006   7.2688636682273641E-002   0.0000000000000000     
  -5.4055311023558806E-006   7.8846087132575876E-002   0.0000000000000000     
  -3.4620351542791932E-003   5.5351512160930955E-002   0.0000000000000000     
  -3.6562596835382996E-003   6.0955158628639358E-002   0.0000000000000000     
  -3.8441018021718979E-003   6.6743103856022779E-002   0.0000000000000000     
  -4.0255615101799881E-003   7.2715347843081174E-002   0.0000000000000000     
  -4.2006388075625694E-003   7.8871890589814572E-002   0.0000000000000000     
  -6.9508879603079757E-003   5.5438299879729640E-002   0.0000000000000000     
  -7.3379761638133261E-003   6.1039483181237149E-002   0.0000000000000000     
  -7.7128080371862019E-003   6.6824988525476525E-002   0.0000000000000000     
  -8.0753835804266046E-003   7.2794815912447783E-002   0.0000000000000000     
  -8.4257027935345299E-003   7.8948965342150929E-002   0.0000000000000000     
  -1.0469776529719548E-002   5.5582392161062921E-002   0.0000000000000000     
  -1.1049236150745913E-002   6.1179581276112463E-002   0.0000000000000000     
  -1.1610859517637819E-002   6.6961130852549317E-002   0.0000000000000000     
  -1.2154646630395260E-002   7.2927040890373482E-002   0.0000000000000000     
  -1.2680597489018243E-002   7.9077311389584945E-002   0.0000000000000000     
  -1.4018700862513906E-002   5.5783789004930771E-002   0.0000000000000000     
  -1.4790039644336063E-002   6.1375452913265349E-002   0.0000000000000000     
  -1.5538256243526744E-002   6.7151530837241180E-002   0.0000000000000000     
  -1.6263350660085961E-002   7.3112022776858285E-002   0.0000000000000000     
  -1.6965322894013701E-002   7.9256928732116649E-002   0.0000000000000000     
  -5.4055311023558806E-006   7.8846087132575876E-002   0.0000000000000000     
  -5.5238473145818954E-006   8.5176686661482412E-002   0.0000000000000000     
  -5.6430686709368840E-006   9.1669293735380922E-002   0.0000000000000000     
  -5.7631951714209683E-006   9.8323908354271405E-002   0.0000000000000000     
  -5.8842268160341077E-006  0.10514053051815388        0.0000000000000000     
  -4.2006388075625694E-003   7.8871890589814572E-002   0.0000000000000000     
  -4.3691122458834443E-003   8.5201705948261694E-002   0.0000000000000000     
  -4.5307603767064143E-003   9.1693767770461357E-002   0.0000000000000000     
  -4.6855832000314811E-003   9.8348076056413491E-002   0.0000000000000000     
  -4.8335807158586420E-003  0.10516463080611813        0.0000000000000000     
  -8.4257027935345299E-003   7.8948965342150929E-002   0.0000000000000000     
  -8.7630113169467581E-003   8.5276325405715156E-002   0.0000000000000000     
  -9.0865547911000658E-003   9.1765784694269631E-002   0.0000000000000000     
  -9.3963332159944495E-003   9.8417343207814423E-002   0.0000000000000000     
  -9.6923465916299110E-003  0.10523100094634948        0.0000000000000000     
  -1.2680597489018243E-002   7.9077311389584945E-002   0.0000000000000000     
  -1.3187221060504526E-002   8.5400545033842715E-002   0.0000000000000000     
  -1.3673026311851888E-002   9.1885344506805813E-002   0.0000000000000000     
  -1.4138013243060330E-002   9.8531709808474227E-002   0.0000000000000000     
  -1.4582181854129843E-002  0.10533964093884797        0.0000000000000000     
  -1.6965322894013701E-002   7.9256928732116649E-002   0.0000000000000000     
  -1.7641741476556748E-002   8.5574364832644481E-002   0.0000000000000000     
  -1.8290174938961887E-002   9.2052447208069876E-002   0.0000000000000000     
  -1.8910623281229114E-002   9.8691175858392904E-002   0.0000000000000000     
  -1.9503086503358431E-002  0.10549055078361357        0.0000000000000000     
  -5.8842268160341077E-006  0.10514053051815388        0.0000000000000000     
  -6.3027070643312602E-006  0.11210447196354867        0.0000000000000000     
  -7.3151793758669502E-006  0.11920104442697617        0.0000000000000000     
  -8.9216437506433460E-006  0.12643024790843635        0.0000000000000000     
  -1.1122100188657846E-005  0.13379208240792925        0.0000000000000000     
  -4.8335807158586420E-003  0.10516463080611813        0.0000000000000000     
  -4.9753150760589839E-003  0.11212795705367047        0.0000000000000000     
  -5.1113484325035928E-003  0.11922257983316571        0.0000000000000000     
  -5.2416807851924686E-003  0.12644849914460390        0.0000000000000000     
  -5.3663121341256106E-003  0.13380571498798494        0.0000000000000000     
  -9.6923465916299110E-003  0.10523100094634948        0.0000000000000000     
  -9.9755746483381307E-003  0.11219110767947980        0.0000000000000000     
  -1.0246997116450791E-002  0.11928201317681043        0.0000000000000000     
  -1.0506613995967893E-002  0.12650371743834127        0.0000000000000000     
  -1.0754425286889434E-002  0.13385622046407236        0.0000000000000000     
  -1.4582181854129843E-002  0.10533964093884797        0.0000000000000000     
  -1.5007081423901775E-002  0.11229392384097672        0.0000000000000000     
  -1.5414261231217462E-002  0.11937934445791024        0.0000000000000000     
  -1.5803721276076918E-002  0.12659590278964850        0.0000000000000000     
  -1.6175461558480122E-002  0.13394359883619147        0.0000000000000000     
  -1.9503086503358431E-002  0.10549055078361357        0.0000000000000000     
  -2.0069835402749907E-002  0.11243640553816117        0.0000000000000000     
  -2.0613140776803606E-002  0.11951457367646516        0.0000000000000000     
  -2.1133002625519537E-002  0.12672505519852556        0.0000000000000000     
  -2.1629420948897686E-002  0.13406785010434230        0.0000000000000000     
  -1.1122100188657846E-005  0.13379208240792925        0.0000000000000000     
  -1.3363380920819153E-005  0.14127728976747345        0.0000000000000000     
  -1.5092318178031418E-005  0.14887661182908751        0.0000000000000000     
  -1.6308911960295780E-005  0.15659004859277148        0.0000000000000000     
  -1.7013162267613159E-005  0.16441760005852535        0.0000000000000000     
  -5.3663121341256106E-003  0.13380571498798494        0.0000000000000000     
  -5.4833854683818146E-003  0.14129023724696388        0.0000000000000000     
  -5.5910437770398721E-003  0.14889807580519562        0.0000000000000000     
  -5.6892870600997875E-003  0.15662923066268020        0.0000000000000000     
  -5.7781153175615572E-003  0.16448370181941757        0.0000000000000000     
  -1.0754425286889434E-002  0.13385622046407236        0.0000000000000000     
  -1.0987523261619099E-002  0.14133774704328758        0.0000000000000000     
  -1.1203000192560573E-002  0.14894652196527081        0.0000000000000000     
  -1.1400856079713853E-002  0.15668254523002201        0.0000000000000000     
  -1.1581090923078945E-002  0.16454581683754121        0.0000000000000000     
  -1.6175461558480122E-002  0.13394359883619147        0.0000000000000000     
  -1.6525776760632674E-002  0.14141981915644453        0.0000000000000000     
  -1.6850961564740131E-002  0.14902195030931306        0.0000000000000000     
  -1.7151015970802500E-002  0.15674999229479694        0.0000000000000000     
  -1.7425939978819773E-002  0.16460394511289628        0.0000000000000000     
  -2.1629420948897686E-002  0.13406785010434230        0.0000000000000000     
  -2.2098145965422530E-002  0.14153645358643474        0.0000000000000000     
  -2.2534927893578544E-002  0.14912436083732233        0.0000000000000000     
  -2.2939766733365712E-002  0.15683157185700500        0.0000000000000000     
  -2.3312662484784048E-002  0.16465808664548282        0.0000000000000000     
   0.0000000000000000        0.0000000000000000        0.0000000000000000     
  -8.4166946856334781E-004   1.1099984558744639E-003   0.0000000000000000     
  -1.7021226379019053E-003   2.5981659267754992E-003   0.0000000000000000     
  -2.5813595080156721E-003   4.4645024127031065E-003   0.0000000000000000     
  -3.4793800789046491E-003   6.7090079136572856E-003   0.0000000000000000     
   0.0000000000000000        0.0000000000000000        0.0000000000000000     
  -1.0566956574427468E-003   1.1341575872329869E-003   0.0000000000000000     
  -2.1397644785767066E-003   2.6504077117344071E-003   0.0000000000000000     
  -3.2492064634018799E-003   4.5487503735042612E-003   0.0000000000000000     
  -4.3850216119182672E-003   6.8291855725425487E-003   0.0000000000000000     
   0.0000000000000000        0.0000000000000000        0.0000000000000000     
  -1.2878146130544024E-003   1.1700196431695476E-003   0.0000000000000000     
  -2.6055159746144769E-003   2.7246589550289635E-003   0.0000000000000000     
  -3.9531040846802227E-003   4.6639179355782495E-003   0.0000000000000000     
  -5.3305789432516407E-003   6.9877965848174038E-003   0.0000000000000000     
   0.0000000000000000        0.0000000000000000        0.0000000000000000     
  -1.5350263353983147E-003   1.2175846236841456E-003   0.0000000000000000     
  -3.0993771260152151E-003   2.8209196566591692E-003   0.0000000000000000     
  -4.6930523718507009E-003   4.8100050989250704E-003   0.0000000000000000     
  -6.3160520729047724E-003   7.1848409504818500E-003   0.0000000000000000     
   0.0000000000000000        0.0000000000000000        0.0000000000000000     
  -1.7983308244744834E-003   1.2768525287767815E-003   0.0000000000000000     
  -3.6213479327789214E-003   2.9391898166250228E-003   0.0000000000000000     
  -5.4690513249133141E-003   4.9870118635447257E-003   0.0000000000000000     
  -7.3414410008776597E-003   7.4203186695358881E-003   0.0000000000000000     
  -3.4793800789046491E-003   6.7090079136572856E-003   0.0000000000000000     
  -4.3879266388109506E-003   9.2943382052991623E-003   0.0000000000000000     
  -5.2987414759766913E-003   1.2183149063289867E-002   0.0000000000000000     
  -6.2118245904018718E-003   1.5375440487629399E-002   0.0000000000000000     
  -7.1271759820864932E-003   1.8871212478317755E-002   0.0000000000000000     
  -4.3850216119182672E-003   6.8291855725425487E-003   0.0000000000000000     
  -5.5342124906501335E-003   9.4496947316481308E-003   0.0000000000000000     
  -6.6837816661217469E-003   1.2368259273619868E-002   0.0000000000000000     
  -7.8337291383331099E-003   1.5584879198457758E-002   0.0000000000000000     
  -8.9840549072842182E-003   1.9099554506161805E-002   0.0000000000000000     
  -5.3305789432516407E-003   6.9877965848174038E-003   0.0000000000000000     
  -6.7234601650366715E-003   9.6502070626182223E-003   0.0000000000000000     
  -8.1172673647432574E-003   1.2605061528852496E-002   0.0000000000000000     
  -9.5120005423713957E-003   1.5852359983520227E-002   0.0000000000000000     
  -1.0907659697921093E-002   1.9392102426621417E-002   0.0000000000000000     
  -6.3160520729047724E-003   7.1848409504818500E-003   0.0000000000000000     
  -7.9556696619705672E-003   9.8958751982094351E-003   0.0000000000000000     
  -9.5991985718412217E-003   1.2893555828987754E-002   0.0000000000000000     
  -1.1246638802516737E-002   1.6177882842816807E-002   0.0000000000000000     
  -1.2897990353997116E-002   1.9748856239696591E-002   0.0000000000000000     
  -7.3414410008776597E-003   7.4203186695358881E-003   0.0000000000000000     
  -9.2308409814518162E-003   1.0186699138421773E-002   0.0000000000000000     
  -1.1129575287415639E-002   1.3233742174025641E-002   0.0000000000000000     
  -1.3037643918769128E-002   1.6561447776347493E-002   0.0000000000000000     
  -1.4955046875512287E-002   2.0169815945387332E-002   0.0000000000000000     
  -7.1271759820864932E-003   1.8871212478317755E-002   0.0000000000000000     
  -8.0382493859091336E-003   2.2644618161005790E-002   0.0000000000000000     
  -8.9384985367483728E-003   2.6669810661344363E-002   0.0000000000000000     
  -9.8279234346042108E-003   3.0946789979333464E-002   0.0000000000000000     
  -1.0706524079476649E-002   3.5475556114973099E-002   0.0000000000000000     
  -8.9840549072842182E-003   1.9099554506161805E-002   0.0000000000000000     
  -1.0127798487638432E-002   2.2887504600027444E-002   0.0000000000000000     
  -1.1257999394059120E-002   2.6923948883350108E-002   0.0000000000000000     
  -1.2374657626546276E-002   3.1208887356129807E-002   0.0000000000000000     
  -1.3477773185099904E-002   3.5742320018366532E-002   0.0000000000000000     
  -1.0907659697921093E-002   1.9392102426621417E-002   0.0000000000000000     
  -1.2294021722483011E-002   2.3199404992226821E-002   0.0000000000000000     
  -1.3660863507147840E-002   2.7249383814407193E-002   0.0000000000000000     
  -1.5008185051915569E-002   3.1542038893162545E-002   0.0000000000000000     
  -1.6335986356786205E-002   3.6077370228492854E-002   0.0000000000000000     
  -1.2897990353997116E-002   1.9748856239696591E-002   0.0000000000000000     
  -1.4536919090442871E-002   2.3580319337603930E-002   0.0000000000000000     
  -1.6147090876014531E-002   2.7646115454515629E-002   0.0000000000000000     
  -1.7728505710712092E-002   3.1946244590431688E-002   0.0000000000000000     
  -1.9281163594535550E-002   3.6480706745352115E-002   0.0000000000000000     
  -1.4955046875512287E-002   2.0169815945387332E-002   0.0000000000000000     
  -1.6856490591518010E-002   2.4030247636158762E-002   0.0000000000000000     
  -1.8716681500659194E-002   2.8114143803675395E-002   0.0000000000000000     
  -2.0535619602935835E-002   3.2421504447937240E-002   0.0000000000000000     
  -2.2313304898347940E-002   3.6952329568944280E-002   0.0000000000000000     
  -1.0706524079476649E-002   3.5475556114973099E-002   0.0000000000000000     
  -1.1568426517202029E-002   4.0235815328944137E-002   0.0000000000000000     
  -1.2407756793616703E-002   4.5207273881927419E-002   0.0000000000000000     
  -1.3224514908720659E-002   5.0389931773922973E-002   0.0000000000000000     
  -1.4018700862513906E-002   5.5783789004930771E-002   0.0000000000000000     
  -1.3477773185099904E-002   3.5742320018366532E-002   0.0000000000000000     
  -1.4559275792811703E-002   4.0504383864199113E-002   0.0000000000000000     
  -1.5611095172773384E-002   4.5475215887766401E-002   0.0000000000000000     
  -1.6633231324984937E-002   5.0654816089068397E-002   0.0000000000000000     
  -1.7625684249446365E-002   5.6043184468105092E-002   0.0000000000000000     
  -1.6335986356786205E-002   3.6077370228492854E-002   0.0000000000000000     
  -1.7635939972008147E-002   4.0837616224885263E-002   0.0000000000000000     
  -1.8899718447829797E-002   4.5805015286826886E-002   0.0000000000000000     
  -2.0127321784251161E-002   5.0979567414317688E-002   0.0000000000000000     
  -2.1318749981272235E-002   5.6361272607357710E-002   0.0000000000000000     
  -1.9281163594535550E-002   3.6480706745352115E-002   0.0000000000000000     
  -2.0798419054791357E-002   4.1235512411002609E-002   0.0000000000000000     
  -2.2273626618785954E-002   4.6196672079108859E-002   0.0000000000000000     
  -2.3706786286519340E-002   5.1364185749670874E-002   0.0000000000000000     
  -2.5097898057991525E-002   5.6738053422688645E-002   0.0000000000000000     
  -2.2313304898347940E-002   3.6952329568944280E-002   0.0000000000000000     
  -2.4046713041161336E-002   4.1698072422551115E-002   0.0000000000000000     
  -2.5732819685641849E-002   4.6650186264612335E-002   0.0000000000000000     
  -2.7371624831789471E-002   5.1808671095127927E-002   0.0000000000000000     
  -2.8963128479604215E-002   5.7173526914097904E-002   0.0000000000000000     
  -1.4018700862513906E-002   5.5783789004930771E-002   0.0000000000000000     
  -1.4790039644336063E-002   6.1375452913265349E-002   0.0000000000000000     
  -1.5538256243526744E-002   6.7151530837241180E-002   0.0000000000000000     
  -1.6263350660085961E-002   7.3112022776858285E-002   0.0000000000000000     
  -1.6965322894013701E-002   7.9256928732116649E-002   0.0000000000000000     
  -1.7625684249446365E-002   5.6043184468105092E-002   0.0000000000000000     
  -1.8589051555700387E-002   6.1628053463135810E-002   0.0000000000000000     
  -1.9523930853289705E-002   6.7397155512419940E-002   0.0000000000000000     
  -2.0430322142214324E-002   7.3350490615957428E-002   0.0000000000000000     
  -2.1308225422474240E-002   7.9488058773748330E-002   0.0000000000000000     
  -2.1318749981272235E-002   5.6361272607357710E-002   0.0000000000000000     
  -2.2474936795955497E-002   6.1938338296163964E-002   0.0000000000000000     
  -2.3596815985363409E-002   6.7698971910953490E-002   0.0000000000000000     
  -2.4684387549495975E-002   7.3643173451726246E-002   0.0000000000000000     
  -2.5737651488353195E-002   7.9770942918482288E-002   0.0000000000000000     
  -2.5097898057991525E-002   5.6738053422688645E-002   0.0000000000000000     
  -2.6447695365101390E-002   6.2306307412349757E-002   0.0000000000000000     
  -2.7756911639747858E-002   6.8056980032841774E-002   0.0000000000000000     
  -2.9025546881930916E-002   7.3990071284164696E-002   0.0000000000000000     
  -3.0253601091650578E-002   8.0105581166318524E-002   0.0000000000000000     
  -2.8963128479604215E-002   5.7173526914097904E-002   0.0000000000000000     
  -3.0507327263138075E-002   6.2731960811693230E-002   0.0000000000000000     
  -3.2004217816443054E-002   6.8471179878084862E-002   0.0000000000000000     
  -3.3453800139519152E-002   7.4391184113272793E-002   0.0000000000000000     
  -3.4856074232366363E-002   8.0491973517257051E-002   0.0000000000000000     
  -1.6965322894013701E-002   7.9256928732116649E-002   0.0000000000000000     
  -1.7641741476556748E-002   8.5574364832644481E-002   0.0000000000000000     
  -1.8290174938961887E-002   9.2052447208069876E-002   0.0000000000000000     
  -1.8910623281229114E-002   9.8691175858392904E-002   0.0000000000000000     
  -1.9503086503358431E-002  0.10549055078361357        0.0000000000000000     
  -2.1308225422474240E-002   7.9488058773748330E-002   0.0000000000000000     
  -2.2154350995908092E-002   8.5797609450756901E-002   0.0000000000000000     
  -2.2965409164354508E-002   9.2266892111947441E-002   0.0000000000000000     
  -2.3741399927813493E-002   9.8895906757319935E-002   0.0000000000000000     
  -2.4482323286285034E-002  0.10568465338687441        0.0000000000000000     
  -2.5737651488353195E-002   7.9770942918482288E-002   0.0000000000000000     
  -2.6752828049363221E-002   8.6070103536816586E-002   0.0000000000000000     
  -2.7726137479954199E-002   9.2528478532324057E-002   0.0000000000000000     
  -2.8657579780126122E-002   9.9146067905004784E-002   0.0000000000000000     
  -2.9547154949879001E-002  0.10592287165485870        0.0000000000000000     
  -3.0253601091650578E-002   8.0105581166318524E-002   0.0000000000000000     
  -3.1437172636922146E-002   8.6391847090823481E-002   0.0000000000000000     
  -3.2572359885760960E-002   9.2837206469199796E-002   0.0000000000000000     
  -3.3659162838167021E-002   9.9441659301447424E-002   0.0000000000000000     
  -3.4697581494140338E-002  0.10620520558756644        0.0000000000000000     
  -3.4856074232366363E-002   8.0491973517257051E-002   0.0000000000000000     
  -3.6207384758584857E-002   8.6762840112777642E-002   0.0000000000000000     
  -3.7504076381774797E-002   9.3193075922574586E-002   0.0000000000000000     
  -3.8746149101936182E-002   9.9782680946647911E-002   0.0000000000000000     
  -3.9933602919069014E-002  0.10653165518499758        0.0000000000000000     
  -1.9503086503358431E-002  0.10549055078361357        0.0000000000000000     
  -2.0069835402749907E-002  0.11243640553816117        0.0000000000000000     
  -2.0613140776803606E-002  0.11951457367646516        0.0000000000000000     
  -2.1133002625519537E-002  0.12672505519852556        0.0000000000000000     
  -2.1629420948897686E-002  0.13406785010434230        0.0000000000000000     
  -2.4482323286285034E-002  0.10568465338687441        0.0000000000000000     
  -2.5191187033142458E-002  0.11262005464732722        0.0000000000000000     
  -2.5870998961759060E-002  0.11968903318539470        0.0000000000000000     
  -2.6521759072134860E-002  0.12689158900107686        0.0000000000000000     
  -2.7143467364269831E-002  0.13422772209437367        0.0000000000000000     
  -2.9547154949879001E-002  0.10592287165485870        0.0000000000000000     
  -3.0398486763339342E-002  0.11284637304476886        0.0000000000000000     
  -3.1215198994633677E-002  0.11990405533761821        0.0000000000000000     
  -3.1997291643761985E-002  0.12709591853340677        0.0000000000000000     
  -3.2744764710724288E-002  0.13442196263213452        0.0000000000000000     
  -3.4697581494140338E-002  0.10620520558756644        0.0000000000000000     
  -3.5691734593340574E-002  0.11311536073048609        0.0000000000000000     
  -3.6645740875427428E-002  0.12015964013313570        0.0000000000000000     
  -3.7559600340400928E-002  0.12733804379551530        0.0000000000000000     
  -3.8433312988261040E-002  0.13465057171762482        0.0000000000000000     
  -3.9933602919069014E-002  0.10653165518499758        0.0000000000000000     
  -4.1070930523146136E-002  0.11342701770447891        0.0000000000000000     
  -4.2162624604140352E-002  0.12045578757194719        0.0000000000000000     
  -4.3208685162051674E-002  0.12761796478740242        0.0000000000000000     
  -4.4209112196880097E-002  0.13491354935084460        0.0000000000000000     
  -2.1629420948897686E-002  0.13406785010434230        0.0000000000000000     
  -2.2098145965422530E-002  0.14153645358643474        0.0000000000000000     
  -2.2534927893578544E-002  0.14912436083732233        0.0000000000000000     
  -2.2939766733365712E-002  0.15683157185700500        0.0000000000000000     
  -2.3312662484784048E-002  0.16465808664548282        0.0000000000000000     
  -2.7143467364269831E-002  0.13422772209437367        0.0000000000000000     
  -2.7731403398922379E-002  0.14168655936135971        0.0000000000000000     
  -2.8280846736850867E-002  0.14925722769810956        0.0000000000000000     
  -2.8791797378055296E-002  0.15693972710462317        0.0000000000000000     
  -2.9264255322535678E-002  0.16473405758090054        0.0000000000000000     
  -3.2744764710724288E-002  0.13442196263213452        0.0000000000000000     
  -3.3452321584065900E-002  0.14186904550932097        0.0000000000000000     
  -3.4114665652332156E-002  0.14942402504048558        0.0000000000000000     
  -3.4731796915523049E-002  0.15708690122562835        0.0000000000000000     
  -3.5303715373638592E-002  0.16485767406474924        0.0000000000000000     
  -3.8433312988261040E-002  0.13465057171762482        0.0000000000000000     
  -3.9260900520853098E-002  0.14208391203031850        0.0000000000000000     
  -4.0036384640022404E-002  0.14962475286445040        0.0000000000000000     
  -4.0759765345768958E-002  0.15727309422002056        0.0000000000000000     
  -4.1431042638092760E-002  0.16502893609702893        0.0000000000000000     
  -4.4209112196880097E-002  0.13491354935084460        0.0000000000000000     
  -4.5157140209283970E-002  0.14233115892435225        0.0000000000000000     
  -4.6046003699921609E-002  0.14985941117000401        0.0000000000000000     
  -4.6875702668793019E-002  0.15749830608779977        0.0000000000000000     
  -4.7646237115898209E-002  0.16524784367773959        0.0000000000000000     
   0.0000000000000000        0.0000000000000000        0.0000000000000000     
  -1.7983308244744834E-003   1.2768525287767815E-003   0.0000000000000000     
  -3.6213479327789214E-003   2.9391898166250228E-003   0.0000000000000000     
  -5.4690513249133141E-003   4.9870118635447257E-003   0.0000000000000000     
  -7.3414410008776597E-003   7.4203186695358881E-003   0.0000000000000000     
   0.0000000000000000        0.0000000000000000        0.0000000000000000     
  -2.0694529954709689E-003   1.3549423386695946E-003   0.0000000000000000     
  -4.1640744319607599E-003   3.0939884073997014E-003   0.0000000000000000     
  -6.2838643094693739E-003   5.2171382061903197E-003   0.0000000000000000     
  -8.4288226279968098E-003   7.7243917350414510E-003   0.0000000000000000     
   0.0000000000000000        0.0000000000000000        0.0000000000000000     
  -2.3401177635758298E-003   1.4589730335847254E-003   0.0000000000000000     
  -4.7202026606158942E-003   3.2998344014563796E-003   0.0000000000000000     
  -7.1402546911201945E-003   5.5225841036149626E-003   0.0000000000000000     
  -9.6002738550887267E-003   8.1272221400604736E-003   0.0000000000000000     
   0.0000000000000000        0.0000000000000000        0.0000000000000000     
  -2.6103251287890668E-003   1.5889446135221737E-003   0.0000000000000000     
  -5.2897326187443250E-003   3.5567277987950587E-003   0.0000000000000000     
  -8.0382224698657741E-003   5.9033495558186537E-003   0.0000000000000000     
  -1.0855794682153412E-002   8.6288098845929608E-003   0.0000000000000000     
   0.0000000000000000        0.0000000000000000        0.0000000000000000     
  -2.8800750911106799E-003   1.7448570784819397E-003   0.0000000000000000     
  -5.8726643063460506E-003   3.8646685994157375E-003   0.0000000000000000     
  -8.9777676457061129E-003   6.3594345628013929E-003   0.0000000000000000     
  -1.2195385109190864E-002   9.2291549686389068E-003   0.0000000000000000     
  -7.3414410008776597E-003   7.4203186695358881E-003   0.0000000000000000     
  -9.2308409814518162E-003   1.0186699138421773E-002   0.0000000000000000     
  -1.1129575287415639E-002   1.3233742174025641E-002   0.0000000000000000     
  -1.3037643918769128E-002   1.6561447776347493E-002   0.0000000000000000     
  -1.4955046875512287E-002   2.0169815945387332E-002   0.0000000000000000     
  -8.4288226279968098E-003   7.7243917350414510E-003   0.0000000000000000     
  -1.0590637769662906E-002   1.0558316677674926E-002   0.0000000000000000     
  -1.2760998116587501E-002   1.3661480717812587E-002   0.0000000000000000     
  -1.4939903668770594E-002   1.7033883855454429E-002   0.0000000000000000     
  -1.7127354426212188E-002   2.0675526090600450E-002   0.0000000000000000     
  -9.6002738550887267E-003   8.1272221400604736E-003   0.0000000000000000     
  -1.2076723672786321E-002   1.1046365610388601E-002   0.0000000000000000     
  -1.4546067664477795E-002   1.4212631614195026E-002   0.0000000000000000     
  -1.7008305830163151E-002   1.7626020151479748E-002   0.0000000000000000     
  -1.9463438169842393E-002   2.1286531222242767E-002   0.0000000000000000     
  -1.0855794682153412E-002   8.6288098845929608E-003   0.0000000000000000     
  -1.3689098690822058E-002   1.1650845936562787E-002   0.0000000000000000     
  -1.6484783931086520E-002   1.4887194863172954E-002   0.0000000000000000     
  -1.9242850402946807E-002   1.8337856664423457E-002   0.0000000000000000     
  -2.1963298106402906E-002   2.2002831340314288E-002   0.0000000000000000     
  -1.2195385109190864E-002   9.2291549686389068E-003   0.0000000000000000     
  -1.5427762823770116E-002   1.2371757656197494E-002   0.0000000000000000     
  -1.8577146916413677E-002   1.5685170464746375E-002   0.0000000000000000     
  -2.1643537387121548E-002   1.9169393394285552E-002   0.0000000000000000     
  -2.4626934235893724E-002   2.2824426444815013E-002   0.0000000000000000     
  -1.4955046875512287E-002   2.0169815945387332E-002   0.0000000000000000     
  -1.6856490591518010E-002   2.4030247636158762E-002   0.0000000000000000     
  -1.8716681500659194E-002   2.8114143803675395E-002   0.0000000000000000     
  -2.0535619602935835E-002   3.2421504447937240E-002   0.0000000000000000     
  -2.2313304898347940E-002   3.6952329568944280E-002   0.0000000000000000     
  -1.7127354426212188E-002   2.0675526090600450E-002   0.0000000000000000     
  -1.9292117205268321E-002   2.4558745914480033E-002   0.0000000000000000     
  -2.1402958822295030E-002   2.8655881818322546E-002   0.0000000000000000     
  -2.3459879277292321E-002   3.2966933802127993E-002   0.0000000000000000     
  -2.5462878570260195E-002   3.7491901865896370E-002   0.0000000000000000     
  -1.9463438169842393E-002   2.1286531222242767E-002   0.0000000000000000     
  -2.1883179911253704E-002   2.5175370199156440E-002   0.0000000000000000     
  -2.4239246282135259E-002   2.9273742454893104E-002   0.0000000000000000     
  -2.6531637282487062E-002   3.3581647989452755E-002   0.0000000000000000     
  -2.8760352912309117E-002   3.8099086802835420E-002   0.0000000000000000     
  -2.1963298106402906E-002   2.2002831340314288E-002   0.0000000000000000     
  -2.4629678709474152E-002   2.5880120490187983E-002   0.0000000000000000     
  -2.7225543880179871E-002   2.9967725713387065E-002   0.0000000000000000     
  -2.9750893618520059E-002   3.4265647009911540E-002   0.0000000000000000     
  -3.2205727924494720E-002   3.8773884379761397E-002   0.0000000000000000     
  -2.4626934235893724E-002   2.2824426444815013E-002   0.0000000000000000     
  -2.7531613599929679E-002   2.6672996787574677E-002   0.0000000000000000     
  -3.0361851616428868E-002   3.0737831593804450E-002   0.0000000000000000     
  -3.3117648285391307E-002   3.5018930863504327E-002   0.0000000000000000     
  -3.5799003606816981E-002   3.9516294596674328E-002   0.0000000000000000     
  -2.2313304898347940E-002   3.6952329568944280E-002   0.0000000000000000     
  -2.4046713041161336E-002   4.1698072422551115E-002   0.0000000000000000     
  -2.5732819685641849E-002   4.6650186264612335E-002   0.0000000000000000     
  -2.7371624831789471E-002   5.1808671095127927E-002   0.0000000000000000     
  -2.8963128479604215E-002   5.7173526914097904E-002   0.0000000000000000     
  -2.5462878570260195E-002   3.7491901865896370E-002   0.0000000000000000     
  -2.7412533416277484E-002   4.2226898666779075E-002   0.0000000000000000     
  -2.9309420530423042E-002   4.7168036861927505E-002   0.0000000000000000     
  -3.1153539912696853E-002   5.2315316451341638E-002   0.0000000000000000     
  -3.2944891563098933E-002   5.7668737435021489E-002   0.0000000000000000     
  -2.8760352912309117E-002   3.8099086802835420E-002   0.0000000000000000     
  -3.0927591665299202E-002   4.2823593550934777E-002   0.0000000000000000     
  -3.3035552035155090E-002   4.7752702889644560E-002   0.0000000000000000     
  -3.5084234021876777E-002   5.2886414818964771E-002   0.0000000000000000     
  -3.7073637625464284E-002   5.8224729338895394E-002   0.0000000000000000     
  -3.2205727924494720E-002   3.8773884379761397E-002   0.0000000000000000     
  -3.4591887788226486E-002   4.3488157075018206E-002   0.0000000000000000     
  -3.6911214199837998E-002   4.8404184347763501E-002   0.0000000000000000     
  -3.9163707159329243E-002   5.3521966197997317E-002   0.0000000000000000     
  -4.1349366666700256E-002   5.8841502625719633E-002   0.0000000000000000     
  -3.5799003606816981E-002   3.9516294596674328E-002   0.0000000000000000     
  -3.8405421785059325E-002   4.4220589239029356E-002   0.0000000000000000     
  -4.0936407024471752E-002   4.9122481236284349E-002   0.0000000000000000     
  -4.3391959325054269E-002   5.4221970588439292E-002   0.0000000000000000     
  -4.5772078686806862E-002   5.9519057295494199E-002   0.0000000000000000     
  -2.8963128479604215E-002   5.7173526914097904E-002   0.0000000000000000     
  -3.0507327263138075E-002   6.2731960811693230E-002   0.0000000000000000     
  -3.2004217816443054E-002   6.8471179878084862E-002   0.0000000000000000     
  -3.3453800139519152E-002   7.4391184113272793E-002   0.0000000000000000     
  -3.4856074232366363E-002   8.0491973517257051E-002   0.0000000000000000     
  -3.2944891563098933E-002   5.7668737435021489E-002   0.0000000000000000     
  -3.4682885041158962E-002   6.3214904505984978E-002   0.0000000000000000     
  -3.6366929906406643E-002   6.8940422357250064E-002   0.0000000000000000     
  -3.7997026158841964E-002   7.4845290988816746E-002   0.0000000000000000     
  -3.9573173798464936E-002   8.0929510400685009E-002   0.0000000000000000     
  -3.7073637625464284E-002   5.8224729338895394E-002   0.0000000000000000     
  -3.9003421250257485E-002   6.3754744507015654E-002   0.0000000000000000     
  -4.0873243300596274E-002   6.9463558380904761E-002   0.0000000000000000     
  -4.2683103776480665E-002   7.5351170960562736E-002   0.0000000000000000     
  -4.4433002677910657E-002   8.1417582245989550E-002   0.0000000000000000     
  -4.1349366666700256E-002   5.8841502625719633E-002   0.0000000000000000     
  -4.3468935890433609E-002   6.4351480814785242E-002   0.0000000000000000     
  -4.5523157999011951E-002   7.0040587949048952E-002   0.0000000000000000     
  -4.7512032992435248E-002   7.5908824028510763E-002   0.0000000000000000     
  -4.9435560870703533E-002   8.1956189053170675E-002   0.0000000000000000     
  -4.5772078686806862E-002   5.9519057295494199E-002   0.0000000000000000     
  -4.8079428961687383E-002   6.5005113429293743E-002   0.0000000000000000     
  -5.0316674001653669E-002   7.0671511061682638E-002   0.0000000000000000     
  -5.2483813806705734E-002   7.6518250192660842E-002   0.0000000000000000     
  -5.4580848376843551E-002   8.2545330822228369E-002   0.0000000000000000     
  -3.4856074232366363E-002   8.0491973517257051E-002   0.0000000000000000     
  -3.6207384758584857E-002   8.6762840112777642E-002   0.0000000000000000     
  -3.7504076381774797E-002   9.3193075922574586E-002   0.0000000000000000     
  -3.8746149101936182E-002   9.9782680946647911E-002   0.0000000000000000     
  -3.9933602919069014E-002  0.10653165518499758        0.0000000000000000     
  -3.9573173798464936E-002   8.0929510400685009E-002   0.0000000000000000     
  -4.1091962935957238E-002   8.7183240400059869E-002   0.0000000000000000     
  -4.2549983682000588E-002   9.3596640794146355E-002   0.0000000000000000     
  -4.3947236036594950E-002  0.10016971158294445        0.0000000000000000     
  -4.5283719999740339E-002  0.10690245276645419        0.0000000000000000     
  -4.4433002677910657E-002   8.1417582245989550E-002   0.0000000000000000     
  -4.6119405690645182E-002   8.7653205750051019E-002   0.0000000000000000     
  -4.7738778500443162E-002   9.4048454985612970E-002   0.0000000000000000     
  -4.9291121107304624E-002  0.10060332995267536        0.0000000000000000     
  -5.0776433511229555E-002  0.10731783065123823        0.0000000000000000     
  -4.9435560870703533E-002   8.1956189053170675E-002   0.0000000000000000     
  -5.1289713022648668E-002   8.8172736162751078E-002   0.0000000000000000     
  -5.3070460837102568E-002   9.4548518496974404E-002   0.0000000000000000     
  -5.4777804314065238E-002  0.10108353605584063        0.0000000000000000     
  -5.6411743453536646E-002  0.10777778883934976        0.0000000000000000     
  -5.4580848376843551E-002   8.2545330822228369E-002   0.0000000000000000     
  -5.6602884931967724E-002   8.8741831638160060E-002   0.0000000000000000     
  -5.8545030691978785E-002   9.5096831328230658E-002   0.0000000000000000     
  -6.0407285656876773E-002  0.10161032989244023        0.0000000000000000     
  -6.2189649826661648E-002  0.10828232733078871        0.0000000000000000     
  -3.9933602919069014E-002  0.10653165518499758        0.0000000000000000     
  -4.1070930523146136E-002  0.11342701770447891        0.0000000000000000     
  -4.2162624604140352E-002  0.12045578757194719        0.0000000000000000     
  -4.3208685162051674E-002  0.12761796478740242        0.0000000000000000     
  -4.4209112196880097E-002  0.13491354935084460        0.0000000000000000     
  -4.5283719999740339E-002  0.10690245276645419        0.0000000000000000     
  -4.6564342413223547E-002  0.11378131630977702        0.0000000000000000     
  -4.7794010118831345E-002  0.12079275417801445        0.0000000000000000     
  -4.8972723116563747E-002  0.12793676637116658        0.0000000000000000     
  -5.0100481406420733E-002  0.13521335288923325        0.0000000000000000     
  -5.0776433511229555E-002  0.10731783065123823        0.0000000000000000     
  -5.2200238124040343E-002  0.11417822888941005        0.0000000000000000     
  -5.3568057357559373E-002  0.12117079647529932        0.0000000000000000     
  -5.4879891211786665E-002  0.12829553340890604        0.0000000000000000     
  -5.6135739686722197E-002  0.13555243969023020        0.0000000000000000     
  -5.6411743453536646E-002  0.10777778883934976        0.0000000000000000     
  -5.7978617655596497E-002  0.11461775544337803        0.0000000000000000     
  -5.9484766320324421E-002  0.12158991446380177        0.0000000000000000     
  -6.0930189447720426E-002  0.12869426590062089        0.0000000000000000     
  -6.2314887037784497E-002  0.13593080975383545        0.0000000000000000     
  -6.2189649826661648E-002  0.10828232733078871        0.0000000000000000     
  -6.3899481007892028E-002  0.11509989597168094        0.0000000000000000     
  -6.5544137007126482E-002  0.12205010814352174        0.0000000000000000     
  -6.7123617824365017E-002  0.12913296384631112        0.0000000000000000     
  -6.8637923459607647E-002  0.13634846308004903        0.0000000000000000     
  -4.4209112196880097E-002  0.13491354935084460        0.0000000000000000     
  -4.5157140209283970E-002  0.14233115892435225        0.0000000000000000     
  -4.6046003699921609E-002  0.14985941117000401        0.0000000000000000     
  -4.6875702668793019E-002  0.15749830608779977        0.0000000000000000     
  -4.7646237115898209E-002  0.16524784367773959        0.0000000000000000     
  -5.0100481406420733E-002  0.13521335288923325        0.0000000000000000     
  -5.1169754342857081E-002  0.14261336415034104        0.0000000000000000     
  -5.2173011280327544E-002  0.15012765057261640        0.0000000000000000     
  -5.3110252218832102E-002  0.15775621215605937        0.0000000000000000     
  -5.3981477158370789E-002  0.16549904890066991        0.0000000000000000     
  -5.6135739686722197E-002  0.13555243969023020        0.0000000000000000     
  -5.7327456615070972E-002  0.14293310566720349        0.0000000000000000     
  -5.8446895829537902E-002  0.15042912168775766        0.0000000000000000     
  -5.9494057330123050E-002  0.15804048775189269        0.0000000000000000     
  -6.0468941116826373E-002  0.16576720385960855        0.0000000000000000     
  -6.2314887037784497E-002  0.13593080975383545        0.0000000000000000     
  -6.3630247025925638E-002  0.14329038347493969        0.0000000000000000     
  -6.4867657347552732E-002  0.15076382451542775        0.0000000000000000     
  -6.6027118002665836E-002  0.15835113287529970        0.0000000000000000     
  -6.7108628991264963E-002  0.16605230855455555        0.0000000000000000     
  -6.8637923459607647E-002  0.13634846308004903        0.0000000000000000     
  -7.0078125575421063E-002  0.14368519757354953        0.0000000000000000     
  -7.1435295834372026E-002  0.15113175905562670        0.0000000000000000     
  -7.2709434236460521E-002  0.15868814752628044        0.0000000000000000     
  -7.3900540781686536E-002  0.16635436298551085        0.0000000000000000     
   0.0000000000000000        0.0000000000000000        0.0000000000000000     
  -2.8800750911106799E-003   1.7448570784819397E-003   0.0000000000000000     
  -5.8726643063460506E-003   3.8646685994157375E-003   0.0000000000000000     
  -8.9777676457061129E-003   6.3594345628013929E-003   0.0000000000000000     
  -1.2195385109190864E-002   9.2291549686389068E-003   0.0000000000000000     
   0.0000000000000000        0.0000000000000000        0.0000000000000000     
  -3.2832090155683006E-003   1.9993705997210262E-003   0.0000000000000000     
  -6.6769732341599311E-003   4.3309701093963400E-003   0.0000000000000000     
  -1.0181292655774892E-002   6.9947985290259394E-003   0.0000000000000000     
  -1.3796167280413184E-002   9.9908558586098272E-003   0.0000000000000000     
   0.0000000000000000        0.0000000000000000        0.0000000000000000     
  -3.9535682671895589E-003   2.4251453484964362E-003   0.0000000000000000     
  -7.9106349129248223E-003   5.0629456348147868E-003   0.0000000000000000     
  -1.1871199937205795E-002   7.9134008589550556E-003   0.0000000000000000     
  -1.5835263340032466E-002   1.0976511020917236E-002   0.0000000000000000     
   0.0000000000000000        0.0000000000000000        0.0000000000000000     
  -4.8911528459744565E-003   3.0221813248081683E-003   0.0000000000000000     
  -9.5736493426407266E-003   6.0605951756710821E-003   0.0000000000000000     
  -1.4047489489998816E-002   9.1152415525887365E-003   0.0000000000000000     
  -1.8312673288048715E-002   1.2186120455561137E-002   0.0000000000000000     
   0.0000000000000000        0.0000000000000000        0.0000000000000000     
  -6.0959627519229925E-003   3.7904785286562255E-003   0.0000000000000000     
  -1.1666016523307645E-002   7.3239187319652215E-003   0.0000000000000000     
  -1.6710161314153957E-002   1.0600320609926987E-002   0.0000000000000000     
  -2.1228397124461930E-002   1.3619684162541525E-002   0.0000000000000000     
  -1.2195385109190864E-002   9.2291549686389068E-003   0.0000000000000000     
  -1.5427762823770116E-002   1.2371757656197494E-002   0.0000000000000000     
  -1.8577146916413677E-002   1.5685170464746375E-002   0.0000000000000000     
  -2.1643537387121548E-002   1.9169393394285552E-002   0.0000000000000000     
  -2.4626934235893724E-002   2.2824426444815013E-002   0.0000000000000000     
  -1.3796167280413184E-002   9.9908558586098272E-003   0.0000000000000000     
  -1.7404481317714597E-002   1.3221158519718255E-002   0.0000000000000000     
  -2.0889118977318915E-002   1.6587722933921471E-002   0.0000000000000000     
  -2.4250080259226137E-002   2.0090549101219483E-002   0.0000000000000000     
  -2.7487365163436275E-002   2.3729637021612283E-002   0.0000000000000000     
  -1.5835263340032466E-002   1.0976511020917236E-002   0.0000000000000000     
  -1.9731019418739584E-002   1.4211106277550603E-002   0.0000000000000000     
  -2.3486662470661876E-002   1.7576016785704432E-002   0.0000000000000000     
  -2.7102192495799343E-002   2.1071242545378711E-002   0.0000000000000000     
  -3.0577609494151985E-002   2.4696783556573444E-002   0.0000000000000000     
  -1.8312673288048715E-002   1.2186120455561137E-002   0.0000000000000000     
  -2.2407377126845079E-002   1.5341600929694547E-002   0.0000000000000000     
  -2.6369777396442563E-002   1.8650052020095249E-002   0.0000000000000000     
  -3.0199874096841151E-002   2.2111473726763236E-002   0.0000000000000000     
  -3.3897667228040863E-002   2.5725866049698509E-002   0.0000000000000000     
  -2.1228397124461930E-002   1.3619684162541525E-002   0.0000000000000000     
  -2.5433554442031089E-002   1.6612642476150088E-002   0.0000000000000000     
  -2.9538463754660970E-002   1.9809828637093931E-002   0.0000000000000000     
  -3.3543125062351568E-002   2.3211242645373061E-002   0.0000000000000000     
  -3.7447538365102895E-002   2.6816884500987466E-002   0.0000000000000000     
  -2.4626934235893724E-002   2.2824426444815013E-002   0.0000000000000000     
  -2.7531613599929679E-002   2.6672996787574677E-002   0.0000000000000000     
  -3.0361851616428868E-002   3.0737831593804450E-002   0.0000000000000000     
  -3.3117648285391307E-002   3.5018930863504327E-002   0.0000000000000000     
  -3.5799003606816981E-002   3.9516294596674328E-002   0.0000000000000000     
  -2.7487365163436275E-002   2.3729637021612283E-002   0.0000000000000000     
  -3.0624136568492687E-002   2.7547518400136247E-002   0.0000000000000000     
  -3.3683557352938751E-002   3.1586724941827758E-002   0.0000000000000000     
  -3.6665627516774456E-002   3.5847256646686809E-002   0.0000000000000000     
  -3.9570347059999809E-002   4.0329113514713397E-002   0.0000000000000000     
  -3.0577609494151985E-002   2.4696783556573444E-002   0.0000000000000000     
  -3.3942399601035608E-002   2.8497204636692443E-002   0.0000000000000000     
  -3.7226048951765983E-002   3.2517070603139499E-002   0.0000000000000000     
  -4.0428557546343148E-002   3.6756381455914623E-002   0.0000000000000000     
  -4.3549925384767076E-002   4.1215137195017813E-002   0.0000000000000000     
  -3.3897667228040863E-002   2.5725866049698509E-002   0.0000000000000000     
  -3.7486402697558430E-002   2.9522055497243259E-002   0.0000000000000000     
  -4.0989326412910594E-002   3.3528868577739693E-002   0.0000000000000000     
  -4.4406438374097384E-002   3.7746305291187783E-002   0.0000000000000000     
  -4.7737738581118780E-002   4.2174365637587558E-002   0.0000000000000000     
  -3.7447538365102895E-002   2.6816884500987466E-002   0.0000000000000000     
  -4.1256145858061158E-002   3.0622070981788700E-002   0.0000000000000000     
  -4.4973389736372583E-002   3.4622118865628312E-002   0.0000000000000000     
  -4.8599270000037165E-002   3.8817028152506289E-002   0.0000000000000000     
  -5.2133786649054922E-002   4.3206798842422650E-002   0.0000000000000000     
  -3.5799003606816981E-002   3.9516294596674328E-002   0.0000000000000000     
  -3.8405421785059325E-002   4.4220589239029356E-002   0.0000000000000000     
  -4.0936407024471752E-002   4.9122481236284349E-002   0.0000000000000000     
  -4.3391959325054269E-002   5.4221970588439292E-002   0.0000000000000000     
  -4.5772078686806862E-002   5.9519057295494199E-002   0.0000000000000000     
  -3.9570347059999809E-002   4.0329113514713397E-002   0.0000000000000000     
  -4.2394567449731441E-002   4.5018826268715825E-002   0.0000000000000000     
  -4.5135140153086013E-002   4.9902925631502379E-002   0.0000000000000000     
  -4.7792065170063493E-002   5.4981411603073078E-002   0.0000000000000000     
  -5.0365342500663900E-002   6.0254284183427910E-002   0.0000000000000000     
  -4.3549925384767076E-002   4.1215137195017813E-002   0.0000000000000000     
  -4.6585698576176567E-002   4.5880804389825197E-002   0.0000000000000000     
  -4.9531423229710415E-002   5.0740849609712958E-002   0.0000000000000000     
  -5.2387099345368615E-002   5.5795272854681083E-002   0.0000000000000000     
  -5.5152726923151166E-002   6.1044074124729585E-002   0.0000000000000000     
  -4.7737738581118780E-002   4.2174365637587558E-002   0.0000000000000000     
  -5.0978815164394668E-002   4.6806523602357493E-002   0.0000000000000000     
  -5.4125256254344944E-002   5.1636253170916073E-002   0.0000000000000000     
  -5.7177061850969615E-002   5.6663554343263325E-002   0.0000000000000000     
  -6.0134231954268688E-002   6.1888427119399229E-002   0.0000000000000000     
  -5.2133786649054922E-002   4.3206798842422650E-002   0.0000000000000000     
  -5.5573917214385760E-002   4.7795983906312685E-002   0.0000000000000000     
  -5.8916639226989628E-002   5.2589136315111737E-002   0.0000000000000000     
  -6.2161952686866515E-002   5.7586256068819779E-002   0.0000000000000000     
  -6.5309857594016418E-002   6.2787343167436824E-002   0.0000000000000000     
  -4.5772078686806862E-002   5.9519057295494199E-002   0.0000000000000000     
  -4.8079428961687383E-002   6.5005113429293743E-002   0.0000000000000000     
  -5.0316674001653669E-002   7.0671511061682638E-002   0.0000000000000000     
  -5.2483813806705734E-002   7.6518250192660842E-002   0.0000000000000000     
  -5.4580848376843551E-002   8.2545330822228369E-002   0.0000000000000000     
  -5.0365342500663900E-002   6.0254284183427910E-002   0.0000000000000000     
  -5.2859484212124504E-002   6.5715029999654687E-002   0.0000000000000000     
  -5.5279002371682602E-002   7.1357135678841194E-002   0.0000000000000000     
  -5.7623896979338174E-002   7.7180601220987466E-002   0.0000000000000000     
  -5.9894168035091254E-002   8.3185426626093475E-002   0.0000000000000000     
  -5.5152726923151166E-002   6.1044074124729585E-002   0.0000000000000000     
  -5.7833685389850724E-002   6.6480618174981534E-002   0.0000000000000000     
  -6.0435354172259891E-002   7.2098269760560038E-002   0.0000000000000000     
  -6.2957733270378693E-002   7.7897028881465075E-002   0.0000000000000000     
  -6.5400822684207119E-002   8.3876895537696672E-002   0.0000000000000000     
  -6.0134231954268688E-002   6.1888427119399229E-002   0.0000000000000000     
  -6.3002032494866023E-002   6.7301877955274328E-002   0.0000000000000000     
  -6.5785729403385548E-002   7.2894913306839143E-002   0.0000000000000000     
  -6.8485322679827279E-002   7.8667533174093723E-002   0.0000000000000000     
  -7.1100812324191173E-002   8.4619737557038041E-002   0.0000000000000000     
  -6.5309857594016418E-002   6.2787343167436824E-002   0.0000000000000000     
  -6.8364525527170414E-002   6.8178809340533025E-002   0.0000000000000000     
  -7.1330128065059589E-002   7.3747066317678550E-002   0.0000000000000000     
  -7.4206665207683917E-002   7.9492114098873384E-002   0.0000000000000000     
  -7.6994136955043424E-002   8.5413952684117528E-002   0.0000000000000000     
  -5.4580848376843551E-002   8.2545330822228369E-002   0.0000000000000000     
  -5.6602884931967724E-002   8.8741831638160060E-002   0.0000000000000000     
  -5.8545030691978785E-002   9.5096831328230658E-002   0.0000000000000000     
  -6.0407285656876773E-002  0.10161032989244023        0.0000000000000000     
  -6.2189649826661648E-002  0.10828232733078871        0.0000000000000000     
  -5.9894168035091254E-002   8.3185426626093475E-002   0.0000000000000000     
  -6.2083933083442532E-002   8.9359915480646437E-002   0.0000000000000000     
  -6.4187309668892731E-002   9.5692371371133594E-002   0.0000000000000000     
  -6.6204297791441893E-002  0.10218279429755492        0.0000000000000000     
  -6.8134897451089971E-002  0.10883118425991045        0.0000000000000000     
  -6.5400822684207119E-002   8.3876895537696672E-002   0.0000000000000000     
  -6.7757869141913285E-002   9.0026410994578684E-002   0.0000000000000000     
  -7.0022119371665345E-002   9.6334116517434940E-002   0.0000000000000000     
  -7.2193573373463243E-002  0.10280001210626546        0.0000000000000000     
  -7.4272231147307036E-002  0.10942409776107025        0.0000000000000000     
  -7.1100812324191173E-002   8.4619737557038041E-002   0.0000000000000000     
  -7.3624693107380026E-002   9.0741318179956801E-002   0.0000000000000000     
  -7.6049459800296607E-002   9.7022066767134749E-002   0.0000000000000000     
  -7.8375112402940858E-002  0.10346198331857184        0.0000000000000000     
  -8.0601650915312850E-002  0.11006106783426811        0.0000000000000000     
  -7.6994136955043424E-002   8.5413952684117528E-002   0.0000000000000000     
  -7.9684404979842721E-002   9.1504637036780800E-002   0.0000000000000000     
  -8.2269330954786501E-002   9.7756222120232980E-002   0.0000000000000000     
  -8.4748914879874723E-002  0.10416870793447405        0.0000000000000000     
  -8.7123156755107428E-002  0.11074209447950406        0.0000000000000000     
  -6.2189649826661648E-002  0.10828232733078871        0.0000000000000000     
  -6.3899481007892028E-002  0.11509989597168094        0.0000000000000000     
  -6.5544137007126482E-002  0.12205010814352174        0.0000000000000000     
  -6.7123617824365017E-002  0.12913296384631112        0.0000000000000000     
  -6.8637923459607647E-002  0.13634846308004903        0.0000000000000000     
  -6.8134897451089971E-002  0.10883118425991045        0.0000000000000000     
  -6.9987481815676322E-002  0.11562502475345836        0.0000000000000000     
  -7.1770424053040210E-002  0.12255179927345686        0.0000000000000000     
  -7.3483724163181691E-002  0.12961150781990599        0.0000000000000000     
  -7.5127382146100721E-002  0.13680415039280569        0.0000000000000000     
  -7.4272231147307036E-002  0.10942409776107025        0.0000000000000000     
  -7.6267273713698694E-002  0.11619351606784982        0.0000000000000000     
  -7.8187882093140218E-002  0.12309540961260465        0.0000000000000000     
  -8.0034056285631608E-002  0.13012977839533479        0.0000000000000000     
  -8.1805796291172891E-002  0.13729662241604029        0.0000000000000000     
  -8.0601650915312850E-002  0.11006106783426811        0.0000000000000000     
  -8.2738856701959199E-002  0.11680536991485529        0.0000000000000000     
  -8.4796511127426519E-002  0.12368093916096515        0.0000000000000000     
  -8.6774614191714811E-002  0.13068777557259761        0.0000000000000000     
  -8.8673165894824102E-002  0.13782587914975281        0.0000000000000000     
  -8.7123156755107428E-002  0.11074209447950406        0.0000000000000000     
  -8.9402230780457809E-002  0.11746058629447485        0.0000000000000000     
  -9.1596311155899085E-002  0.12430838791853831        0.0000000000000000     
  -9.3705397881431285E-002  0.13128549935169442        0.0000000000000000     
  -9.5729490957054381E-002  0.13839192059394323        0.0000000000000000     
  -6.8637923459607647E-002  0.13634846308004903        0.0000000000000000     
  -7.0078125575421063E-002  0.14368519757354953        0.0000000000000000     
  -7.1435295834372026E-002  0.15113175905562670        0.0000000000000000     
  -7.2709434236460521E-002  0.15868814752628044        0.0000000000000000     
  -7.3900540781686536E-002  0.16635436298551085        0.0000000000000000     
  -7.5127382146100721E-002  0.13680415039280569        0.0000000000000000     
  -7.6692112460043413E-002  0.14411655295776457        0.0000000000000000     
  -7.8168629563255834E-002  0.15153554148039111        0.0000000000000000     
  -7.9556933455737958E-002  0.15906111596068537        0.0000000000000000     
  -8.0857024137489797E-002  0.16669327639864731        0.0000000000000000     
  -8.1805796291172891E-002  0.13729662241604029        0.0000000000000000     
  -8.3493227876278830E-002  0.14458345462231620        0.0000000000000000     
  -8.5086476807464229E-002  0.15197778796175779        0.0000000000000000     
  -8.6585543084729127E-002  0.15947962243436492        0.0000000000000000     
  -8.7990426708073471E-002  0.16708895804013776        0.0000000000000000     
  -8.8673165894824102E-002  0.13782587914975281        0.0000000000000000     
  -9.0481471824127260E-002  0.14508590256720447        0.0000000000000000     
  -9.2188837566997237E-002  0.15245849849972662        0.0000000000000000     
  -9.3795263123433961E-002  0.15994366694731918        0.0000000000000000     
  -9.5300748493437518E-002  0.16754140790998218        0.0000000000000000     
  -9.5729490957054381E-002  0.13839192059394323        0.0000000000000000     
  -9.7656844303588758E-002  0.14562389679242940        0.0000000000000000     
  -9.9475711841854830E-002  0.15297767309429769        0.0000000000000000     
 -0.10118609357185256       0.16045324949954809        0.0000000000000000     
 -0.10278798949358196       0.16805062600818058        0.0000000000000000     
 </DataArray>
 <DataArray  type="Float64" Name="stress" NumberOfComponents="3" format="ascii">
   13416324681.715300        4024897404.5145903        2893885603.7405720     
   11766376583.537750        1890513933.5501850        1715802938.0756030     
   10313681110.110687        413639211.75406790        810774448.19644094     
   9058238261.4341087       -405726760.87376451        178800134.10308436     
   8000048037.5080175       -567583984.33330679       -180120004.20446718     
   10539757123.214201        3161927136.9642606        2225694959.9355268     
   9667493159.6698551        1589632235.6041224        1446699303.5556271     
   8943851248.7233295        512744176.23671198        863155289.66063261     
   8368831390.3746204       -68737041.137972355        475062918.25054491     
   7942433584.6237288       -154811416.51993179        282422189.32536179     
   8337841128.9483633        2501352338.6845088        1712327276.5070918     
   8021539776.3203659        1424629549.8135831        1275682961.9008145     
   7805229904.1375179        681211695.75982118        956887756.47854269     
   7688911512.3998213        271098776.52322578        755941660.24027646     
   7672584601.1072712        194290792.10379410        672844673.18601489     
   6810576698.9177866        2043173009.6753361        1353782553.4552672     
   6828516433.4892797        1395505876.1785631        1202753913.1111658     
   6897817076.3532534        919041770.32339454        1091971848.6501703     
   7018478627.5097094        613780692.10983014        1021436360.0722793     
   7190501086.9586449        479722641.53786922        991147447.37749386     
   5957963833.1224718        1787389149.9367416        1150060790.7800529     
   6088423131.1765966        1502261214.6990652        1227912157.1866815     
   6221612765.3705359        1226234399.9274318        1268407566.1755149     
   6357532735.7042866        959308705.62184131        1271547017.7465537     
   6496183042.1778507        701484131.78229403        1237330511.8997972     
   8000048037.5080175       -567583984.33330679       -180120004.20446718     
   7917505332.3556118       -200411641.66563177       -78357525.446909323     
   7793535481.9000444        28670216.658168316       -9138731.9030613285     
   7628138486.1413183        119661590.63811016        27536376.427082572     
   7421314345.0794306        72562480.274173737        31667799.543520458     
   7942433584.6237288       -154811416.51993179        282422189.32536179     
   7739672705.8093510        16209807.174758911        281057959.70708382     
   7513567480.5481634        109416542.71341610        265027539.94091281     
   7264117908.8401670        124808790.09604311        234330930.02684844     
   6991323990.6853580        62386549.322632790        188968129.96489391     
   7672584601.1072712        194290792.10379410        672844673.18601489     
   7400684105.9618187        184484464.02477360        589450333.85764396     
   7123522063.2259073        157139643.97755194        509267299.44719589     
   6841098472.8995352        112256331.96213555        432295569.95466781     
   6553413334.9827042        49834527.978520393        358535145.38006455     
   7190501086.9586449        479722641.53786922        991147447.37749386     
   6900539532.8130178        304412328.88440585        846819597.00477338     
   6623399229.9332790        171839520.45057631        723580546.61578834     
   6359080178.3194332        82004216.236386538        621430296.21054018     
   6107582377.9714785        34906416.241835117        540368845.78902853     
   6496183042.1778507        701484131.78229403        1237330511.8997972     
   6239238986.3629417        375993401.75365376        1053165749.1484677     
   6013198980.6702766        153516172.13248825        907967281.44669032     
   5818063025.0998535        34052442.918793678        801735108.79446292     
   5653831119.6516695        17602214.112573624        734469231.19178617     
   7421314345.0794306        72562480.274173737        31667799.543520458     
   7219693851.6413040       -17628046.748234272        15034452.196637494     
   7030059287.4982491       -67865476.120403290        2560640.6417600028     
   6852410652.6502666       -78149807.842335701       -5753635.1211163374     
   6686747947.0973520       -48481041.914032459       -9908375.0919856019     
   6991323990.6853580        62386549.322632790        188968129.96489391     
   6809119827.1336994        3359997.8510274887        180737815.09259975     
   6634580073.4931602       -30118520.583523273        176091916.13693514     
   6467704729.7637272       -38049005.981037617        175030433.09790730     
   6308493795.9454155       -20431458.341500044        177553365.97551009     
   6553413334.9827042        49834527.978520393        358535145.38006455     
   6388982301.6736012        21478992.164545774        353666090.36773956     
   6227894158.8916569        4266424.7744317055        351806331.39667392     
   6070148906.6368666       -1803174.1918354034        352955868.46687400     
   5915746544.9092312        3270195.2657587528        357114701.57833499     
   6107582377.9714785        34906416.241835117        540368845.78902853     
   5959281275.2610102        36728936.192314148        533819278.02205616     
   5810001543.6937428        35289359.953459263        529703886.42097503     
   5659743183.2696753        30587687.525270939        528022670.98578471     
   5508506193.9888077        22623918.907747030        528775631.71648729     
   5653831119.6516695        17602214.112573624        734469231.19178617     
   5520016747.8959217        49109829.934332132        721197378.05555069     
   5380902227.8994179        62950284.953567743        709784581.20983315     
   5236487559.6621561        59123579.170274019        700230840.65464067     
   5086772743.1841345        37629712.584455252        692536156.38996589     
   6686747947.0973520       -48481041.914032459       -9908375.0919856019     
   6509226515.1014805       -10906474.733808279       -4568981.4841735149     
   6327277452.1741581        11909322.674900293        3109709.1100521586     
   6140900758.3153696        19966350.312064409        13127696.690682132     
   5950096433.5251226        13264608.177698374        25484981.257719927     
   6308493795.9454155       -20431458.341500044        177553365.97551009     
   6133110871.2815847       -121086.61546730995        174143413.03379703     
   5955037880.4473925        11222397.876017094        174023213.85051665     
   5774274823.4428473        13598995.132986069        177192768.42567715     
   5590821700.2679329        7008705.1554157734        183652076.75927326     
   5915746544.9092312        3270195.2657587528        357114701.57833499     
   5745217718.3546715        7131048.7707521915        346982560.97503865     
   5573736390.3908510        7816897.5782108307        341090630.90221000     
   5401302561.0177736        5327741.6881394386        339438911.35985130     
   5227916230.2354336       -336418.89946007729        342027402.34795994     
   5508506193.9888077        22623918.907747030        528775631.71648729     
   5345547056.3207455        10849931.424876451        513948462.33955795     
   5183372982.0045242        1692821.7814693451        504311960.26512933     
   5021983971.0401440       -4847410.0224678516        499866125.49320006     
   4861380023.4276047       -8770763.9869382381        500610958.02376819     
   5086772743.1841345        37629712.584455252        692536156.38996589     
   4934098885.1798058        11035561.346894503        675041117.12735760     
   4783947655.2884121       -7149829.5142135620        663687201.93927562     
   4636319053.5099592       -16926459.998844385        658474410.82572806     
   4491213079.8444481       -18294330.107011080        659402743.78670394     
   5950096433.5251226        13264608.177698374        25484981.257719927     
   5778536096.0745974        8054065.9152584076        21335325.173079167     
   5608580095.2720308        8191312.4793341160        20506548.933657341     
   5440228431.1174192        13676347.869935274        22998652.539473668     
   5273481103.6107569        24509172.087034464        28811635.990512773     
   5590821700.2679329        7008705.1554157734        183652076.75927326     
   5428716665.4230776        4306589.3364977837        179795282.93497705     
   5267642629.2714291        5041135.8282823563        179312051.32130772     
   5107599591.8129873        9212344.6307461262        182202381.91826177     
   4948587553.0477400        16820215.743874073        188466274.72584075     
   5227916230.2354336       -336418.89946007729        342027402.34795994     
   5075417019.0402365       -484951.96164560318        337794576.50346601     
   4923375468.5834980        892050.77102470398        336987995.23499829     
   4771791578.8652134        3794589.2985446453        339607658.54255223     
   4620665349.8853855        8222663.6209194660        345653566.42613167     
   4861380023.4276047       -8770763.9869382381        500610958.02376819     
   4718637156.9260626       -6320557.9791989326        495333205.87854058     
   4575778613.2082329       -4255942.6924362183        493534380.67473185     
   4432804392.2741089       -2576918.1266441345        495214482.41234940     
   4289714494.1236877       -1283484.2818417549        500373511.09139067     
   4491213079.8444481       -18294330.107011080        659402743.78670394     
   4358377079.0805645       -13200228.716149092        652411171.06019998     
   4224852063.1456409       -10402844.562085390        648951207.64051652     
   4090638032.0396719       -9902177.6448388100        649022853.52765298     
   3955734985.7626591       -11698227.964402199        652626108.72161007     
   5273481103.6107569        24509172.087034464        28811635.990512773     
   5071015162.5814934        25785185.014264107        25320566.798869848     
   4867708910.9044189        24260162.448807001        26166828.337530307     
   4663562348.5795517        19934104.390708447        31350420.606519133     
   4458575475.6068792        12807010.839910746        40871343.605827995     
   4948587553.0477400        16820215.743874073        188466274.72584075     
   4756860367.4878979        15431546.500171661        183238619.97169459     
   4564641526.3215809        12404025.234880924        182549142.27239281     
   4371931029.5487862        7737651.9479973316        186397841.62792483     
   4178728877.1695266        1432426.6395699978        194784718.03830317     
   4620665349.8853855        8222663.6209194660        345653566.42613167     
   4440250766.4364729        4341466.1987416744        339096090.32436109     
   4259693182.4224057       -16399.773939609528        337277637.60196429     
   4078992597.8431935       -4850934.2971150875        340198208.25893527     
   3898149012.6988268       -10162137.370801449        347857802.29526156     
   4289714494.1236877       -1283484.2818417549        500373511.09139067     
   4121186359.4272075       -7485055.8900394440        492892977.85687923     
   3952863879.2068968       -13001112.577653408        490352314.32626468     
   3784747053.4627600       -17831654.344696760        492751520.49953294     
   3616835882.1947966       -21976681.191165447        500090596.37669712     
   3955734985.7626591       -11698227.964402199        652626108.72161007     
   3799667146.4601068       -20048019.766167402        644629282.56923723     
   3644153616.6750460       -26550113.176283598        641773172.44528043     
   3489194396.4074802       -31204508.194748640        644057778.34973943     
   3334789485.6574202       -34011204.821529627        651483100.28261268     
   4458575475.6068792        12807010.839910746        40871343.605827995     
   4296614422.8563099        19104888.793130398        35269029.469321169     
   4135834708.5144424        29340561.442027807        35157324.340982892     
   3976236332.5812683        43514028.786556959        40536228.220786273     
   3817819295.0567899        61625290.826760054        51405741.108740285     
   4178728877.1695266        1432426.6395699978        194784718.03830317     
   4030120754.7208591        8511551.0971920490        189459025.39498991     
   3882008336.7491360        17243023.811290979        188733920.93628460     
   3734391623.2543740        27626844.781928539        192609404.66217995     
   3587270614.2365594        39663014.009056807        201085476.57267362     
   3898149012.6988268       -10162137.370801449        347857802.29526156     
   3760350903.9133468       -3064641.4004099369        342008824.89143366     
   3622362865.6730747        3399756.3873393536        339870414.84865695     
   3484184897.9780035        9231055.9924230576        341442572.16693503     
   3345817000.8281465        14429257.414892673        346725296.84626877     
   3616835882.1947966       -21976681.191165447        500090596.37669712     
   3487304870.4337935       -15623688.699601650        492918427.95864886     
   3356898295.2862573       -12189240.829831600        488566806.07810038     
   3225616156.7521791       -11673337.581868052        487035730.73505574     
   3093458454.8315563       -14075978.955708385        488325201.92953444     
   3334789485.6574202       -34011204.821529627        651483100.28261268     
   3210982654.2821913       -29165590.800409913        642187834.59663200     
   3085614625.5886779       -29523967.840237737        634823094.62461281     
   2958685399.5768704       -35086335.941039443        629388880.36654925     
   2830194976.2467871       -45852695.102772951        625885191.82244587     
   3817819295.0567899        61625290.826760054        51405741.108740285     
   3612965559.6676512        80117162.716637850        40410875.766979575     
   3416366718.3153772        126125348.06276536        34753691.290862344     
   3228022770.9999824        199649846.86510479        34434187.680354655     
   3047933717.7214146        300690659.12360132        39452364.935489170     
   3587270614.2365594        39663014.009056807        201085476.57267362     
   3392576426.4742885        46574978.436829567        194224424.28840837     
   3203418016.9761548        71939537.078362465        192513014.11197326     
   3019795385.7421575        115756689.93369174        195951246.04338181     
   2841708532.7722774        178026437.00276649        204539120.08261666     
   3345817000.8281465        14429257.414892673        346725296.84626877     
   3160745107.0990572        9600138.3024179935        340825755.88463920     
   2978489875.8613691        14159894.161288500        339887818.27304763     
   2799051307.1150866        28108524.991497517        343911484.01150692     
   2622429400.8601933        51446030.793034196        352896753.10001051     
   3093458454.8315563       -14075978.955708385        488325201.92953444     
   2917471601.5419569       -30807357.686526299        480214870.55567312     
   2741582294.9710245       -47213580.688438773        476878103.77407461     
   2565790535.1187654       -63294647.961461306        478314901.58472568     
   2390096321.9851723       -79050559.505585790        484525263.98763812     
   2830194976.2467871       -45852695.102772951        625885191.82244587     
   2662755909.8029885       -74647509.530034184        612391768.30151618     
   2492695274.3051252       -112180887.47083998        603483870.61505926     
   2320013069.7531948       -158452828.92518687        599161498.76305962     
   2144709296.1472130       -213463333.89307415        599424652.74552059     
   5957963833.1224718        1787389149.9367416        1150060790.7800529     
   6088423131.1765966        1502261214.6990652        1227912157.1866815     
   6221612765.3705359        1226234399.9274318        1268407566.1755149     
   6357532735.7042866        959308705.62184131        1271547017.7465537     
   6496183042.1778507        701484131.78229403        1237330511.8997972     
   5434639836.6115484        1630391950.9834645        1033483468.9854220     
   5489892770.5377293        1372509765.7759650        1113871951.5788152     
   5547346104.5611153        1121962247.5591550        1167477861.4846199     
   5606999838.6817112        878749396.33303547        1194301198.7028372     
   5668853972.8995132        642871212.09760571        1194341963.2334657     
   4895242014.4341469        1468572604.3302441        936372068.57534695     
   4905498254.8901176        1246999070.3502414        1018679408.6391309     
   4917424959.4006882        1030993749.8855751        1084777560.7455342     
   4931022127.9658613        820556642.93624663        1134666524.8945563     
   4946289760.5856342        615687749.50225496        1168346301.0861967     
   4339770366.5902691        1301931109.9770808        858726589.54982805     
   4335239584.2337627        1125729128.4218948        942334528.36762941     
   4331849329.8892508        953328906.90669298        1020306663.9582568     
   4329599603.5567341        784730445.43147516        1092642996.3217101     
   4328490405.2362137        619933743.99624145        1159343525.4579892     
   3768224893.0799136        1130467467.9239740        800547031.90886497     
   3779116758.5686641        1008699939.9909253        884837310.76431048     
   3790619216.0268044        888967718.62250757        974065171.12278903     
   3802732265.4543338        771270803.81872082        1068230612.9842994     
   3815455906.8512526        655609195.57956612        1167333636.3488433     
   6496183042.1778507        701484131.78229403        1237330511.8997972     
   6239238986.3629417        375993401.75365376        1053165749.1484677     
   6013198980.6702766        153516172.13248825        907967281.44669032     
   5818063025.0998535        34052442.918793678        801735108.79446292     
   5653831119.6516695        17602214.112573624        734469231.19178617     
   5668853972.8995132        642871212.09760571        1194341963.2334657     
   5518760498.9420700        383360722.73293233        1073471819.2879324     
   5392808587.9577465        204322109.94532776        980601926.18382823     
   5290998239.9465456        105755373.73479319        915732283.92115247     
   5213329454.9084625        87660514.101324558        878862892.49990678     
   4946289760.5856342        615687749.50225496        1168346301.0861967     
   4871715313.6053085        412758034.33744359        1102881207.6058156     
   4814519942.4489841        267758571.91929841        1054450320.7587436     
   4774703647.1166582        180689362.24781728        1023053640.5449797     
   4752266427.6083307        151550405.32300019        1008691166.9645256     
   4328490405.2362137        619933743.99624145        1159343525.4579892     
   4298103430.3526611        464185336.56718981        1141393914.1021204     
   4278333044.1439881        343825558.05439878        1129512465.1714389     
   4269179246.6101904        258854408.45786667        1123699178.6659458     
   4270642037.7512736        209271887.77759671        1123954054.5856385     
   3815455906.8512526        655609195.57956612        1167333636.3488433     
   3797924849.1841269        537642629.42216921        1189009938.7768452     
   3784247893.0427585        432523068.35062945        1205788359.4219131     
   3774425038.4271450        340250512.36494529        1217668898.2840476     
   3768456285.3372908        260824961.46511698        1224651555.3632476     
   5653831119.6516695        17602214.112573624        734469231.19178617     
   5520016747.8959217        49109829.934332132        721197378.05555069     
   5380902227.8994179        62950284.953567743        709784581.20983315     
   5236487559.6621561        59123579.170274019        700230840.65464067     
   5086772743.1841345        37629712.584455252        692536156.38996589     
   5213329454.9084625        87660514.101324558        878862892.49990678     
   5077043207.2103357        85461892.315098286        855177125.40036106     
   4938691095.4260674        76377056.908400297        835509221.50261664     
   4798273119.5556583        60406007.881234407        819859180.80666935     
   4655789279.5991087        37548745.233598471        808227003.31252182     
   4752266427.6083307        151550405.32300019        1008691166.9645256     
   4619676323.7143297        117495951.85273623        978364817.41539097     
   4488254639.8888102        87336231.944061279        954215137.97933424     
   4358001376.1317635        61071245.596972466        936242128.65635407     
   4228916532.4431939        38700992.811472416        924445789.44645202     
   4270642037.7512736        209271887.77759671        1123954054.5856385     
   4147916097.4079142        145212008.54725218        1090760454.1006358     
   4029592861.2876463        95827810.060549736        1065902330.6399885     
   3915672329.3904724        61119292.317492485        1049379684.2036954     
   3806154501.7163930        41086455.318079233        1041192514.7917606     
   3768456285.3372908        260824961.46511698        1224651555.3632476     
   3661762528.2910786        168610062.39864171        1192364035.4560950     
   3562705759.6225762        101851791.25786662        1170570799.4845781     
   3471285979.3317847        60550148.042795658        1159271847.4486930     
   3387503187.4187031        44705132.753423095        1158467179.3484440     
   5086772743.1841345        37629712.584455252        692536156.38996589     
   4934098885.1798058        11035561.346894503        675041117.12735760     
   4783947655.2884121       -7149829.5142135620        663687201.93927562     
   4636319053.5099592       -16926459.998844385        658474410.82572806     
   4491213079.8444481       -18294330.107011080        659402743.78670394     
   4655789279.5991087        37548745.233598471        808227003.31252182     
   4520094535.1660242        16504447.008682728        794510208.64931643     
   4386318117.9612913        1854572.8782701492        786432411.19424069     
   4254460027.9849062       -6400877.1576509476        783993610.94728601     
   4124520265.2368679       -8261903.0990791321        787193807.90846026     
   4228916532.4431939        38700992.811472416        924445789.44645202     
   4108766253.3916330        22776153.142297029        913802221.68396485     
   3989930000.6838279        11231401.285642385        908295524.26319838     
   3872407774.3197832        4066737.2415182590        907925697.18415177     
   3756199574.2994919        1282161.0099139214        912692740.44682837     
   3806154501.7163930        41086455.318079233        1041192514.7917606     
   3700114039.8566246        29850679.747721672        1032917156.2312990     
   3594783303.4560261        20980655.707920074        1029276541.1461539     
   3490162292.5145893        14476383.198664427        1030270669.5363252     
   3386251007.0323219        10337862.219967365        1035899541.4018127     
   3387503187.4187031        44705132.753423095        1158467179.3484440     
   3294137894.5610056        37728026.824964762        1151855012.2913165     
   3200878026.2778807        31102336.145088911        1149375461.8431044     
   3107723582.5693326        24828060.713797569        1151028528.0038033     
   3014674563.4353585        18905200.531085968        1156814210.7734146     
   4491213079.8444481       -18294330.107011080        659402743.78670394     
   4358377079.0805645       -13200228.716149092        652411171.06019998     
   4224852063.1456409       -10402844.562085390        648951207.64051652     
   4090638032.0396719       -9902177.6448388100        649022853.52765298     
   3955734985.7626591       -11698227.964402199        652626108.72161007     
   4124520265.2368679       -8261903.0990791321        787193807.90846026     
   4000472508.4146008       -5886724.2827818394        779223197.77056623     
   3876134074.6804676       -4480468.5060422421        775108609.64429700     
   3751504964.0344625       -4043135.7688658237        774850043.52966130     
   3626585176.4765897       -4574726.0712580681        778447499.42665708     
   3756199574.2994919        1282161.0099139214        912692740.44682837     
   3641866954.8611517        1216485.2843399048        904207820.86658084     
   3527641996.7701182        1509680.7164511681        899903336.00276983     
   3413524700.0263891        2161747.3062477112        899779285.85539818     
   3299515064.6299667        3172685.0537266731        903835670.42446101     
   3386251007.0323219        10337862.219967365        1035899541.4018127     
   3282560418.4202180        8109399.9852174520        1027365040.3482476     
   3179375829.4145932        7567603.1053936481        1023335386.7159290     
   3076697240.0154457        8712471.5805002451        1023810580.5048565     
   2974524650.2227788        11544005.410539985        1028790621.7150304     
   3014674563.4353585        18905200.531085968        1156814210.7734146     
   2922552899.0917993        14792019.819842935        1148694856.2155693     
   2831335572.6138902        13693298.660774350        1145404761.7837803     
   2741022584.0016384        15609037.053893209        1146943927.4780431     
   2651613933.2550383        20539234.999184251        1153312353.2983613     
   3955734985.7626591       -11698227.964402199        652626108.72161007     
   3799667146.4601068       -20048019.766167402        644629282.56923723     
   3644153616.6750460       -26550113.176283598        641773172.44528043     
   3489194396.4074802       -31204508.194748640        644057778.34973943     
   3334789485.6574202       -34011204.821529627        651483100.28261268     
   3626585176.4765897       -4574726.0712580681        778447499.42665708     
   3484449301.7808094       -10159651.404735327        771613066.16804123     
   3342677614.6190510       -14530618.291466951        769716766.62431335     
   3201270114.9913230       -17687626.731430292        772758600.79546189     
   3060226802.8976202       -19630676.724637389        780738568.68149638     
   3299515064.6299667        3172685.0537266731        903835670.42446101     
   3170732347.9308558        178984.20549702644        897941821.07889545     
   3042123696.7823038       -2234498.1408723593        896783523.13467848     
   2913689111.1843100       -4067761.9853887558        900360776.59180951     
   2785428591.1368780       -5320807.3280290365        908673581.45028663     
   2974524650.2227788        11544005.410539985        1028790621.7150304     
   2858516284.9102488        10967887.064536691        1023615547.3017987     
   2742491863.1648030        10338247.275487542        1022973441.9763769     
   2626451384.9864488        9655086.0434075594        1026864305.7387733     
   2510394850.3751817        8918403.3682937622        1035288138.5889790     
   2651613933.2550383        20539234.999184251        1153312353.2983613     
   2547801112.7189884        22207057.172380090        1148634244.8367436     
   2443782113.7665539        23187617.957635403        1148286523.1494122     
   2339556936.3977346        23480917.354941130        1152269188.2363534     
   2235125580.6125426        23086955.364333987        1160582240.0975754     
   3334789485.6574202       -34011204.821529627        651483100.28261268     
   3210982654.2821913       -29165590.800409913        642187834.59663200     
   3085614625.5886779       -29523967.840237737        634823094.62461281     
   2958685399.5768704       -35086335.941039443        629388880.36654925     
   2830194976.2467871       -45852695.102772951        625885191.82244587     
   3060226802.8976202       -19630676.724637389        780738568.68149638     
   2942320218.8145413       -15327551.275461674        770371874.39158142     
   2823591308.9815216       -13765511.659408569        762738495.82134855     
   2704040073.3985600       -14944557.876509428        757838432.97079110     
   2583666512.0656619       -18864689.926725745        755671685.83991992     
   2785428591.1368780       -5320807.3280290365        908673581.45028663     
   2675715940.0765777       -872064.73160684109        898097475.38617051     
   2565919834.8346872        3298497.2595102787        891057475.04745960     
   2456040275.4112000        7190878.6453053951        887553580.43415225     
   2346077261.8061194        10805079.425794721        887585791.54624653     
   2510394850.3751817        8918403.3682937622        1035288138.5889790     
   2411169818.0683031        14200868.831152797        1025364637.5804030     
   2312600203.1481738        21668058.916522264        1019780032.3029547     
   2214686005.6148005        31319973.624402165        1018534322.7566305     
   2117427225.4681802        43156612.954800010        1021627508.9414314     
   2235125580.6125426        23086955.364333987        1160582240.0975754     
   2148681852.7897148        29891249.412821531        1152173360.9742789     
   2063632413.9219878        41343173.311646819        1148906167.5878296     
   1979977264.0093582        57442727.060791016        1150780659.9382288     
   1897716403.0518301        78189910.660279036        1157796838.0254731     
   2830194976.2467871       -45852695.102772951        625885191.82244587     
   2662755909.8029885       -74647509.530034184        612391768.30151618     
   2492695274.3051252       -112180887.47083998        603483870.61505926     
   2320013069.7531948       -158452828.92518687        599161498.76305962     
   2144709296.1472130       -213463333.89307415        599424652.74552059     
   2583666512.0656619       -18864689.926725745        755671685.83991992     
   2431881123.0742621       -34879546.707038522        743190561.88831747     
   2279156844.6025634       -54024035.088378191        735215981.45480907     
   2125493676.6505570       -76298155.070724368        731747944.53938282     
   1970891619.2182422       -101701906.65408731        732786451.14206541     
   2346077261.8061194        10805079.425794721        887585791.54624653     
   2209719886.5060725        7502481.1641165018        878080093.33335197     
   2074106301.2994697        6679183.2139312029        873001956.32217848     
   1939236506.1863239        8335185.5752646923        872351380.51272380     
   1805110501.1666293        12470488.248099804        876128365.90498745     
   2117427225.4681802        43156612.954800010        1021627508.9414314     
   1996272200.0984085        52498574.083423376        1017060362.6366266     
   1877543644.3958468        69928767.436081529        1016841795.2171717     
   1761241558.3604965        95447193.012762845        1020971806.6830605     
   1647365941.9923549        129053850.81349188        1029450397.0343091     
   1897716403.0518301        78189910.660279036        1157796838.0254731     
   1791538063.8512838        100108732.05090874        1160131369.7981439     
   1689468873.8916965        135724717.57806784        1166735498.1397929     
   1591508833.1730835        185037867.24180889        1177609223.0504143     
   1497657941.6954327        248048181.04208973        1192752544.5300198     
   3768224893.0799136        1130467467.9239740        800547031.90886497     
   3779116758.5686641        1008699939.9909253        884837310.76431048     
   3790619216.0268044        888967718.62250757        974065171.12278903     
   3802732265.4543338        771270803.81872082        1068230612.9842994     
   3815455906.8512526        655609195.57956612        1167333636.3488433     
   3207775602.1850376        962332680.65551126        756681708.97666442     
   3235879122.9855714        868206951.29283917        853053312.29918265     
   3263706869.0023890        773161972.65111208        951348192.38072228     
   3291258840.2354898        677197744.73032963        1051566349.2212827     
   3318535036.6848731        580314267.53049254        1153707782.8208652     
   2685592502.1875973        805677750.65627921        721978934.07743251     
   2722295379.0313096        736610130.08340251        829397767.32173347     
   2757836114.3382010        663668704.38778484        935725572.58104408     
   2792214708.1082687        586853473.56942546        1040962349.8553643     
   2825431160.3415146        506164437.62832516        1145108099.1446946     
   2201675593.0875936        660502677.92627800        696438707.21116972     
   2238365526.7058811        613909476.36261570        813870675.83196282     
   2273006952.0342407        560487913.83252573        927197311.72375417     
   2305599869.0726719        500237990.33600825        1036418614.8865442     
   2336144277.8211746        433159705.87306362        1141534585.3203323     
   1756024874.8850253        526807462.46550757        680061028.37787545     
   1784089566.0092835        500104990.13047826        806472037.82987094     
   1809219382.0905080        463619600.98533517        925763409.80885303     
   1831414323.1286981        417351295.03007805        1037935144.3148222     
   1850674389.1238542        361300072.26470768        1142987241.3477786     
   3815455906.8512526        655609195.57956612        1167333636.3488433     
   3797924849.1841269        537642629.42216921        1189009938.7768452     
   3784247893.0427585        432523068.35062945        1205788359.4219131     
   3774425038.4271450        340250512.36494529        1217668898.2840476     
   3768456285.3372908        260824961.46511698        1224651555.3632476     
   3318535036.6848731        580314267.53049254        1153707782.8208652     
   3293831312.9849601        473088674.32602370        1182048894.8150594     
   3272866128.9304056        378324879.93941748        1207291767.1162906     
   3255639484.5212116        296022884.37067628        1229436399.7245576     
   3242151379.7573738        226182687.61979485        1248482792.6398623     
   2825431160.3415146        506164437.62832516        1145108099.1446946     
   2798696605.1515865        411222367.73961610        1179979198.5112839     
   2775585027.7266178        328356890.40077639        1213551700.2748804     
   2756096428.0666108        257568005.61180687        1245825604.4354832     
   2740230806.1715655        198855713.37270665        1276800910.9930935     
   2336144277.8211746        433159705.87306362        1141534585.3203323     
   2312520725.6840024        352043709.66294551        1182800849.8655190     
   2292404589.4313931        282619099.73470336        1224568158.8976841     
   2275795869.0633488        224885876.08833969        1266836512.4168243     
   2262694564.5798650        178844038.72385049        1309605910.4229429     
   1850674389.1238542        361300072.26470768        1142987241.3477786     
   1835303674.5822110        295552700.09601289        1190513848.8777649     
   1823324814.0447333        241111507.94120109        1240341142.9846992     
   1814737807.5114205        197976495.80027252        1292469123.6685805     
   1809542654.9822724        166147663.67322642        1346897790.9294095     
   3768456285.3372908        260824961.46511698        1224651555.3632476     
   3661762528.2910786        168610062.39864171        1192364035.4560950     
   3562705759.6225762        101851791.25786662        1170570799.4845781     
   3471285979.3317847        60550148.042795658        1159271847.4486930     
   3387503187.4187031        44705132.753423095        1158467179.3484440     
   3242151379.7573738        226182687.61979485        1248482792.6398623     
   3164996728.3705006        152060790.62383521        1231482472.6965830     
   3093873821.1240907        98044707.429419994        1222534949.6162732     
   3028782658.0181432        64134438.036545038        1221640223.3989344     
   2969723239.0526595        50329982.445217013        1228798294.0445664     
   2740230806.1715655        198855713.37270665        1276800910.9930935     
   2685639583.0935616        140734115.24212098        1273215006.0702331     
   2635474859.9187732        97367516.788920641        1275240410.9376779     
   2589736636.6472015        68755918.013108611        1282877125.5954280     
   2548424913.2788448        54899318.914680481        1296125150.0434828     
   2262694564.5798650        178844038.72385049        1309605910.4229429     
   2223691092.4602594        134630036.25349736        1317561635.5770459     
   2187508876.0066237        99820219.336373806        1328687183.4487896     
   2154147915.2189560        74414587.972477674        1342982554.0381742     
   2123608210.0972574        58413142.161811948        1360447747.3451974     
   1809542654.9822724        166147663.67322642        1346897790.9294095     
   1779151256.4705968        133748553.65796614        1364522361.2170200     
   1749975869.3876426        105402815.07177728        1382875267.1496069     
   1722016493.7334096        81110447.914659202        1401956508.7271709     
   1695273129.5078981        60871452.186612546        1421766085.9497089     
   3387503187.4187031        44705132.753423095        1158467179.3484440     
   3294137894.5610056        37728026.824964762        1151855012.2913165     
   3200878026.2778807        31102336.145088911        1149375461.8431044     
   3107723582.5693326        24828060.713797569        1151028528.0038033     
   3014674563.4353585        18905200.531085968        1156814210.7734146     
   2969723239.0526595        50329982.445217013        1228798294.0445664     
   2886185935.5836515        39118927.916598439        1221455420.2246168     
   2803168602.0931473        29641106.649653554        1218516986.6947849     
   2720671238.5811472        21896518.644393682        1219982993.4550722     
   2638693845.0476513        15885163.900811672        1225853440.5054784     
   2548424913.2788448        54899318.914680481        1296125150.0434828     
   2475492238.2876859        39687307.512645125        1288535205.7652974     
   2403494078.6789603        27590347.385387063        1285621525.4584336     
   2332430434.4526682        18608438.532906532        1287384109.1228960     
   2262301305.6088071        12741580.955198050        1293822956.7586789     
   2123608210.0972574        58413142.161811948        1360447747.3451974     
   2062056802.6731057        39433165.613108277        1353094368.9133575     
   2001854456.0353184        24950058.352285028        1350689078.1340466     
   1943001170.1838903        14963820.379325867        1353231875.0072637     
   1885496945.1188245        9474451.6942427158        1360722759.5330102     
   1695273129.5078981        60871452.186612546        1421766085.9497089     
   1645879628.7399137        38356502.217991114        1415132909.6687992     
   1598249734.1622188        21720239.550338626        1413719644.7216246     
   1552383445.7748177        10962664.183661461        1417526291.1081824     
   1508280763.5777049        6083776.1179465055        1426552848.8284764     
   3014674563.4353585        18905200.531085968        1156814210.7734146     
   2922552899.0917993        14792019.819842935        1148694856.2155693     
   2831335572.6138902        13693298.660774350        1145404761.7837803     
   2741022584.0016384        15609037.053893209        1146943927.4780431     
   2651613933.2550383        20539234.999184251        1153312353.2983613     
   2638693845.0476513        15885163.900811672        1225853440.5054784     
   2559064336.0015793        12422056.971394181        1218423755.2202406     
   2480130603.6591549        11278205.720803738        1215624143.0112102     
   2401892648.0203834        12453610.149053097        1217454603.8783841     
   2324350469.0852580        15948270.256130219        1223915137.8217680     
   2262301305.6088071        12741580.955198050        1293822956.7586789     
   2194594846.0035138        9757816.0505864620        1286839619.3903749     
   2127375601.9398670        8398102.9514607191        1284287168.0484319     
   2060643573.4178686        8662441.6578319073        1286165602.7328465     
   1994398760.4375155        10550832.169687390        1292474923.4436224     
   1885496945.1188245        9474451.6942427158        1360722759.5330102     
   1829144429.0976050        6799297.0574291945        1353942448.7259715     
   1773070567.4560285        5052990.3527556658        1351393836.8954461     
   1717275360.1940968        4235531.5802334547        1353076924.0414317     
   1661758807.3118079        4346920.7398548126        1358991710.1639311     
   1508280763.5777049        6083776.1179465055        1426552848.8284764     
   1462713085.2838519        3546499.9919160604        1419732243.2270308     
   1417215500.2076383        1242867.9246839881        1416944149.5522518     
   1371788008.3490679       -827120.08373749256        1418188567.8041368     
   1326430609.7081335       -2663464.0333709121        1423465497.9826899     
   2651613933.2550383        20539234.999184251        1153312353.2983613     
   2547801112.7189884        22207057.172380090        1148634244.8367436     
   2443782113.7665539        23187617.957635403        1148286523.1494122     
   2339556936.3977346        23480917.354941130        1152269188.2363534     
   2235125580.6125426        23086955.364333987        1160582240.0975754     
   2324350469.0852580        15948270.256130219        1223915137.8217680     
   2231593312.3316855        15817170.181792140        1218260414.0783789     
   2138759323.8178284        15429964.239840865        1217194796.2197421     
   2045848503.5436871        14786652.430281758        1220718284.2458527     
   1952860851.5092721        13887234.753130794        1228830878.1567152     
   1994398760.4375155        10550832.169687390        1292474923.4436224     
   1913436464.9249043        8842569.0853571892        1285994488.8505764     
   1832526684.3081131        7309355.6537563801        1284361879.2527552     
   1751669418.5871360        5951191.8748748302        1287577094.6501515     
   1670864667.7619760        4768077.7487167120        1295640135.0427692     
   1661758807.3118079        4346920.7398548126        1358991710.1639311     
   1593330570.4986482        1283253.8830832839        1351836469.1533463     
   1525084195.2374074       -1174207.8006253839        1349787772.2484500     
   1457019681.5280764       -3025464.3112998605        1352845619.4492455     
   1389137029.3706684       -4270515.6489009261        1361010010.7557304     
   1326430609.7081335       -2663464.0333709121        1423465497.9826899     
   1271275629.0529134       -6860775.4250342250        1415786354.9866776     
   1216431856.6057098       -10020726.123308182        1413472475.2068274     
   1161899292.3665190       -12143316.128206313        1416523858.6431382     
   1107677936.3353429       -13228545.439720511        1424940505.2956119     
   2235125580.6125426        23086955.364333987        1160582240.0975754     
   2148681852.7897148        29891249.412821531        1152173360.9742789     
   2063632413.9219878        41343173.311646819        1148906167.5878296     
   1979977264.0093582        57442727.060791016        1150780659.9382288     
   1897716403.0518301        78189910.660279036        1157796838.0254731     
   1952860851.5092721        13887234.753130794        1228830878.1567152     
   1879120941.9987223        20289242.544419527        1221752306.7297778     
   1806464745.1570039        30303625.898477316        1219397052.7886355     
   1734892260.9841089        43930384.815283298        1221765116.3332934     
   1664403489.4800403        61169519.294835567        1228856497.3637481     
   1670864667.7619760        4768077.7487167120        1295640135.0427692     
   1608633238.7035706        10409197.924779594        1289529532.3115375     
   1547174946.0277143        18627439.376019180        1287723878.8150513     
   1486489789.7344117        29422802.102431178        1290223174.5533128     
   1426577769.8236623        42795286.104020715        1297027419.5263252     
   1389137029.3706684       -4270515.6489009261        1361010010.7557304     
   1337218742.9042556        251115.55388581753        1355505037.7195547     
   1285763016.5341210        6314613.7442650795        1353886645.6670742     
   1234769850.2602649        13919978.922239184        1356154834.5982902     
   1184239244.0826893        23067211.087821424        1362309604.5132079     
   1107677936.3353429       -13228545.439720511        1424940505.2956119     
   1064877454.6007826       -10185004.568250418        1419678822.9538324     
   1022228956.6762277       -6634850.9967665672        1417885353.3447046     
   979732442.56167674       -2578084.7252654433        1419560096.4682219     
   937387912.25713062        1985294.2462497354        1424703052.3243852     
   1897716403.0518301        78189910.660279036        1157796838.0254731     
   1791538063.8512838        100108732.05090874        1160131369.7981439     
   1689468873.8916965        135724717.57806784        1166735498.1397929     
   1591508833.1730835        185037867.24180889        1177609223.0504143     
   1497657941.6954327        248048181.04208973        1192752544.5300198     
   1664403489.4800403        61169519.294835567        1228856497.3637481     
   1567029834.9248478        74224943.769171298        1233008887.9114594     
   1471131866.5426452        92199322.153474391        1241709915.5211456     
   1376709584.3334339        115092654.44776464        1254959580.1928155     
   1283762988.2972264        142904940.65203926        1272757881.9264612     
   1426577769.8236623        42795286.104020715        1297027419.5263252     
   1338806058.4652498        47226491.227473676        1299925295.2697775     
   1249876570.2118614        47798440.034334064        1307650848.5682080     
   1159789305.0635028        44511132.524627566        1320204079.4216189     
   1068544263.0201651        37364568.698332369        1337584987.8300171     
   1184239244.0826893        23067211.087821424        1362309604.5132079     
   1106866734.4724996        19113374.425839305        1360880591.8730986     
   1025702984.8993645        2522071.2207099199        1364558297.2809758     
   940747995.36327553       -26706698.527594209        1373342720.7368274     
   852001765.86425257       -68572934.819029868        1387233862.2406690     
   937387912.25713062        1985294.2462497354        1424703052.3243852     
   871211862.94659483       -10114406.635737896        1415874777.7214208     
   798611110.60513592       -43629784.287467808        1412432261.6594377     
   719585655.23276603       -98560838.708899111        1414375504.1384456     
   634135496.82948029       -174907569.90005007        1421704505.1584301     
   1756024874.8850253        526807462.46550757        680061028.37787545     
   1784089566.0092835        500104990.13047826        806472037.82987094     
   1809219382.0905080        463619600.98533517        925763409.80885303     
   1831414323.1286981        417351295.03007805        1037935144.3148222     
   1850674389.1238542        361300072.26470768        1142987241.3477786     
   1326387348.2365317        397916204.47095954        669738088.35527623     
   1339610210.6948147        375538720.74272394        791882395.14306283     
   1350633705.9848056        345830013.12018257        908731473.82846808     
   1359457834.1065049        308790081.60333514        1020285324.4114906     
   1366082595.0599127        264418926.19218203        1126543946.8921311     
   890510013.79875004        267153004.13962504        662362077.92109776     
   894103645.79286087        250664288.47872439        781097774.56520867     
   896233418.49342191        229296041.83932564        896362652.47756886     
   896899331.90043378        203048264.22142881        1008156711.6581779     
   896101386.01389623        171920955.62503380        1116479952.1070364     
   448392871.57168061        134517861.47150418        657932997.07533991     
   447569871.30342239        125481693.33847952        774118176.09630775     
   446018519.61635715        114017687.14276430        888656945.75615573     
   443738816.51048458        100125842.88435891        1001549306.0548841     
   440730761.98580509        83806160.563262925        1112795256.9924929     
   35921.555323287619        10776.466596986285        656450845.81800294     
   8887.2264994955221       -9064.6780108674775        770943599.73636019     
  -10990.646389102942       -5050.9695012790271        885614353.66422915     
  -23712.063342363377        22817.592125951087        1000463107.6016092     
  -29277.024360564559        74541.006870218815        1115489861.5485013     
   1850674389.1238542        361300072.26470768        1142987241.3477786     
   1835303674.5822110        295552700.09601289        1190513848.8777649     
   1823324814.0447333        241111507.94120109        1240341142.9846992     
   1814737807.5114205        197976495.80027252        1292469123.6685805     
   1809542654.9822724        166147663.67322642        1346897790.9294095     
   1366082595.0599127        264418926.19218203        1126543946.8921311     
   1360385956.0145628        216868473.64737415        1181965165.3911850     
   1357229644.2689154        177785778.76824069        1238328004.7049272     
   1356613659.8229702        147170841.55478209        1295632464.8333585     
   1358538002.6767266        125023662.00699723        1353878545.7764785     
   896101386.01389623        171920955.62503380        1116479952.1070364     
   896195777.42981398        141402509.19360566        1178802333.7532842     
   897978969.44097149        116513398.07964307        1240707270.4519613     
   901450962.04736876        97253622.283146501        1302194762.2030683     
   906611755.24900591        83623181.804115236        1363264809.0066047     
   440730761.98580509        83806160.563262925        1112795256.9924929     
   442733138.82796520        69154806.734707028        1181025353.9640613     
   445572789.56090236        57294365.875407591        1247478940.2258005     
   449249714.18461686        48224837.985366330        1312156015.7777114     
   453763912.69910818        41946223.064580768        1375056580.6197917     
  -29277.024360564559        74541.006870218815        1115489861.5485013     
  -1959.7909835946484        125366.27067837706        1188634226.0235174     
   11104.628707748612        128682.15553457662        1258643014.0264459     
   9916.2347138358746        84488.661439771065        1325516225.5572853     
  -5524.9729658529150       -7214.2116074478799        1389253860.6160376     
   1809542654.9822724        166147663.67322642        1346897790.9294095     
   1779151256.4705968        133748553.65796614        1364522361.2170200     
   1749975869.3876426        105402815.07177728        1382875267.1496069     
   1722016493.7334096        81110447.914659202        1401956508.7271709     
   1695273129.5078981        60871452.186612546        1421766085.9497089     
   1358538002.6767266        125023662.00699723        1353878545.7764785     
   1333034680.9874406        99906834.856688380        1372742029.0439024     
   1308458274.9173882        77879726.437162220        1392956708.9455099     
   1284808784.4665706        58942336.748418272        1414522585.4812963     
   1262086209.6349888        43094665.790456176        1437439658.6512637     
   906611755.24900591        83623181.804115236        1363264809.0066047     
   887776113.20840585        66322518.366645485        1383029926.8094451     
   869578290.97755408        51147920.961670756        1404769102.2356696     
   852018288.55645072        38099389.589190781        1428482335.2852798     
   835096105.94509697        27176924.249207973        1454169625.9582734     
   453763912.69910818        41946223.064580768        1375056580.6197917     
   443375553.13349319        32995604.187839985        1395386054.5136454     
   433335917.56814045        25207398.645306259        1418312447.0200882     
   423645006.00305080        18581606.436982960        1443835758.1391201     
   414302818.43822223        13118227.562863424        1471955987.8707416     
  -5524.9729658529150       -7214.2116074478799        1389253860.6160376     
  -166999.23729692149       -73907.679728695686        1409810412.1565042     
  -268845.31085241481        58159.488068640989        1433586743.2987645     
  -311063.19363189233        388987.29178568302        1460582854.0428190     
  -293652.88563489099        918575.73142501537        1490798744.3886652     
   1695273129.5078981        60871452.186612546        1421766085.9497089     
   1645879628.7399137        38356502.217991114        1415132909.6687992     
   1598249734.1622188        21720239.550338626        1413719644.7216246     
   1552383445.7748177        10962664.183661461        1417526291.1081824     
   1508280763.5777049        6083776.1179465055        1426552848.8284764     
   1262086209.6349888        43094665.790456176        1437439658.6512637     
   1227459734.7100265        27058520.784859359        1434476634.0214159     
   1194136693.1638789        15367153.708642721        1436157839.8686924     
   1162117084.9965460        8020564.5618066788        1442483276.1930940     
   1131400910.2080288        5018753.3443580866        1453452942.9946187     
   835096105.94509697        27176924.249207973        1454169625.9582734     
   813591854.41569889        17126143.472392172        1454339884.6994345     
   792930863.45363963        9886231.2533737719        1458578693.0611081     
   773113133.05891955        5457187.5921504796        1466886051.0432961     
   754138663.23153675        3839012.4887207747        1479261958.6459978     
   414302818.43822223        13118227.562863424        1471955987.8707416     
   404275987.85693169        8559370.2805972695        1474722661.7028530     
   394632245.03150415        5277472.1845400631        1480982204.2988682     
   385371589.96193761        3272533.2746867239        1490734615.6587873     
   376494022.64823395        2544553.5510431677        1503979895.7826104     
  -293652.88563489099        918575.73142501537        1490798744.3886652     
  -487864.96627690730        1358201.2094661889        1495624965.0316730     
  -759162.10253171145        1540876.5021310560        1503368373.5819733     
  -1107544.2944011851        1466601.6094142124        1514028970.0395694     
  -1533011.5418843955        1135376.5313175512        1527606754.4044571     
   1508280763.5777049        6083776.1179465055        1426552848.8284764     
   1462713085.2838519        3546499.9919160604        1419732243.2270308     
   1417215500.2076383        1242867.9246839881        1416944149.5522518     
   1371788008.3490679       -827120.08373749256        1418188567.8041368     
   1326430609.7081335       -2663464.0333709121        1423465497.9826899     
   1131400910.2080288        5018753.3443580866        1453452942.9946187     
   1096636057.2845664        2859082.7975384593        1446648957.6643670     
   1061923866.0006073        874951.04906141758        1444035186.3279316     
   1027264336.3561504       -933641.90107417107        1445611628.9853144     
   992657468.35119462       -2566696.0528716445        1451378285.6365120     
   754138663.23153675        3839012.4887207747        1479261958.6459978     
   730627213.01318932        2192120.7215355635        1472454256.7457740     
   707150992.85620558        662662.49223062396        1469994470.9065223     
   683710002.76058447       -749362.19919881225        1471882601.1282399     
   660304242.72632694       -2043953.3527493179        1478118647.4109249     
   376494022.64823395        2544553.5510431677        1503979895.7826104     
   364686552.46971971        1545613.7639063299        1497148140.4712546     
   352896880.77443039        606002.25418463349        1494822003.2880232     
   341125007.56236535       -274280.97812101245        1497001484.2329111     
   329370932.83352619       -1095235.9330093861        1503686583.3059232     
  -1533011.5418843955        1135376.5313175512        1527606754.4044571     
  -1185924.3458445459        919561.92464370164        1520730608.8408084     
  -838470.24471603613        704970.33493101178        1518517783.4724348     
  -490649.23850474518        491601.76216075209        1520968278.2993343     
  -142461.32720566337        279456.20635118301        1528082093.3215101     
   1326430609.7081335       -2663464.0333709121        1423465497.9826899     
   1271275629.0529134       -6860775.4250342250        1415786354.9866776     
   1216431856.6057098       -10020726.123308182        1413472475.2068274     
   1161899292.3665190       -12143316.128206313        1416523858.6431382     
   1107677936.3353429       -13228545.439720511        1424940505.2956119     
   992657468.35119462       -2566696.0528716445        1451378285.6365120     
   951691337.21086156       -5569980.2501631379        1444507895.7820797     
   911026972.27396381       -7567377.1026707888        1442911197.6011617     
   870664373.54049480       -8558886.6104128957        1446588191.0937541     
   830603541.01046109       -8544508.7733741999        1455538876.2598586     
   660304242.72632694       -2043953.3527493179        1478118647.4109249     
   633265328.12188768       -3931700.2493635118        1472045995.0260587     
   606518737.71629977       -4845033.1498056054        1471155462.7720549     
   580064471.50955987       -4783952.0540893972        1475447050.6489177     
   553902529.50167286       -3748456.9621964693        1484920758.6566412     
   329370932.83352619       -1095235.9330093861        1503686583.3059232     
   315997601.78598779       -1945935.4226409197        1498400652.7186096     
   302907152.93271375       -1853694.2647252679        1498205270.7195103     
   290099586.27371401       -818512.45922754705        1503100437.3086281     
   277574901.80897564        1159609.9938069135        1513086152.4859645     
  -142461.32720566337        279456.20635118301        1528082093.3215101     
  -111841.79683905584        387314.22999690555        1523571868.8597343     
   192217.92321331537        1406639.5525965616        1524060621.4435263     
   769717.83294937992        3337432.1741409949        1529548351.0728879     
   1620657.9323722376        6179692.0946417516        1540035057.7478182     
   1107677936.3353429       -13228545.439720511        1424940505.2956119     
   1064877454.6007826       -10185004.568250418        1419678822.9538324     
   1022228956.6762277       -6634850.9967665672        1417885353.3447046     
   979732442.56167674       -2578084.7252654433        1419560096.4682219     
   937387912.25713062        1985294.2462497354        1424703052.3243852     
   830603541.01046109       -8544508.7733741999        1455538876.2598586     
   796958529.80430865       -6395507.0766237676        1450557565.4364533     
   763150133.13925970       -4791123.5761953592        1449357143.6348839     
   729178351.01531589       -3731358.2720845044        1451937610.8551452     
   695043183.43247366       -3216211.1642991602        1458298967.0972354     
   553902529.50167286       -3748456.9621964693        1484920758.6566412     
   530306349.65017056       -2225986.1922921836        1479851888.5378916     
   506231415.07087165       -2299364.5150464177        1478876583.7301593     
   481677725.76377636       -3968591.9304537773        1481994844.2334433     
   456645281.72888410       -7233668.4385195374        1489206670.0477459     
   277574901.80897564        1159609.9938069135        1513086152.4859645     
   264920914.13836676        2323558.0847342908        1507561792.2581489     
   251472802.47106442        840426.18668158352        1506443673.6305382     
   237230566.80706167       -3289785.7003706098        1509731796.6031287     
   222194207.14635780       -10067077.576428398        1517426161.1759231     
   1620657.9323722376        6179692.0946417516        1540035057.7478182     
   802223.26890177093        7253125.7544723861        1533687276.5972228     
  -1125704.6601655700        4628248.5289794132        1532058413.3360140     
  -4163125.8548345887       -1694939.5818510982        1535148467.9641933     
  -8310040.3151005730       -11716438.578006910        1542957440.4817622     
   937387912.25713062        1985294.2462497354        1424703052.3243852     
   871211862.94659483       -10114406.635737896        1415874777.7214208     
   798611110.60513592       -43629784.287467808        1412432261.6594377     
   719585655.23276603       -98560838.708899111        1414375504.1384456     
   634135496.82948029       -174907569.90005007        1421704505.1584301     
   695043183.43247366       -3216211.1642991602        1458298967.0972354     
   644206769.00087965       -12426609.324092925        1445566839.2912054     
   590424835.93171906       -31455402.942440361        1438581909.9151826     
   533697384.22500229       -60302592.019312412        1437344178.9691565     
   474024413.88072079       -98968176.554728001        1441853646.4531369     
   456645281.72888410       -7233668.4385195374        1489206670.0477459     
   422181187.57342964       -13244958.256963402        1476629737.4975662     
   388250759.17376888       -17477362.222762540        1470161443.2664101     
   354853996.52989656       -19930880.335933194        1469801787.3542812     
   321990899.64181924       -20605512.596455172        1475550769.7611666     
   222194207.14635780       -10067077.576428398        1517426161.1759231     
   205135118.66424492       -12569453.434350118        1509063472.3405070     
   192088880.33127871       -1695662.1284518838        1507170861.7131283     
   183055492.14745399        22554296.341254078        1511748329.2937999     
   178034954.11277464        60180421.974774703        1522795875.0825076     
  -8310040.3151005730       -11716438.578006910        1542957440.4817622     
  -6931437.7266803226       -10400094.856272310        1542868043.8200235     
   1939199.4042487526        15889697.340491012        1549610165.2553420     
   18301871.077666640        67152938.012219816        1563183804.7877233     
   42156577.293592386        143389627.15896997        1583588962.4171689     
   35921.555323287619        10776.466596986285        656450845.81800294     
   8887.2264994955221       -9064.6780108674775        770943599.73636019     
  -10990.646389102942       -5050.9695012790271        885614353.66422915     
  -23712.063342363377        22817.592125951087        1000463107.6016092     
  -29277.024360564559        74541.006870218815        1115489861.5485013     
  -448324858.67962897       -134497457.60388869        657919873.80062556     
  -447547983.43804824       -125485512.01252294        774116871.67228460     
  -446034392.12715501       -114017846.19011483        888670003.03413379     
  -443784084.74694890       -100094460.13666397        1001579267.8861736     
  -440797061.29742998       -83715353.852170438        1112844666.2284038     
  -890453491.56248307       -267136047.46874493        662344330.67474687     
  -894078039.66284442       -250653915.01510951        781096725.38198137     
  -896236312.08051515       -229284196.95250642        896383387.06008494     
  -896928308.81549573       -203026893.28093553        1008204315.7090579     
  -896154029.86778629       -171882004.00039715        1116559511.3288999     
  -1326349977.0932393       -397904993.12797183        669724216.44036686     
  -1339581281.4478886       -375514273.68577045        791883160.86545062     
  -1350616750.5064700       -345804103.25667644        908754505.74208260     
  -1359456384.2689831       -308774481.84068918        1020338251.0702622     
  -1366100182.7354290       -264425409.43780968        1126634396.8499901     
  -1756014315.2718976       -526804294.58156925        680059531.09748530     
  -1784057708.7931807       -500066588.02450603        806476178.12269211     
  -1809175707.4050190       -463577565.10262483        925783359.08012605     
  -1831368311.1074116       -417337225.81592560        1037981073.9697866     
  -1850635519.9003592       -361345570.16440845        1143069322.7916739     
  -29277.024360564559        74541.006870218815        1115489861.5485013     
  -1959.7909835946484        125366.27067837706        1188634226.0235174     
   11104.628707748612        128682.15553457662        1258643014.0264459     
   9916.2347138358746        84488.661439771065        1325516225.5572853     
  -5524.9729658529150       -7214.2116074478799        1389253860.6160376     
  -440797061.29742998       -83715353.852170438        1112844666.2284038     
  -442757412.82891661       -68999018.654260084        1181054988.8984103     
  -445572211.36968100       -57130840.153943032        1247487563.6212025     
  -449241456.91972435       -48110818.351221249        1312142390.3967791     
  -453765149.47904539       -41938953.246093154        1375019469.2251403     
  -896154029.86778629       -171882004.00039715        1116559511.3288999     
  -896222540.09307063       -141336305.84706464        1178855565.6323726     
  -897985691.52322614       -116439411.70996833        1240731700.5135028     
  -901443484.15825236       -97191321.589108616        1302187915.9722910     
  -906595917.99815035       -83592035.484486490        1363224212.0087373     
  -1366100182.7354290       -264425409.43780968        1126634396.8499901     
  -1360397341.5834455       -216886495.30773512        1182035956.2254035     
  -1357229335.8319263       -177797032.51253977        1238375424.7033472     
  -1356596165.4808707       -147157021.05222434        1295652802.2838223     
  -1358497830.5302792       -124966460.92678744        1353868088.9668279     
  -1850635519.9003592       -361345570.16440845        1143069322.7916739     
  -1835281817.3000424       -295649587.03627300        1190596160.6775033     
  -1823303144.2957826       -241203702.56165826        1240418736.1907361     
  -1814699500.8875790       -198007916.74056602        1292537049.3313727     
  -1809470887.0754325       -166062229.57299531        1346951100.0994134     
  -5524.9729658529150       -7214.2116074478799        1389253860.6160376     
  -166999.23729692149       -73907.679728695686        1409810412.1565042     
  -268845.31085241481        58159.488068640989        1433586743.2987645     
  -311063.19363189233        388987.29178568302        1460582854.0428190     
  -293652.88563489099        918575.73142501537        1490798744.3886652     
  -453765149.47904539       -41938953.246093154        1375019469.2251403     
  -443667386.48100376       -33095929.907969669        1395472645.0565760     
  -433846129.28744978       -25174592.584804341        1418541673.7635243     
  -424301377.89838517       -18174941.276604772        1444226555.3459868     
  -415033132.31380743       -12096975.983361274        1472527289.8039627     
  -906595917.99815035       -83592035.484486490        1363224212.0087373     
  -887964422.66996408       -66356946.819784105        1383181855.8033328     
  -869945567.14153135       -51163990.820925802        1405151425.7471628     
  -852539351.41285098       -38013167.487908125        1429132921.8402247     
  -835745775.48392320       -26904476.820732623        1455126344.0825200     
  -1358497830.5302792       -124966460.92678744        1353868088.9668279     
  -1333058107.8041790       -99856958.415176153        1372938044.3967769     
  -1308567158.8730965       -77910035.220291078        1393415999.2496774     
  -1285024983.7370303       -59125691.342125952        1415301953.5255325     
  -1262431582.3959813       -43503926.780686378        1438595907.2243383     
  -1809470887.0754325       -166062229.57299531        1346951100.0994134     
  -1778948441.8836472       -133595964.69414407        1364741210.8369052     
  -1749710904.4821448       -105412725.78290039        1383335394.2710700     
  -1721758274.8709221       -81512512.839257598        1402733650.4019070     
  -1695090553.0499816       -61895325.863222122        1422935979.2294171     
  -293652.88563489099        918575.73142501537        1490798744.3886652     
  -487864.96627690730        1358201.2094661889        1495624965.0316730     
  -759162.10253171145        1540876.5021310560        1503368373.5819733     
  -1107544.2944011851        1466601.6094142124        1514028970.0395694     
  -1533011.5418843955        1135376.5313175512        1527606754.4044571     
  -415033132.31380743       -12096975.983361274        1472527289.8039627     
  -405446134.53908384       -7111841.0183049887        1475242467.4709556     
  -396366228.31276959       -3817011.2146129608        1481515501.0839326     
  -387793413.63486439       -2212486.5722848922        1491346390.6428926     
  -379727690.50537038       -2298267.0913265198        1504735136.1478391     
  -835745775.48392320       -26904476.820732623        1455126344.0825200     
  -814547087.74328840       -16824688.335496902        1455228804.5319035     
  -794285498.04386020       -9868559.9876143336        1459529788.9659612     
  -774961006.38563681       -6036091.7770817578        1468029297.3846943     
  -756573612.76861846       -5327283.7038983703        1480727329.7881026     
  -1262431582.3959813       -43503926.780686378        1438595907.2243383     
  -1227790724.5788920       -27780340.742111087        1435583976.2145159     
  -1194516971.2958038       -16613769.816871643        1437411237.2280610     
  -1162610322.5467155       -10004214.004967928        1444077690.2649698     
  -1132070778.3316290       -7951673.3064002991        1455583335.3252451     
  -1695090553.0499816       -61895325.863222122        1422935979.2294171     
  -1645177045.0458910       -39978798.238138676        1416307982.5187962     
  -1597060648.0685990       -24052640.702383399        1415159845.8702312     
  -1550741362.1181016       -14116853.255946577        1419491569.2837241     
  -1506219187.1944017       -10171435.898830831        1429303152.7592704     
  -1533011.5418843955        1135376.5313175512        1527606754.4044571     
  -1185924.3458445459        919561.92464370164        1520730608.8408084     
  -838470.24471603613        704970.33493101178        1518517783.4724348     
  -490649.23850474518        491601.76216075209        1520968278.2993343     
  -142461.32720566337        279456.20635118301        1528082093.3215101     
  -379727690.50537038       -2298267.0913265198        1504735136.1478391     
  -367336065.77649450       -1840279.3316603452        1498228519.8274450     
  -354934493.80763251       -1349134.1053742319        1496168119.3294194     
  -342522974.59878504       -824831.41246931255        1498553934.6537607     
  -330101508.14995211       -267371.25294527411        1505385965.8004682     
  -756573612.76861846       -5327283.7038983703        1480727329.7881026     
  -732757748.71521294       -4381583.0403849483        1474601419.7683465     
  -708922357.08692205       -3370790.4605865777        1472704621.1980505     
  -685067437.88374591       -2294905.9645035863        1475036934.0772138     
  -661192991.10568452       -1153929.5521358252        1481598358.4058383     
  -1132070778.3316290       -7951673.3064002991        1455583335.3252451     
  -1097450973.1620004       -6704349.2015318871        1449849308.6635113     
  -1062802060.0825859       -5359998.7307103276        1448127289.0783298     
  -1028124039.0933863       -3918621.8939384222        1450417276.5697002     
  -993416910.19440246       -2380218.6912178993        1456719271.1376247     
  -1506219187.1944017       -10171435.898830831        1429303152.7592704     
  -1461415739.1168559       -8808577.8150967956        1423972186.5129402     
  -1416573602.7946260       -7316758.9157515168        1422436122.9702549     
  -1371692778.2277102       -5695979.2007835507        1424694962.1312149     
  -1326773265.4161108       -3946238.6702071428        1430748703.9958203     
  -142461.32720566337        279456.20635118301        1528082093.3215101     
  -111841.79683905584        387314.22999690555        1523571868.8597343     
   192217.92321331537        1406639.5525965616        1524060621.4435263     
   769717.83294937992        3337432.1741409949        1529548351.0728879     
   1620657.9323722376        6179692.0946417516        1540035057.7478182     
  -330101508.14995211       -267371.25294527411        1505385965.8004682     
  -316726096.74622524        635365.43955416977        1500697739.4515455     
  -303321670.13424814        1634819.4928896874        1501092327.0360570     
  -289888228.31401128        2730990.9070899785        1506569728.5540006     
  -276425771.28552198        3923879.6821320057        1517129944.0053802     
  -661192991.10568452       -1153929.5521358252        1481598358.4058383     
  -634233253.86327124        615545.99880516529        1476446967.6914337     
  -607488926.39403558        1666988.9724887609        1476462227.7983282     
  -580960008.69797337        2000399.3689286411        1481644138.7265236     
  -554646500.77508473        1615777.1881200075        1491992700.4760156     
  -993416910.19440246       -2380218.6912178993        1456719271.1376247     
  -952633313.14797533        327855.90775787830        1450819553.5794027     
  -912309550.85615420        1503147.9913800359        1450170323.7303450     
  -872445623.31893432        1145657.5596642494        1454771581.5904536     
  -833041530.53631938       -744615.38740092516        1464623327.1597254     
  -1326773265.4161108       -3946238.6702071428        1430748703.9958203     
  -1271926274.6003351       -227704.83357936144        1423815497.1154468     
  -1217783543.5205946        1143296.5495905280        1422216614.8321037     
  -1164345072.1768880        166765.47931772470        1425952057.1457908     
  -1111610860.5692174       -3157298.0444077253        1435021824.0565076     
   1620657.9323722376        6179692.0946417516        1540035057.7478182     
   802223.26890177093        7253125.7544723861        1533687276.5972228     
  -1125704.6601655700        4628248.5289794132        1532058413.3360140     
  -4163125.8548345887       -1694939.5818510982        1535148467.9641933     
  -8310040.3151005730       -11716438.578006910        1542957440.4817622     
  -276425771.28552198        3923879.6821320057        1517129944.0053802     
  -265610903.06701359        3487016.3737992197        1509665385.5164795     
  -255375912.98448727        1117225.9455272257        1506779133.7323651     
  -245720801.03794107       -3185491.6026793867        1508471188.6530371     
  -236645567.22737297       -9421136.2708136439        1514741550.2784998     
  -554646500.77508473        1615777.1881200075        1491992700.4760156     
  -532600075.91631347       -451906.96089094877        1484029248.9666960     
  -510603914.06390643       -2687134.4644508362        1480503492.9775641     
  -488658015.21786076       -5089905.3225483298        1481415432.5086174     
  -466762379.37818033       -7660219.5351958573        1486765067.5598588     
  -833041530.53631938       -744615.38740092516        1464623327.1597254     
  -800165295.27899539       -4563644.2495916188        1456778866.9478741     
  -766809707.89842391       -6784832.7009567320        1453231491.0716093     
  -732974768.39459383       -7408180.7414596379        1453981199.5309298     
  -698660476.76751351       -6433688.3711316288        1459027992.3258379     
  -1111610860.5692174       -3157298.0444077253        1435021824.0565076     
  -1068306561.1550633       -8848195.4923163652        1427914239.4600110     
  -1023993294.4880404       -11175868.763994873        1424963128.0145018     
  -978671060.56814432       -10140317.859426796        1426168489.7199779     
  -932339859.39537501       -5741542.7786192298        1431530324.5764406     
  -8310040.3151005730       -11716438.578006910        1542957440.4817622     
  -6931437.7266803226       -10400094.856272310        1542868043.8200235     
   1939199.4042487526        15889697.340491012        1549610165.2553420     
   18301871.077666640        67152938.012219816        1563183804.7877233     
   42156577.293592386        143389627.15896997        1583588962.4171689     
  -236645567.22737297       -9421136.2708136439        1514741550.2784998     
  -217945804.13540053       -7344756.4590302929        1520566499.6353457     
  -195089460.25106016        8586892.6606459469        1532708507.5693882     
  -168076535.57435143        38373811.088216662        1551167574.0806308     
  -136907030.10528132        82015998.823660403        1575943699.1690691     
  -466762379.37818033       -7660219.5351958573        1486765067.5598588     
  -432211340.12512422       -5264768.9361026287        1494613000.2267983     
  -396839173.82983494       -132228.19623263180        1508263531.9510772     
  -360645880.49231410        7737402.6844117492        1527716662.7326875     
  -323631460.11256206        18344123.705822110        1552972392.5716310     
  -698660476.76751351       -6433688.3711316288        1459027992.3258379     
  -649728045.69584215       -4160132.2874633074        1465007545.5943882     
  -603309941.33207810       -10267665.230154872        1476275238.4004078     
  -559406163.67621255       -24756287.199171364        1492831070.7439022     
  -518016712.72824866       -47625998.194531277        1514675042.6248507     
  -932339859.39537501       -5741542.7786192298        1431530324.5764406     
  -870495920.84756219       -4030846.5131344795        1431750135.7381117     
  -814501762.75779068       -21819418.441122860        1436743626.9173813     
  -764357385.12604427       -59107258.562524110        1446510798.1142635     
  -720062787.95234179       -115894366.87741333        1461051649.3287468     
  -1756014315.2718976       -526804294.58156925        680059531.09748530     
  -1784057708.7931807       -500066588.02450603        806476178.12269211     
  -1809175707.4050190       -463577565.10262483        925783359.08012605     
  -1831368311.1074116       -417337225.81592560        1037981073.9697866     
  -1850635519.9003592       -361345570.16440845        1143069322.7916739     
  -2201689478.1829767       -660506843.45489299        696451435.27293789     
  -2238338239.0029168       -613881131.89759457        813881563.28985333     
  -2272945474.2678795       -560450335.15703773        927212104.45244408     
  -2305511183.9778638       -500214453.23322153        1036443058.7607105     
  -2336035368.1328707       -433173486.12614655        1141574426.2146523     
  -2685618437.9109974       -805685531.37329924        722001089.59356034     
  -2722272911.1340261       -736591918.34709549        829413517.68863857     
  -2757769728.1565452       -663639451.31919217        935736238.14284074     
  -2792108888.9785547       -586828130.28958941        1040969250.9561673     
  -2825290393.6000547       -506157955.25828731        1145112556.1286175     
  -3207801194.4559579       -962340358.33678746        756708494.05935264     
  -3235861725.1865087       -868198947.37300825        853072041.31904793     
  -3263648469.0710173       -773144913.58908880        951355760.15131581     
  -3291161426.1094842       -677178256.98502874        1051559650.5561564     
  -3318400596.3019085       -580298977.56082845        1153683712.5335696     
  -3768237747.8178596       -1130471324.3453579        800573648.67031467     
  -3779104681.1603646       -1008702218.9753326        884857134.18108118     
  -3790581697.0112944       -888966721.96672654        974070670.47786927     
  -3802668795.3706508       -771264833.31953907        1068214257.5606782     
  -3815365976.2384324       -655596553.03377092        1167287895.4295089     
  -1850635519.9003592       -361345570.16440845        1143069322.7916739     
  -1835281817.3000424       -295649587.03627300        1190596160.6775033     
  -1823303144.2957826       -241203702.56165826        1240418736.1907361     
  -1814699500.8875790       -198007916.74056602        1292537049.3313727     
  -1809470887.0754325       -166062229.57299531        1346951100.0994134     
  -2336035368.1328707       -433173486.12614655        1141574426.2146523     
  -2312438924.3158822       -352097574.26846826        1182845603.0221279     
  -2292335375.4874930       -282664645.70612484        1224612398.0466690     
  -2275724721.6477051       -224874700.43911439        1266874811.2882760     
  -2262606962.7965174       -178727738.46743989        1309632842.7469480     
  -2825290393.6000547       -506157955.25828731        1145112556.1286175     
  -2798594406.8816442       -411245074.16564065        1179990562.2331047     
  -2775509180.5443783       -328368061.01014268        1213564067.1443195     
  -2756034714.5882564       -257526915.79179168        1245833070.8622615     
  -2740171009.0132790       -198721638.51058817        1276797573.3869305     
  -3318400596.3019085       -580298977.56082845        1153683712.5335696     
  -3293748264.9973288       -473092086.72778952        1182031038.3104341     
  -3272824559.4664378       -378313948.47371221        1207273743.4836881     
  -3255629479.7092342       -295964562.79859459        1229411828.0533311     
  -3242163025.7257204       -226043929.70244002        1248445292.0193632     
  -3815365976.2384324       -655596553.03377092        1167287895.4295089     
  -3797900498.6629362       -537638611.95491576        1188967031.2541163     
  -3784281512.2536721       -432502308.09683657        1205741427.0647743     
  -3774509017.0106397       -340187641.45952821        1217611082.8614836     
  -3768583012.9338398       -260694612.04299557        1224575998.6442435     
  -1809470887.0754325       -166062229.57299531        1346951100.0994134     
  -1778948441.8836472       -133595964.69414407        1364741210.8369052     
  -1749710904.4821448       -105412725.78290039        1383335394.2710700     
  -1721758274.8709221       -81512512.839257598        1402733650.4019070     
  -1695090553.0499816       -61895325.863222122        1422935979.2294171     
  -2262606962.7965174       -178727738.46743989        1309632842.7469480     
  -2223305604.2991776       -134396323.31756711        1317645061.1499414     
  -2186887588.2081699       -99676049.522131801        1328868105.4902985     
  -2153352914.5234923       -74566917.081134915        1343301975.7680206     
  -2122701583.2451458       -59068925.994573712        1360946671.9831066     
  -2740171009.0132790       -198721638.51058817        1276797573.3869305     
  -2685214299.3798375       -140462141.74052632        1273167059.0700331     
  -2634739366.7687755       -97141901.711736798        1275154123.9311919     
  -2588746211.1800961       -68760918.424219012        1282758767.9704070     
  -2547234832.6137991       -55319191.877973437        1295980991.1876783     
  -3242163025.7257204       -226043929.70244002        1248445292.0193632     
  -3164674527.1256266       -151793419.96302593        1231307204.5971835     
  -3093266240.1639643       -97810282.351716042        1222193449.5937510     
  -3027938164.8407354       -64094516.868516207        1221104027.0090668     
  -2968690301.1559353       -50646123.513417244        1228038936.8431299     
  -3768583012.9338398       -260694612.04299557        1224575998.6442435     
  -3661686287.5365467       -168390157.98506367        1192065497.7313893     
  -3562468208.3937364       -101681191.44207215        1169986082.4779744     
  -3470928775.5054078       -60567712.414021492        1158337752.8839996     
  -3387067988.8715601       -45049720.900906920        1157120508.9494638     
  -1695090553.0499816       -61895325.863222122        1422935979.2294171     
  -1645177045.0458910       -39978798.238138676        1416307982.5187962     
  -1597060648.0685990       -24052640.702383399        1415159845.8702312     
  -1550741362.1181016       -14116853.255946577        1419491569.2837241     
  -1506219187.1944017       -10171435.898830831        1429303152.7592704     
  -2122701583.2451458       -59068925.994573712        1360946671.9831066     
  -2060077417.7313099       -40294365.215905428        1353371968.4653873     
  -1998733831.0717113       -25788400.618033886        1350819903.0115123     
  -1938670823.2663569       -15551032.200973868        1353290475.6214812     
  -1879888394.3152437       -9582259.9647156000        1360783686.2952950     
  -2547234832.6137991       -55319191.877973437        1295980991.1876783     
  -2473206358.1565337       -40078502.515607953        1288062201.7308414     
  -2399941930.3809528       -27384635.425526381        1284708828.3396366     
  -2327441549.2870617       -17237590.607737541        1285920871.0140634     
  -2255705214.8748522       -9637368.0622329712        1291698329.7541227     
  -2968690301.1559353       -50646123.513417244        1228038936.8431299     
  -2884563866.3215637       -39331210.137251139        1220378682.3151569     
  -2800684945.9963236       -28841345.124860406        1216826621.8546042     
  -2717053540.1802115       -19176528.476232171        1217382755.4614701     
  -2633669648.8732347       -10336760.191379428        1222047083.1357558     
  -3387067988.8715601       -45049720.900906920        1157120508.9494638     
  -3294149942.2264028       -38052488.080844164        1150321410.2183359     
  -3200962877.9178181       -30158529.716023564        1147173283.5564151     
  -3107506795.9458122       -21367845.806463122        1147676128.9637012     
  -3013781696.3103819       -11680436.352158904        1151829946.4401948     
  -1506219187.1944017       -10171435.898830831        1429303152.7592704     
  -1461415739.1168559       -8808577.8150967956        1423972186.5129402     
  -1416573602.7946260       -7316758.9157515168        1422436122.9702549     
  -1371692778.2277102       -5695979.2007835507        1424694962.1312149     
  -1326773265.4161108       -3946238.6702071428        1430748703.9958203     
  -1879888394.3152437       -9582259.9647156000        1360783686.2952950     
  -1824401922.4338479       -6950609.1474792957        1354734975.7644639     
  -1769183223.9826798       -5211536.4309991598        1352816274.8252175     
  -1714232298.9617352       -4365041.8152675629        1355027583.4775565     
  -1659549147.3710206       -4411125.3002966642        1361368901.7214756     
  -2255705214.8748522       -9637368.0622329712        1291698329.7541227     
  -2188578270.9383583       -5449690.0361202955        1284574336.3180645     
  -2122025562.1070001       -3176129.0271317959        1281915459.3615277     
  -2056047088.3807786       -2816685.0352658033        1283721698.8845119     
  -1990642849.7596951       -4371358.0605190992        1289993054.8870208     
  -2633669648.8732347       -10336760.191379428        1222047083.1357558     
  -2553944784.6303878       -4305820.4810214043        1213490268.1737406     
  -2475100617.1675887       -1210536.7041488886        1209733676.5791855     
  -2397137146.4848347       -1050908.8607615232        1210777308.3520911     
  -2320054372.5821280       -3826936.9508656263        1216621163.4924552     
  -3013781696.3103819       -11680436.352158904        1151829946.4401948     
  -2920501463.5099316       -3519000.4821650982        1141482771.3314936     
  -2828408389.1644382        685240.53796875477        1136270926.4781897     
  -2737502473.2739077        932286.70823073387        1136194411.8802865     
  -2647783715.8383279       -2777861.9713488817        1141253227.5377786     
  -1326773265.4161108       -3946238.6702071428        1430748703.9958203     
  -1271926274.6003351       -227704.83357936144        1423815497.1154468     
  -1217783543.5205946        1143296.5495905280        1422216614.8321037     
  -1164345072.1768880        166765.47931772470        1425952057.1457908     
  -1111610860.5692174       -3157298.0444077253        1435021824.0565076     
  -1659549147.3710206       -4411125.3002966642        1361368901.7214756     
  -1591344665.2785611       -1494243.5783474445        1354244959.5295854     
  -1523593355.2131648       -87935.279942512512        1352246682.6722689     
  -1456295217.1748242       -192200.40506052971        1355374071.1495271     
  -1389450251.1635480       -1807038.9537181854        1363627124.9613583     
  -1990642849.7596951       -4371358.0605190992        1289993054.8870208     
  -1909677045.7118516       -2434979.2496331930        1282971313.0440810     
  -1828913325.9820986       -1172214.8323742151        1280866577.2732608     
  -1748351690.5704310       -583064.80873632431        1283678847.5745609     
  -1667992139.4768500       -667529.17872178555        1291408123.9479766     
  -2320054372.5821280       -3826936.9508656263        1216621163.4924552     
  -2226923415.9002090       -3049911.8474397659        1209994557.6589370     
  -2133743455.8273990       -2109542.1077160835        1208076298.6350834     
  -2040514492.3637042       -1005827.7317140102        1210866386.4208915     
  -1947236525.5091231        261231.28058755398        1218364821.0163627     
  -2647783715.8383279       -2777861.9713488817        1141253227.5377786     
  -2543083775.8436303       -3339041.3717639446        1135314693.3741522     
  -2438083744.7490702       -2899917.1059790850        1133875846.7577322     
  -2332783622.5546489       -1460489.1739846468        1136936687.6885188     
  -2227183409.2603693        979242.42420160770        1144497216.1665158     
  -1111610860.5692174       -3157298.0444077253        1435021824.0565076     
  -1068306561.1550633       -8848195.4923163652        1427914239.4600110     
  -1023993294.4880404       -11175868.763994873        1424963128.0145018     
  -978671060.56814432       -10140317.859426796        1426168489.7199779     
  -932339859.39537501       -5741542.7786192298        1431530324.5764406     
  -1389450251.1635480       -1807038.9537181854        1363627124.9613583     
  -1335228578.6286366       -6999767.2452297807        1357192038.6206174     
  -1280415867.0556407       -10222365.409792960        1354883496.3395326     
  -1225012116.4445615       -11474833.447409391        1356701498.1181047     
  -1169017326.7953920       -10757171.358063281        1362646043.9563358     
  -1667992139.4768500       -667529.17872178555        1291408123.9479766     
  -1602938605.5106940       -5387741.8206942677        1285157952.9457397     
  -1537711960.7212372       -9530918.3850002885        1283004396.9118314     
  -1472312205.1084831       -13097058.871646821        1284947455.8462524     
  -1406739338.6724262       -16086163.280619085        1290987129.7490039     
  -1947236525.5091231        261231.28058755398        1218364821.0163627     
  -1871436641.8012331       -4012119.2187052965        1211811982.4353786     
  -1795881575.4848230       -9101527.6896044016        1209325829.7313950     
  -1720571326.5599058       -15006994.132142901        1210906362.9044104     
  -1645505895.0264649       -21728518.546269596        1216553581.9544322     
  -2227183409.2603693        979242.42420160770        1144497216.1665158     
  -2140722687.5002482       -2872899.4392474890        1137154127.0895343     
  -2054924711.3463988       -8934193.3235962391        1133847794.7982261     
  -1969789480.7988274       -17204639.228872180        1134578219.2925906     
  -1885316995.8575187       -27684237.155031323        1139345400.5726290     
  -932339859.39537501       -5741542.7786192298        1431530324.5764406     
  -870495920.84756219       -4030846.5131344795        1431750135.7381117     
  -814501762.75779068       -21819418.441122860        1436743626.9173813     
  -764357385.12604427       -59107258.562524110        1446510798.1142635     
  -720062787.95234179       -115894366.87741333        1461051649.3287468     
  -1169017326.7953920       -10757171.358063281        1362646043.9563358     
  -1094612883.3918273       -9095619.0467913151        1357044917.5726237     
  -1023818603.7984539       -19467946.102829576        1356343378.8959322     
  -956634488.01528525       -41874152.526213288        1360541427.9262636     
  -893060536.04231620       -76314238.316923767        1369639064.6636174     
  -1406739338.6724262       -16086163.280619085        1290987129.7490039     
  -1319414654.1576180       -14365834.046884060        1282177951.9090476     
  -1233460516.8051698       -17213995.354356229        1278394269.4655368     
  -1148876926.6150882       -24630647.203049541        1279636082.4184654     
  -1065663883.5873733       -36615789.592959046        1285903390.7678301     
  -1645505895.0264649       -21728518.546269596        1216553581.9544322     
  -1544901233.1449373       -19841491.513439596        1207149238.7473795     
  -1443427501.7779348       -15057566.195705354        1202896298.6261849     
  -1341084700.9254668       -7376742.5930758715        1203794761.5908546     
  -1237872830.5875196        3200979.2944754958        1209844627.6413751     
  -1885316995.8575187       -27684237.155031323        1139345400.5726290     
  -1771072620.3537917       -25522591.446469069        1131958778.0876179     
  -1653719558.7167478       -12998658.626854062        1129849466.3778849     
  -1533257810.9464095        9887561.3037471771        1133017465.4434321     
  -1409687377.0427547        43136068.345390201        1141462775.2842565     
  -3768237747.8178596       -1130471324.3453579        800573648.67031467     
  -3779104681.1603646       -1008702218.9753326        884857134.18108118     
  -3790581697.0112944       -888966721.96672654        974070670.47786927     
  -3802668795.3706508       -771264833.31953907        1068214257.5606782     
  -3815365976.2384324       -655596553.03377092        1167287895.4295089     
  -4339767085.6331758       -1301930125.6899529        858749888.22597301     
  -4335231592.6347713       -1125733793.1748049        942351311.37170017     
  -4331834308.7989426       -953331491.20158029        1020310574.6524625     
  -4329575234.1256905       -784723219.77027881        1092627678.0682595     
  -4328454368.6150169       -619908978.88090026        1159302621.6190917     
  -4895228195.5383835       -1468568458.6615150        936390547.52585423     
  -4905496592.3447418       -1247006793.8449466        1018693760.5433654     
  -4917431324.9678307       -1030999581.7508063        1084782603.0449252     
  -4931032393.4076481       -820546822.37909412        1134657075.0305343     
  -4946299797.6641922       -615648515.72980881        1168317176.5001910     
  -5434621077.5334787       -1630386323.2600434        1033495626.5699581     
  -5489899680.2902794       -1372521220.9857581        1113884481.6960771     
  -5547372745.5179596       -1121970993.6144044        1167486755.6552582     
  -5607040273.2165194       -878735641.14598310        1194302448.4475009     
  -5668902263.3859587       -642815163.58049345        1194331560.0728071     
  -5957945731.6184645       -1787383719.4855392        1150065125.3582850     
  -6088440856.4713802       -1502277074.5972388        1227923474.8298347     
  -6221658570.4493275       -1226245726.7923741        1268423032.4834604     
  -6357598873.5523052       -959289676.07094705        1271563798.3191619     
  -6496261765.7803154       -701408922.43295622        1237345772.3369398     
  -3815365976.2384324       -655596553.03377092        1167287895.4295089     
  -3797900498.6629362       -537638611.95491576        1188967031.2541163     
  -3784281512.2536721       -432502308.09683657        1205741427.0647743     
  -3774509017.0106397       -340187641.45952821        1217611082.8614836     
  -3768583012.9338398       -260694612.04299557        1224575998.6442435     
  -4328454368.6150169       -619908978.88090026        1159302621.6190917     
  -4298136840.7918863       -464161239.14940989        1141368476.8381419     
  -4278434180.6314282       -343796391.62681961        1129504541.8033268     
  -4269346388.1336365       -258814436.31312513        1123710816.5146482     
  -4270873463.2985182       -209215373.20833397        1123987300.9721043     
  -4946299797.6641922       -615648515.72980881        1168317176.5001910     
  -4871773220.2789021       -412703877.55132389        1102873311.8678403     
  -4814629887.0527201       -267703386.56986451        1054474606.7417090     
  -4774869797.9856434       -180647042.78542614        1023121061.1217980     
  -4752492953.0776749       -151534846.19801569        1008812675.0081068     
  -5668902263.3859587       -642815163.58049345        1194331560.0728071     
  -5518809637.1239805       -383266527.16065693        1073481536.3432113     
  -5392868631.5175495       -204223292.92596960        980651621.87991917     
  -5291079246.5666609       -105685460.87643123        915841816.68293297     
  -5213441482.2713175       -87653031.012042999        879052120.75224972     
  -6496261765.7803154       -701408922.43295622        1237345772.3369398     
  -6239246091.3271227       -375849187.97740865        1053193150.2642549     
  -6013150414.0259132       -153356110.69513655        908035587.21795905     
  -5817974733.8766861       -33929690.586136103        801873083.19805264     
  -5653719050.8794413       -17569927.650414944        734705638.20453405     
  -3768583012.9338398       -260694612.04299557        1224575998.6442435     
  -3661686287.5365467       -168390157.98506367        1192065497.7313893     
  -3562468208.3937364       -101681191.44207215        1169986082.4779744     
  -3470928775.5054078       -60567712.414021492        1158337752.8839996     
  -3387067988.8715601       -45049720.900906920        1157120508.9494638     
  -4270873463.2985182       -209215373.20833397        1123987300.9721043     
  -4148115299.0068121       -145116929.22427344        1090584519.8719013     
  -4029766129.2223549       -95715133.597710133        1065460839.2019309     
  -3915825953.9451485       -61009986.328641415        1048616258.9621930     
  -3806294773.1751876       -41001487.417064667        1040050779.1526880     
  -4752492953.0776749       -151534846.19801569        1008812675.0081068     
  -4620021879.1178656       -117486971.05572033        978332207.42566121     
  -4488690147.9180679       -87236905.113474607        953978855.04424083     
  -4358497759.4782887       -60784648.371280670        935752617.86384451     
  -4229444713.7985229       -38130200.829134703        923653495.88447511     
  -5213441482.2713175       -87653031.012042999        879052120.75224972     
  -5077406027.8697071       -85500283.479404688        855308560.39266682     
  -4939240264.4808788       -76246505.989368439        835540130.00490212     
  -4798944192.1048288       -59891698.541939259        819746829.58895493     
  -4656517810.7415657       -36435861.137117147        807928659.14482629     
  -5653719050.8794413       -17569927.650414944        734705638.20453405     
  -5520267745.2623386       -49156866.495323420        721513578.77291918     
  -5381416478.9107828       -62743936.225391865        710144664.08391678     
  -5237165251.8247747       -58331136.840622425        700598894.13752353     
  -5087514064.0043173       -35918468.341011047        692876268.93374097     
  -3387067988.8715601       -45049720.900906920        1157120508.9494638     
  -3294149942.2264028       -38052488.080844164        1150321410.2183359     
  -3200962877.9178181       -30158529.716023564        1147173283.5564151     
  -3107506795.9458122       -21367845.806463122        1147676128.9637012     
  -3013781696.3103819       -11680436.352158904        1151829946.4401948     
  -3806294773.1751876       -41001487.417064667        1040050779.1526880     
  -3701681534.9250946       -30004177.229211092        1032094660.3913603     
  -3597627965.4431982       -20872429.602014780        1028560776.0182098     
  -3494134064.7295032       -13606244.535486698        1029449126.0332326     
  -3391199832.7840052       -8205622.0296146870        1034759710.4364340     
  -4229444713.7985229       -38130200.829134703        923653495.88447511     
  -4110932677.3178720       -22471731.285806894        913573556.25605679     
  -3993808996.0370426       -11441112.408548355        908687113.33478260     
  -3878073669.9560318       -5038344.1973550320        908994167.12065065     
  -3763726699.0748444       -3263426.6522333622        914494717.61366618     
  -4656517810.7415657       -36435861.137117147        807928659.14482629     
  -4521903369.4047337       -15455150.250629425        794758097.81242466     
  -4389505969.6993437       -1864578.1356165409        787552295.50613534     
  -4259325611.6253972        4335855.2079207897        786311252.22595751     
  -4131362295.1828938        3146149.7799847126        791034967.97189331     
  -5087514064.0043173       -35918468.341011047        692876268.93374097     
  -4934593611.1856785       -8954434.1236755848        675648285.06046200     
  -4784718886.4301062        7857173.2167775631        665156322.53226578     
  -4637889889.7375994        14516353.680349588        661400381.34914911     
  -4494106621.1081562        11023107.267035484        664380461.51111341     
  -3013781696.3103819       -11680436.352158904        1151829946.4401948     
  -2920501463.5099316       -3519000.4821650982        1141482771.3314936     
  -2828408389.1644382        685240.53796875477        1136270926.4781897     
  -2737502473.2739077        932286.70823073387        1136194411.8802865     
  -2647783715.8383279       -2777861.9713488817        1141253227.5377786     
  -3391199832.7840052       -8205622.0296146870        1034759710.4364340     
  -3286368247.6071892       -4038126.7726264000        1024833576.0403116     
  -3182165345.2346644       -1966240.8632829189        1019579445.6659205     
  -3078591125.6664376       -1989964.3015965223        1018997319.3132603     
  -2975645588.9025035       -4109297.0875583887        1023087196.9823322     
  -3763726699.0748444       -3263426.6522333622        914494717.61366618     
  -3648667550.7607064       -3487008.7799642086        905641178.85589588     
  -3533678609.6002002       -3944614.7531275749        900996317.88618946     
  -3418759875.5933261       -4636244.5717363358        900560134.70454931     
  -3303911348.7400851       -5561898.2357847691        904332629.31097245     
  -4131362295.1828938        3146149.7799847126        791034967.97189331     
  -4007399372.9704833       -1865646.5041754246        783905579.77824676     
  -3882948182.2610402       -5249881.1315603256        780521543.13899767     
  -3758008723.0545683       -7006554.1021845341        780882858.05415130     
  -3632580995.3510661       -7135665.4160315990        784989524.52369630     
  -4494106621.1081562        11023107.267035484        664380461.51111341     
  -4362563714.2365217        825960.05473136902        659626778.80736470     
  -4229974063.2171898       -5882039.9985861778        658155121.42434883     
  -4096337668.0501680       -9100892.8929328918        659965489.36206365     
  -3961654528.7354512       -8830598.6283032894        665057882.62050927     
  -2647783715.8383279       -2777861.9713488817        1141253227.5377786     
  -2543083775.8436303       -3339041.3717639446        1135314693.3741522     
  -2438083744.7490702       -2899917.1059790850        1133875846.7577322     
  -2332783622.5546489       -1460489.1739846468        1136936687.6885188     
  -2227183409.2603693        979242.42420160770        1144497216.1665158     
  -2975645588.9025035       -4109297.0875583887        1023087196.9823322     
  -2858584818.3071241       -2824433.7096903324        1017271185.7480716     
  -2741442864.2386198       -1268958.7547495365        1016037808.3259875     
  -2624219726.6969938        557127.77726757526        1019387064.7160809     
  -2506915405.6822457        2653825.8863539696        1027318954.9183507     
  -3303911348.7400851       -5561898.2357847691        904332629.31097245     
  -3174252758.2155385       -2359895.2811003923        898383748.77488565     
  -3044731891.8446083        383027.16153502464        897100448.31594491     
  -2915348749.6272888        2666869.0921281576        900482727.93415034     
  -2786103331.5635877        4491630.5106648207        908530587.62950087     
  -3632580995.3510661       -7135665.4160315990        784989524.52369630     
  -3490087595.5688734       -1945426.0859844685        778652382.45459127     
  -3347950827.5670314        2056040.6428925991        777063766.72760010     
  -3206170691.3455372        4868734.7706075907        780223677.34272242     
  -3064747186.9043999        6492656.2971389294        788132114.29996097     
  -3961654528.7354512       -8830598.6283032894        665057882.62050927     
  -3806089330.3671255       -1581026.1243369579        658077086.78718948     
  -3651099671.4058886        3750081.6893248558        655927763.56095326     
  -3496685551.8517389        7162724.8126974106        658609912.94180357     
  -3342846971.7046804        8656903.2457656860        666123534.92973435     
  -2227183409.2603693        979242.42420160770        1144497216.1665158     
  -2140722687.5002482       -2872899.4392474890        1137154127.0895343     
  -2054924711.3463988       -8934193.3235962391        1133847794.7982261     
  -1969789480.7988274       -17204639.228872180        1134578219.2925906     
  -1885316995.8575187       -27684237.155031323        1139345400.5726290     
  -2506915405.6822457        2653825.8863539696        1027318954.9183507     
  -2410472190.1837373       -1978919.5212236643        1019443868.5536350     
  -2314420781.3639259       -7917687.1911216974        1015391006.0198786     
  -2218761179.2228189       -15162477.123365521        1015160367.3170862     
  -2123493383.7604148       -23713289.317955971        1018751952.4452592     
  -2786103331.5635877        4491630.5106648207        908530587.62950087     
  -2680290573.6258650       -1105603.8307856321        900439599.39254749     
  -2574598683.4392710       -7105730.6759954691        895956302.03184330     
  -2469027661.0038090       -13508750.024974942        895080695.54739392     
  -2363577506.3194718       -20314661.877715707        897812779.93919289     
  -3064747186.9043999        6492656.2971389294        788132114.29996097     
  -2950177837.8266344       -252952.36793637276        780141319.60627067     
  -2835458417.5724292       -6498323.7782050371        775543682.83411992     
  -2720588926.1417832       -12243457.933674574        774339203.98351228     
  -2605569363.5346928       -17488354.834327817        776527883.05443859     
  -3342846971.7046804        8656903.2457656860        666123534.92973435     
  -3220133982.7860508        579034.86730551720        658549029.19480741     
  -3096999983.7634072       -6095466.4977738857        654153148.42670834     
  -2973444974.6367493       -11366600.849465370        652935892.62543654     
  -2849468955.4060793       -15234368.187796354        654897261.79099786     
  -1885316995.8575187       -27684237.155031323        1139345400.5726290     
  -1771072620.3537917       -25522591.446469069        1131958778.0876179     
  -1653719558.7167478       -12998658.626854062        1129849466.3778849     
  -1533257810.9464095        9887561.3037471771        1133017465.4434321     
  -1409687377.0427547        43136068.345390201        1141462775.2842565     
  -2123493383.7604148       -23713289.317955971        1018751952.4452592     
  -1995898919.7905211       -20900802.799981236        1013162317.8816658     
  -1866814650.3549097       -13122298.062938929        1012414477.3299849     
  -1736240575.4535935       -377775.10687768459        1016508430.7902117     
  -1604176695.0865586        17332766.068234801        1025444178.2623401     
  -2363577506.3194718       -20314661.877715707        897812779.93919289     
  -2223877287.4930491       -17224634.633226514        892131439.18483067     
  -2084306143.8684993       -14564858.061652899        890856375.67900646     
  -1944864075.4458332       -12335332.163021207        893987589.42171836     
  -1805551082.2250428       -10536056.937311411        901525080.41296601     
  -2605569363.5346928       -17488354.834327817        776527883.05443859     
  -2455007723.4613676       -14494086.946215391        768866141.99711728     
  -2306194039.2575164       -17326338.622997761        765175161.42495811     
  -2159128310.9231300       -25985109.864674330        765454941.33796668     
  -2013810538.4582295       -40470400.671278238        769705481.73613977     
  -2849468955.4060793       -15234368.187796354        654897261.79099786     
  -2689290227.6954870       -12709159.738944650        643366426.31851888     
  -2532478336.5219536       -21406739.746957541        635370834.56783581     
  -2379033281.8854933       -41327108.211862445        630910486.53894043     
  -2228955063.7860808       -72470265.133637667        629985382.23185253     
  -5957945731.6184645       -1787383719.4855392        1150065125.3582850     
  -6088440856.4713802       -1502277074.5972388        1227923474.8298347     
  -6221658570.4493275       -1226245726.7923741        1268423032.4834604     
  -6357598873.5523052       -959289676.07094705        1271563798.3191619     
  -6496261765.7803154       -701408922.43295622        1237345772.3369398     
  -6810580565.9216909       -2043174169.7765071        1353789153.0416365     
  -6828539871.4608345       -1395485222.2243340        1202760713.8402929     
  -6897864294.9487925       -919013334.50154972        1091984242.2373445     
  -7018553836.3855686       -613758506.60815573        1021459738.2327905     
  -7190608495.7711620       -479720738.54414964        991187201.82663178     
  -8337903988.5715122       -2501371196.5714536        1712357818.7708149     
  -8021582447.8931122       -1424576438.2842765        1275692973.9354944     
  -7805268553.9873161       -681140502.57244253        956890856.11488807     
  -7688962306.8541260       -271063389.43595266        755951465.30899501     
  -7672663706.4935331       -194345098.87480307        672874801.51781547     
  -10539915999.567926       -3161974799.8703780        2225771122.5458193     
  -9667568585.7682171       -1589550722.7770667        1446720255.1154394     
  -8943871347.5648994       -512627231.00505352        863142874.11609113     
  -8368824284.9579697        68795675.445665836        475038979.54777563     
  -7942427397.9474287        154717996.57508707        282408571.41049105     
  -13416616598.910936       -4024984979.6732807        2894029064.3666511     
  -11766498285.086151       -1890408075.7027066        1715842557.3801272     
  -10313672675.681540       -413473519.79938126        810740296.24095428     
  -9058139770.6971054        405818688.03669405        178722280.94913143     
  -7999899570.1328421        567468547.80552292       -180211488.49533978     
  -6496261765.7803154       -701408922.43295622        1237345772.3369398     
  -6239246091.3271227       -375849187.97740865        1053193150.2642549     
  -6013150414.0259132       -153356110.69513655        908035587.21795905     
  -5817974733.8766861       -33929690.586136103        801873083.19805264     
  -5653719050.8794413       -17569927.650414944        734705638.20453405     
  -7190608495.7711620       -479720738.54414964        991187201.82663178     
  -6900550797.8898945       -304390562.86798120        846871561.97249711     
  -6623309058.6979818       -171780249.48966193        723646163.90881133     
  -6358883278.1954250       -81889798.409189939        621511007.63557494     
  -6107273456.3822212       -34719209.626568794        540466093.15278590     
  -7672663706.4935331       -194345098.87480307        672874801.51781547     
  -7400720605.8583059       -184591468.18024826        589517522.08862972     
  -7123489425.4498034       -157210904.90811300        509345667.21395367     
  -6840970165.2680283       -112203409.05840302        432359236.89378607     
  -6553162825.3129807       -49568980.631115675        358558231.12812841     
  -7942427397.9474287        154717996.57508707        282408571.41049105     
  -7739755515.2323532       -16451903.914200783        281131030.61265558     
  -7513691514.2813759       -109648076.95048952        265134097.13338816     
  -7264235395.0944967       -124870522.53377008        234417770.97268781     
  -6991387157.6717186       -62119240.664054871        188982052.13055694     
  -7999899570.1328421        567468547.80552292       -180211488.49533978     
  -7917655526.0120363        200028129.93014956       -78287912.455428809     
  -7793915325.1927013       -29091765.616795063       -8988546.3328896910     
  -7628678967.6748390       -119891138.83530855        27686609.872277487     
  -7421946453.4584436       -72369989.725394249        31737556.160074037     
  -5653719050.8794413       -17569927.650414944        734705638.20453405     
  -5520267745.2623386       -49156866.495323420        721513578.77291918     
  -5381416478.9107828       -62743936.225391865        710144664.08391678     
  -5237165251.8247747       -58331136.840622425        700598894.13752353     
  -5087514064.0043173       -35918468.341011047        692876268.93374097     
  -6107273456.3822212       -34719209.626568794        540466093.15278590     
  -5959310594.9191818       -36553643.322699785        534019170.13275653     
  -5810341182.0461578       -35032905.652198792        530045874.90957654     
  -5660365217.7631407       -30156996.615068197        528546207.48324931     
  -5509382702.0701332       -21925916.211299181        529520167.85377210     
  -6553162825.3129807       -49568980.631115675        358558231.12812841     
  -6388829884.9918957       -21093352.274837494        353730800.30780834     
  -6227883802.5852814       -3907250.3001306057        352027480.33858013     
  -6070324578.0931416        1989325.2929956913        353448271.22044688     
  -5916152211.5154753       -3403625.4954478741        357993172.95340258     
  -6991387157.6717186       -62119240.664054871        188982052.13055694     
  -6808825615.4804735       -2775993.3517336845        180648469.29807854     
  -6634044340.5281563        30633029.830814838        176089480.37093177     
  -6467043332.8147783        38107828.883571386        175305085.34911296     
  -6307822592.3403339        19648403.806550026        178295284.23262787     
  -7421946453.4584436       -72369989.725394249        31737556.160074037     
  -7219297786.3849134        18398433.446612358        14772177.103561165     
  -7028822795.8747845        68587934.740628719        2231875.0066220476     
  -6850521481.9280519        78198514.156650543       -5883350.1307454007     
  -6684393844.5447130        47230171.694691658       -9573498.3085426204     
  -5087514064.0043173       -35918468.341011047        692876268.93374097     
  -4934593611.1856785       -8954434.1236755848        675648285.06046200     
  -4784718886.4301062        7857173.2167775631        665156322.53226578     
  -4637889889.7375994        14516353.680349588        661400381.34914911     
  -4494106621.1081562        11023107.267035484        664380461.51111341     
  -5509382702.0701332       -21925916.211299181        529520167.85377210     
  -5345120226.3006029       -9729523.1261672974        514536120.24803042     
  -5181876615.3530970       -929346.11444878578        504948601.52071345     
  -5019651869.2276163        4474614.8238475323        500757611.67181671     
  -4858445987.9241638        6482359.6887211800        501963150.70134491     
  -5916152211.5154753       -3403625.4954478741        357993172.95340258     
  -5744374834.1283550       -7123009.9425082207        347617735.39640874     
  -5571589458.3222218       -7482399.6595175266        341299334.25118071     
  -5397796084.0970764       -4481794.6464872360        339037969.51772219     
  -5222994711.4529161        1878805.0965876579        340833641.19602591     
  -6307822592.3403339        19648403.806550026        178295284.23262787     
  -6132357434.6689310       -1134894.5726890564        174893130.50559893     
  -5953857415.3374805       -11801987.418426752        174208520.72367519     
  -5772322534.3459768       -12352874.730655670        176241454.88685831     
  -5587752791.6944189       -2787556.5093715191        180991932.99515012     
  -6684393844.5447130        47230171.694691658       -9573498.3085426204     
  -6509068027.9223366        8234822.9832673073       -3637694.4244027343     
  -6328680486.3988724       -13888109.391169548        3676160.9381862818     
  -6143231219.9743185       -19138625.428655863        12368067.779230112     
  -5952720228.6486702       -7516725.1291620731        22438026.098723873     
  -4494106621.1081562        11023107.267035484        664380461.51111341     
  -4362563714.2365217        825960.05473136902        659626778.80736470     
  -4229974063.2171898       -5882039.9985861778        658155121.42434883     
  -4096337668.0501680       -9100892.8929328918        659965489.36206365     
  -3961654528.7354512       -8830598.6283032894        665057882.62050927     
  -4858445987.9241638        6482359.6887211800        501963150.70134491     
  -4716668252.1097507        1484080.2273428440        497942794.06151986     
  -4574648078.2949848       -2706072.5661888123        497313618.72980338     
  -4432385466.4798679       -6088098.6918928623        500075624.70620495     
  -4289880416.6644053       -8661998.1497621536        506228811.99072081     
  -5222994711.4529161        1878805.0965876579        340833641.19602591     
  -5070670272.4460659        2172955.6610341072        336608253.44821894     
  -4918907701.5862007        594212.40218114853        335883202.99591088     
  -4767706998.8733282       -2857424.6799757481        338658489.83909541     
  -4617068164.3074493       -8181955.5854420662        344934113.97777653     
  -5587752791.6944189       -2787556.5093715191        180991932.99515012     
  -5424569775.2454653        2892586.3557958603        175623156.96747372     
  -5262752933.0908422        4018814.9065256119        173863874.22265995     
  -5102302265.2305555        591129.14280319214        175714084.76073524     
  -4943217771.6645937       -7390470.9353480339        181173788.58168799     
  -5952720228.6486702       -7516725.1291620731        22438026.098723873     
  -5778366760.5079508        3642972.3116312027        14987504.619265670     
  -5606183772.8089056        7567734.9468398094        11255632.410064353     
  -5436171265.5515327        4257562.7764708996        11242409.471128168     
  -5268329238.7358446       -6287544.1995062828        14947835.802445827     
  -3961654528.7354512       -8830598.6283032894        665057882.62050927     
  -3806089330.3671255       -1581026.1243369579        658077086.78718948     
  -3651099671.4058886        3750081.6893248558        655927763.56095326     
  -3496685551.8517389        7162724.8126974106        658609912.94180357     
  -3342846971.7046804        8656903.2457656860        666123534.92973435     
  -4289880416.6644053       -8661998.1497621536        506228811.99072081     
  -4122480344.8361163       -3547921.2889525890        499185428.34260064     
  -3955178005.7017093        1240379.9255897999        496907127.58963805     
  -3787973399.2611775        5702905.4938814640        499393909.73182774     
  -3620866525.5145216        9839655.4159152508        506645774.76916826     
  -4617068164.3074493       -8181955.5854420662        344934113.97777653     
  -4438022903.9104414       -5260279.8351716995        338385583.68028194     
  -4258597569.4940968       -1071690.6871216297        336535746.56600481     
  -4078792161.0584135        4383811.8587129116        339384602.63495141     
  -3898606678.6033936        11106227.802351952        346932151.88711345     
  -4943217771.6645937       -7390470.9353480339        181173788.58168799     
  -4752717007.5900974       -6718101.7629888058        175677552.80022204     
  -4561358362.7830439       -3186130.1487960815        174813620.49004987     
  -4369141837.2434483        3205443.9072167873        178581991.65115967     
  -4176067430.9712958        12456620.405074835        186982666.28356865     
  -5268329238.7358446       -6287544.1995062828        14947835.802445827     
  -5066562655.8750849       -7921387.0724153519        11061335.702430200     
  -4863460385.5685568       -5102938.4594390392        11740749.361773849     
  -4659022427.8162823        2167801.6393702030        16986076.780472849     
  -4453248782.6182280        13890833.224094629        26797317.958529361     
  -3342846971.7046804        8656903.2457656860        666123534.92973435     
  -3220133982.7860508        579034.86730551720        658549029.19480741     
  -3096999983.7634072       -6095466.4977738857        654153148.42670834     
  -2973444974.6367493       -11366600.849465370        652935892.62543654     
  -2849468955.4060793       -15234368.187796354        654897261.79099786     
  -3620866525.5145216        9839655.4159152508        506645774.76916826     
  -3489168077.1160407        3124869.1872992516        499503621.31929696     
  -3357522890.6695437       -3767456.8812630177        495780177.39097875     
  -3225930966.1750183       -10837322.789728284        495475442.98421568     
  -3094392303.6324673       -18084728.538110971        498589418.09900641     
  -3898606678.6033936        11106227.802351952        346932151.88711345     
  -3757236814.8544302        5960310.4847402573        339669033.32364738     
  -3616394485.1134295       -944053.52608013153        336064708.83645236     
  -3476079689.3803968       -9606864.2301275730        336119178.42553931     
  -3336292427.6553264       -20028121.627380133        339832442.09090400     
  -4176067430.9712958        12456620.405074835        186982666.28356865     
  -4024340196.0012026        9085358.7596795559        179045265.20784387     
  -3873614767.0950661        2374743.5677659512        175006742.76312774     
  -3723891144.2528868       -7675225.1706717014        174867098.94941086     
  -3575169327.4746552       -21064547.455603838        178626333.76669499     
  -4453248782.6182280        13890833.224094629        26797317.958529361     
  -4290478220.5563617        12500014.012119532        17632316.971901622     
  -4129183736.6144428        6188934.4003145695        12606279.170997692     
  -3969365330.7924662       -5042405.6113035679        11719204.555824781     
  -3811023003.0904336       -21194006.022722244        14971093.126383049     
  -2849468955.4060793       -15234368.187796354        654897261.79099786     
  -2689290227.6954870       -12709159.738944650        643366426.31851888     
  -2532478336.5219536       -21406739.746957541        635370834.56783581     
  -2379033281.8854933       -41327108.211862445        630910486.53894043     
  -2228955063.7860808       -72470265.133637667        629985382.23185253     
  -3094392303.6324673       -18084728.538110971        498589418.09900641     
  -2924065374.0924106       -14892845.411712527        486014321.25329214     
  -2754474539.4516478       -14154611.949632287        477556441.78286725     
  -2585619799.7101917       -15870028.151925564        473215779.68771869     
  -2417501154.8680549       -20039094.018587947        472992334.96786654     
  -3336292427.6553264       -20028121.627380133        339832442.09090400     
  -3154154514.4186754       -15670729.263259411        329282282.44934356     
  -2970121954.4435773       -4997847.7709969282        323431313.83654970     
  -2784194747.7300224        11990522.849465251        322279536.25253463     
  -2596372894.2780285        35294382.598062158        325826949.69729471     
  -3575169327.4746552       -21064547.455603838        178626333.76669499     
  -3379557648.6742997       -15042811.293652534        173170309.90666538     
  -3179420581.4977493        6063552.7889786959        172995450.72889784     
  -2974758125.9449878        42254544.792302251        178101756.23339134     
  -2765570282.0160151        93530164.716311574        188489226.42015156     
  -3811023003.0904336       -21194006.022722244        14971093.126383049     
  -3600274776.8592720       -13009091.502823353        17678403.625264440     
  -3382370420.6141539        19029589.730284214        26248852.459899548     
  -3157309934.3550572        74922037.676629543        40682439.630287893     
  -2925093318.0820174        154668252.33614969        60979165.136432201     
 </DataArray>
 <DataArray  type="Float64" Name="VM" NumberOfComponents="1" format="ascii">
   12935298927.938282     
   11340595272.159340     
   10210241825.315905     
   9272937654.1794052     
   8304272934.4258699     
   10130127024.621130     
   9321931800.7249279     
   8826357418.0321732     
   8443599153.0739489     
   8035862373.9935293     
   7982272477.9326525     
   7734923929.4768057     
   7669129798.5876703     
   7669598664.1675348     
   7666404026.4074669     
   6491648945.6743336     
   6586857327.3510742     
   6757391784.7009935     
   6961175118.2037907     
   7171548877.7717724     
   5657809873.6646585     
   5890890242.5773182     
   6116333368.2571526     
   6331678658.4299259     
   6536701398.2906609     
   8304272934.4258699     
   8020737837.6886826     
   7779256101.1591187     
   7569167406.7393408     
   7385504146.2879019     
   8035862373.9935293     
   7746890891.1179390     
   7473572002.6093340     
   7213951303.8696117     
   6968031681.0216150     
   7666404026.4074669     
   7381138367.5725813     
   7101262653.8491621     
   6826852243.7666521     
   6558106884.6526947     
   7171548877.7717724     
   6910919887.3784943     
   6658189758.0924644     
   6409499267.4087420     
   6161702899.1492205     
   6536701398.2906609     
   6328588765.4211893     
   6142655749.6729269     
   5965000857.3229599     
   5786616574.1529160     
   7385504146.2879019     
   7228570900.5613708     
   7064237913.5991488     
   6891825087.2851791     
   6711141747.4687872     
   6968031681.0216150     
   6814634543.0461349     
   6656681508.2417393     
   6493893199.9026537     
   6326213617.9130821     
   6558106884.6526947     
   6407617841.8998928     
   6255510858.3741989     
   6101753032.6363239     
   5946369897.8190165     
   6161702899.1492205     
   6012519716.0161705     
   5864647530.9870491     
   5718123282.5514917     
   5573000927.6489162     
   5786616574.1529160     
   5635803985.5078726     
   5489146076.6866789     
   5346556589.4241037     
   5208078160.2702484     
   6711141747.4687872     
   6514691406.1519661     
   6321333499.4128227     
   6130984130.7992411     
   5943639143.9148951     
   6326213617.9130821     
   6140583799.3338385     
   5957065093.8354626     
   5775647337.3675699     
   5596368129.5242796     
   5946369897.8190165     
   5773023362.8721132     
   5601076466.3974323     
   5430559576.9956846     
   5261541145.4470320     
   5573000927.6489162     
   5413817627.0710640     
   5255623223.6847048     
   5098459428.9303417     
   4942424978.6110687     
   5208078160.2702484     
   5065377041.3312225     
   4923601609.0658445     
   4782779839.0816145     
   4643051720.7203083     
   5943639143.9148951     
   5774631517.1882658     
   5604601476.1268721     
   5433549188.4006510     
   5261505993.9997549     
   5596368129.5242796     
   5435492890.0835476     
   5274276046.6272726     
   5112748635.8940248     
   4950972024.7335358     
   5261541145.4470320     
   5109269518.5835228     
   4957410375.0162811     
   4806027711.8426113     
   4655217596.9444036     
   4942424978.6110687     
   4799110953.3378506     
   4657034553.9213181     
   4516292344.9921589     
   4377017114.5837803     
   4643051720.7203083     
   4508888731.3994017     
   4376853511.7874260     
   4247071435.7035522     
   4119710393.8395667     
   5261505993.9997549     
   5058361986.2589293     
   4855835797.9408674     
   4653944107.4785309     
   4452748551.9561453     
   4950972024.7335358     
   4759756522.3439913     
   4569404639.8862429     
   4379982281.2235813     
   4191612412.5826755     
   4655217596.9444036     
   4476776406.5197420     
   4299572592.8432941     
   4123735628.3619161     
   3949468023.9055929     
   4377017114.5837803     
   4212352170.4964323     
   4049448071.1894474     
   3888512403.3099051     
   3729844854.1601510     
   4119710393.8395667     
   3969973411.1048040     
   3822686437.0493975     
   3678146424.2125015     
   3536762442.3757391     
   4452748551.9561453     
   4287529109.8785734     
   4121692614.0462837     
   3955282080.7620764     
   3788429129.9234219     
   4191612412.5826755     
   4039223605.1391244     
   3887185352.5410523     
   3735581578.4088316     
   3584565211.6378160     
   3949468023.9055929     
   3808238772.5246296     
   3668207305.2554026     
   3529478148.4060011     
   3392208314.0856080     
   3729844854.1601510     
   3597906287.6289291     
   3467841599.0720153     
   3339760616.1005292     
   3213815693.1568947     
   3536762442.3757391     
   3412055991.4312053     
   3289679308.6413980     
   3169739873.0336995     
   3052388402.6407652     
   3788429129.9234219     
   3574266003.2674694     
   3355622471.7858801     
   3133540163.9972739     
   2910068571.1607513     
   3584565211.6378160     
   3386281772.8516922     
   3185560180.1065021     
   2982983898.2738986     
   2779678094.1946092     
   3392208314.0856080     
   3210692260.5821662     
   3029191068.3943172     
   2848091717.6113439     
   2668047493.5646644     
   3213815693.1568947     
   3048653505.3969002     
   2886205241.6235223     
   2726910986.1641641     
   2571389131.4185095     
   3052388402.6407652     
   2901668557.3430548     
   2756506012.4005475     
   2617663859.5636806     
   2486180021.5272698     
   5657809873.6646585     
   5890890242.5773182     
   6116333368.2571526     
   6331678658.4299259     
   6536701398.2906609     
   5151423032.8531294     
   5311299880.6383467     
   5467810243.2734041     
   5618057140.0369835     
   5760573227.7318821     
   4643431867.9754992     
   4755511671.6803198     
   4868717388.9904146     
   4980413018.5494280     
   5088672029.8390055     
   4134100079.3691869     
   4224363376.2600021     
   4320550254.3785944     
   4421003520.2315035     
   4524268117.8795471     
   3624947798.0114017     
   3719679474.8751082     
   3825667053.1830120     
   3942847307.7227721     
   4071127936.1190290     
   6536701398.2906609     
   6328588765.4211893     
   6142655749.6729269     
   5965000857.3229599     
   5786616574.1529160     
   5760573227.7318821     
   5651993640.7757292     
   5559406656.7077847     
   5473754828.7571211     
   5389497674.4026651     
   5088672029.8390055     
   5053927238.2278538     
   5029688298.6575584     
   5010750608.5212240     
   4993913238.3289013     
   4524268117.8795471     
   4538984989.9203835     
   4558370830.8422413     
   4579945491.8576174     
   4601985546.1331329     
   4071127936.1190290     
   4112493204.6496391     
   4151217955.4569173     
   4186401481.7271533     
   4217309481.8588066     
   5786616574.1529160     
   5635803985.5078726     
   5489146076.6866789     
   5346556589.4241037     
   5208078160.2702484     
   5389497674.4026651     
   5248215076.6226273     
   5110139673.0091515     
   4975312705.8327999     
   4843826725.3720207     
   4993913238.3289013     
   4866622495.6894808     
   4742536206.5341206     
   4621623642.1266890     
   4503928239.8556681     
   4601985546.1331329     
   4493689169.8760624     
   4389658058.7763119     
   4289579863.1318669     
   4193371477.6362538     
   4217309481.8588066     
   4133366683.1654329     
   4055993853.9778304     
   3984349311.9513664     
   3918147040.4839067     
   5208078160.2702484     
   5065377041.3312225     
   4923601609.0658445     
   4782779839.0816145     
   4643051720.7203083     
   4843826725.3720207     
   4717061029.6902962     
   4592067414.2383156     
   4468964233.7995367     
   4347968989.9747753     
   4503928239.8556681     
   4392493652.7913599     
   4283673345.1539068     
   4177654564.3310318     
   4074707958.6956835     
   4193371477.6362538     
   4096588532.7553420     
   4003213318.1167269     
   3913475491.7476768     
   3827670275.4154811     
   3918147040.4839067     
   3835204878.1729612     
   3756357885.8983455     
   3681847846.5713992     
   3611964072.0272307     
   4643051720.7203083     
   4508888731.3994017     
   4376853511.7874260     
   4247071435.7035522     
   4119710393.8395667     
   4347968989.9747753     
   4224799521.7043185     
   4104166469.1357231     
   3986245282.9577584     
   3871262472.6574244     
   4074707958.6956835     
   3963778685.6908202     
   3855958086.6318827     
   3751477663.9052410     
   3650629830.9901748     
   3827670275.4154811     
   3730292997.3298202     
   3636766918.5689807     
   3547379383.5556045     
   3462487929.2460074     
   3611964072.0272307     
   3529419698.6927819     
   3451627806.1985822     
   3378920662.4751940     
   3311707164.3362708     
   4119710393.8395667     
   3969973411.1048040     
   3822686437.0493975     
   3678146424.2125015     
   3536762442.3757391     
   3871262472.6574244     
   3736716622.5290270     
   3605505186.3921185     
   3478007135.9108047     
   3354713983.2769508     
   3650629830.9901748     
   3531554145.8921137     
   3416720834.5647259     
   3306569455.0697584     
   3201644032.2199922     
   3462487929.2460074     
   3359054945.6495347     
   3260742235.8745961     
   3168017107.1940236     
   3081434360.5744123     
   3311707164.3362708     
   3223862029.2471261     
   3141914864.6813860     
   3066319604.2703118     
   2997594123.9922705     
   3536762442.3757391     
   3412055991.4312053     
   3289679308.6413980     
   3169739873.0336995     
   3052388402.6407652     
   3354713983.2769508     
   3237746167.0823512     
   3123625391.6844540     
   3012544441.6963530     
   2904745716.9363723     
   3201644032.2199922     
   3095404202.3401337     
   2992898606.8446717     
   2894439242.7607803     
   2800405565.0952706     
   3081434360.5744123     
   2988949442.5172610     
   2901436470.0571084     
   2819341702.7440305     
   2743200295.6845393     
   2997594123.9922705     
   2921645215.8578491     
   2852179347.6204686     
   2789760334.0048227     
   2735057492.4401898     
   3052388402.6407652     
   2901668557.3430548     
   2756506012.4005475     
   2617663859.5636806     
   2486180021.5272698     
   2904745716.9363723     
   2767143278.6542292     
   2634811451.7305303     
   2508402118.3024988     
   2388750392.3467989     
   2800405565.0952706     
   2679442821.3982224     
   2564079848.9544110     
   2455103785.8588157     
   2353480734.1123266     
   2743200295.6845393     
   2643159604.8893127     
   2549640673.8534274     
   2463762715.9919868     
   2386875548.6190166     
   2735057492.4401898     
   2660450370.5269356     
   2593692109.1184220     
   2536324195.5307488     
   2490179065.7760754     
   3624947798.0114017     
   3719679474.8751082     
   3825667053.1830120     
   3942847307.7227721     
   4071127936.1190290     
   3137939265.5274043     
   3255515953.2094831     
   3382510616.5646348     
   3518454751.0815887     
   3662891092.3122973     
   2694728621.4239993     
   2830533206.0369544     
   2973646533.0232978     
   3122986858.2273726     
   3277643754.5280776     
   2298805602.5449400     
   2449523973.9268746     
   2604956611.0549898     
   2763181281.4344053     
   2922768803.3400769     
   1955380132.4333196     
   2119443306.4604564     
   2284850544.7299538     
   2448641557.7502003     
   2608858782.6672330     
   4071127936.1190290     
   4112493204.6496391     
   4151217955.4569173     
   4186401481.7271533     
   4217309481.8588066     
   3662891092.3122973     
   3702240145.1098075     
   3740218704.8668718     
   3775925819.3810811     
   3808610444.1451206     
   3277643754.5280776     
   3320839141.7861729     
   3364287623.3441653     
   3407164634.7170463     
   3448791036.4363775     
   2922768803.3400769     
   2975673378.6853781     
   3030811205.4772329     
   3087499051.7690129     
   3145203549.8966475     
   2608858782.6672330     
   2676795041.2871270     
   2749247532.3865938     
   2825707323.4649086     
   2905821632.4360967     
   4217309481.8588066     
   4133366683.1654329     
   4055993853.9778304     
   3984349311.9513664     
   3918147040.4839067     
   3808610444.1451206     
   3756155229.9498911     
   3709731141.3599825     
   3668869423.7088189     
   3633477514.3867607     
   3448791036.4363775     
   3423117629.5788207     
   3402545054.0713034     
   3386845827.8636909     
   3376003242.8182135     
   3145203549.8966475     
   3141887601.3612576     
   3142137876.8882995     
   3145853964.0859346     
   3153019428.5267506     
   2905821632.4360967     
   2920800024.7361374     
   2937023140.4272666     
   2954436043.8863978     
   2972998316.4386396     
   3918147040.4839067     
   3835204878.1729612     
   3756357885.8983455     
   3681847846.5713992     
   3611964072.0272307     
   3633477514.3867607     
   3562941913.1530213     
   3497126638.8370719     
   3436281963.1731844     
   3380708717.8444147     
   3376003242.8182135     
   3318487639.2694221     
   3266450657.3818631     
   3220131775.3223019     
   3179823545.4693708     
   3153019428.5267506     
   3108844305.8719378     
   3071022686.4093957     
   3039755296.9533391     
   3015298282.1761675     
   2972998316.4386396     
   2941949055.3060517     
   2918213377.4081650     
   2901919820.0967159     
   2893256110.8764138     
   3611964072.0272307     
   3529419698.6927819     
   3451627806.1985822     
   3378920662.4751940     
   3311707164.3362708     
   3380708717.8444147     
   3312226604.8950076     
   3249065982.2760897     
   3191538545.5726223     
   3140015107.4123702     
   3179823545.4693708     
   3124547314.1504340     
   3075079210.4565797     
   3031689733.9257784     
   2994690209.7354164     
   3015298282.1761675     
   2972012641.2906022     
   2934900572.1855764     
   2904174670.2906389     
   2880071717.9363780     
   2893256110.8764138     
   2860292565.9717107     
   2833713478.0907111     
   2813665598.2794609     
   2800307166.8076682     
   3311707164.3362708     
   3223862029.2471261     
   3141914864.6813860     
   3066319604.2703118     
   2997594123.9922705     
   3140015107.4123702     
   3065523888.8075285     
   2997702130.7933950     
   2936992148.8270173     
   2883888781.6446238     
   2994690209.7354164     
   2933554683.0190449     
   2879855759.7098088     
   2833993820.0161867     
   2796407470.0404840     
   2880071717.9363780     
   2831791804.4911790     
   2791676026.5868692     
   2760053890.2403407     
   2737279124.0987844     
   2800307166.8076682     
   2763740896.0966210     
   2736002507.6198139     
   2717330723.7913623     
   2707977973.2982140     
   2997594123.9922705     
   2921645215.8578491     
   2852179347.6204686     
   2789760334.0048227     
   2735057492.4401898     
   2883888781.6446238     
   2823369852.5799417     
   2769526723.1876569     
   2722810413.8483829     
   2683735232.4436278     
   2796407470.0404840     
   2749495210.1075153     
   2709238961.7406921     
   2675968688.4978414     
   2650046253.7600913     
   2737279124.0987844     
   2701851208.8672538     
   2672851372.6289597     
   2650496214.8338304     
   2635014224.3407283     
   2707977973.2982140     
   2681674363.2301016     
   2661385921.5858865     
   2647236434.7047544     
   2639351323.8137846     
   2735057492.4401898     
   2660450370.5269356     
   2593692109.1184220     
   2536324195.5307488     
   2490179065.7760754     
   2683735232.4436278     
   2627872123.4957733     
   2581205700.0130367     
   2544581907.1100736     
   2518878924.5512543     
   2650046253.7600913     
   2607838609.0646358     
   2575769051.4924188     
   2554268069.6364727     
   2543748819.4609890     
   2635014224.3407283     
   2600067554.2452555     
   2575954991.4799685     
   2563016776.6581950     
   2561696095.0946736     
   2639351323.8137846     
   2604232777.8006401     
   2580585432.7794304     
   2569010494.3279333     
   2570479855.0170836     
   1955380132.4333196     
   2119443306.4604564     
   2284850544.7299538     
   2448641557.7502003     
   2608858782.6672330     
   1653933797.0593839     
   1820368788.3967929     
   1988491591.1401408     
   2155605773.6303463     
   2319953604.0655169     
   1393788704.8250120     
   1571138205.5796030     
   1749487426.0973659     
   1926832380.4699070     
   2101922537.2856667     
   1207253849.8882053     
   1399170994.3431640     
   1590664029.4275322     
   1780955540.1651297     
   1969586498.7503741     
   1137006218.0766196     
   1335313484.6039271     
   1533929056.4883125     
   1732852933.9328146     
   1932085117.7544763     
   2608858782.6672330     
   2676795041.2871270     
   2749247532.3865938     
   2825707323.4649086     
   2905821632.4360967     
   2319953604.0655169     
   2407027630.6943860     
   2496548157.5267725     
   2588126031.7905402     
   2681486224.9971914     
   2101922537.2856667     
   2205711231.2400627     
   2309410880.1193824     
   2412786009.7366490     
   2515670242.7152958     
   1969586498.7503741     
   2086777552.8259084     
   2201113369.1042767     
   2312519443.2127619     
   2420943884.4207096     
   1932085117.7544763     
   2058774874.9656463     
   2180033652.3838735     
   2295861450.3157096     
   2406258271.2070637     
   2905821632.4360967     
   2920800024.7361374     
   2937023140.4272666     
   2954436043.8863978     
   2972998316.4386396     
   2681486224.9971914     
   2703154748.7233191     
   2727125064.1423883     
   2753379852.8685703     
   2781910833.2507396     
   2515670242.7152958     
   2544008822.9807305     
   2575739521.7780209     
   2610863975.2915440     
   2649387976.6736898     
   2420943884.4207096     
   2454454699.1435528     
   2492453159.2982740     
   2534942494.7880111     
   2581927048.7939095     
   2406258271.2070637     
   2441863267.1964335     
   2483045094.8345876     
   2529803784.8107219     
   2582139401.4592371     
   2972998316.4386396     
   2941949055.3060517     
   2918213377.4081650     
   2901919820.0967159     
   2893256110.8764138     
   2781910833.2507396     
   2765383510.4371109     
   2755992767.1003451     
   2753821639.0823956     
   2758983754.5556383     
   2649387976.6736898     
   2644542459.5225945     
   2646384969.2471504     
   2654953621.8630495     
   2670298211.9124346     
   2581927048.7939095     
   2585434736.3879676     
   2594919009.9470911     
   2610388843.3416605     
   2631855390.2893605     
   2582139401.4592371     
   2590498958.3899693     
   2603911196.7311907     
   2622376053.9362249     
   2645893529.2365680     
   2893256110.8764138     
   2860292565.9717107     
   2833713478.0907111     
   2813665598.2794609     
   2800307166.8076682     
   2758983754.5556383     
   2734568167.6160016     
   2717069522.3677783     
   2706586582.9559317     
   2703224014.2946801     
   2670298211.9124346     
   2652656012.6336703     
   2642393914.0232339     
   2639561980.7767286     
   2644212493.2104373     
   2631855390.2893605     
   2618547816.9147024     
   2613006158.4190474     
   2615243820.6602898     
   2625274685.1064992     
   2645893529.2365680     
   2633983313.6406860     
   2630150293.6673188     
   2634394472.0545406     
   2646715849.8773999     
   2800307166.8076682     
   2763740896.0966210     
   2736002507.6198139     
   2717330723.7913623     
   2707977973.2982140     
   2703224014.2946801     
   2677845684.6661301     
   2661371764.0617661     
   2653946835.8234363     
   2655720732.8941970     
   2644212493.2104373     
   2627601278.3398929     
   2619870654.0342002     
   2621088452.4812727     
   2631324252.4210658     
   2625274685.1064992     
   2614591121.0222940     
   2612694926.0040922     
   2619604677.0375056     
   2635339903.4496045     
   2646715849.8773999     
   2638903924.8485436     
   2639750760.7169485     
   2649257185.8631182     
   2667424738.8139153     
   2707977973.2982140     
   2681674363.2301016     
   2661385921.5858865     
   2647236434.7047544     
   2639351323.8137846     
   2655720732.8941970     
   2636784501.3558736     
   2624497250.2532864     
   2618931899.4092035     
   2620159996.7954283     
   2631324252.4210658     
   2617688879.5525942     
   2611257818.1692834     
   2612061813.6939144     
   2620131671.9185047     
   2635339903.4496045     
   2624461964.4734855     
   2621287004.0945163     
   2625821756.1874719     
   2638077883.9761348     
   2667424738.8139153     
   2656433213.9087834     
   2653608268.6706719     
   2658957616.1098738     
   2672501067.7341456     
   2639351323.8137846     
   2604232777.8006401     
   2580585432.7794304     
   2569010494.3279333     
   2570479855.0170836     
   2620159996.7954283     
   2586919509.4287825     
   2564511008.9423227     
   2553140713.4361215     
   2553083036.2877641     
   2620131671.9185047     
   2593320323.6879206     
   2577198812.1101828     
   2571836509.9117961     
   2577302414.6514778     
   2638077883.9761348     
   2622333795.5050645     
   2617616998.3876429     
   2624126207.9099383     
   2642219850.9804468     
   2672501067.7341456     
   2672341580.1718178     
   2684045532.8612347     
   2708181359.1054974     
   2745825003.8838835     
   1137006218.0766196     
   1335313484.6039271     
   1533929056.4883125     
   1732852933.9328146     
   1932085117.7544763     
   1207212438.7880034     
   1399162541.0850828     
   1590689784.4554985     
   1781018241.3504243     
   1969689970.8366683     
   1393734874.1540592     
   1571125408.2206783     
   1749522070.9555829     
   1926921785.9473460     
   2102074723.9377227     
   1653893268.9357035     
   1820355434.7401865     
   1988517418.9443462     
   2155682801.4620738     
   2320093553.8830900     
   1955371078.6208999     
   2119432076.5539937     
   2284852755.3648477     
   2448672336.2536273     
   2608931952.2769580     
   1932085117.7544763     
   2058774874.9656463     
   2180033652.3838735     
   2295861450.3157096     
   2406258271.2070637     
   1969689970.8366683     
   2086843986.6479201     
   2201140222.2088113     
   2312503431.6421237     
   2420881424.9229493     
   2102074723.9377227     
   2205815800.0057502     
   2309463351.3247752     
   2412781409.5091891     
   2515603376.0115056     
   2320093553.8830900     
   2407134369.4570308     
   2496616306.9223795     
   2588150738.8011804     
   2681462793.4808316     
   2608931952.2769580     
   2676868575.2772698     
   2749316648.9349589     
   2825769385.0729270     
   2905874839.6285400     
   2406258271.2070637     
   2441863267.1964335     
   2483045094.8345876     
   2529803784.8107219     
   2582139401.4592371     
   2420881424.9229493     
   2454645435.6956568     
   2492933164.9829021     
   2535748679.3153605     
   2583096600.8967733     
   2515603376.0115056     
   2544314758.6367002     
   2576483018.4908738     
   2612110899.3144512     
   2651204930.0264535     
   2681462793.4808316     
   2703474953.4897695     
   2727873147.7706666     
   2754640797.7464590     
   2783770808.3816509     
   2905874839.6285400     
   2921027357.8140230     
   2937517444.2676029     
   2955289509.5504479     
   2974304159.8348761     
   2582139401.4592371     
   2590498958.3899693     
   2603911196.7311907     
   2622376053.9362249     
   2645893529.2365680     
   2583096600.8967733     
   2586614523.1430225     
   2596203451.5882740     
   2611871514.7735877     
   2633630417.3492107     
   2651204930.0264535     
   2646344298.8433785     
   2648363645.9956446     
   2657301886.1249795     
   2673211889.2365289     
   2783770808.3816509     
   2767099099.1102114     
   2757853255.1218691     
   2756122814.8400650     
   2762030803.1413102     
   2974304159.8348761     
   2942824921.1844010     
   2919040918.7396660     
   2903097555.2477593     
   2895203238.7263322     
   2645893529.2365680     
   2633983313.6406860     
   2630150293.6673188     
   2634394472.0545406     
   2646715849.8773999     
   2633630417.3492107     
   2620749752.2181625     
   2615541738.2866859     
   2618020593.8771224     
   2628200817.2138314     
   2673211889.2365289     
   2656518495.9258456     
   2647030288.0363350     
   2644797225.9453878     
   2649870868.5143914     
   2762030803.1413102     
   2739210642.8190193     
   2723067804.3209281     
   2713697918.8011274     
   2711201095.1079588     
   2895203238.7263322     
   2864617063.9739447     
   2840130833.4915600     
   2821883696.0180783     
   2810023606.4156380     
   2646715849.8773999     
   2638903924.8485436     
   2639750760.7169485     
   2649257185.8631182     
   2667424738.8139153     
   2628200817.2138314     
   2618548868.4479337     
   2617696908.9729104     
   2625660177.2369161     
   2642453607.2225418     
   2649870868.5143914     
   2634830078.8021002     
   2628665133.1484632     
   2631442332.0313792     
   2643228743.7039065     
   2711201095.1079588     
   2687462519.6295185     
   2672576325.5313492     
   2666691445.5768833     
   2669963093.7317581     
   2810023606.4156380     
   2774753788.2820911     
   2748179516.0130091     
   2730551492.8878961     
   2722139212.7563128     
   2667424738.8139153     
   2656433213.9087834     
   2653608268.6706719     
   2658957616.1098738     
   2672501067.7341456     
   2642453607.2225418     
   2628451298.6470156     
   2622337409.8838029     
   2624130732.0444398     
   2633853888.2368941     
   2643228743.7039065     
   2624966817.8417521     
   2614387747.5482001     
   2611532192.2129107     
   2616440596.2716055     
   2669963093.7317581     
   2646364989.6465588     
   2630301463.0317802     
   2621843028.9492950     
   2621061032.7745924     
   2722139212.7563128     
   2692345044.6830897     
   2669981816.6285911     
   2655154518.7458248     
   2647975589.0282907     
   2672501067.7341456     
   2672341580.1718178     
   2684045532.8612347     
   2708181359.1054974     
   2745825003.8838835     
   2633853888.2368941     
   2642408181.8626904     
   2662216173.0422568     
   2693424314.3348522     
   2736328626.9429383     
   2616440596.2716055     
   2624149944.0444021     
   2642348485.6246166     
   2671080377.9919319     
   2710383795.8225570     
   2621061032.7745924     
   2618816948.8127456     
   2626034932.0399976     
   2642978079.2509475     
   2669955044.8643241     
   2647975589.0282907     
   2627545606.4637427     
   2615112617.5056295     
   2611462670.1904383     
   2617725437.8495555     
   1955371078.6208999     
   2119432076.5539937     
   2284852755.3648477     
   2448672336.2536273     
   2608931952.2769580     
   2298827676.4844928     
   2449519157.2517204     
   2604933687.1127367     
   2763148375.4068708     
   2922733042.5278668     
   2694766849.1764541     
   2830532384.7230153     
   2973609478.0159888     
   3122915658.1369181     
   3277539744.0480819     
   3137979310.3899913     
   3255517546.5869961     
   3382471658.5054283     
   3518372359.8403382     
   3662761700.3320713     
   3624975989.2802930     
   3719682449.3282866     
   3825638699.9032869     
   3942780718.7235088     
   4071015436.3318396     
   2608931952.2769580     
   2676868575.2772698     
   2749316648.9349589     
   2825769385.0729270     
   2905874839.6285400     
   2922733042.5278668     
   2975653458.7158613     
   3030802729.5158300     
   3087499649.7139568     
   3145211884.0383425     
   3277539744.0480819     
   3320764698.3360219     
   3364238615.5024834     
   3407138750.0176830     
   3448787077.4750819     
   3662761700.3320713     
   3702153379.1080933     
   3740170655.7346182     
   3775914154.8584394     
   3808633956.4157677     
   4071015436.3318396     
   4112436422.1945906     
   4151213255.0348129     
   4186446569.3536797     
   4217403164.1496849     
   2905874839.6285400     
   2921027357.8140230     
   2937517444.2676029     
   2955289509.5504479     
   2974304159.8348761     
   3145211884.0383425     
   3141800694.5888147     
   3141990395.9327817     
   3145679688.9850235     
   3152854734.7992439     
   3448787077.4750819     
   3422834728.1509547     
   3401969812.7118621     
   3385962287.6176214     
   3374796989.6820245     
   3808633956.4157677     
   3755819701.7053947     
   3708986401.1912985     
   3667659817.6141911     
   3631745223.6558723     
   4217403164.1496849     
   4133130802.8943558     
   4055352646.5871806     
   3983218277.4489322     
   3916434116.3506150     
   2974304159.8348761     
   2942824921.1844010     
   2919040918.7396660     
   2903097555.2477593     
   2895203238.7263322     
   3152854734.7992439     
   3107632562.9255433     
   3068908772.0928812     
   3036893708.6125536     
   3011852476.1598849     
   3374796989.6820245     
   3316104080.9549260     
   3262848444.7631845     
   3215266594.6724191     
   3173643577.8376079     
   3631745223.6558723     
   3560445848.5063486     
   3493693396.9322243     
   3431720609.9492412     
   3374803146.3517141     
   3916434116.3506150     
   3833697858.8206944     
   3754804412.5048380     
   3679964108.0593204     
   3609425291.7708483     
   2895203238.7263322     
   2864617063.9739447     
   2840130833.4915600     
   2821883696.0180783     
   2810023606.4156380     
   3011852476.1598849     
   2970139819.0212731     
   2934476426.4864621     
   2905069360.3910241     
   2882148193.8058376     
   3173643577.8376079     
   3119033688.5852337     
   3070209191.8788257     
   3027436296.0843344     
   2991023653.5965452     
   3374803146.3517141     
   3305953957.3513188     
   3242452009.6846967     
   3184602565.7937589     
   3132776628.1288924     
   3609425291.7708483     
   3525338662.7967634     
   3446036488.5786343     
   3371837187.9841437     
   3303148185.1075587     
   2810023606.4156380     
   2774753788.2820911     
   2748179516.0130091     
   2730551492.8878961     
   2722139212.7563128     
   2882148193.8058376     
   2834067827.5512819     
   2794085899.6402707     
   2762540952.4946351     
   2739799496.8448439     
   2991023653.5965452     
   2929209534.0458388     
   2874828519.2410741     
   2828287241.8960643     
   2790033981.3925710     
   3132776628.1288924     
   3056904606.1056886     
   2987759929.0703654     
   2925788819.5261650     
   2871493922.1388731     
   3303148185.1075587     
   3213349208.7214413     
   3129570868.7859035     
   3052269590.4684186     
   2981970738.1729798     
   2722139212.7563128     
   2692345044.6830897     
   2669981816.6285911     
   2655154518.7458248     
   2647975589.0282907     
   2739799496.8448439     
   2701749202.5989609     
   2670881554.1788049     
   2647384825.1093187     
   2631454850.5927563     
   2790033981.3925710     
   2741477315.8821926     
   2699684046.8540788     
   2664931836.9316711     
   2637515611.4144964     
   2871493922.1388731     
   2810737913.2145405     
   2756144969.4187331     
   2708071814.9669776     
   2666911177.1908460     
   2981970738.1729798     
   2907904799.6093769     
   2839237355.3090310     
   2776378988.5356388     
   2719800885.0738244     
   2647975589.0282907     
   2627545606.4637427     
   2615112617.5056295     
   2611462670.1904383     
   2617725437.8495555     
   2631454850.5927563     
   2590948984.0425725     
   2558838403.1501398     
   2535757019.3451061     
   2522491080.6155481     
   2637515611.4144964     
   2579544110.0935092     
   2530486931.2356153     
   2490910032.3602266     
   2461422900.5712113     
   2666911177.1908460     
   2593855858.3847351     
   2530386076.0321999     
   2477102185.7917252     
   2434640397.5481057     
   2719800885.0738244     
   2633655120.2081323     
   2557956344.0417190     
   2493456073.4643931     
   2441044734.2289000     
   3624975989.2802930     
   3719682449.3282866     
   3825638699.9032869     
   3942780718.7235088     
   4071015436.3318396     
   4134111877.3014560     
   4224366320.7560782     
   4320538896.4805880     
   4420972715.3967934     
   4524213118.4303837     
   4643431538.2848654     
   4755517439.4459066     
   4868724804.4659328     
   4980419121.4036903     
   5088675439.5640783     
   5151414715.6825666     
   5311311053.3197193     
   5467837593.6818600     
   5618099842.3113708     
   5760632907.6542473     
   5657797458.1117287     
   5890909228.0399961     
   6116381502.3387079     
   6331756836.3921242     
   6536813376.7141962     
   4071015436.3318396     
   4112436422.1945906     
   4151213255.0348129     
   4186446569.3536797     
   4217403164.1496849     
   4524213118.4303837     
   4539004674.5740347     
   4558467537.8508558     
   4580121506.3467016     
   4602243060.1375542     
   5088675439.5640783     
   5053997202.9972248     
   5029829362.4562464     
   5010965869.9919329     
   4994205925.8439150     
   5760632907.6542473     
   5652085089.9984150     
   5559534391.5134621     
   5473919762.0112467     
   5389701205.8169823     
   6536813376.7141962     
   6328671761.0031071     
   6142713449.3504152     
   5965029796.2411747     
   5786612955.6402550     
   4217403164.1496849     
   4133130802.8943558     
   4055352646.5871806     
   3983218277.4489322     
   3916434116.3506150     
   4602243060.1375542     
   4493782536.7605886     
   4389542941.9496460     
   4289207247.0080433     
   4192685791.3122373     
   4994205925.8439150     
   4866930726.7893190     
   4742846935.4099283     
   4621922394.9169779     
   4504197405.1255255     
   5389701205.8169823     
   5248609417.3640623     
   5110742610.8229990     
   4976142084.9370050     
   4844901197.3618422     
   5786612955.6402550     
   5636147518.0655270     
   5489885718.3416042     
   5347740553.2509699     
   5209758760.9333630     
   3916434116.3506150     
   3833697858.8206944     
   3754804412.5048380     
   3679964108.0593204     
   3609425291.7708483     
   4192685791.3122373     
   4097308713.2728586     
   4005256946.7517376     
   3916747688.9558201     
   3832056850.9718013     
   4504197405.1255255     
   4394512784.1160221     
   4287433310.0399036     
   4183151072.1135392     
   4081944197.9148555     
   4844901197.3618422     
   4719415594.1202564     
   4595682475.1381044     
   4473834757.8733063     
   4354121169.4848614     
   5209758760.9333630     
   5067110578.1640434     
   4925290826.1979942     
   4784340079.5899496     
   4644443889.5360899     
   3609425291.7708483     
   3525338662.7967634     
   3446036488.5786343     
   3371837187.9841437     
   3303148185.1075587     
   3832056850.9718013     
   3733338100.0763817     
   3638481824.2026906     
   3547769384.1135740     
   3461557161.6272488     
   4081944197.9148555     
   3969964981.4498591     
   3861132498.3337116     
   3755677840.7462697     
   3653893489.0953317     
   4354121169.4848614     
   4230283760.9919848     
   4109083933.0551014     
   3990699447.0804877     
   3875358097.4876413     
   4644443889.5360899     
   4510087428.0114222     
   4378051939.9412289     
   4248464208.1597733     
   4121493268.8507457     
   3303148185.1075587     
   3213349208.7214413     
   3129570868.7859035     
   3052269590.4684186     
   2981970738.1729798     
   3461557161.6272488     
   3356778701.9133062     
   3257150640.3698273     
   3163137915.6166749     
   3075294703.9984498     
   3653893489.0953317     
   3534073473.8015862     
   3418468414.0775137     
   3307513828.7753983     
   3201747894.7599077     
   3875358097.4876413     
   3740698343.9034777     
   3609313894.1860456     
   3481581703.9681034     
   3357986377.7447338     
   4121493268.8507457     
   3972341541.2295742     
   3825566427.1721549     
   3681468185.6285977     
   3540452119.7680764     
   2981970738.1729798     
   2907904799.6093769     
   2839237355.3090310     
   2776378988.5356388     
   2719800885.0738244     
   3075294703.9984498     
   2987207285.8598108     
   2903676646.6881905     
   2825091302.8839717     
   2751908079.8282018     
   3201747894.7599077     
   3100543477.9025941     
   3003086337.8837614     
   2909713895.6049867     
   2820833103.7958179     
   3357986377.7447338     
   3244790366.1083355     
   3134620383.8884506     
   3027746389.5962119     
   2924502878.8930044     
   3540452119.7680764     
   3416458435.8350725     
   3294892626.3669748     
   3175953729.8689651     
   3059896538.2990947     
   2719800885.0738244     
   2633655120.2081323     
   2557956344.0417190     
   2493456073.4643931     
   2441044734.2289000     
   2751908079.8282018     
   2649873034.5006089     
   2556486154.2629170     
   2472598580.3804131     
   2399186404.0592670     
   2820833103.7958179     
   2700984435.0653863     
   2587481760.2409601     
   2481189093.5833492     
   2383137583.4926267     
   2924502878.8930044     
   2786602831.1086035     
   2652423859.9529290     
   2522730446.2128553     
   2398522587.8887320     
   3059896538.2990947     
   2905172268.2094321     
   2751505217.3407097     
   2599487035.2410531     
   2450021305.3645163     
   5657797458.1117287     
   5890909228.0399961     
   6116381502.3387079     
   6331756836.3921242     
   6536813376.7141962     
   6491656279.5760107     
   6586889197.9337587     
   6757453427.8650408     
   6961267149.5927601     
   7171670287.6991844     
   7982344004.5765781     
   7734986964.1185236     
   7669198482.8977356     
   7669668075.4047832     
   7666464327.1381016     
   10130307813.657763     
   9322041713.9966011     
   8826426016.2199745     
   8443617576.1992826     
   8035806797.6216326     
   12935634404.091396     
   11340766651.770010     
   10210302314.488497     
   9272883708.5323524     
   8304067293.7043676     
   6536813376.7141962     
   6328671761.0031071     
   6142713449.3504152     
   5965029796.2411747     
   5786612955.6402550     
   7171670287.6991844     
   6910959898.2331219     
   6658150566.8026934     
   6409383949.5597754     
   6161514877.0990181     
   7666464327.1381016     
   7381139636.9681301     
   7101212971.7793808     
   6826762465.6541138     
   6557991957.3809729     
   8035806797.6216326     
   7746861064.7007236     
   7473594136.3985605     
   7214047042.2080841     
   6968227620.7926178     
   8304067293.7043676     
   8020687071.6517467     
   7779425817.5728006     
   7569597434.0033979     
   7386231935.3139086     
   5786612955.6402550     
   5636147518.0655270     
   5489885718.3416042     
   5347740553.2509699     
   5209758760.9333630     
   6161514877.0990181     
   6012687738.7594433     
   5865201165.3777266     
   5719093241.8111744     
   5574419706.5399904     
   6557991957.3809729     
   6407667814.9500551     
   6255716430.9927578     
   6102105975.1796236     
   5946865522.5780602     
   6968227620.7926178     
   6814625031.6433163     
   6656404892.1384382     
   6493284398.1057549     
   6325212896.5580635     
   7386231935.3139086     
   7228559846.3565769     
   7063367580.9507494     
   6889961104.7149820     
   6708154126.3351974     
   5209758760.9333630     
   5067110578.1640434     
   4925290826.1979942     
   4784340079.5899496     
   4644443889.5360899     
   5574419706.5399904     
   5414115041.5828638     
   5254707378.5380869     
   5096239836.9802523     
   4938819155.1191206     
   5946865522.5780602     
   5772303699.8296614     
   5599145642.5071630     
   5427418453.8055058     
   5257184891.9140997     
   6325212896.5580635     
   6139268053.8195076     
   5955613812.6013012     
   5774230546.8454123     
   5595148531.9266348     
   6708154126.3351974     
   6513192391.2846689     
   6321751079.7317219     
   6133721709.9499645     
   5949092372.3737736     
   4644443889.5360899     
   4510087428.0114222     
   4378051939.9412289     
   4248464208.1597733     
   4121493268.8507457     
   4938819155.1191206     
   4795602422.5867014     
   4653707719.6075048     
   4513238314.0626535     
   4374333425.0522652     
   5257184891.9140997     
   5105157727.6462965     
   4953486528.0868855     
   4802237348.0031519     
   4651510223.6327658     
   5595148531.9266348     
   5434536514.7241459     
   5273368994.8500214     
   5111666185.6507025     
   4949484384.7515936     
   5949092372.3737736     
   5780247399.2199965     
   5610005342.7565346     
   5438336158.3289270     
   5265251937.1223335     
   4121493268.8507457     
   3972341541.2295742     
   3825566427.1721549     
   3681468185.6285977     
   3540452119.7680764     
   4374333425.0522652     
   4210438079.4800439     
   4048344179.9181886     
   3888259286.9023538     
   3730478403.1813860     
   4651510223.6327658     
   4473951735.7159853     
   4297773776.5285816     
   4123104545.5918169     
   3950144548.0729427     
   4949484384.7515936     
   4759098933.4424868     
   4569808156.7483253     
   4381676652.9640160     
   4194830341.5819163     
   5265251937.1223335     
   5062642862.1620035     
   4860953461.8750286     
   4660199577.1779060     
   4460451916.5699396     
   3540452119.7680764     
   3416458435.8350725     
   3294892626.3669748     
   3175953729.8689651     
   3059896538.2990947     
   3730478403.1813860     
   3596347929.7920895     
   3463772334.5024223     
   3332907939.7300391     
   3203966879.4957056     
   3950144548.0729427     
   3805966823.6568789     
   3662473803.1563458     
   3519766523.4288836     
   3378000426.8876295     
   4194830341.5819163     
   4040808180.5904250     
   3886640956.5399551     
   3732368948.4251466     
   3578084992.3750377     
   4460451916.5699396     
   4296850398.2684603     
   4132339365.9919295     
   3966898464.0901127     
   3800558784.2294564     
   3059896538.2990947     
   2905172268.2094321     
   2751505217.3407097     
   2599487035.2410531     
   2450021305.3645163     
   3203966879.4957056     
   3035697978.4903574     
   2869237231.1401281     
   2704893208.5891495     
   2543115041.2358623     
   3378000426.8876295     
   3197622372.2851572     
   3020037852.3572488     
   2845498271.8545289     
   2674420475.7909069     
   3578084992.3750377     
   3385374721.8910728     
   3196531379.9768758     
   3011947727.2407308     
   2832379862.5754452     
   3800558784.2294564     
   3593918332.2952056     
   3392229932.6132646     
   3196206596.8657465     
   3007269132.4420714     
 </DataArray>
 <DataArray  type="Float64" Name="strain" NumberOfComponents="3" format="ascii">
  0.20348092433934872        0.0000000000000000       0.12540170949542478     
  0.18665370672454493       -2.7323317358519006E-002   7.4351460649942802E-002
  0.16982648910974113       -4.4674418687985641E-002   3.5133559421845775E-002
  0.15299927149493731       -5.2053303988399954E-002   7.7480058111336556E-003
  0.13617205388013351       -4.9459973259761869E-002  -7.8052001821935779E-003
  0.15985298303541540        0.0000000000000000        9.6446781597206155E-002
  0.15317672481647698       -2.1843595204947233E-002   6.2690303154077170E-002
  0.14650046659753860       -3.6173519973004782E-002   3.7403395885294080E-002
  0.13982420837860021       -4.2989774304172647E-002   2.0586059790856946E-002
  0.13314795015966180       -4.2292358198450834E-002   1.2238294870765679E-002
  0.12645725712238351        0.0000000000000000        7.4200848648640641E-002
  0.12656918185627153       -1.6363873051375450E-002   5.5279595015701961E-002
  0.12668110659015952       -2.7672621258023899E-002   4.1465136114070184E-002
  0.12679303132404757       -3.3926244619945346E-002   3.2757471943745314E-002
  0.12690495605793556       -3.5124743137139786E-002   2.9156602504727312E-002
  0.10329374660025310        0.0000000000000000        5.8663910649728243E-002
  0.10683107784392851       -1.0884150897803676E-002   5.2119336234817182E-002
  0.11036840908760392       -1.9171722543043022E-002   4.7318780108174044E-002
  0.11390574033127933       -2.4862714935718042E-002   4.4262242269798774E-002
  0.11744307157495473       -2.7957128075828737E-002   4.2949722719691399E-002
   9.0362451469024163E-002   0.0000000000000000        4.9835967600468961E-002
   9.3962412779447960E-002  -5.4044287442318959E-003   5.3209526811422866E-002
   9.7562374089871770E-002  -1.0670823828062146E-002   5.4964327867605647E-002
  0.10116233540029557       -1.5799185251490742E-002   5.5100370769017325E-002
  0.10476229671071938       -2.0789513014517685E-002   5.3617655515657878E-002
  0.13617205388013351       -4.9459973259761869E-002  -7.8052001821935779E-003
  0.13296048041425504       -4.2927720689538595E-002  -3.3954927693660708E-003
  0.12974890694837657       -3.8489840465197413E-002  -3.9601171579932426E-004
  0.12653733348249810       -3.6146332586738092E-002   1.1932429785069115E-003
  0.12332576001661963       -3.5897197054160918E-002   1.3722713135525533E-003
  0.13314795015966180       -4.2292358198450834E-002   1.2238294870765679E-002
  0.12891349606094873       -3.8428200076134116E-002   1.2179178253973633E-002
  0.12467904196223564       -3.5744228357517220E-002   1.1484526730772888E-002
  0.12044458786352256       -3.4240443042600113E-002   1.0154340301163432E-002
  0.11621013376480946       -3.3916844131382906E-002   8.1886189651454028E-003
  0.12690495605793556       -3.5124743137139786E-002   2.9156602504727312E-002
  0.12242231277923979       -3.3928679462729538E-002   2.5542847800497905E-002
  0.11793966950054403       -3.2998616249837007E-002   2.2068249642711823E-002
  0.11345702622184825       -3.2334553498462086E-002   1.8732808031368939E-002
  0.10897438294315248       -3.1936491208604853E-002   1.5536522966469464E-002
  0.11744307157495473       -2.7957128075828737E-002   4.2949722719691399E-002
  0.11348693056912827       -2.9429158849324996E-002   3.6695515870206849E-002
  0.10953078956330177       -3.0253004142156793E-002   3.1355157020017496E-002
  0.10557464855747528       -3.0428663954324055E-002   2.6928646169123407E-002
  0.10161850755164879       -2.9956138285826807E-002   2.3415983317524570E-002
  0.10476229671071938       -2.0789513014517685E-002   5.3617655515657878E-002
  0.10210734943061410       -2.4929638235920482E-002   4.5637182463100265E-002
   9.9452402150508837E-002  -2.7507392034476580E-002   3.9345248862689912E-002
   9.6797454870403588E-002  -2.8522774410186039E-002   3.4741854714426729E-002
   9.4142507590298297E-002  -2.7975785363048788E-002   3.1827000018310736E-002
  0.12332576001661963       -3.5897197054160918E-002   1.3722713135525533E-003
  0.12041637109442957       -3.6392270037343757E-002   6.5149292852095808E-004
  0.11750698217223950       -3.6281387706164632E-002   1.1096109447626679E-004
  0.11459759325004945       -3.5564550060623590E-002  -2.4932418858170796E-004
  0.11168820432785936       -3.4241757100720638E-002  -4.2936292065270942E-004
  0.11621013376480946       -3.3916844131382906E-002   8.1886189651454028E-003
  0.11346853046297320       -3.3989599171484711E-002   7.8319719873459898E-003
  0.11072692716113695       -3.3674875710524528E-002   7.6306496992671891E-003
  0.10798532385930065       -3.2972673748502601E-002   7.5846521009093164E-003
  0.10524372055746442       -3.1882993285418743E-002   7.6939791922721046E-003
  0.10897438294315248       -3.1936491208604853E-002   1.5536522966469464E-002
  0.10637564340040395       -3.1586928305625574E-002   1.5325530582602047E-002
  0.10377690385765545       -3.1068363714884421E-002   1.5244941027189204E-002
  0.10117816431490695       -3.0380797436381585E-002   1.5294754300231207E-002
   9.8579424772158405E-002  -2.9524229470116847E-002   1.5474970401727850E-002
  0.10161850755164879       -2.9956138285826807E-002   2.3415983317524570E-002
   9.9137709906721938E-002  -2.9184257439766482E-002   2.3132168714289102E-002
   9.6656912261795097E-002  -2.8461851719244396E-002   2.2953835078242252E-002
   9.4176114616868228E-002  -2.7788921124260527E-002   2.2880982409384003E-002
   9.1695316971941401E-002  -2.7165465654814924E-002   2.2913610707714450E-002
   9.4142507590298297E-002  -2.7975785363048788E-002   3.1827000018310736E-002
   9.1754729981927047E-002  -2.6781586573907411E-002   3.1251886382407196E-002
   8.9366952373555797E-002  -2.5855339723604293E-002   3.0757331852426101E-002
   8.6979174765184561E-002  -2.5197044812139545E-002   3.0343336428367763E-002
   8.4591397156813297E-002  -2.4806701839513084E-002   3.0009900110231857E-002
  0.11168820432785936       -3.4241757100720638E-002  -4.2936292065270942E-004
  0.10854164095869373       -3.2727907154404212E-002  -1.9798919764751899E-004
  0.10539507758952812       -3.1437898549622451E-002   1.3475406143559354E-004
  0.10224851422036250       -3.0371731286375776E-002   5.6886685659622571E-004
   9.9101950851196885E-002  -2.9529405364663974E-002   1.1043491878345302E-003
  0.10524372055746442       -3.1882993285418743E-002   7.6939791922721046E-003
  0.10221911995443708       -3.0667572466665710E-002   7.5462145647978707E-003
   9.9194519351409785E-002  -2.9588149437636678E-002   7.5410059335223878E-003
   9.6169918748382516E-002  -2.8644724198331133E-002   7.6783532984460098E-003
   9.3145318145355149E-002  -2.7837296748749407E-002   7.9582566595685078E-003
   9.8579424772158405E-002  -2.9524229470116847E-002   1.5474970401727850E-002
   9.5717973395390760E-002  -2.8607237778927486E-002   1.5035910975585008E-002
   9.2856522018623128E-002  -2.7738400325650739E-002   1.4780594005762433E-002
   8.9995070641855524E-002  -2.6917717110286541E-002   1.4709019492260222E-002
   8.7133619265087864E-002  -2.6145188132834840E-002   1.4821187435078265E-002
   9.1695316971941401E-002  -2.7165465654814924E-002   2.2913610707714450E-002
   8.9038201281554707E-002  -2.6546903091189122E-002   2.2271100034714178E-002
   8.6381085591168055E-002  -2.5888651213664800E-002   2.1853518278155605E-002
   8.3723969900781403E-002  -2.5190710022241852E-002   2.1660865438038669E-002
   8.1066854210394779E-002  -2.4453079516920329E-002   2.1693141514363287E-002
   8.4591397156813297E-002  -2.4806701839513084E-002   3.0009900110231857E-002
   8.2179803612928953E-002  -2.4486568403450787E-002   2.9251781742185498E-002
   7.9768210069044596E-002  -2.4038902101678951E-002   2.8759778750701945E-002
   7.7356616525160210E-002  -2.3463702934197202E-002   2.8533891135781551E-002
   7.4945022981275866E-002  -2.2760970901005761E-002   2.8574118897423839E-002
   9.9101950851196885E-002  -2.9529405364663974E-002   1.1043491878345302E-003
   9.6268664605000331E-002  -2.8758446048452013E-002   9.2453075750009717E-004
   9.3435378358803833E-002  -2.7906378601704585E-002   8.8861712045848473E-004
   9.0602092112607308E-002  -2.6973203024421508E-002   9.9660827671052554E-004
   8.7768805866410782E-002  -2.5958919316603213E-002   1.2485042262555535E-003
   9.3145318145355149E-002  -2.7837296748749407E-002   7.9582566595685078E-003
   9.0457078143702130E-002  -2.7071806838173756E-002   7.7911289271823392E-003
   8.7768838142049083E-002  -2.6254194215885776E-002   7.7701888905900018E-003
   8.5080598140396049E-002  -2.5384458881885830E-002   7.8954365497913431E-003
   8.2392358138742960E-002  -2.4462600836174131E-002   8.1668719047864324E-003
   8.7133619265087864E-002  -2.6145188132834840E-002   1.4821187435078265E-002
   8.4592708410478834E-002  -2.5385167627895278E-002   1.4637764981816861E-002
   8.2051797555869846E-002  -2.4602009830067079E-002   1.4602813126849926E-002
   7.9510886701260830E-002  -2.3795714739350320E-002   1.4716331870177263E-002
   7.6969975846651828E-002  -2.2966282355744938E-002   1.4978321211799039E-002
   8.1066854210394779E-002  -2.4453079516920329E-002   2.1693141514363287E-002
   7.8675555405330375E-002  -2.3698528417616965E-002   2.1464438921403425E-002
   7.6284256600266068E-002  -2.2949825444248437E-002   2.1386489829238381E-002
   7.3892957795201705E-002  -2.2206970596814615E-002   2.1459294237868475E-002
   7.1501658990137343E-002  -2.1469963875315801E-002   2.1682852147293596E-002
   7.4945022981275866E-002  -2.2760970901005761E-002   2.8574118897423839E-002
   7.2705619128256821E-002  -2.2011889207338639E-002   2.8271150745941998E-002
   7.0466215275237776E-002  -2.1297641058429628E-002   2.8121218997755715E-002
   6.8226811422218731E-002  -2.0618226454279007E-002   2.8124323652864963E-002
   6.5987407569199658E-002  -1.9973645394886663E-002   2.8280464711269770E-002
   8.7768805866410782E-002  -2.5958919316603213E-002   1.2485042262555535E-003
   8.4387993451286891E-002  -2.4925322729336397E-002   1.0972245612843601E-003
   8.1007181036162945E-002  -2.3934208513708644E-002   1.1338958946263133E-003
   7.7626368621038999E-002  -2.2985576669719288E-002   1.3585182262824957E-003
   7.4245556205915109E-002  -2.2079427197369217E-002   1.7710915562525464E-003
   8.2392358138742960E-002  -2.4462600836174131E-002   8.1668719047864324E-003
   7.9203848392297438E-002  -2.3527109395769963E-002   7.9403401987734323E-003
   7.6015338645851943E-002  -2.2616473877693222E-002   7.9104628318036885E-003
   7.2826828899406448E-002  -2.1730694281943977E-002   8.0772398038767429E-003
   6.9638319152960926E-002  -2.0869770608521465E-002   8.4406711149931368E-003
   7.6969975846651828E-002  -2.2966282355744938E-002   1.4978321211799039E-002
   7.3982472109614172E-002  -2.2128896062203335E-002   1.4694163914055647E-002
   7.0994968372576461E-002  -2.1298739241677689E-002   1.4615364296085120E-002
   6.8007464635538806E-002  -2.0475811894167889E-002   1.4741922357887197E-002
   6.5019960898501122E-002  -1.9660114019674158E-002   1.5073838099461334E-002
   7.1501658990137343E-002  -2.1469963875315801E-002   2.1682852147293596E-002
   6.8723864603236984E-002  -2.0730682728636693E-002   2.1358695707131434E-002
   6.5946070216336555E-002  -1.9981004605662045E-002   2.1248600287471470E-002
   6.3168275829436155E-002  -1.9220929506392079E-002   2.1352565888313094E-002
   6.0390481442535768E-002  -1.8450457430826739E-002   2.1670592509656875E-002
   6.5987407569199658E-002  -1.9973645394886663E-002   2.8280464711269770E-002
   6.3428025873165955E-002  -1.9332469395069996E-002   2.7933935578000280E-002
   6.0868644177132183E-002  -1.8663269969646623E-002   2.7810170805962153E-002
   5.8309262481098419E-002  -1.7966047118616546E-002   2.7909170395155378E-002
   5.5749880785064654E-002  -1.7240800841979265E-002   2.8230934345579883E-002
   7.4245556205915109E-002  -2.2079427197369217E-002   1.7710915562525464E-003
   7.1514715936972839E-002  -2.1164657301062706E-002   1.5283246103372505E-003
   6.8783875668030570E-002  -2.0190164185205084E-002   1.5234840547759254E-003
   6.6053035399088356E-002  -1.9155947849797059E-002   1.7565698895674053E-003
   6.3322195130146031E-002  -1.8062008294837950E-002   2.2275821147120789E-003
   6.9638319152960926E-002  -2.0869770608521465E-002   8.4406711149931368E-003
   6.7126121489861690E-002  -2.0008744588651095E-002   8.2098911004495623E-003
   6.4613923826762482E-002  -1.9122657953557498E-002   8.1784699072389999E-003
   6.2101726163663259E-002  -1.8211510703239731E-002   8.3464075353611306E-003
   5.9589528500564037E-002  -1.7275302837698514E-002   8.7137039848158571E-003
   6.5019960898501122E-002  -1.9660114019674158E-002   1.5073838099461334E-002
   6.2687838272224503E-002  -1.8852831876240234E-002   1.4820382411962124E-002
   6.0355715645947883E-002  -1.8055151721909718E-002   1.4727717976775134E-002
   5.8023593019671277E-002  -1.7267073556682964E-002   1.4795844793900517E-002
   5.5691470393394643E-002  -1.6488597380559189E-002   1.5024762863338315E-002
   6.0390481442535768E-002  -1.8450457430826739E-002   2.1670592509656875E-002
   5.8199866284061236E-002  -1.7696919163828997E-002   2.1359798544874783E-002
   5.6009251125586780E-002  -1.6987645490261813E-002   2.1171228263384349E-002
   5.3818635967112324E-002  -1.6322636410125362E-002   2.1104881665185749E-002
   5.1628020808637813E-002  -1.5701891923419586E-002   2.1160758750279826E-002
   5.5749880785064654E-002  -1.7240800841979265E-002   2.8230934345579883E-002
   5.3662205525371903E-002  -1.6541006451417789E-002   2.7828139499187388E-002
   5.1574530265679153E-002  -1.5920139258614019E-002   2.7509000767066555E-002
   4.9486855005986374E-002  -1.5378199263568343E-002   2.7273518149217135E-002
   4.7399179746293651E-002  -1.4915186466280150E-002   2.7121691645639323E-002
   6.3322195130146031E-002  -1.8062008294837950E-002   2.2275821147120789E-003
   5.9815506847544331E-002  -1.6729541753060961E-002   1.7511379499024482E-003
   5.6308818564942464E-002  -1.4979744457197464E-002   1.5059932892707018E-003
   5.2802130282340848E-002  -1.2812616407248165E-002   1.4921481328153685E-003
   4.9295441999738898E-002  -1.0228157603213717E-002   1.7096024805378640E-003
   5.9589528500564037E-002  -1.7275302837698514E-002   8.7137039848158571E-003
   5.6310065549053989E-002  -1.6186632491757613E-002   8.4163917191643622E-003
   5.3030602597544108E-002  -1.4818097800241403E-002   8.3422306115188416E-003
   4.9751139646034170E-002  -1.3169698763149260E-002   8.4912206618798780E-003
   4.6471676694524122E-002  -1.1241435380481946E-002   8.8633618702467221E-003
   5.5691470393394643E-002  -1.6488597380559189E-002   1.5024762863338315E-002
   5.2631084426805530E-002  -1.5643723230454987E-002   1.4769116088334366E-002
   4.9570698460216375E-002  -1.4656451143285371E-002   1.4728472125165398E-002
   4.6510312493627283E-002  -1.3526781119050472E-002   1.4902830973831965E-002
   4.3449926527038052E-002  -1.2254713157750396E-002   1.5292192634333790E-002
   5.1628020808637813E-002  -1.5701891923419586E-002   2.1160758750279826E-002
   4.8778563480798579E-002  -1.5100813969151888E-002   2.0809311057412502E-002
   4.5929106152959268E-002  -1.4494804486329102E-002   2.0664717830209900E-002
   4.3079648825120061E-002  -1.3883863474951515E-002   2.0726979068671447E-002
   4.0230191497280798E-002  -1.3267990935018958E-002   2.0996094772797652E-002
   4.7399179746293651E-002  -1.4915186466280150E-002   2.7121691645639323E-002
   4.4752502711033315E-002  -1.4557904707848845E-002   2.6536976626399034E-002
   4.2105825675772951E-002  -1.4333157829372958E-002   2.6150967726652569E-002
   3.9459148640512517E-002  -1.4240945830852423E-002   2.5963664946399248E-002
   3.6812471605252250E-002  -1.4281268712287298E-002   2.5975068285639225E-002
   9.0362451469024163E-002   0.0000000000000000        4.9835967600468961E-002
   9.3962412779447960E-002  -5.4044287442318959E-003   5.3209526811422866E-002
   9.7562374089871770E-002  -1.0670823828062146E-002   5.4964327867605647E-002
  0.10116233540029557       -1.5799185251490742E-002   5.5100370769017325E-002
  0.10476229671071938       -2.0789513014517685E-002   5.3617655515657878E-002
   8.2425370855275154E-002   0.0000000000000000        4.4784283656034957E-002
   8.4635664013415671E-002  -4.5743010897558983E-003   4.8267784568415323E-002
   8.6845957171556160E-002  -9.0373597301529988E-003   5.0590707331000198E-002
   8.9056250329696676E-002  -1.3389175921191297E-002   5.1753051943789610E-002
   9.1266543487837193E-002  -1.7629749662870804E-002   5.1754818406783518E-002
   7.4244503885584567E-002   0.0000000000000000        4.0576122971598370E-002
   7.5523308896417424E-002  -3.7441734352798980E-003   4.4142774374362342E-002
   7.6802113907250252E-002  -7.4038956322438534E-003   4.7007027632306478E-002
   7.8080918918083123E-002  -1.0979166590891863E-002   4.9168882745430770E-002
   7.9359723928915965E-002  -1.4469986311223924E-002   5.0628339713735190E-002
   6.5819850559952417E-002   0.0000000000000000        3.7211485547159216E-002
   6.6625347428453233E-002  -2.9140457808038978E-003   4.0834496229263939E-002
   6.7430844296954048E-002  -5.7704315343347053E-003   4.4213288771524466E-002
   6.8236341165454864E-002  -8.5691572605924200E-003   4.7347863173940775E-002
   6.9041838033955694E-002  -1.1310222959577045E-002   5.0238219436512868E-002
   5.7151410878378689E-002   0.0000000000000000        3.4690371382717480E-002
   5.7941779609523111E-002  -2.0839181263279001E-003   3.8342950133120120E-002
   5.8732148340667534E-002  -4.1369674364255624E-003   4.2209490748654190E-002
   5.9522517071811956E-002  -6.1591479302929852E-003   4.6289993229319641E-002
   6.0312885802956379E-002  -8.1504596079301616E-003   5.0584457575116544E-002
  0.10476229671071938       -2.0789513014517685E-002   5.3617655515657878E-002
  0.10210734943061410       -2.4929638235920482E-002   4.5637182463100265E-002
   9.9452402150508837E-002  -2.7507392034476580E-002   3.9345248862689912E-002
   9.6797454870403588E-002  -2.8522774410186039E-002   3.4741854714426729E-002
   9.4142507590298297E-002  -2.7975785363048788E-002   3.1827000018310736E-002
   9.1266543487837193E-002  -1.7629749662870804E-002   5.1754818406783518E-002
   9.0062538035369843E-002  -2.1204457115828149E-002   4.6517112169143740E-002
   8.8858532582902466E-002  -2.3558674440699937E-002   4.2492750134632558E-002
   8.7654527130435131E-002  -2.4692401637486178E-002   3.9681732303249943E-002
   8.6450521677967740E-002  -2.4605638706186900E-002   3.8084058674995959E-002
   7.9359723928915965E-002  -1.4469986311223924E-002   5.0628339713735190E-002
   7.9131465055067920E-002  -1.7479275995735816E-002   4.7791518996252010E-002
   7.8903206181219904E-002  -1.9609956846923279E-002   4.5692847232878891E-002
   7.8674947307371887E-002  -2.0862028864786338E-002   4.4332324423615788E-002
   7.8446688433523842E-002  -2.1235492049324983E-002   4.3709950568462774E-002
   6.9041838033955694E-002  -1.1310222959577045E-002   5.0238219436512868E-002
   6.9314130489708414E-002  -1.3754094875643479E-002   4.9460402944425219E-002
   6.9586422945461135E-002  -1.5661239253146626E-002   4.8945540157429024E-002
   6.9858715401213842E-002  -1.7031656092086508E-002   4.8693631075524317E-002
   7.0131007856966576E-002  -1.7865345392463088E-002   4.8704675698711002E-002
   6.0312885802956379E-002  -8.1504596079301616E-003   5.0584457575116544E-002
   6.0610534339291269E-002  -1.0028913755551146E-002   5.1523764013663292E-002
   6.0908182875626160E-002  -1.1712521659369970E-002   5.2250828908282899E-002
   6.1205831411961023E-002  -1.3201283319386638E-002   5.2765652258975400E-002
   6.1503479948295928E-002  -1.4495198735601171E-002   5.3068234065740731E-002
   9.4142507590298297E-002  -2.7975785363048788E-002   3.1827000018310736E-002
   9.1754729981927047E-002  -2.6781586573907411E-002   3.1251886382407196E-002
   8.9366952373555797E-002  -2.5855339723604293E-002   3.0757331852426101E-002
   8.6979174765184561E-002  -2.5197044812139545E-002   3.0343336428367763E-002
   8.4591397156813297E-002  -2.4806701839513084E-002   3.0009900110231857E-002
   8.6450521677967740E-002  -2.4605638706186900E-002   3.8084058674995959E-002
   8.4190077325263429E-002  -2.3960851164133372E-002   3.7057675434015648E-002
   8.1929632972559119E-002  -2.3420504528656995E-002   3.6205399598446722E-002
   7.9669188619854808E-002  -2.2984598799757720E-002   3.5527231168289007E-002
   7.7408744267150484E-002  -2.2653133977435569E-002   3.5023170143542615E-002
   7.8446688433523842E-002  -2.1235492049324983E-002   4.3709950568462774E-002
   7.6407125635975154E-002  -2.1140115754359378E-002   4.2395808754666940E-002
   7.4367562838426535E-002  -2.0985669333709697E-002   4.1349322645771153E-002
   7.2328000040877860E-002  -2.0772152787375941E-002   4.0570492241775342E-002
   7.0288437243329199E-002  -2.0499566115358095E-002   4.0059317542679586E-002
   7.0131007856966576E-002  -1.7865345392463088E-002   4.8704675698711002E-002
   6.8405874914062303E-002  -1.8319380344585363E-002   4.7266286344360885E-002
   6.6680741971158017E-002  -1.8550834138762400E-002   4.6189100994399504E-002
   6.4955609028253744E-002  -1.8559706774994154E-002   4.5473119648826804E-002
   6.3230476085349485E-002  -1.8345998253280642E-002   4.5118342307642958E-002
   6.1503479948295928E-002  -1.4495198735601171E-002   5.3068234065740731E-002
   6.0186325159524767E-002  -1.5498644934811363E-002   5.1669108203097454E-002
   5.8869170370753600E-002  -1.6115998943815102E-002   5.0724734644331720E-002
   5.7552015581982433E-002  -1.6347260762612330E-002   5.0235113389443364E-002
   5.6234860793211272E-002  -1.6192430391203133E-002   5.0200244438432573E-002
   8.4591397156813297E-002  -2.4806701839513084E-002   3.0009900110231857E-002
   8.2179803612928953E-002  -2.4486568403450787E-002   2.9251781742185498E-002
   7.9768210069044596E-002  -2.4038902101678951E-002   2.8759778750701945E-002
   7.7356616525160210E-002  -2.3463702934197202E-002   2.8533891135781551E-002
   7.4945022981275866E-002  -2.2760970901005761E-002   2.8574118897423839E-002
   7.7408744267150484E-002  -2.2653133977435569E-002   3.5023170143542615E-002
   7.5252386684390327E-002  -2.2325398559018744E-002   3.4428775708137044E-002
   7.3096029101630183E-002  -2.1900681041835290E-002   3.4078737818417096E-002
   7.0939671518870026E-002  -2.1378981425885381E-002   3.3973056474382396E-002
   6.8783313936109869E-002  -2.0760299711168995E-002   3.4111731676033277E-002
   7.0288437243329199E-002  -2.0499566115358095E-002   4.0059317542679586E-002
   6.8365556790815740E-002  -2.0164228714586549E-002   3.9598096272971811E-002
   6.6442676338302253E-002  -1.9762459981991765E-002   3.9359472718071928E-002
   6.4519795885788794E-002  -1.9294259917573612E-002   3.9343446877979908E-002
   6.2596915433275294E-002  -1.8759628521332228E-002   3.9550018752695898E-002
   6.3230476085349485E-002  -1.8345998253280642E-002   4.5118342307642958E-002
   6.1519313932205139E-002  -1.8003058870154430E-002   4.4759743436689627E-002
   5.9808151779060834E-002  -1.7624238922148129E-002   4.4601983449666670E-002
   5.8096989625916501E-002  -1.7209538409261874E-002   4.4645062346574095E-002
   5.6385827472772196E-002  -1.6758957331495489E-002   4.4888980127411882E-002
   5.6234860793211272E-002  -1.6192430391203133E-002   5.0200244438432573E-002
   5.4713658108558605E-002  -1.5841889025722283E-002   4.9913717199290386E-002
   5.3192455423905896E-002  -1.5486017862304587E-002   4.9806270013201190E-002
   5.1671252739253222E-002  -1.5124816900950038E-002   4.9877902880164811E-002
   5.0150050054600548E-002  -1.4758286141658694E-002   5.0128615800181298E-002
   7.4945022981275866E-002  -2.2760970901005761E-002   2.8574118897423839E-002
   7.2705619128256821E-002  -2.2011889207338639E-002   2.8271150745941998E-002
   7.0466215275237776E-002  -2.1297641058429628E-002   2.8121218997755715E-002
   6.8226811422218731E-002  -2.0618226454279007E-002   2.8124323652864963E-002
   6.5987407569199658E-002  -1.9973645394886663E-002   2.8280464711269770E-002
   6.8783313936109869E-002  -2.0760299711168995E-002   3.4111731676033277E-002
   6.6703975428323917E-002  -2.0100474613452698E-002   3.3766338570057869E-002
   6.4624636920538006E-002  -1.9455344848503045E-002   3.3588039751252873E-002
   6.2545298412752040E-002  -1.8824910416320079E-002   3.3576835219618656E-002
   6.0465959904966116E-002  -1.8209171316903916E-002   3.3732724975155143E-002
   6.2596915433275294E-002  -1.8759628521332228E-002   3.9550018752695898E-002
   6.0691700154597503E-002  -1.8189060019566765E-002   3.9182338904218503E-002
   5.8786484875919719E-002  -1.7613048638576406E-002   3.8995811226786692E-002
   5.6881269597241921E-002  -1.7031594378361152E-002   3.8990435720400590E-002
   5.4976054318564151E-002  -1.6444697238921058E-002   3.9166212385059976E-002
   5.6385827472772196E-002  -1.6758957331495489E-002   4.4888980127411882E-002
   5.4668793307077551E-002  -1.6277645425680800E-002   4.4519151748424066E-002
   5.2951759141382920E-002  -1.5770752428649740E-002   4.4344533424356923E-002
   5.1234724975688262E-002  -1.5238278340402225E-002   4.4365125155210447E-002
   4.9517690809993617E-002  -1.4680223160938227E-002   4.4580926940984651E-002
   5.0150050054600548E-002  -1.4758286141658694E-002   5.0128615800181298E-002
   4.8635254885764104E-002  -1.4366230831794946E-002   4.9776777102674669E-002
   4.7120459716927632E-002  -1.3928456218723212E-002   4.9634206343963816E-002
   4.5605664548091174E-002  -1.3444962302443304E-002   4.9700903524048531E-002
   4.4090869379254716E-002  -1.2915749082955452E-002   4.9976868642928995E-002
   6.5987407569199658E-002  -1.9973645394886663E-002   2.8280464711269770E-002
   6.3428025873165955E-002  -1.9332469395069996E-002   2.7933935578000280E-002
   6.0868644177132183E-002  -1.8663269969646623E-002   2.7810170805962153E-002
   5.8309262481098419E-002  -1.7966047118616546E-002   2.7909170395155378E-002
   5.5749880785064654E-002  -1.7240800841979265E-002   2.8230934345579883E-002
   6.0465959904966116E-002  -1.8209171316903916E-002   3.3732724975155143E-002
   5.8124953286703834E-002  -1.7591574032316301E-002   3.3436566200615123E-002
   5.5783946668441511E-002  -1.6955565044619703E-002   3.3354393220386913E-002
   5.3442940050179202E-002  -1.6301144353813787E-002   3.3486206034470015E-002
   5.1101933431916852E-002  -1.5628311959898722E-002   3.3832004642864844E-002
   5.4976054318564151E-002  -1.6444697238921058E-002   3.9166212385059976E-002
   5.2844644211153445E-002  -1.5850678669562662E-002   3.8910812246752136E-002
   5.0713234103742760E-002  -1.5247860119592727E-002   3.8860619335836066E-002
   4.8581823996332110E-002  -1.4636241589011362E-002   3.9015633652311747E-002
   4.6450413888921446E-002  -1.4015823077818207E-002   3.9375855196179088E-002
   4.9517690809993617E-002  -1.4680223160938227E-002   4.4580926940984651E-002
   4.7587098646514801E-002  -1.4109783306808968E-002   4.4356673716411277E-002
   4.5656506483035944E-002  -1.3540155194565889E-002   4.4328849152309668E-002
   4.3725914319557108E-002  -1.2971338824208783E-002   4.4497453248680180E-002
   4.1795322156078223E-002  -1.2403334195737678E-002   4.4862486005522423E-002
   4.4090869379254716E-002  -1.2915749082955452E-002   4.9976868642928995E-002
   4.2352316592787903E-002  -1.2368887944055273E-002   4.9774150609592227E-002
   4.0613763806321049E-002  -1.1832450269538844E-002   4.9759082669807858E-002
   3.8875211019854201E-002  -1.1306436059406320E-002   4.9931664823575320E-002
   3.7136658233387382E-002  -1.0790845313657149E-002   5.0291897070894931E-002
   5.5749880785064654E-002  -1.7240800841979265E-002   2.8230934345579883E-002
   5.3662205525371903E-002  -1.6541006451417789E-002   2.7828139499187388E-002
   5.1574530265679153E-002  -1.5920139258614019E-002   2.7509000767066555E-002
   4.9486855005986374E-002  -1.5378199263568343E-002   2.7273518149217135E-002
   4.7399179746293651E-002  -1.4915186466280150E-002   2.7121691645639323E-002
   5.1101933431916852E-002  -1.5628311959898722E-002   3.3832004642864844E-002
   4.9115308069952998E-002  -1.4967060281997069E-002   3.3382781223635194E-002
   4.7128682707989075E-002  -1.4347381739231085E-002   3.3052001485591773E-002
   4.5142057346025215E-002  -1.3769276331601292E-002   3.2839665428734281E-002
   4.3155431984061327E-002  -1.3232744059107071E-002   3.2745773053063199E-002
   4.6450413888921446E-002  -1.4015823077818207E-002   3.9375855196179088E-002
   4.4599625991600993E-002  -1.3393114112576335E-002   3.8917557266734057E-002
   4.2748838094280567E-002  -1.2774624219848263E-002   3.8612490585389916E-002
   4.0898050196960134E-002  -1.2160353399634241E-002   3.8460655152146597E-002
   3.9047262299639687E-002  -1.1550301651934020E-002   3.8462050967004016E-002
   4.1795322156078223E-002  -1.2403334195737678E-002   4.4862486005522423E-002
   4.0115159290315949E-002  -1.1819167943155635E-002   4.4432467628484129E-002
   3.8434996424553614E-002  -1.1201866700465496E-002   4.4190468066461368E-002
   3.6754833558791333E-002  -1.0551430467667301E-002   4.4136487319453993E-002
   3.5074670693028998E-002  -9.8678592447608987E-003   4.4270525387462026E-002
   3.7136658233387382E-002  -1.0790845313657149E-002   5.0291897070894931E-002
   3.5661907966097806E-002  -1.0245221773734881E-002   4.9927512308885424E-002
   3.4187157698808229E-002  -9.6291091810824930E-003   4.9785933928805953E-002
   3.2712407431518681E-002  -8.9425075357002747E-003   4.9867161930656587E-002
   3.1237657164229105E-002  -8.1854168375878333E-003   5.0171196314437172E-002
   4.7399179746293651E-002  -1.4915186466280150E-002   2.7121691645639323E-002
   4.4752502711033315E-002  -1.4557904707848845E-002   2.6536976626399034E-002
   4.2105825675772951E-002  -1.4333157829372958E-002   2.6150967726652569E-002
   3.9459148640512517E-002  -1.4240945830852423E-002   2.5963664946399248E-002
   3.6812471605252250E-002  -1.4281268712287298E-002   2.5975068285639225E-002
   4.3155431984061327E-002  -1.3232744059107071E-002   3.2745773053063199E-002
   4.0705749784772899E-002  -1.2740731393821952E-002   3.2204924348493758E-002
   3.8256067585484610E-002  -1.2296184807819119E-002   3.1859359196375059E-002
   3.5806385386196238E-002  -1.1899104301098192E-002   3.1709077596706589E-002
   3.3356703186907810E-002  -1.1549489873659335E-002   3.1754079549489500E-002
   3.9047262299639687E-002  -1.1550301651934020E-002   3.8462050967004016E-002
   3.6791152369280627E-002  -1.0923558079795087E-002   3.8050137377778584E-002
   3.4535042438921505E-002  -1.0259211786265161E-002   3.7830084773961069E-002
   3.2278932508562411E-002  -9.5572627713438763E-003   3.7801893155551367E-002
   3.0022822578203323E-002  -8.8177110350314836E-003   3.7965562522549456E-002
   3.5074670693028998E-002  -9.8678592447608987E-003   4.4270525387462026E-002
   3.3008710464556355E-002  -9.1063847657683189E-003   4.4072615714253818E-002
   3.0942750236083706E-002  -8.2222387647112073E-003   4.4063144459410772E-002
   2.8876790007611130E-002  -7.2154212415897695E-003   4.4242111622932623E-002
   2.6810829779138456E-002  -6.0859321964035762E-003   4.4609517204820065E-002
   3.1237657164229105E-002  -8.1854168375878333E-003   5.0171196314437172E-002
   2.9358424070600186E-002  -7.2892114517412732E-003   5.0272359357919572E-002
   2.7479190976971268E-002  -6.1852657431573504E-003   5.0558538252724355E-002
   2.5599957883342350E-002  -4.8735797118352707E-003   5.1029732998851288E-002
   2.3720724789713432E-002  -3.3541533577756688E-003   5.1685943596300854E-002
   5.7151410878378689E-002   0.0000000000000000        3.4690371382717480E-002
   5.7941779609523111E-002  -2.0839181263279001E-003   3.8342950133120120E-002
   5.8732148340667534E-002  -4.1369674364255624E-003   4.2209490748654190E-002
   5.9522517071811956E-002  -6.1591479302929852E-003   4.6289993229319641E-002
   6.0312885802956379E-002  -8.1504596079301616E-003   5.0584457575116544E-002
   4.8651263299806402E-002   0.0000000000000000        3.2789540722322125E-002
   4.9590283959961991E-002  -1.7092797600472024E-003   3.6965643532964582E-002
   5.0529304620117586E-002  -3.4325014674934078E-003   4.1225088336497968E-002
   5.1468325280273182E-002  -5.1696651223386205E-003   4.5567875132922250E-002
   5.2407345940428757E-002  -6.9207707245828240E-003   4.9994003922237490E-002
   4.0731486283178561E-002   0.0000000000000000        3.1285753810022077E-002
   4.1688539000104816E-002  -1.3346413937665074E-003   3.5940569917275116E-002
   4.2645591717031091E-002  -2.7280354985612576E-003   4.0548108145178577E-002
   4.3602644433957352E-002  -4.1801823143842523E-003   4.5108368493732454E-002
   4.4559697150883620E-002  -5.6910818412354873E-003   4.9621350962936767E-002
   3.3392079828495166E-002   0.0000000000000000        3.0179010645817354E-002
   3.4236544729951607E-002  -9.6000302748581101E-004   3.5267729286051722E-002
   3.5081009631408047E-002  -2.0235695296291060E-003   4.0178550174696015E-002
   3.5925474532864488E-002  -3.1906995064298876E-003   4.4911473311750251E-002
   3.6769939434320928E-002  -4.4613929578881471E-003   4.9466498697214402E-002
   2.6633043935756218E-002   0.0000000000000000        2.9469311229707938E-002
   2.7234301149502337E-002  -5.8536466120511464E-004   3.4947121639294407E-002
   2.7835558363248459E-002  -1.3191035606969544E-003   4.0116414425050297E-002
   2.8436815576994578E-002  -2.2012166984755228E-003   4.4977189586975629E-002
   2.9038072790740700E-002  -3.2317040745408095E-003   4.9529447125070403E-002
   6.0312885802956379E-002  -8.1504596079301616E-003   5.0584457575116544E-002
   6.0610534339291269E-002  -1.0028913755551146E-002   5.1523764013663292E-002
   6.0908182875626160E-002  -1.1712521659369970E-002   5.2250828908282899E-002
   6.1205831411961023E-002  -1.3201283319386638E-002   5.2765652258975400E-002
   6.1503479948295928E-002  -1.4495198735601171E-002   5.3068234065740731E-002
   5.2407345940428757E-002  -6.9207707245828240E-003   4.9994003922237490E-002
   5.2531745178119219E-002  -8.5843453261577399E-003   5.1222118775319243E-002
   5.2656144415809673E-002  -1.0058915978995071E-002   5.2315976575039259E-002
   5.2780543653500142E-002  -1.1344482683094785E-002   5.3275577321397496E-002
   5.2904942891190590E-002  -1.2441045438456956E-002   5.4100921014394038E-002
   4.4559697150883620E-002  -5.6910818412354873E-003   4.9621350962936767E-002
   4.4588831580495022E-002  -7.1397768967643282E-003   5.1132431935488970E-002
   4.4617966010106418E-002  -8.4053102986201503E-003   5.2587240345244819E-002
   4.4647100439717813E-002  -9.4876820468029407E-003   5.3985776192204273E-002
   4.4676234869329229E-002  -1.0386892141312717E-002   5.5328039476367386E-002
   3.6769939434320928E-002  -4.4613929578881471E-003   4.9466498697214402E-002
   3.6781793546418647E-002  -5.6952084673709191E-003   5.1254703494172493E-002
   3.6793647658516372E-002  -6.7517046182452431E-003   5.3064620218899641E-002
   3.6805501770614112E-002  -7.6308814105110825E-003   5.4896248871395721E-002
   3.6817355882711830E-002  -8.3327388441684826E-003   5.6749589451660858E-002
   2.9038072790740700E-002  -3.2317040745408095E-003   4.9529447125070403E-002
   2.9110631075890119E-002  -4.2506400379775074E-003   5.1588933451369813E-002
   2.9183189361039551E-002  -5.0980989378703158E-003   5.3748116196003635E-002
   2.9255747646188979E-002  -5.7740807742192269E-003   5.6006995358971821E-002
   2.9328305931338408E-002  -6.2785855470242555E-003   5.8365570940274412E-002
   6.1503479948295928E-002  -1.4495198735601171E-002   5.3068234065740731E-002
   6.0186325159524767E-002  -1.5498644934811363E-002   5.1669108203097454E-002
   5.8869170370753600E-002  -1.6115998943815102E-002   5.0724734644331720E-002
   5.7552015581982433E-002  -1.6347260762612330E-002   5.0235113389443364E-002
   5.6234860793211272E-002  -1.6192430391203133E-002   5.0200244438432573E-002
   5.2904942891190590E-002  -1.2441045438456956E-002   5.4100921014394038E-002
   5.1989641519722504E-002  -1.3290637131455250E-002   5.3364240483518600E-002
   5.1074340148254412E-002  -1.3835290648463455E-002   5.2976514483371838E-002
   5.0159038776786333E-002  -1.4075005989481632E-002   5.2937743013953827E-002
   4.9243737405318240E-002  -1.4009783154509681E-002   5.3247926075264546E-002
   4.4676234869329229E-002  -1.0386892141312717E-002   5.5328039476367386E-002
   4.4056989142015418E-002  -1.1082629328099123E-002   5.5172650263043431E-002
   4.3437743414701614E-002  -1.1554582353111853E-002   5.5260417807299372E-002
   4.2818497687387817E-002  -1.1802751216350865E-002   5.5591342109135217E-002
   4.2199251960074007E-002  -1.1827135917816214E-002   5.6165423168550922E-002
   3.6817355882711830E-002  -8.3327388441684826E-003   5.6749589451660858E-002
   3.6388368026403509E-002  -8.8746215247430087E-003   5.7094337541671987E-002
   3.5959380170095194E-002  -9.2738740577602216E-003   5.7576444616114220E-002
   3.5530392313786879E-002  -9.5304964432201527E-003   5.8195910674987548E-002
   3.5101404457478565E-002  -9.6444886811227551E-003   5.8952735718291890E-002
   2.9328305931338408E-002  -6.2785855470242555E-003   5.8365570940274412E-002
   2.8983778172886783E-002  -6.6666137213868826E-003   5.9129302319404199E-002
   2.8639250414435158E-002  -6.9931657624085920E-003   5.9924594909816303E-002
   2.8294722655983533E-002  -7.2582416700893958E-003   6.0751448711510739E-002
   2.7950194897531908E-002  -7.4618414444292819E-003   6.1609863724487388E-002
   5.6234860793211272E-002  -1.6192430391203133E-002   5.0200244438432573E-002
   5.4713658108558605E-002  -1.5841889025722283E-002   4.9913717199290386E-002
   5.3192455423905896E-002  -1.5486017862304587E-002   4.9806270013201190E-002
   5.1671252739253222E-002  -1.5124816900950038E-002   4.9877902880164811E-002
   5.0150050054600548E-002  -1.4758286141658694E-002   5.0128615800181298E-002
   4.9243737405318240E-002  -1.4009783154509681E-002   5.3247926075264546E-002
   4.7907504286811203E-002  -1.3778947545974952E-002   5.2929734876400063E-002
   4.6571271168304187E-002  -1.3521824566304845E-002   5.2802402756774017E-002
   4.5235038049797158E-002  -1.3238414215499176E-002   5.2865929716386463E-002
   4.3898804931290128E-002  -1.2928716493558062E-002   5.3120315755237402E-002
   4.2199251960074007E-002  -1.1827135917816214E-002   5.6165423168550922E-002
   4.1059767433898206E-002  -1.1716006066227677E-002   5.5836525583162884E-002
   3.9920282907722399E-002  -1.1557631270305017E-002   5.5710266103198791E-002
   3.8780798381546598E-002  -1.1352011530048230E-002   5.5786644728658824E-002
   3.7641313855370798E-002  -1.1099146845457403E-002   5.6065661459542754E-002
   3.5101404457478565E-002  -9.6444886811227551E-003   5.8952735718291890E-002
   3.4170447549819551E-002  -9.6530645864803880E-003   5.8634089319578822E-002
   3.3239490642160550E-002  -9.5934379743051763E-003   5.8529860052475347E-002
   3.2308533734501543E-002  -9.4656088445973542E-003   5.8640047916981429E-002
   3.1377576826842529E-002  -9.2695771973567431E-003   5.8964652913097111E-002
   2.7950194897531908E-002  -7.4618414444292819E-003   6.1609863724487388E-002
   2.7239544634575272E-002  -7.5901231067330502E-003   6.1322426085647960E-002
   2.6528894371618622E-002  -7.6292446783054503E-003   6.1261184604603731E-002
   2.5818244108661986E-002  -7.5792061591463964E-003   6.1426139281354569E-002
   2.5107593845705350E-002  -7.4400075492560835E-003   6.1817290115900647E-002
   5.0150050054600548E-002  -1.4758286141658694E-002   5.0128615800181298E-002
   4.8635254885764104E-002  -1.4366230831794946E-002   4.9776777102674669E-002
   4.7120459716927632E-002  -1.3928456218723212E-002   4.9634206343963816E-002
   4.5605664548091174E-002  -1.3444962302443304E-002   4.9700903524048531E-002
   4.4090869379254716E-002  -1.2915749082955452E-002   4.9976868642928995E-002
   4.3898804931290128E-002  -1.2928716493558062E-002   5.3120315755237402E-002
   4.2588961981836024E-002  -1.2588287397151329E-002   5.2798362726210427E-002
   4.1279119032381899E-002  -1.2212682922949046E-002   5.2677046197152438E-002
   3.9969276082927788E-002  -1.1801903070951031E-002   5.2756366168063312E-002
   3.8659433133473656E-002  -1.1355947841157454E-002   5.3036322638943284E-002
   3.7641313855370798E-002  -1.1099146845457403E-002   5.6065661459542754E-002
   3.6527791686472300E-002  -1.0810343962507796E-002   5.5763050173582913E-002
   3.5414269517573815E-002  -1.0496909627174991E-002   5.5652443948765382E-002
   3.4300747348675317E-002  -1.0158843839458812E-002   5.5733842785090019E-002
   3.3187225179776826E-002  -9.7961465993594565E-003   5.6007246682556966E-002
   3.1377576826842529E-002  -9.2695771973567431E-003   5.8964652913097111E-002
   3.0451743999672938E-002  -9.0324005278642067E-003   5.8670839444792101E-002
   2.9525911172503361E-002  -8.7811363314008808E-003   5.8560399598802659E-002
   2.8600078345333780E-002  -8.5157846079665939E-003   5.8633333375128702E-002
   2.7674245518164192E-002  -8.2363453575614587E-003   5.8889640773770346E-002
   2.5107593845705350E-002  -7.4400075492560835E-003   6.1817290115900647E-002
   2.4360818921437953E-002  -7.2544570932206592E-003   6.1521730539838004E-002
   2.3614043997170549E-002  -7.0653630356267913E-003   6.1400913147264244E-002
   2.2867269072903151E-002  -6.8727253764742976E-003   6.1454837938179262E-002
   2.2120494148635747E-002  -6.6765441157635164E-003   6.1683504912583231E-002
   4.4090869379254716E-002  -1.2915749082955452E-002   4.9976868642928995E-002
   4.2352316592787903E-002  -1.2368887944055273E-002   4.9774150609592227E-002
   4.0613763806321049E-002  -1.1832450269538844E-002   4.9759082669807858E-002
   3.8875211019854201E-002  -1.1306436059406320E-002   4.9931664823575320E-002
   3.7136658233387382E-002  -1.0790845313657149E-002   5.0291897070894931E-002
   3.8659433133473656E-002  -1.1355947841157454E-002   5.3036322638943284E-002
   3.7114136021285798E-002  -1.0894347058628559E-002   5.2791284610063091E-002
   3.5568838909097934E-002  -1.0436630548425127E-002   5.2745107836188826E-002
   3.4023541796910042E-002  -9.9827983105470718E-003   5.2897792317320280E-002
   3.2478244684722213E-002  -9.5328503449941815E-003   5.3249338053457662E-002
   3.3187225179776826E-002  -9.7961465993594565E-003   5.6007246682556966E-002
   3.1846394903321619E-002  -9.4198061732019001E-003   5.5726427850191648E-002
   3.0505564626866436E-002  -9.0408108273112922E-003   5.5655681434286057E-002
   2.9164734350411226E-002  -8.6591605616877666E-003   5.5795007434839894E-002
   2.7823904073956018E-002  -8.2748553763312693E-003   5.6144405851853332E-002
   2.7674245518164192E-002  -8.2363453575614587E-003   5.8889640773770346E-002
   2.6549093238895385E-002  -7.9452652877751856E-003   5.8579580329978342E-002
   2.5423940959626586E-002  -7.6449911061974608E-003   5.8490803464099503E-002
   2.4298788680357772E-002  -7.3355228128287120E-003   5.8623310176133973E-002
   2.3173636401088979E-002  -7.0168604076683572E-003   5.8977100466081650E-002
   2.2120494148635747E-002  -6.6765441157635164E-003   6.1683504912583231E-002
   2.1222231028007063E-002  -6.4707244023484711E-003   6.1350742049422702E-002
   2.0323967907378372E-002  -6.2491713850836850E-003   6.1250473925629184E-002
   1.9425704786749678E-002  -6.0118850639693661E-003   6.1382700541202651E-002
   1.8527441666120983E-002  -5.7588654390053895E-003   6.1747421896143184E-002
   3.7136658233387382E-002  -1.0790845313657149E-002   5.0291897070894931E-002
   3.5661907966097806E-002  -1.0245221773734881E-002   4.9927512308885424E-002
   3.4187157698808229E-002  -9.6291091810824930E-003   4.9785933928805953E-002
   3.2712407431518681E-002  -8.9425075357002747E-003   4.9867161930656587E-002
   3.1237657164229105E-002  -8.1854168375878333E-003   5.0171196314437172E-002
   3.2478244684722213E-002  -9.5328503449941815E-003   5.3249338053457662E-002
   3.1217236153923272E-002  -9.0574506675866195E-003   5.2942599958290371E-002
   2.9956227623124346E-002  -8.5272632941437304E-003   5.2840538954174204E-002
   2.8695219092325398E-002  -7.9422882246658229E-003   5.2943155041109385E-002
   2.7434210561526493E-002  -7.3025254591529420E-003   5.3250448219095747E-002
   2.7823904073956018E-002  -8.2748553763312693E-003   5.6144405851853332E-002
   2.6758507988768943E-002  -7.8696795614381920E-003   5.5879613066833297E-002
   2.5693111903581811E-002  -7.4254174072049192E-003   5.5801368081985554E-002
   2.4627715818394708E-002  -6.9420689136315394E-003   5.5909670897310221E-002
   2.3562319733207604E-002  -6.4196340807179675E-003   5.6204521512807429E-002
   2.3173636401088979E-002  -7.0168604076683572E-003   5.8977100466081650E-002
   2.2285723470634830E-002  -6.6819084552898478E-003   5.8738551634514038E-002
   2.1397810540180695E-002  -6.3235715202661878E-003   5.8668421312239885E-002
   2.0509897609726553E-002  -5.9418496025973383E-003   5.8766709499259238E-002
   1.9621984679272383E-002  -5.5367427022830901E-003   5.9033416195572341E-002
   1.8527441666120983E-002  -5.7588654390053895E-003   6.1747421896143184E-002
   1.7798882599520963E-002  -5.4941373491414203E-003   6.1519415661332733E-002
   1.7070323532920963E-002  -5.2217256333272483E-003   6.1441698644937204E-002
   1.6341764466320938E-002  -4.9416302915628076E-003   6.1514270846956279E-002
   1.5613205399720928E-002  -4.6538513238481571E-003   6.1737132267390027E-002
   3.1237657164229105E-002  -8.1854168375878333E-003   5.0171196314437172E-002
   2.9358424070600186E-002  -7.2892114517412732E-003   5.0272359357919572E-002
   2.7479190976971268E-002  -6.1852657431573504E-003   5.0558538252724355E-002
   2.5599957883342350E-002  -4.8735797118352707E-003   5.1029732998851288E-002
   2.3720724789713432E-002  -3.3541533577756688E-003   5.1685943596300854E-002
   2.7434210561526493E-002  -7.3025254591529420E-003   5.3250448219095747E-002
   2.5746039196568274E-002  -6.5980667784713842E-003   5.3430385142829911E-002
   2.4057867831610048E-002  -5.8190039634886531E-003   5.3807429672582979E-002
   2.2369696466651743E-002  -4.9653370142044261E-003   5.4381581808355339E-002
   2.0681525101693576E-002  -4.0370659306188106E-003   5.5152841550146658E-002
   2.3562319733207604E-002  -6.4196340807179675E-003   5.6204521512807429E-002
   2.2077301851616798E-002  -5.9069221052016896E-003   5.6330096128357030E-002
   2.0592283970026021E-002  -5.4527421838204068E-003   5.6664870104622352E-002
   1.9107266088435243E-002  -5.0570943165737219E-003   5.7208843441603485E-002
   1.7622248206844424E-002  -4.7199785034619524E-003   5.7962016139300743E-002
   1.9621984679272383E-002  -5.5367427022830901E-003   5.9033416195572341E-002
   1.8352212035745795E-002  -5.2157774319318423E-003   5.8971492314500940E-002
   1.7082439392219192E-002  -5.0864804041516574E-003   5.9130859548842285E-002
   1.5812666748692562E-002  -5.1488516189429475E-003   5.9511517898595850E-002
   1.4542894105166026E-002  -5.4028910763050941E-003   6.0113467363762330E-002
   1.5613205399720928E-002  -4.6538513238481571E-003   6.1737132267390027E-002
   1.4570769748955270E-002  -4.5246327586619395E-003   6.1354573701261572E-002
   1.3528334098189605E-002  -4.7202186244834771E-003   6.1205398005242301E-002
   1.2485898447423930E-002  -5.2406089213121489E-003   6.1289605179332643E-002
   1.1443462796658255E-002  -6.0858036491482359E-003   6.1607195223531974E-002
   2.6633043935756218E-002   0.0000000000000000        2.9469311229707938E-002
   2.7234301149502337E-002  -5.8536466120511464E-004   3.4947121639294407E-002
   2.7835558363248459E-002  -1.3191035606969544E-003   4.0116414425050297E-002
   2.8436815576994578E-002  -2.2012166984755228E-003   4.4977189586975629E-002
   2.9038072790740700E-002  -3.2317040745408095E-003   4.9529447125070403E-002
   2.0116874781587399E-002   0.0000000000000000        2.9021983828728636E-002
   2.0449143241199959E-002  -4.3907237442867425E-004   3.4314903789532725E-002
   2.0781411700812515E-002  -9.8933497792098608E-004   3.9378363865900282E-002
   2.1113680160425075E-002  -1.6507878104769389E-003   4.4212364057831258E-002
   2.1445948620037635E-002  -2.4234308720965303E-003   4.8816904365325681E-002
   1.3506068542614377E-002   0.0000000000000000        2.8702356709914237E-002
   1.3648405987487391E-002  -2.9278008765223039E-004   3.3847570231159044E-002
   1.3790743432360404E-002  -6.5956639514501512E-004   3.8842381607361316E-002
   1.3933080877233418E-002  -1.1003589224783551E-003   4.3686790838521040E-002
   1.4075418322106435E-002  -1.6151576696522511E-003   4.8380797924638244E-002
   6.8006252188371561E-003   0.0000000000000000        2.8510429873264728E-002
   6.8320893883646429E-003  -1.4648780087578696E-004   3.3545120964173336E-002
   6.8635535578921306E-003  -3.2979781236904719E-004   3.8508467649433414E-002
   6.8950177274196157E-003  -5.4993003447977463E-004   4.3400469929044977E-002
   6.9264818969471042E-003  -8.0688446720797707E-004   4.8221127803008031E-002
   5.4481025573652891E-007   0.0000000000000000        2.8446203318780127E-002
   1.9344383171259610E-007  -1.9551409934526892E-007   3.3407555988575609E-002
  -1.5792259231198723E-007  -2.9229593075802418E-008   3.8376621992116597E-002
  -5.0928901633581162E-007   4.9885351881100159E-007   4.3353401329403067E-002
  -8.6065544036050337E-007   1.3887352363064695E-006   4.8337894000435054E-002
   2.9038072790740700E-002  -3.2317040745408095E-003   4.9529447125070403E-002
   2.9110631075890119E-002  -4.2506400379775074E-003   5.1588933451369813E-002
   2.9183189361039551E-002  -5.0980989378703158E-003   5.3748116196003635E-002
   2.9255747646188979E-002  -5.7740807742192269E-003   5.6006995358971821E-002
   2.9328305931338408E-002  -6.2785855470242555E-003   5.8365570940274412E-002
   2.1445948620037635E-002  -2.4234308720965303E-003   4.8816904365325681E-002
   2.1588756898672509E-002  -3.1874552192832448E-003   5.1218490500284687E-002
   2.1731565177307385E-002  -3.8230519085405649E-003   5.3660880203880185E-002
   2.1874373455942259E-002  -4.3302209398684826E-003   5.6144073476112208E-002
   2.2017181734577125E-002  -4.7089623132670136E-003   5.8668070316980736E-002
   1.4075418322106435E-002  -1.6151576696522511E-003   4.8380797924638244E-002
   1.4229583744528871E-002  -2.1242704005889749E-003   5.1081434462642315E-002
   1.4383749166951310E-002  -2.5480048792108066E-003   5.3763981719584991E-002
   1.4537914589373747E-002  -2.8863611055177352E-003   5.6428439695466293E-002
   1.4692080011796189E-002  -3.1393390795097752E-003   5.9074808390286199E-002
   6.9264818969471042E-003  -8.0688446720797707E-004   4.8221127803008031E-002
   7.0331116134592182E-003  -1.0610855818947087E-003   5.1177765338442656E-002
   7.1397413299713348E-003  -1.2729578498810519E-003   5.4057420743118020E-002
   7.2463710464834496E-003  -1.4425012711669790E-003   5.6860094017034159E-002
   7.3530007629955662E-003  -1.5697158457525281E-003   5.9585785160190974E-002
  -8.6065544036050337E-007   1.3887352363064695E-006   4.8337894000435054E-002
  -6.5949453645179623E-007   2.0992367995575911E-006   5.1507483127685758E-002
  -4.5833363254373961E-007   2.0891794487042006E-006   5.4541197274479321E-002
  -2.5717272863492405E-007   1.3585631837603382E-006   5.7439036440815702E-002
  -5.6011824726975856E-008  -9.2611995294866745E-008   6.0201000626694964E-002
   2.9328305931338408E-002  -6.2785855470242555E-003   5.8365570940274412E-002
   2.8983778172886783E-002  -6.6666137213868826E-003   5.9129302319404199E-002
   2.8639250414435158E-002  -6.9931657624085920E-003   5.9924594909816303E-002
   2.8294722655983533E-002  -7.2582416700893958E-003   6.0751448711510739E-002
   2.7950194897531908E-002  -7.4618414444292819E-003   6.1609863724487388E-002
   2.2017181734577125E-002  -4.7089623132670136E-003   5.8668070316980736E-002
   2.1717710508840568E-002  -5.0000594906590631E-003   5.9485487925235773E-002
   2.1418239283103994E-002  -5.2442959339675712E-003   6.0361457387638762E-002
   2.1118768057367419E-002  -5.4416716431925482E-003   6.1295978704189506E-002
   2.0819296831630866E-002  -5.5921866183340080E-003   6.2289051874888098E-002
   1.4692080011796189E-002  -3.1393390795097752E-003   5.9074808390286199E-002
   1.4464655961640203E-002  -3.3335052599312714E-003   5.9931296828409288E-002
   1.4237231911484214E-002  -3.4954261055265912E-003   6.0873327763545683E-002
   1.4009807861328225E-002  -3.6251016162957405E-003   6.1900901195695454E-002
   1.3782383811172243E-002  -3.7225317922386855E-003   6.3014017124858518E-002
   7.3530007629955662E-003  -1.5697158457525281E-003   5.9585785160190974E-002
   7.2246145312856863E-003  -1.6669510292034659E-003   6.0466729028924637E-002
   7.0962282995758090E-003  -1.7465562770855978E-003   6.1460206037537157E-002
   6.9678420678659318E-003  -1.8085315893988712E-003   6.2566216186028534E-002
   6.8394558361560536E-003  -1.8528769661433873E-003   6.3784759474398808E-002
  -5.6011824726975856E-008  -9.2611995294866745E-008   6.0201000626694964E-002
  -2.4137822229718803E-006  -3.9679847566032045E-007   6.1091784526781850E-002
  -4.7715526212167847E-006   2.3135513554060905E-006   6.2122092209613129E-002
  -7.1293230194599544E-006   8.0384374979208459E-006   6.3291923675188821E-002
  -9.4870934177065935E-006   1.6777859951924712E-005   6.4601278923508823E-002
   2.7950194897531908E-002  -7.4618414444292819E-003   6.1609863724487388E-002
   2.7239544634575272E-002  -7.5901231067330502E-003   6.1322426085647960E-002
   2.6528894371618622E-002  -7.6292446783054503E-003   6.1261184604603731E-002
   2.5818244108661986E-002  -7.5792061591463964E-003   6.1426139281354569E-002
   2.5107593845705350E-002  -7.4400075492560835E-003   6.1817290115900647E-002
   2.0819296831630866E-002  -5.5921866183340080E-003   6.2289051874888098E-002
   2.0322369641242816E-002  -5.6863233271358116E-003   6.2160654140928029E-002
   1.9825442450854769E-002  -5.7145642373420159E-003   6.2233506394310009E-002
   1.9328515260466732E-002  -5.6769093489526185E-003   6.2507608635034073E-002
   1.8831588070078689E-002  -5.5733586619675091E-003   6.2982960863100138E-002
   1.3782383811172243E-002  -3.7225317922386855E-003   6.3014017124858518E-002
   1.3474233522899687E-002  -3.7825235475386250E-003   6.3021395003642164E-002
   1.3166083234627125E-002  -3.7998837963786353E-003   6.3205076699314688E-002
   1.2857932946354574E-002  -3.7746125387587569E-003   6.3565062211876161E-002
   1.2549782658082008E-002  -3.7067097746790040E-003   6.4101351541326568E-002
   6.8394558361560536E-003  -1.8528769661433873E-003   6.3784759474398808E-002
   6.6951362795458760E-003  -1.8787237679413708E-003   6.3904648673790296E-002
   6.5508167229357019E-003  -1.8852033554151862E-003   6.4175895519617623E-002
   6.4064971663255268E-003  -1.8723157285649094E-003   6.4598500011880777E-002
   6.2621776097153501E-003  -1.8400608873904503E-003   6.5172462150579785E-002
  -9.4870934177065935E-006   1.6777859951924712E-005   6.4601278923508823E-002
  -1.4922088818612733E-005   2.5076011655821018E-005   6.4810415151372494E-002
  -2.0357084219517138E-005   2.9477085548176157E-005   6.5145962855218842E-002
  -2.5792079620424145E-005   2.9981081628909466E-005   6.5607922035048005E-002
  -3.1227075021327683E-005   2.6587999898047832E-005   6.6196292690859804E-002
   2.5107593845705350E-002  -7.4400075492560835E-003   6.1817290115900647E-002
   2.4360818921437953E-002  -7.2544570932206592E-003   6.1521730539838004E-002
   2.3614043997170549E-002  -7.0653630356267913E-003   6.1400913147264244E-002
   2.2867269072903151E-002  -6.8727253764742976E-003   6.1454837938179262E-002
   2.2120494148635747E-002  -6.6765441157635164E-003   6.1683504912583231E-002
   1.8831588070078689E-002  -5.5733586619675091E-003   6.2982960863100138E-002
   1.8262972207421749E-002  -5.4355289064638573E-003   6.2688121498789232E-002
   1.7694356344764815E-002  -5.2950368125186803E-003   6.2574858074210371E-002
   1.7125740482107878E-002  -5.1518823801319884E-003   6.2643170589363625E-002
   1.6557124619450934E-002  -5.0060656093038336E-003   6.2893059044248856E-002
   1.2549782658082008E-002  -3.7067097746790040E-003   6.4101351541326568E-002
   1.2166159613278811E-002  -3.6166007197070207E-003   6.3806351125650210E-002
   1.1782536568475607E-002  -3.5247105894105173E-003   6.3699760405949296E-002
   1.1398913523672402E-002  -3.4310393837895690E-003   6.3781579382223730E-002
   1.1015290478869195E-002  -3.3355871028441231E-003   6.4051808054473414E-002
   6.2621776097153501E-003  -1.8400608873904503E-003   6.5172462150579785E-002
   6.0703811390091303E-003  -1.7976725329501599E-003   6.4876419420421036E-002
   5.8785846683029165E-003  -1.7543843663024080E-003   6.4775620142481005E-002
   5.6867881975966941E-003  -1.7101963874471770E-003   6.4870064316759485E-002
   5.4949917268904839E-003  -1.6651085963844542E-003   6.5159751943256669E-002
  -3.1227075021327683E-005   2.6587999898047832E-005   6.6196292690859804E-002
  -2.4363215387294274E-005   2.1255653806617758E-005   6.5898326383101696E-002
  -1.7499355753255660E-005   1.5941856805763710E-005   6.5802437283805512E-002
  -1.0635496119216180E-005   1.0646608895202928E-005   6.5908625392971154E-002
  -3.7716364851836381E-006   5.3699100752147011E-006   6.6216890710598775E-002
   2.2120494148635747E-002  -6.6765441157635164E-003   6.1683504912583231E-002
   2.1222231028007063E-002  -6.4707244023484711E-003   6.1350742049422702E-002
   2.0323967907378372E-002  -6.2491713850836850E-003   6.1250473925629184E-002
   1.9425704786749678E-002  -6.0118850639693661E-003   6.1382700541202651E-002
   1.8527441666120983E-002  -5.7588654390053895E-003   6.1747421896143184E-002
   1.6557124619450934E-002  -5.0060656093038336E-003   6.2893059044248856E-002
   1.5889372188098508E-002  -4.8512896902236924E-003   6.2595342150556788E-002
   1.5221619756746085E-002  -4.6812578130809995E-003   6.2526151896050347E-002
   1.4553867325393646E-002  -4.4959699778760222E-003   6.2685488280729340E-002
   1.3886114894041221E-002  -4.2954261846085418E-003   6.3073351304593878E-002
   1.1015290478869195E-002  -3.3355871028441231E-003   6.4051808054473414E-002
   1.0574080636611614E-002  -3.2318549780988304E-003   6.3788659784462548E-002
   1.0132870794354024E-002  -3.1133442410782586E-003   6.3750070053455718E-002
   9.6916609520964446E-003  -2.9800548917826228E-003   6.3936038861453104E-002
   9.2504511098388635E-003  -2.8319869302116385E-003   6.4346566208454456E-002
   5.4949917268904839E-003  -1.6651085963844542E-003   6.5159751943256669E-002
   5.2763563735463348E-003  -1.6124202659739545E-003   6.4930694951139747E-002
   5.0577210202021883E-003  -1.5454306690756564E-003   6.4922228397845450E-002
   4.8390856668580375E-003  -1.4641398056890291E-003   6.5134352283373886E-002
   4.6204503135138927E-003  -1.3685476758147630E-003   6.5567066607725127E-002
  -3.7716364851836381E-006   5.3699100752147011E-006   6.6216890710598775E-002
  -3.8006010973021254E-006   7.0144461508103717E-006   6.6021447650588483E-002
  -3.8295657094275515E-006   2.2482902927209447E-005   6.6042626929219472E-002
  -3.8585303215486408E-006   5.1775280404269680E-005   6.6280428546491812E-002
  -3.8874949336714648E-006   9.4891578582168012E-005   6.6734852502405462E-002
   1.8527441666120983E-002  -5.7588654390053895E-003   6.1747421896143184E-002
   1.7798882599520963E-002  -5.4941373491414203E-003   6.1519415661332733E-002
   1.7070323532920963E-002  -5.2217256333272483E-003   6.1441698644937204E-002
   1.6341764466320938E-002  -4.9416302915628076E-003   6.1514270846956279E-002
   1.5613205399720928E-002  -4.6538513238481571E-003   6.1737132267390027E-002
   1.3886114894041221E-002  -4.2954261846085418E-003   6.3073351304593878E-002
   1.3314619698788263E-002  -4.0913844336319394E-003   6.2857494502246314E-002
   1.2743124503535305E-002  -3.8956027252995545E-003   6.2805476224178300E-002
   1.2171629308282354E-002  -3.7080810596113213E-003   6.2917296470389628E-002
   1.1600134113029389E-002  -3.5288194365673542E-003   6.3192955240880200E-002
   9.2504511098388635E-003  -2.8319869302116385E-003   6.4346566208454456E-002
   8.8495690917976370E-003  -2.6886315181223891E-003   6.4126915169975304E-002
   8.4486870737564262E-003  -2.5694798172717984E-003   6.4084651961640232E-002
   8.0478050557152084E-003  -2.4745318276597778E-003   6.4219776583449212E-002
   7.6469230376739993E-003  -2.4037875492864125E-003   6.4532289035402327E-002
   4.6204503135138927E-003  -1.3685476758147630E-003   6.5567066607725127E-002
   4.4037307785491078E-003  -1.2858786026129290E-003   6.5327677664519787E-002
   4.1870112435843324E-003  -1.2433569092439624E-003   6.5279225857323320E-002
   3.9702917086195475E-003  -1.2409825957081519E-003   6.5421711186135573E-002
   3.7535721736547721E-003  -1.2787556620055957E-003   6.5755133650956671E-002
  -3.8874949336714648E-006   9.4891578582168012E-005   6.6734852502405462E-002
  -2.2895240957332419E-005   1.1687431289669759E-004   6.6459781985879651E-002
  -4.1902986980989904E-005   8.2765998783818073E-005   6.6389197911227271E-002
  -6.0910733004654327E-005  -7.4333637566786903E-006   6.6523100278448377E-002
  -7.9918479028308342E-005  -1.5372377472461229E-004   6.6861489087543025E-002
   1.5613205399720928E-002  -4.6538513238481571E-003   6.1737132267390027E-002
   1.4570769748955270E-002  -4.5246327586619395E-003   6.1354573701261572E-002
   1.3528334098189605E-002  -4.7202186244834771E-003   6.1205398005242301E-002
   1.2485898447423930E-002  -5.2406089213121489E-003   6.1289605179332643E-002
   1.1443462796658255E-002  -6.0858036491482359E-003   6.1607195223531974E-002
   1.1600134113029389E-002  -3.5288194365673542E-003   6.3192955240880200E-002
   1.0798912529968459E-002  -3.4281440004059471E-003   6.2641229702618900E-002
   9.9976909469075212E-003  -3.4763808953659353E-003   6.2338549429657913E-002
   9.1964693638466009E-003  -3.6735301214468850E-003   6.2284914421996782E-002
   8.3952477807856529E-003  -4.0195916786490704E-003   6.2480324679635935E-002
   7.6469230376739993E-003  -2.4037875492864125E-003   6.4532289035402327E-002
   7.1025779175086443E-003  -2.3316552421498715E-003   6.3987288624894542E-002
   6.5582327973432945E-003  -2.2325431662482201E-003   6.3706995874877770E-002
   6.0138876771779421E-003  -2.1064513215817027E-003   6.3691410785352190E-002
   5.4695425570125966E-003  -1.9533797081500159E-003   6.3940533356317220E-002
   3.7535721736547721E-003  -1.2787556620055957E-003   6.5755133650956671E-002
   3.4817659115758326E-003  -1.2351664838937265E-003   6.5392750468088637E-002
   3.2099596494969047E-003  -9.8870543713059159E-004   6.5310737340902231E-002
   2.9381533874179629E-003  -5.3937252171636866E-004   6.5509094269397994E-002
   2.6663471253390372E-003   1.1283226234903854E-004   6.5987821253575329E-002
  -7.9918479028308342E-005  -1.5372377472461229E-004   6.6861489087543025E-002
  -6.3523487829977160E-005  -1.3867772563780356E-004   6.6857615232201018E-002
  -4.7128496631642508E-005   2.5513229198693976E-004   6.7149773827731490E-002
  -3.0733505433321734E-005   1.0277062781486636E-003   6.7737964874134679E-002
  -1.4338514234976674E-005   2.1790442328482040E-003   6.8622188371410653E-002
   5.4481025573652891E-007   0.0000000000000000        2.8446203318780127E-002
   1.9344383171259610E-007  -1.9551409934526892E-007   3.3407555988575609E-002
  -1.5792259231198723E-007  -2.9229593075802418E-008   3.8376621992116597E-002
  -5.0928901633581162E-007   4.9885351881100159E-007   4.3353401329403067E-002
  -8.6065544036050337E-007   1.3887352363064695E-006   4.8337894000435054E-002
  -6.7995936899743724E-003   0.0000000000000000        2.8509861198027110E-002
  -6.8317054972381903E-003   1.4631471698152605E-004   3.3545064439132334E-002
  -6.8638173045020090E-003   3.2987452413386128E-004   3.8509033464812464E-002
  -6.8959291117658287E-003   5.5067942145701175E-004   4.3401768275067525E-002
  -6.9280409190296474E-003   8.0872940895097573E-004   4.8223268869897494E-002
  -1.3505211288697661E-002   0.0000000000000000        2.8701587662572366E-002
  -1.3648031085971860E-002   2.9282494806239694E-004   3.3847524766552527E-002
  -1.3790850883246055E-002   6.5977827786080183E-004   3.8843280105937017E-002
  -1.3933670680520252E-002   1.1008599893952203E-003   4.3688853680725843E-002
  -1.4076490477794452E-002   1.6160700826656454E-003   4.8384245490918999E-002
  -2.0116307985914132E-002   0.0000000000000000        2.9021382712415895E-002
  -2.0448783322369289E-002   4.3933517914326761E-004   3.4314936970836193E-002
  -2.0781258658824450E-002   9.8968203158774238E-004   3.9379361915490248E-002
  -2.1113733995279604E-002   1.6510405573334284E-003   4.4214657546378031E-002
  -2.1446209331734769E-002   2.4234107563803169E-003   4.8820823863499577E-002
  -2.6632883781623779E-002   0.0000000000000000        2.9469246347557695E-002
  -2.7233962206430484E-002   5.8584541022413828E-004   3.4947301051983327E-002
  -2.7835040631237193E-002   1.3195857853146812E-003   4.0117278893472129E-002
  -2.8436119056043898E-002   2.2012211252716313E-003   4.4979179872024086E-002
  -2.9037197480850610E-002   3.2307514300949870E-003   4.9533003987639199E-002
  -8.6065544036050337E-007   1.3887352363064695E-006   4.8337894000435054E-002
  -6.5949453645179623E-007   2.0992367995575911E-006   5.1507483127685758E-002
  -4.5833363254373961E-007   2.0891794487042006E-006   5.4541197274479321E-002
  -2.5717272863492405E-007   1.3585631837603382E-006   5.7439036440815702E-002
  -5.6011824726975856E-008  -9.2611995294866745E-008   6.0201000626694964E-002
  -6.9280409190296474E-003   8.0872940895097573E-004   4.8223268869897494E-002
  -7.0342951205439770E-003   1.0638034199069151E-003   5.1179049518931118E-002
  -7.1405493220583023E-003   1.2756803876160215E-003   5.4057794423585437E-002
  -7.2468035235726327E-003   1.4443603120782675E-003   5.6859503583860424E-002
  -7.3530577250869571E-003   1.5698431932936741E-003   5.9584176999756086E-002
  -1.4076490477794452E-002   1.6160700826656454E-003   4.8384245490918999E-002
  -1.4230360805649187E-002   2.1255076030142761E-003   5.1083741177402810E-002
  -1.4384231133503927E-002   2.5492715957833251E-003   5.3765040355585124E-002
  -1.4538101461358663E-002   2.8873620609727851E-003   5.6428143025465949E-002
  -1.4691971789213406E-002   3.1397789985826430E-003   5.9073049187045285E-002
  -2.1446209331734769E-002   2.4234107563803169E-003   4.8820823863499577E-002
  -2.1588856549852084E-002   3.1872117861216423E-003   5.1221558103100820E-002
  -2.1731503767969406E-002   3.8228628039506355E-003   5.3662935070478382E-002
  -2.1874150986086721E-002   4.3303638098672803E-003   5.6144954765632298E-002
  -2.2016798204204047E-002   4.7097148038716050E-003   5.8667617188562546E-002
  -2.9037197480850610E-002   3.2307514300949870E-003   4.9533003987639199E-002
  -2.9109782353152678E-002   4.2489159692289955E-003   5.1592500296025148E-002
  -2.9182367225454753E-002   5.0964540121179432E-003   5.3751478568265232E-002
  -2.9254952097756821E-002   5.7733655587617954E-003   5.6009938804359491E-002
  -2.9327536970058899E-002   6.2796506091605739E-003   5.8367881004307919E-002
  -5.6011824726975856E-008  -9.2611995294866745E-008   6.0201000626694964E-002
  -2.4137822229718803E-006  -3.9679847566032045E-007   6.1091784526781850E-002
  -4.7715526212167847E-006   2.3135513554060905E-006   6.2122092209613129E-002
  -7.1293230194599544E-006   8.0384374979208459E-006   6.3291923675188821E-002
  -9.4870934177065935E-006   1.6777859951924712E-005   6.4601278923508823E-002
  -7.3530577250869571E-003   1.5698431932936741E-003   5.9584176999756086E-002
  -7.2289767918102153E-003   1.6667381006055249E-003   6.0470481285784958E-002
  -7.1048958585334743E-003   1.7496541033571768E-003   6.1470139196419388E-002
  -6.9808149252567290E-003   1.8185912015485127E-003   6.2583150731659432E-002
  -6.8567339919799845E-003   1.8735493951796828E-003   6.3809515891505048E-002
  -1.4691971789213406E-002   3.1397789985826430E-003   5.9073049187045285E-002
  -1.4467622310400479E-002   3.3338729996867517E-003   5.9937880418144421E-002
  -1.4243272831587560E-002   3.4969946553588937E-003   6.0889895115710385E-002
  -1.4018923352774642E-002   3.6291439655991189E-003   6.1929093279743073E-002
  -1.3794573873961723E-002   3.7303209304074061E-003   6.3055474910242534E-002
  -2.2016798204204047E-002   4.7097148038716050E-003   5.8667617188562546E-002
  -2.1718350337993766E-002   5.0010078987679576E-003   5.9493981923860330E-002
  -2.1419902471783485E-002   5.2443352073606305E-003   6.0381359967486024E-002
  -2.1121454605573207E-002   5.4396967296497182E-003   6.1329751319439740E-002
  -2.0823006739362923E-002   5.5870924656351330E-003   6.2339155979721325E-002
  -2.9327536970058899E-002   6.2796506091605739E-003   5.8367881004307919E-002
  -2.8981160874590066E-002   6.6681427978491671E-003   5.9138785802932560E-002
  -2.8634784779121243E-002   6.9916757593623830E-003   5.9944533751746368E-002
  -2.8288408683652417E-002   7.2502494937003170E-003   6.0785124850749300E-002
  -2.7942032588183584E-002   7.4438640008628737E-003   6.1660559099941406E-002
  -9.4870934177065935E-006   1.6777859951924712E-005   6.4601278923508823E-002
  -1.4922088818612733E-005   2.5076011655821018E-005   6.4810415151372494E-002
  -2.0357084219517138E-005   2.9477085548176157E-005   6.5145962855218842E-002
  -2.5792079620424145E-005   2.9981081628909466E-005   6.5607922035048005E-002
  -3.1227075021327683E-005   2.6587999898047832E-005   6.6196292690859804E-002
  -6.8567339919799845E-003   1.8735493951796828E-003   6.3809515891505048E-002
  -6.7218763705598726E-003   1.9086999890570028E-003   6.3927173590408073E-002
  -6.5870187491397624E-003   1.9182142879869656E-003   6.4199005046970417E-002
  -6.4521611277196488E-003   1.9020922919695737E-003   6.4625010261192009E-002
  -6.3173035062995403E-003   1.8603340010047431E-003   6.5205189233073030E-002
  -1.3794573873961723E-002   3.7303209304074061E-003   6.3055474910242534E-002
  -1.3491661354043989E-002   3.7923239664581603E-003   6.3059914863049155E-002
  -1.3188748834126265E-002   3.8069514904257289E-003   6.3246290855191650E-002
  -1.2885836314208539E-002   3.7742035023101551E-003   6.3614602886670091E-002
  -1.2582923794290815E-002   3.6940800021114523E-003   6.4164850957484448E-002
  -2.0823006739362923E-002   5.5870924656351330E-003   6.2339155979721325E-002
  -2.0324277039270977E-002   5.6759479438592744E-003   6.2208638969295689E-002
  -1.9825547339179038E-002   5.6956886928644914E-003   6.2287820279882639E-002
  -1.9326817639087085E-002   5.6463147126507782E-003   6.2576699911482028E-002
  -1.8828087938995149E-002   5.5278260032181406E-003   6.3075277864093962E-002
  -2.7942032588183584E-002   7.4438640008628737E-003   6.1660559099941406E-002
  -2.7219723426240825E-002   7.5595719212604787E-003   6.1373345909147836E-002
  -2.6497414264298066E-002   7.5844258953032713E-003   6.1323593321043347E-002
  -2.5775105102355294E-002   7.5184259229913982E-003   6.1511301335628044E-002
  -2.5052795940412542E-002   7.3615720043248289E-003   6.1936469952901724E-002
  -3.1227075021327683E-005   2.6587999898047832E-005   6.6196292690859804E-002
  -2.4363215387294274E-005   2.1255653806617758E-005   6.5898326383101696E-002
  -1.7499355753255660E-005   1.5941856805763710E-005   6.5802437283805512E-002
  -1.0635496119216180E-005   1.0646608895202928E-005   6.5908625392971154E-002
  -3.7716364851836381E-006   5.3699100752147011E-006   6.6216890710598775E-002
  -6.3173035062995403E-003   1.8603340010047431E-003   6.5205189233073030E-002
  -6.1130663662832731E-003   1.8060090066881335E-003   6.4923235859189285E-002
  -5.9088292262670043E-003   1.7521869006152588E-003   6.4833951837608178E-002
  -5.7045920862507380E-003   1.6988676827861034E-003   6.4937337168329626E-002
  -5.5003549462344752E-003   1.6460513532006726E-003   6.5233391851353628E-002
  -1.2582923794290815E-002   3.6940800021114523E-003   6.4164850957484448E-002
  -1.2190721230051625E-002   3.5907623595696492E-003   6.3899394856628350E-002
  -1.1798518665812434E-002   3.4884319444248336E-003   6.3817200251915521E-002
  -1.1406316101573248E-002   3.3870887566770031E-003   6.3918267143345933E-002
  -1.1014113537334062E-002   3.2867327963261583E-003   6.4202595530919657E-002
  -1.8828087938995149E-002   5.5278260032181406E-003   6.3075277864093962E-002
  -1.8257327806692349E-002   5.3755157124511371E-003   6.2826803375418822E-002
  -1.7686567674389548E-002   5.2246769882344241E-003   6.2752182526727623E-002
  -1.7115807542086747E-002   5.0753098305679582E-003   6.2851415318020340E-002
  -1.6545047409783950E-002   4.9274142394517134E-003   6.3124501749297068E-002
  -2.5052795940412542E-002   7.3615720043248289E-003   6.1936469952901724E-002
  -2.4312886096205449E-002   7.1602690653326667E-003   6.1705461415560742E-002
  -2.3572976251998341E-002   6.9609220320439383E-003   6.1638898662044375E-002
  -2.2833066407791255E-002   6.7635309044588258E-003   6.1736781692352645E-002
  -2.2093156563584144E-002   6.5680956825771020E-003   6.1999110506485544E-002
  -3.7716364851836381E-006   5.3699100752147011E-006   6.6216890710598775E-002
  -3.8006010973021254E-006   7.0144461508103717E-006   6.6021447650588483E-002
  -3.8295657094275515E-006   2.2482902927209447E-005   6.6042626929219472E-002
  -3.8585303215486408E-006   5.1775280404269680E-005   6.6280428546491812E-002
  -3.8874949336714648E-006   9.4891578582168012E-005   6.6734852502405462E-002
  -5.5003549462344752E-003   1.6460513532006726E-003   6.5233391851353628E-002
  -5.2819451063015254E-003   1.5942199077236957E-003   6.5030235376233633E-002
  -5.0635352663685844E-003   1.5438553422194023E-003   6.5047334171562471E-002
  -4.8451254264356381E-003   1.4949576566882228E-003   6.5284688237340030E-002
  -4.6267155865026936E-003   1.4475268511298101E-003   6.5742297573566477E-002
  -1.1014113537334062E-002   3.2867327963261583E-003   6.4202595530919657E-002
  -1.0573631961048546E-002   3.1814253692964423E-003   6.3979368599962130E-002
  -1.0133150384763038E-002   3.0652277815116577E-003   6.3980029871260891E-002
  -9.6926688084775330E-003   2.9381400329720111E-003   6.4204579344816021E-002
  -9.2521872321920141E-003   2.8001621236774243E-003   6.4653017020627340E-002
  -1.6545047409783950E-002   4.9274142394517134E-003   6.3124501749297068E-002
  -1.5878861165338379E-002   4.7686308308691749E-003   6.2868847321774113E-002
  -1.5212674920892804E-002   4.5866002208037708E-003   6.2840714028314953E-002
  -1.4546488676447228E-002   4.3813224092557430E-003   6.3040101868919660E-002
  -1.3880302432001650E-002   4.1527973962249137E-003   6.3467010843588106E-002
  -2.2093156563584144E-002   6.5680956825771020E-003   6.1999110506485544E-002
  -2.1197632719171019E-002   6.3558362924420186E-003   6.1698671541669359E-002
  -2.0302108874757863E-002   6.1079726600961476E-003   6.1629386642724493E-002
  -1.9406585030344720E-002   5.8245047855397351E-003   6.1791255809650933E-002
  -1.8511061185931585E-002   5.5054326687726252E-003   6.2184279042448665E-002
  -3.8874949336714648E-006   9.4891578582168012E-005   6.6734852502405462E-002
  -2.2895240957332419E-005   1.1687431289669759E-004   6.6459781985879651E-002
  -4.1902986980989904E-005   8.2765998783818073E-005   6.6389197911227271E-002
  -6.0910733004654327E-005  -7.4333637566786903E-006   6.6523100278448377E-002
  -7.9918479028308342E-005  -1.5372377472461229E-004   6.6861489087543025E-002
  -4.6267155865026936E-003   1.4475268511298101E-003   6.5742297573566477E-002
  -4.4442834663192231E-003   1.3861714548983883E-003   6.5418833372380775E-002
  -4.2618513461357577E-003   1.2954999973478903E-003   6.5293762461735821E-002
  -4.0794192259522872E-003   1.1755124784783820E-003   6.5367084841631604E-002
  -3.8969871057688149E-003   1.0262088982899709E-003   6.5638800512068329E-002
  -9.2521872321920141E-003   2.8001621236774243E-003   6.4653017020627340E-002
  -8.8744083971341037E-003   2.6554685969000513E-003   6.4307934121890162E-002
  -8.4966295620761863E-003   2.5082339959120181E-003   6.4155151362361107E-002
  -8.1188507270182706E-003   2.3584583207134982E-003   6.4194668742040092E-002
  -7.7410718919603601E-003   2.2061415713043042E-003   6.4426486260927215E-002
  -1.3880302432001650E-002   4.1527973962249137E-003   6.3467010843588106E-002
  -1.3313270033401966E-002   3.9247657389017837E-003   6.3127084234407882E-002
  -1.2746237634802281E-002   3.7209679944761737E-003   6.2973364613103072E-002
  -1.2179205236202599E-002   3.5414041629486422E-003   6.3005851979673622E-002
  -1.1612172837602901E-002   3.3860742443187070E-003   6.3224546334119641E-002
  -1.8511061185931585E-002   5.5054326687726252E-003   6.2184279042448665E-002
  -1.7760868375122807E-002   5.1940628809033773E-003   6.1876283709933810E-002
  -1.7010675564314032E-002   4.9337019930402876E-003   6.1748402213961745E-002
  -1.6260482753505272E-002   4.7243500051836092E-003   6.1800634554532372E-002
  -1.5510289942696487E-002   4.5660069173332207E-003   6.2032980731645759E-002
  -7.9918479028308342E-005  -1.5372377472461229E-004   6.6861489087543025E-002
  -6.3523487829977160E-005  -1.3867772563780356E-004   6.6857615232201018E-002
  -4.7128496631642508E-005   2.5513229198693976E-004   6.7149773827731490E-002
  -3.0733505433321734E-005   1.0277062781486636E-003   6.7737964874134679E-002
  -1.4338514234976674E-005   2.1790442328482040E-003   6.8622188371410653E-002
  -3.8969871057688149E-003   1.0262088982899709E-003   6.5638800512068329E-002
  -3.5957062866281905E-003   9.6731641302649773E-004   6.5891214984198310E-002
  -3.2944254674875662E-003   1.1185621789327332E-003   6.6417368661340154E-002
  -2.9931446483469409E-003   1.4799461960087017E-003   6.7217261543494000E-002
  -2.6918638292063243E-003   2.0514684642540804E-003   6.8290893630659655E-002
  -7.7410718919603601E-003   2.2061415713043042E-003   6.4426486260927215E-002
  -7.1771984907382236E-003   2.0733105516905770E-003   6.4766563343161263E-002
  -6.6133250895160861E-003   1.9819920658786308E-003   6.5358086384546682E-002
  -6.0494516882939600E-003   1.9321861138684327E-003   6.6201055385083127E-002
  -5.4855782870718121E-003   1.9238926956598457E-003   6.7295470344770680E-002
  -1.1612172837602901E-002   3.3860742443187070E-003   6.3224546334119641E-002
  -1.0808000100160054E-002   3.1793046903548228E-003   6.3483660309090154E-002
  -1.0003827362717195E-002   2.8454219528244763E-003   6.3971926997351006E-002
  -9.1996546252743512E-003   2.3844260317282063E-003   6.4689346398902434E-002
  -8.3954818878314887E-003   1.7963169270657220E-003   6.5635918513743535E-002
  -1.5510289942696487E-002   4.5660069173332207E-003   6.2032980731645759E-002
  -1.4488111114893697E-002   4.2852988290189020E-003   6.2042505881984844E-002
  -1.3465932287090896E-002   3.7088518397702386E-003   6.2258890499753194E-002
  -1.2443753459288118E-002   2.8366659495881533E-003   6.2682134584951421E-002
  -1.1421574631485298E-002   1.6687411584714873E-003   6.3312238137579024E-002
  -2.6632883781623779E-002   0.0000000000000000        2.9469246347557695E-002
  -2.7233962206430484E-002   5.8584541022413828E-004   3.4947301051983327E-002
  -2.7835040631237193E-002   1.3195857853146812E-003   4.0117278893472129E-002
  -2.8436119056043898E-002   2.2012211252716313E-003   4.4979179872024086E-002
  -2.9037197480850610E-002   3.2307514300949870E-003   4.9533003987639199E-002
  -3.3392290419108482E-002   0.0000000000000000        3.0179562195160645E-002
  -3.4236231657227306E-002   9.6033899672134070E-004   3.5268201075893645E-002
  -3.5080172895346137E-002   2.0238884520554345E-003   4.0179191192939244E-002
  -3.5924114133464961E-002   3.1906483660022944E-003   4.4912532546297457E-002
  -3.6768055371583779E-002   4.4606187385619108E-003   4.9468225135968262E-002
  -4.0731879641650127E-002   0.0000000000000000        3.1286713882387615E-002
  -4.1688255593831630E-002   1.3348325832185409E-003   3.5941252433174337E-002
  -4.2644631546013126E-002   2.7281911187961904E-003   4.0548570319523101E-002
  -4.3601007498194636E-002   4.1800756067329513E-003   4.5108667541433917E-002
  -4.4557383450376138E-002   5.6904860470288181E-003   4.9621544098906761E-002
  -4.8651651449248698E-002   0.0000000000000000        3.2790701409238614E-002
  -4.9590034016243442E-002   1.7093261697157414E-003   3.6966455123825410E-002
  -5.0528416583238180E-002   3.4324937855369411E-003   4.1225416273223688E-002
  -5.1466799150232924E-002   5.1695028474636091E-003   4.5567584857433445E-002
  -5.2405181717227661E-002   6.9203533554957333E-003   4.9992960876454683E-002
  -5.7151605841904207E-002   0.0000000000000000        3.4691524775713634E-002
  -5.7941566924462742E-002   2.0838197562129436E-003   3.8343809147846852E-002
  -5.8731528007021278E-002   4.1367964522776978E-003   4.2209729054041002E-002
  -5.9521489089579820E-002   6.1589300881942696E-003   4.6289284494296055E-002
  -6.0311450172138355E-002   8.1502206639626467E-003   5.0582475468612054E-002
  -2.9037197480850610E-002   3.2307514300949870E-003   4.9533003987639199E-002
  -2.9109782353152678E-002   4.2489159692289955E-003   5.1592500296025148E-002
  -2.9182367225454753E-002   5.0964540121179432E-003   5.3751478568265232E-002
  -2.9254952097756821E-002   5.7733655587617954E-003   5.6009938804359491E-002
  -2.9327536970058899E-002   6.2796506091605739E-003   5.8367881004307919E-002
  -3.6768055371583779E-002   4.4606187385619108E-003   4.9468225135968262E-002
  -3.6780160867255697E-002   5.6939017171049409E-003   5.1256642797625540E-002
  -3.6792266362927595E-002   6.7505994490020520E-003   5.3066537248688990E-002
  -3.6804371858599506E-002   7.6307119342532833E-003   5.4897908489158626E-002
  -3.6816477354271425E-002   8.3342391728585888E-003   5.6750756519034412E-002
  -4.4557383450376138E-002   5.6904860470288181E-003   4.9621544098906761E-002
  -4.4587014743865866E-002   7.1388874649808767E-003   5.1132924363434543E-002
  -4.4616646037355594E-002   8.4047448858861808E-003   5.2587776242920513E-002
  -4.4646277330845315E-002   9.4880583097447548E-003   5.3986099737364672E-002
  -4.4675908624335042E-002   1.0388827736556593E-002   5.5327894846766992E-002
  -5.2405181717227661E-002   6.9203533554957333E-003   4.9992960876454683E-002
  -5.2530343982983195E-002   8.5838732128568178E-003   5.1221344993452149E-002
  -5.2655506248738736E-002   1.0058890322770318E-002   5.2315195550959814E-002
  -5.2780668514494262E-002   1.1345404685236262E-002   5.3274512548977686E-002
  -5.2905830780249810E-002   1.2443416300254603E-002   5.4099295987505736E-002
  -6.0311450172138355E-002   8.1502206639626467E-003   5.0582475468612054E-002
  -6.0610148584607691E-002   1.0028858960732754E-002   5.1521904687678373E-002
  -6.0908846997077021E-002   1.1713035759654418E-002   5.2248795172806888E-002
  -6.1207545409546357E-002   1.3202751060727727E-002   5.2763146923997625E-002
  -6.1506243822015687E-002   1.4498004863952606E-002   5.3064959941250552E-002
  -2.9327536970058899E-002   6.2796506091605739E-003   5.8367881004307919E-002
  -2.8981160874590066E-002   6.6681427978491671E-003   5.9138785802932560E-002
  -2.8634784779121243E-002   6.9916757593623830E-003   5.9944533751746368E-002
  -2.8288408683652417E-002   7.2502494937003170E-003   6.0785124850749300E-002
  -2.7942032588183584E-002   7.4438640008628737E-003   6.1660559099941406E-002
  -3.6816477354271425E-002   8.3342391728585888E-003   5.6750756519034412E-002
  -3.6383111788398460E-002   8.8765892995364380E-003   5.7097952649830794E-002
  -3.5949746222525503E-002   9.2731704490053180E-003   5.7584284571246272E-002
  -3.5516380656652531E-002   9.5239826212652132E-003   5.8209752283280895E-002
  -3.5083015090779560E-002   9.6290258163161668E-003   5.8974355785934622E-002
  -4.4675908624335042E-002   1.0388827736556593E-002   5.5327894846766992E-002
  -4.4051260947627992E-002   1.1085035801223749E-002   5.5170572559701439E-002
  -4.3426613270920914E-002   1.1554665138648265E-002   5.5256678703684982E-002
  -4.2801965594213842E-002   1.1797715748830165E-002   5.5586213278717635E-002
  -4.2177317917506785E-002   1.1814187631769439E-002   5.6159176284799397E-002
  -5.2905830780249810E-002   1.2443416300254603E-002   5.4099295987505736E-002
  -5.1985608352278639E-002   1.3293482302911032E-002   5.3356645532544621E-002
  -5.1065385924307490E-002   1.3836159828291221E-002   5.2961716149062539E-002
  -5.0145163496336347E-002   1.4071448876395075E-002   5.2914507837059560E-002
  -4.9224941068365169E-002   1.3999349447222722E-002   5.3215020596535628E-002
  -6.1506243822015687E-002   1.4498004863952606E-002   5.3064959941250552E-002
  -6.0186154002350466E-002   1.5501928804598341E-002   5.1656171568360200E-002
  -5.8866064182685252E-002   1.6117654517934149E-002   5.0699396907378888E-002
  -5.7545974363020030E-002   1.6345182003960020E-002   5.0194635958306651E-002
  -5.6225884543354802E-002   1.6184511262676018E-002   5.0141888721143432E-002
  -2.7942032588183584E-002   7.4438640008628737E-003   6.1660559099941406E-002
  -2.7219723426240825E-002   7.5595719212604787E-003   6.1373345909147836E-002
  -2.6497414264298066E-002   7.5844258953032713E-003   6.1323593321043347E-002
  -2.5775105102355294E-002   7.5184259229913982E-003   6.1511301335628044E-002
  -2.5052795940412542E-002   7.3615720043248289E-003   6.1936469952901724E-002
  -3.5083015090779560E-002   9.6290258163161668E-003   5.8974355785934622E-002
  -3.4133151802775638E-002   9.6288143350581265E-003   5.8646118633500118E-002
  -3.3183288514771689E-002   9.5638624783913259E-003   5.8535529130498865E-002
  -3.2233425226767747E-002   9.4341702463155552E-003   5.8642587276930856E-002
  -3.1283561938763818E-002   9.2397376388309582E-003   5.8967293072796120E-002
  -4.2177317917506785E-002   1.1814187631769439E-002   5.6159176284799397E-002
  -4.1019713456697519E-002   1.1698056748855868E-002   5.5816028741669792E-002
  -3.9862108995888247E-002   1.1543299061479323E-002   5.5670715894717580E-002
  -3.8704504535079010E-002   1.1349914569639684E-002   5.5723237743942750E-002
  -3.7546900074269710E-002   1.1117903273337046E-002   5.5973594289345320E-002
  -4.9224941068365169E-002   1.3999349447222722E-002   5.3215020596535628E-002
  -4.7879408388006472E-002   1.3767299162653632E-002   5.2883076233656803E-002
  -4.6533875707647762E-002   1.3522735644567279E-002   5.2729153613699516E-002
  -4.5188343027289031E-002   1.3265658892963855E-002   5.2753252736663710E-002
  -4.3842810346930348E-002   1.2996068907843182E-002   5.2955373602549420E-002
  -5.6225884543354802E-002   1.6184511262676018E-002   5.0141888721143432E-002
  -5.4712236596702490E-002   1.5836541576451278E-002   4.9847261109461222E-002
  -5.3198588650050185E-002   1.5502172227655365E-002   4.9710842287444650E-002
  -5.1684940703397887E-002   1.5181403216288008E-002   4.9732632255093723E-002
  -5.0171292756745575E-002   1.4874234542349263E-002   4.9912631012408448E-002
  -2.5052795940412542E-002   7.3615720043248289E-003   6.1936469952901724E-002
  -2.4312886096205449E-002   7.1602690653326667E-003   6.1705461415560742E-002
  -2.3572976251998341E-002   6.9609220320439383E-003   6.1638898662044375E-002
  -2.2833066407791255E-002   6.7635309044588258E-003   6.1736781692352645E-002
  -2.2093156563584144E-002   6.5680956825771020E-003   6.1999110506485544E-002
  -3.1283561938763818E-002   9.2397376388309582E-003   5.8967293072796120E-002
  -3.0371945661493399E-002   9.0061661263779180E-003   5.8705182283126767E-002
  -2.9460329384223004E-002   8.7590571793967481E-003   5.8622038575759421E-002
  -2.8548713106952582E-002   8.4984107978875491E-003   5.8717861950694117E-002
  -2.7637096829682191E-002   8.2242269818501579E-003   5.8992652407930612E-002
  -3.7546900074269710E-002   1.1117903273337046E-002   5.5973594289345320E-002
  -3.6449056065458708E-002   1.0852063187423121E-002   5.5664887907116128E-002
  -3.5351212056647680E-002   1.0557192326749471E-002   5.5549669905666205E-002
  -3.4253368047836651E-002   1.0233290691316132E-002   5.5627940284995521E-002
  -3.3155524039025656E-002   9.8803582811231583E-003   5.5899699045104237E-002
  -4.3842810346930348E-002   1.2996068907843182E-002   5.2955373602549420E-002
  -4.2544217308101359E-002   1.2697960248468251E-002   5.2584578287528758E-002
  -4.1245624269272398E-002   1.2355327474102127E-002   5.2421792651764706E-002
  -3.9947031230443436E-002   1.1968170584744814E-002   5.2467016695257281E-002
  -3.8648438191614475E-002   1.1536489580396214E-002   5.2720250418006390E-002
  -5.0171292756745575E-002   1.4874234542349263E-002   4.9912631012408448E-002
  -4.8657429389421372E-002   1.4543857309513575E-002   4.9464253424364724E-002
  -4.7143566022097148E-002   1.4153462621455004E-002   4.9238406814054891E-002
  -4.5629702654772952E-002   1.3703050478173384E-002   4.9235091181479076E-002
  -4.4115839287448722E-002   1.3192620879669159E-002   4.9454306526637071E-002
  -2.2093156563584144E-002   6.5680956825771020E-003   6.1999110506485544E-002
  -2.1197632719171019E-002   6.3558362924420186E-003   6.1698671541669359E-002
  -2.0302108874757863E-002   6.1079726600961476E-003   6.1629386642724493E-002
  -1.9406585030344720E-002   5.8245047855397351E-003   6.1791255809650933E-002
  -1.8511061185931585E-002   5.5054326687726252E-003   6.2184279042448665E-002
  -2.7637096829682191E-002   8.2242269818501579E-003   5.8992652407930612E-002
  -2.6514939870084280E-002   7.9318192667536813E-003   5.8683948246282036E-002
  -2.5392782910486366E-002   7.6165011880667821E-003   5.8597356249131649E-002
  -2.4270625950888434E-002   7.2782727457897795E-003   5.8732876416479507E-002
  -2.3148468991290545E-002   6.9171339399224374E-003   5.9090508748325526E-002
  -3.3155524039025656E-002   9.8803582811231583E-003   5.5899699045104237E-002
  -3.1815775865616028E-002   9.5078022410653718E-003   5.5595423565243510E-002
  -3.0476027692206441E-002   9.1250297160375901E-003   5.5504218348507973E-002
  -2.9136279518796833E-002   8.7320407060398810E-003   5.5626083394897635E-002
  -2.7796531345387225E-002   8.3288352110722219E-003   5.5961018704412321E-002
  -3.8648438191614475E-002   1.1536489580396214E-002   5.2720250418006390E-002
  -3.7100140705766282E-002   1.1083785215377048E-002   5.2433097498553932E-002
  -3.5551843219918070E-002   1.0633558244008395E-002   5.2349972940853619E-002
  -3.4003545734069836E-002   1.0185808666289955E-002   5.2470876744905297E-002
  -3.2455248248221658E-002   9.7405364822220758E-003   5.2795808910709049E-002
  -4.4115839287448722E-002   1.3192620879669159E-002   4.9454306526637071E-002
  -4.2368034390535020E-002   1.2659768189688753E-002   4.9196970046213262E-002
  -4.0620229493621277E-002   1.2142086771979033E-002   4.9134620026168391E-002
  -3.8872424596707554E-002   1.1639576626540166E-002   4.9267256466502485E-002
  -3.7124619699793832E-002   1.1152237753371874E-002   4.9594879367215683E-002
  -1.8511061185931585E-002   5.5054326687726252E-003   6.2184279042448665E-002
  -1.7760868375122807E-002   5.1940628809033773E-003   6.1876283709933810E-002
  -1.7010675564314032E-002   4.9337019930402876E-003   6.1748402213961745E-002
  -1.6260482753505272E-002   4.7243500051836092E-003   6.1800634554532372E-002
  -1.5510289942696487E-002   4.5660069173332207E-003   6.2032980731645759E-002
  -2.3148468991290545E-002   6.9171339399224374E-003   5.9090508748325526E-002
  -2.2218810807584463E-002   6.5594801057226870E-003   5.8811655006893421E-002
  -2.1289152623878378E-002   6.2317065784483205E-003   5.8711618174713084E-002
  -2.0359494440172311E-002   5.9338133580993171E-003   5.8790398251784538E-002
  -1.9429836256466219E-002   5.6658004446759058E-003   5.9047995238107887E-002
  -2.7796531345387225E-002   8.3288352110722219E-003   5.5961018704412321E-002
  -2.6688704716074766E-002   7.9248973305418996E-003   5.5690177960982051E-002
  -2.5580878086762283E-002   7.5297111638561801E-003   5.5596857199512691E-002
  -2.4473051457449817E-002   7.1432767110149679E-003   5.5681056420004274E-002
  -2.3365224828137340E-002   6.7655939720184799E-003   5.5942775622456836E-002
  -3.2455248248221658E-002   9.7405364822220758E-003   5.2795808910709049E-002
  -3.1170550100593691E-002   9.2903145553610775E-003   5.2511852572199737E-002
  -2.9885851952965697E-002   8.8277157492640430E-003   5.2404119288360453E-002
  -2.8601153805337714E-002   8.3527400639304798E-003   5.2472609059191121E-002
  -2.7316455657709734E-002   7.8653874993611650E-003   5.2717321884692060E-002
  -3.7124619699793832E-002   1.1152237753371874E-002   4.9594879367215683E-002
  -3.5664346961141236E-002   1.0655731780180450E-002   4.9276678840546484E-002
  -3.4204074222488667E-002   1.0125720334672059E-002   4.9133404441256467E-002
  -3.2743801483836099E-002   9.5622034168462676E-003   4.9165056169345592E-002
  -3.1283528745183489E-002   8.9651810267037391E-003   4.9371634024813926E-002
  -1.5510289942696487E-002   4.5660069173332207E-003   6.2032980731645759E-002
  -1.4488111114893697E-002   4.2852988290189020E-003   6.2042505881984844E-002
  -1.3465932287090896E-002   3.7088518397702386E-003   6.2258890499753194E-002
  -1.2443753459288118E-002   2.8366659495881533E-003   6.2682134584951421E-002
  -1.1421574631485298E-002   1.6687411584714873E-003   6.3312238137579024E-002
  -1.9429836256466219E-002   5.6658004446759058E-003   5.9047995238107887E-002
  -1.8198069961296501E-002   5.3214707661792815E-003   5.8805279761480367E-002
  -1.6966303666126753E-002   4.7946272506117771E-003   5.8774879752157061E-002
  -1.5734537370957022E-002   4.0852698979728722E-003   5.8956795210138094E-002
  -1.4502771075787318E-002   3.1933987082628512E-003   5.9351026135423424E-002
  -2.3365224828137340E-002   6.7655939720184799E-003   5.5942775622456836E-002
  -2.1918415065725880E-002   6.3576427033400218E-003   5.5561044582725400E-002
  -2.0471605303314384E-002   5.8804026614532462E-003   5.5397085010173264E-002
  -1.9024795540902889E-002   5.3338738463579484E-003   5.5450896904800172E-002
  -1.7577985778491425E-002   4.7180562580542151E-003   5.5722480266605978E-002
  -2.7316455657709734E-002   7.8653874993611650E-003   5.2717321884692060E-002
  -2.5649146428181755E-002   7.3938146405006927E-003   5.2309800345719783E-002
  -2.3981837198653717E-002   6.9661780722945835E-003   5.2125506273801345E-002
  -2.2314527969125732E-002   6.5824777947427349E-003   5.2164439668937038E-002
  -2.0647218739597704E-002   6.2427138078455235E-003   5.2426600531126258E-002
  -3.1283528745183489E-002   8.9651810267037391E-003   4.9371634024813926E-002
  -2.9390264048664183E-002   8.4299865776611416E-003   4.9051547050463440E-002
  -2.7496999352144856E-002   8.0519534831361705E-003   4.8960143543041679E-002
  -2.5603734655625560E-002   7.8310817431278337E-003   4.9097423502548726E-002
  -2.3710469959106195E-002   7.7673713576369430E-003   4.9463386928984443E-002
  -5.7151605841904207E-002   0.0000000000000000        3.4691524775713634E-002
  -5.7941566924462742E-002   2.0838197562129436E-003   3.8343809147846852E-002
  -5.8731528007021278E-002   4.1367964522776978E-003   4.2209729054041002E-002
  -5.9521489089579820E-002   6.1589300881942696E-003   4.6289284494296055E-002
  -6.0311450172138355E-002   8.1502206639626467E-003   5.0582475468612054E-002
  -6.5819800798769840E-002   0.0000000000000000        3.7212495156458830E-002
  -6.6625190911372159E-002   2.9139280769271050E-003   4.0835223492773673E-002
  -6.7430581023974479E-002   5.7703133573017091E-003   4.4213458234940044E-002
  -6.8235971136576784E-002   8.5691558411238062E-003   4.7347199382957915E-002
  -6.9041361249179103E-002   1.1310455528393409E-002   5.0236446936827307E-002
  -7.4244294298998814E-002   0.0000000000000000        4.0576923726120352E-002
  -7.5523242569854307E-002   3.7440363976412663E-003   4.4143396290212501E-002
  -7.6802190840709814E-002   7.4038302623257151E-003   4.7007246131946762E-002
  -7.8081139111565334E-002   1.0979381594053338E-002   4.9168473251323147E-002
  -7.9360087382420827E-002   1.4470690392824150E-002   5.0627077648341609E-002
  -8.2425086342591089E-002   0.0000000000000000        4.4784810484698186E-002
  -8.4635721899909200E-002   4.5741447183554294E-003   4.8268327540163337E-002
  -8.6846357457227297E-002   9.0373471673497220E-003   5.0591092745061184E-002
  -8.9056993014545408E-002   1.3389607346982878E-002   5.1753106099391710E-002
  -9.1267628571863504E-002   1.7630925257254900E-002   5.1754367603154973E-002
  -9.0362176929546706E-002   0.0000000000000000        4.9836155432192344E-002
  -9.3962628901536810E-002   5.4042530390695891E-003   5.3210017242626167E-002
  -9.7563080873526914E-002   1.0670864072373732E-002   5.4964998074283289E-002
 -0.10116353284551702        1.5799833099912411E-002   5.5101097927163681E-002
 -0.10476398481750715        2.0791160121685644E-002   5.3618316801267392E-002
  -6.0311450172138355E-002   8.1502206639626467E-003   5.0582475468612054E-002
  -6.0610148584607691E-002   1.0028858960732754E-002   5.1521904687678373E-002
  -6.0908846997077021E-002   1.1713035759654418E-002   5.2248795172806888E-002
  -6.1207545409546357E-002   1.3202751060727727E-002   5.2763146923997625E-002
  -6.1506243822015687E-002   1.4498004863952606E-002   5.3064959941250552E-002
  -6.9041361249179103E-002   1.1310455528393409E-002   5.0236446936827307E-002
  -6.9314807817451057E-002   1.3754663551469266E-002   4.9459300662986150E-002
  -6.9588254385723039E-002   1.5662231042710147E-002   4.8945196811477500E-002
  -6.9861700953994993E-002   1.7033158002116102E-002   4.8694135382301419E-002
  -7.0135147522266961E-002   1.7867444429687025E-002   4.8706116375457853E-002
  -7.9360087382420827E-002   1.4470690392824150E-002   5.0627077648341609E-002
  -7.9132700950225079E-002   1.7480468142205777E-002   4.7791176847606413E-002
  -7.8905314518029346E-002   1.9611426325765860E-002   4.5693899625474058E-002
  -7.8677928085833598E-002   2.0863564943504449E-002   4.4335245981944583E-002
  -7.8450541653637837E-002   2.1236883995421448E-002   4.3715215917017963E-002
  -9.1267628571863504E-002   1.7630925257254900E-002   5.1754367603154973E-002
  -9.0063827982929723E-002   2.1206272732942285E-002   4.6517533241539157E-002
  -8.8860027393995969E-002   2.3560621608821584E-002   4.2494903614796499E-002
  -8.7656226805062187E-002   2.4693971884892783E-002   3.9686478722927097E-002
  -8.6452426216128406E-002   2.4606323561155871E-002   3.8092258565930820E-002
 -0.10476398481750715        2.0791160121685644E-002   5.3618316801267392E-002
 -0.10210818891556500        2.4932077323678803E-002   4.5638369844784379E-002
  -9.9452393013622881E-002   2.7509816891877294E-002   3.9348208779444893E-002
  -9.6796597111680746E-002   2.8524378826281158E-002   3.4747833605248947E-002
  -9.4140801209738612E-002   2.7975763126890291E-002   3.1837244322196478E-002
  -6.1506243822015687E-002   1.4498004863952606E-002   5.3064959941250552E-002
  -6.0186154002350466E-002   1.5501928804598341E-002   5.1656171568360200E-002
  -5.8866064182685252E-002   1.6117654517934149E-002   5.0699396907378888E-002
  -5.7545974363020030E-002   1.6345182003960020E-002   5.0194635958306651E-002
  -5.6225884543354802E-002   1.6184511262676018E-002   5.0141888721143432E-002
  -7.0135147522266961E-002   1.7867444429687025E-002   4.8706116375457853E-002
  -6.8409670337325507E-002   1.8321961007962836E-002   4.7258662527782394E-002
  -6.6684193152384039E-002   1.8553578419483276E-002   4.6169969698750341E-002
  -6.4958715967442598E-002   1.8562296664248384E-002   4.5440037888361699E-002
  -6.3233238782501144E-002   1.8348115742258198E-002   4.5068867096616484E-002
  -7.8450541653637837E-002   2.1236883995421448E-002   4.3715215917017963E-002
  -7.6412929796685819E-002   2.1141993211327322E-002   4.2394395655111987E-002
  -7.4375317939733759E-002   2.0989502321032430E-002   4.1339083718583768E-002
  -7.2337706082781728E-002   2.0779411324536760E-002   4.0549280107433264E-002
  -7.0300094225829710E-002   2.0511720221840370E-002   4.0024984821660586E-002
  -8.6452426216128406E-002   2.4606323561155871E-002   3.8092258565930820E-002
  -8.4195932380431437E-002   2.3962025414691796E-002   3.7063370950348895E-002
  -8.1939438544734469E-002   2.3425426222581584E-002   3.6206738966879093E-002
  -7.9682944709037459E-002   2.2996525984825159E-002   3.5522362615521379E-002
  -7.7426450873340519E-002   2.2675324701422545E-002   3.5010241896275808E-002
  -9.4140801209738612E-002   2.7975763126890291E-002   3.1837244322196478E-002
  -9.1758678088562362E-002   2.6782057618056306E-002   3.1265588413493167E-002
  -8.9376554967386085E-002   2.5861350124130714E-002   3.0772935443636393E-002
  -8.6994431846209808E-002   2.5213640645113500E-002   3.0359285412626020E-002
  -8.4612308725033558E-002   2.4838929181004735E-002   3.0024638320462108E-002
  -5.6225884543354802E-002   1.6184511262676018E-002   5.0141888721143432E-002
  -5.4712236596702490E-002   1.5836541576451278E-002   4.9847261109461222E-002
  -5.3198588650050185E-002   1.5502172227655365E-002   4.9710842287444650E-002
  -5.1684940703397887E-002   1.5181403216288008E-002   4.9732632255093723E-002
  -5.0171292756745575E-002   1.4874234542349263E-002   4.9912631012408448E-002
  -6.3233238782501144E-002   1.8348115742258198E-002   4.5068867096616484E-002
  -6.1544671362605524E-002   1.8008338054138623E-002   4.4724101950292278E-002
  -5.9856103942709904E-002   1.7640266000515749E-002   4.4570966960789091E-002
  -5.8167536522814284E-002   1.7243899581389402E-002   4.4609462128106743E-002
  -5.6478969102918684E-002   1.6819238796759783E-002   4.4839587452245477E-002
  -7.0300094225829710E-002   2.0511720221840370E-002   4.0024984821660586E-002
  -6.8403185965535504E-002   2.0180134531825916E-002   3.9588187437762462E-002
  -6.6506277705241298E-002   1.9778359773376074E-002   3.9376441577840579E-002
  -6.4609369444947093E-002   1.9306395946490910E-002   3.9389747241894861E-002
  -6.2712461184652901E-002   1.8764243051170332E-002   3.9628104429925537E-002
  -7.7426450873340519E-002   2.2675324701422545E-002   3.5010241896275808E-002
  -7.5287780405492416E-002   2.2351931009513180E-002   3.4439517571871733E-002
  -7.3149109937644313E-002   2.1916453546236444E-002   3.4127266138599198E-002
  -7.1010439469796224E-002   2.1368892311592332E-002   3.4073487596458160E-002
  -6.8871769001948149E-002   2.0709247305580880E-002   3.4278181945448710E-002
  -8.4612308725033558E-002   2.4838929181004735E-002   3.0024638320462108E-002
  -8.2198454682476274E-002   2.4523727487200470E-002   2.9278092352620022E-002
  -7.9784600639918990E-002   2.4054547319096824E-002   2.8823440643064850E-002
  -7.7370746597361734E-002   2.3431388676693820E-002   2.8660683191796463E-002
  -7.4956892554804450E-002   2.2654251559991373E-002   2.8789819998814914E-002
  -5.0171292756745575E-002   1.4874234542349263E-002   4.9912631012408448E-002
  -4.8657429389421372E-002   1.4543857309513575E-002   4.9464253424364724E-002
  -4.7143566022097148E-002   1.4153462621455004E-002   4.9238406814054891E-002
  -4.5629702654772952E-002   1.3703050478173384E-002   4.9235091181479076E-002
  -4.4115839287448722E-002   1.3192620879669159E-002   4.9454306526637071E-002
  -5.6478969102918684E-002   1.6819238796759783E-002   4.4839587452245477E-002
  -5.4752613492923353E-002   1.6364539125158839E-002   4.4409454961746836E-002
  -5.3026257882927988E-002   1.5878056045118605E-002   4.4181775978856558E-002
  -5.1299902272932650E-002   1.5359789556638914E-002   4.4156550503574615E-002
  -4.9573546662937271E-002   1.4809739659719878E-002   4.4333778535901064E-002
  -6.2712461184652901E-002   1.8764243051170332E-002   3.9628104429925537E-002
  -6.0793690802111958E-002   1.8185220940804131E-002   3.9244451083755488E-002
  -5.8874920419571028E-002   1.7602649468782205E-002   3.9043173775068211E-002
  -5.6956150037030084E-002   1.7016528635104361E-002   3.9024272503863804E-002
  -5.5037379654489162E-002   1.6426858439770681E-002   3.9187747270142140E-002
  -6.8871769001948149E-002   2.0709247305580880E-002   3.4278181945448710E-002
  -6.6780661316987178E-002   2.0005902756449492E-002   3.3969241790390695E-002
  -6.4689553632026206E-002   1.9327242892445862E-002   3.3822600202689901E-002
  -6.2598445947065220E-002   1.8673267713569766E-002   3.3838257182346558E-002
  -6.0507338262104277E-002   1.8043977219821469E-002   3.4016212729360173E-002
  -7.4956892554804450E-002   2.2654251559991373E-002   2.8789819998814914E-002
  -7.2713525037549021E-002   2.1826584572094798E-002   2.8583827081652469E-002
  -7.0470157520293564E-002   2.1051836316109511E-002   2.8520055261721786E-002
  -6.8226790003038149E-002   2.0330006792035296E-002   2.8598504539022761E-002
  -6.5983422485782678E-002   1.9661095999872202E-002   2.8819174913555401E-002
  -4.4115839287448722E-002   1.3192620879669159E-002   4.9454306526637071E-002
  -4.2368034390535020E-002   1.2659768189688753E-002   4.9196970046213262E-002
  -4.0620229493621277E-002   1.2142086771979033E-002   4.9134620026168391E-002
  -3.8872424596707554E-002   1.1639576626540166E-002   4.9267256466502485E-002
  -3.7124619699793832E-002   1.1152237753371874E-002   4.9594879367215683E-002
  -4.9573546662937271E-002   1.4809739659719878E-002   4.4333778535901064E-002
  -4.7628958136570289E-002   1.4245850196374116E-002   4.4081751382416434E-002
  -4.5684369610203245E-002   1.3686065008613940E-002   4.4028305027459455E-002
  -4.3739781083836235E-002   1.3130384096439428E-002   4.4173439471030175E-002
  -4.1795192557469198E-002   1.2578807459850461E-002   4.4517154713128532E-002
  -5.5037379654489162E-002   1.6426858439770681E-002   3.9187747270142140E-002
  -5.2892413160520145E-002   1.5831932203059354E-002   3.8929962446911714E-002
  -5.0747446666551149E-002   1.5230043245248626E-002   3.8874352760357611E-002
  -4.8602480172582119E-002   1.4621191566338579E-002   3.9020918210479850E-002
  -4.6457513678613123E-002   1.4005377166329019E-002   3.9369658797278370E-002
  -6.0507338262104277E-002   1.8043977219821469E-002   3.4016212729360173E-002
  -5.8158399462384637E-002   1.7418014209744627E-002   3.3741603239698957E-002
  -5.5809460662664984E-002   1.6774021481883367E-002   3.3672763224862672E-002
  -5.3460521862945330E-002   1.6111999036237813E-002   3.3809692684851303E-002
  -5.1111583063225691E-002   1.5431946872807648E-002   3.4152391619664976E-002
  -6.5983422485782678E-002   1.9661095999872202E-002   2.8819174913555401E-002
  -6.3426917042163744E-002   1.9004096216430011E-002   2.8516673760778211E-002
  -6.0870411598544769E-002   1.8317999718518191E-002   2.8423536420974643E-002
  -5.8313906154925800E-002   1.7602806506136985E-002   2.8539762894144824E-002
  -5.5757400711306832E-002   1.6858516579286165E-002   2.8865353180288489E-002
  -3.7124619699793832E-002   1.1152237753371874E-002   4.9594879367215683E-002
  -3.5664346961141236E-002   1.0655731780180450E-002   4.9276678840546484E-002
  -3.4204074222488667E-002   1.0125720334672059E-002   4.9133404441256467E-002
  -3.2743801483836099E-002   9.5622034168462676E-003   4.9165056169345592E-002
  -3.1283528745183489E-002   8.9651810267037391E-003   4.9371634024813926E-002
  -4.1795192557469198E-002   1.2578807459850461E-002   4.4517154713128532E-002
  -4.0164641905456169E-002   1.2019378958898291E-002   4.4175900970657517E-002
  -3.8534091253443162E-002   1.1440142453634269E-002   4.4000276927528073E-002
  -3.6903540601430154E-002   1.0841097944058003E-002   4.3990282583740402E-002
  -3.5272989949417133E-002   1.0222245430169474E-002   4.4145917939294566E-002
  -4.6457513678613123E-002   1.4005377166329019E-002   3.9369658797278370E-002
  -4.4665981541277155E-002   1.3383026137616230E-002   3.9019049307010389E-002
  -4.2874449403941209E-002   1.2754564572596432E-002   3.8824773088046542E-002
  -4.1082917266605276E-002   1.2119992471269462E-002   3.8786830140387071E-002
  -3.9291385129269288E-002   1.1479309833635432E-002   3.8905220464031692E-002
  -5.1111583063225691E-002   1.5431946872807648E-002   3.4152391619664976E-002
  -4.9168365868604222E-002   1.4746673316334231E-002   3.3806123849605060E-002
  -4.7225148673982795E-002   1.4068986691558729E-002   3.3606892922811861E-002
  -4.5281931479361347E-002   1.3398886998481005E-002   3.3554698839285531E-002
  -4.3338714284739906E-002   1.2736374237101333E-002   3.3649541599025674E-002
  -5.5757400711306832E-002   1.6858516579286165E-002   2.8865353180288489E-002
  -5.3671794887437368E-002   1.6110320495052011E-002   2.8537124598441654E-002
  -5.1586189063567919E-002   1.5383408810520804E-002   2.8346636431824029E-002
  -4.9500583239698491E-002   1.4677781525692657E-002   2.8293888680435586E-002
  -4.7414977415829007E-002   1.3993438640567124E-002   2.8378881344276574E-002
  -3.1283528745183489E-002   8.9651810267037391E-003   4.9371634024813926E-002
  -2.9390264048664183E-002   8.4299865776611416E-003   4.9051547050463440E-002
  -2.7496999352144856E-002   8.0519534831361705E-003   4.8960143543041679E-002
  -2.5603734655625560E-002   7.8310817431278337E-003   4.9097423502548726E-002
  -2.3710469959106195E-002   7.7673713576369430E-003   4.9463386928984443E-002
  -3.5272989949417133E-002   1.0222245430169474E-002   4.4145917939294566E-002
  -3.3160477982508776E-002   9.6311478856195842E-003   4.3903700441538851E-002
  -3.1047966015600469E-002   9.1153682840589001E-003   4.3871294017632678E-002
  -2.8935454048692171E-002   8.6749066254866725E-003   4.4048698667575839E-002
  -2.6822942081783818E-002   8.3097629099033732E-003   4.4435914391368070E-002
  -3.9291385129269288E-002   1.1479309833635432E-002   3.8905220464031692E-002
  -3.6978498285051356E-002   1.0832309193578138E-002   3.8659029031342662E-002
  -3.4665611440833390E-002   1.0178783084981616E-002   3.8603776279423616E-002
  -3.2352724596615451E-002   9.5187315078454800E-003   3.8739462208274462E-002
  -3.0039837752397491E-002   8.8521544621700254E-003   3.9066086817895196E-002
  -4.3338714284739906E-002   1.2736374237101333E-002   3.3649541599025674E-002
  -4.0844324956291714E-002   1.2033470501536581E-002   3.3317532819875081E-002
  -3.8349935627843612E-002   1.1242197885904283E-002   3.3157590328414852E-002
  -3.5855546299395469E-002   1.0362556390204414E-002   3.3169714124645221E-002
  -3.3361156970947436E-002   9.3945460144365112E-003   3.3353904208566057E-002
  -4.7414977415829007E-002   1.3993438640567124E-002   2.8378881344276574E-002
  -4.4757957996230058E-002   1.3234631809495023E-002   2.7879211807135817E-002
  -4.2100938576631108E-002   1.2305612686827144E-002   2.7532736164606220E-002
  -3.9443919157032242E-002   1.1206381272563092E-002   2.7339454416687420E-002
  -3.6786899737433154E-002   9.9369375667031079E-003   2.7299366563380278E-002
  -9.0362176929546706E-002   0.0000000000000000        4.9836155432192344E-002
  -9.3962628901536810E-002   5.4042530390695891E-003   5.3210017242626167E-002
  -9.7563080873526914E-002   1.0670864072373732E-002   5.4964998074283289E-002
 -0.10116353284551702        1.5799833099912411E-002   5.5101097927163681E-002
 -0.10476398481750715        2.0791160121685644E-002   5.3618316801267392E-002
 -0.10329380524981231        0.0000000000000000        5.8664196631804250E-002
 -0.10683157174655890        1.0884612320231937E-002   5.2119630933079364E-002
 -0.11036933824330547        1.9172432566384803E-002   4.7319317163618264E-002
 -0.11390710474005204        2.4863460738458583E-002   4.4263255323420923E-002
 -0.11744487123679861        2.7957696836453313E-002   4.2951445412487375E-002
 -0.12645821049333461        0.0000000000000000        7.4202172146735315E-002
 -0.12657015860679716        1.6364971601394288E-002   5.5280028870538095E-002
 -0.12668210672025973        2.7674001060395872E-002   4.1465270431645149E-002
 -0.12679405483372233        3.3927088377004755E-002   3.2757896830056449E-002
 -0.12690600294718488        3.5124233551220949E-002   2.9157908065772002E-002
 -0.15985539266011356        0.0000000000000000        9.6450081976985513E-002
 -0.15317838948225163        2.1845330882556638E-002   6.2691211055002374E-002
 -0.14650138630438972        3.6175569554406942E-002   3.7402857878363949E-002
 -0.13982438312652781        4.2990716015550941E-002   2.0585022447070278E-002
 -0.13314737994866591        4.2290770265988591E-002   1.2237704761121279E-002
 -0.20348535175014920        0.0000000000000000       0.12540792612255489     
 -0.18665626437292232        2.7325690163718983E-002   7.4353177486472175E-002
 -0.16982717699569544        4.4677138048418011E-002   3.5132079503774685E-002
 -0.15299808961846856        5.2054343654097099E-002   7.7446321744623625E-003
 -0.13616900224124165        4.9457306980756260E-002  -7.8091645014647243E-003
 -0.10476398481750715        2.0791160121685644E-002   5.3618316801267392E-002
 -0.10210818891556500        2.4932077323678803E-002   4.5638369844784379E-002
  -9.9452393013622881E-002   2.7509816891877294E-002   3.9348208779444893E-002
  -9.6796597111680746E-002   2.8524378826281158E-002   3.4747833605248947E-002
  -9.4140801209738612E-002   2.7975763126890291E-002   3.1837244322196478E-002
 -0.11744487123679861        2.7957696836453313E-002   4.2951445412487375E-002
 -0.11348722715049167        2.9429577941649784E-002   3.6697767685474877E-002
 -0.10952958306418473        3.0253541135328878E-002   3.1358000436048493E-002
 -0.10557193897787780        3.0429586417490627E-002   2.6932143664208246E-002
 -0.10161429489157084        2.9957713788134957E-002   2.3420197369954057E-002
 -0.12690600294718488        3.5124233551220949E-002   2.9157908065772002E-002
 -0.12242238609007051        3.3927078559620724E-002   2.5545759290507286E-002
 -0.11793876923295615        3.2997265378780463E-002   2.2071645579271326E-002
 -0.11345515237584179        3.2334794008700089E-002   1.8735566932064063E-002
 -0.10897153551872743        3.1939664449379637E-002   1.5537523348885564E-002
 -0.13314737994866591        4.2290770265988591E-002   1.2237704761121279E-002
 -0.12891366573430155        3.8424579177591754E-002   1.2182344659881741E-002
 -0.12467995151993716        3.5740989622232058E-002   1.1489144209113487E-002
 -0.12044623730557276        3.4240001599909649E-002   1.0158103408816472E-002
 -0.11621252309120837        3.3921615110624345E-002   8.1892222589908005E-003
 -0.13616900224124165        4.9457306980756260E-002  -7.8091645014647243E-003
 -0.13296106608318467        4.2922079795562666E-002  -3.3924762064019148E-003
 -0.12975312992512772        3.8484713865683591E-002  -3.8950367442521991E-004
 -0.12654519376707077        3.6145209191119056E-002   1.1997530944653579E-003
 -0.12333725760901376        3.5903565771868984E-002   1.3752941002698749E-003
  -9.4140801209738612E-002   2.7975763126890291E-002   3.1837244322196478E-002
  -9.1758678088562362E-002   2.6782057618056306E-002   3.1265588413493167E-002
  -8.9376554967386085E-002   2.5861350124130714E-002   3.0772935443636393E-002
  -8.6994431846209808E-002   2.5213640645113500E-002   3.0359285412626020E-002
  -8.4612308725033558E-002   2.4838929181004735E-002   3.0024638320462108E-002
 -0.10161429489157084        2.9957713788134957E-002   2.3420197369954057E-002
  -9.9139075032039545E-002   2.9187325585884251E-002   2.3140830705752784E-002
  -9.6663855172508292E-002   2.8467824149360808E-002   2.2968654579414983E-002
  -9.4188635312977012E-002   2.7799209478564568E-002   2.2903668990940804E-002
  -9.1713415453445718E-002   2.7181481573495675E-002   2.2945873940330125E-002
 -0.10897153551872743        3.1939664449379637E-002   1.5537523348885564E-002
 -0.10637503132182408        3.1592593553712189E-002   1.5328334680005027E-002
 -0.10377852712492071        3.1074298174590897E-002   1.5254524148005140E-002
 -0.10118202292801734        3.0384778312015637E-002   1.5316091752886032E-002
  -9.8585518731114014E-002   2.9524033965986581E-002   1.5513037494647445E-002
 -0.11621252309120837        3.3921615110624345E-002   8.1892222589908005E-003
 -0.11346654695791590        3.3997861521540149E-002   7.8281003362500705E-003
 -0.11072057082462335        3.3680772199821032E-002   7.6305441494070435E-003
 -0.10797459469133083        3.2970347145466747E-002   7.5965536984615618E-003
 -0.10522861855803831        3.1866586358477500E-002   7.7261289834138743E-003
 -0.12333725760901376        3.5903565771868984E-002   1.3752941002698749E-003
 -0.12041362194031496        3.6403129489368108E-002   6.4012767448765051E-004
 -0.11748998627161622        3.6287246225051070E-002   9.6714583620288730E-005
 -0.11456635060291746        3.5555915978917774E-002  -2.5494517233230068E-004
 -0.11164271493421868        3.4209138750968426E-002  -4.1485159337018018E-004
  -8.4612308725033558E-002   2.4838929181004735E-002   3.0024638320462108E-002
  -8.2198454682476274E-002   2.4523727487200470E-002   2.9278092352620022E-002
  -7.9784600639918990E-002   2.4054547319096824E-002   2.8823440643064850E-002
  -7.7370746597361734E-002   2.3431388676693820E-002   2.8660683191796463E-002
  -7.4956892554804450E-002   2.2654251559991373E-002   2.8789819998814914E-002
  -9.1713415453445718E-002   2.7181481573495675E-002   2.2945873940330125E-002
  -8.9036689489379206E-002   2.6563442412733555E-002   2.2296565210747986E-002
  -8.6359963525312694E-002   2.5893893974858001E-002   2.1881106065897583E-002
  -8.3683237561246182E-002   2.5172836259868873E-002   2.1699496505778723E-002
  -8.1006511597179670E-002   2.4400269267766173E-002   2.1751736530391613E-002
  -9.8585518731114014E-002   2.9524033965986581E-002   1.5513037494647445E-002
  -9.5703965519093381E-002   2.8603157338266641E-002   1.5063435200511045E-002
  -9.2822412307072777E-002   2.7733240630619153E-002   1.4789637817551165E-002
  -8.9940859095052172E-002   2.6914283843043927E-002   1.4691645345767963E-002
  -8.7059305883031540E-002   2.6146286975541042E-002   1.4769457785161123E-002
 -0.10522861855803831        3.1866586358477500E-002   7.7261289834138743E-003
 -0.10220028277161874        3.0642872263799838E-002   7.5787023219092871E-003
  -9.9171946985199211E-002   2.9572587286380288E-002   7.5490358980259253E-003
  -9.6143611198779663E-002   2.8655731426218956E-002   7.6371297117638600E-003
  -9.3115275412360130E-002   2.7892304683315904E-002   7.8429837631231718E-003
 -0.11164271493421868        3.4209138750968426E-002  -4.1485159337018018E-004
 -0.10852564124695530        3.2682587189332812E-002  -1.5763342505745181E-004
 -0.10540856755969202        3.1411933942141534E-002   1.5930030732140554E-004
 -0.10229149387242870        3.0397179009393996E-002   5.3594960376663822E-004
  -9.9174420185165368E-002   2.9638322391090655E-002   9.7231446427803458E-004
  -7.4956892554804450E-002   2.2654251559991373E-002   2.8789819998814914E-002
  -7.2713525037549021E-002   2.1826584572094798E-002   2.8583827081652469E-002
  -7.0470157520293564E-002   2.1051836316109511E-002   2.8520055261721786E-002
  -6.8226790003038149E-002   2.0330006792035296E-002   2.8598504539022761E-002
  -6.5983422485782678E-002   1.9661095999872202E-002   2.8819174913555401E-002
  -8.1006511597179670E-002   2.4400269267766173E-002   2.1751736530391613E-002
  -7.8618557936299238E-002   2.3608075931004474E-002   2.1577521075999195E-002
  -7.6230604275418806E-002   2.2828139182038444E-002   2.1550256811624813E-002
  -7.3842650614538333E-002   2.2060459020867791E-002   2.1669943737268882E-002
  -7.1454696953657942E-002   2.1305035447492654E-002   2.1936581852931236E-002
  -8.7059305883031540E-002   2.6146286975541042E-002   1.4769457785161123E-002
  -8.4522035985739610E-002   2.5389567289914233E-002   1.4586357649422822E-002
  -8.1984766088447583E-002   2.4604442047967353E-002   1.4554938796489472E-002
  -7.9447496191155584E-002   2.3790911249700376E-002   1.4675201226360802E-002
  -7.6910226293863626E-002   2.2948974895113217E-002   1.4947144939036983E-002
  -9.3115275412360130E-002   2.7892304683315904E-002   7.8429837631231718E-003
  -9.0423959185870068E-002   2.7171058648823923E-002   7.6103368019238612E-003
  -8.7732642959380006E-002   2.6380744913896303E-002   7.5341012163152648E-003
  -8.5041326732889944E-002   2.5521363478532833E-002   7.6142770062985268E-003
  -8.2350010506399826E-002   2.4592914342733835E-002   7.8508641718731467E-003
  -9.9174420185165368E-002   2.9638322391090655E-002   9.7231446427803458E-004
  -9.6324327536690679E-002   2.8952550007733613E-002   6.4945853350151239E-004
  -9.3474234888215962E-002   2.8157047779825195E-002   4.8774407110278861E-004
  -9.0624142239741232E-002   2.7251815707365512E-002   4.8717107708222060E-004
  -8.7774049591266556E-002   2.6236853790354120E-002   6.4773955143931916E-004
  -6.5983422485782678E-002   1.9661095999872202E-002   2.8819174913555401E-002
  -6.3426917042163744E-002   1.9004096216430011E-002   2.8516673760778211E-002
  -6.0870411598544769E-002   1.8317999718518191E-002   2.8423536420974643E-002
  -5.8313906154925800E-002   1.7602806506136985E-002   2.8539762894144824E-002
  -5.5757400711306832E-002   1.6858516579286165E-002   2.8865353180288489E-002
  -7.1454696953657942E-002   2.1305035447492654E-002   2.1936581852931236E-002
  -6.8690266140823839E-002   2.0553269702698038E-002   2.1631368561512695E-002
  -6.5925835327989776E-002   1.9796563027268378E-002   2.1532642195550983E-002
  -6.3161404515155700E-002   1.9034915421203912E-002   2.1640402755045869E-002
  -6.0396973702321596E-002   1.8268326884504527E-002   2.1954650239997292E-002
  -7.6910226293863626E-002   2.2948974895113217E-002   1.4947144939036983E-002
  -7.3940746999331494E-002   2.2102443188966009E-002   1.4663375292812218E-002
  -7.0971267704799335E-002   2.1275126336018454E-002   1.4583215684526876E-002
  -6.8001788410267133E-002   2.0467024336270619E-002   1.4706666114181227E-002
  -6.5032309115734988E-002   1.9678137189722833E-002   1.5033726581774917E-002
  -8.2350010506399826E-002   2.4592914342733835E-002   7.8508641718731467E-003
  -7.9178359617686683E-002   2.3651616675234008E-002   7.6126939546762879E-003
  -7.6006708728973416E-002   2.2753689644768614E-002   7.5752568879021605E-003
  -7.2835057840260217E-002   2.1899133251337521E-002   7.7385529715502527E-003
  -6.9663406951546963E-002   2.1087947494941056E-002   8.1025822056213087E-003
  -8.7774049591266556E-002   2.6236853790354120E-002   6.4773955143931916E-004
  -8.4403103995889350E-002   2.5200790161501840E-002   4.7932454710530870E-004
  -8.1032158400512089E-002   2.4232252953518801E-002   5.0876580567686680E-004
  -7.7661212805134883E-002   2.3331242166404247E-002   7.3606332715382347E-004
  -7.4290267209757621E-002   2.2497757800159390E-002   1.1612171115362724E-003
  -5.5757400711306832E-002   1.6858516579286165E-002   2.8865353180288489E-002
  -5.3671794887437368E-002   1.6110320495052011E-002   2.8537124598441654E-002
  -5.1586189063567919E-002   1.5383408810520804E-002   2.8346636431824029E-002
  -4.9500583239698491E-002   1.4677781525692657E-002   2.8293888680435586E-002
  -4.7414977415829007E-002   1.3993438640567124E-002   2.8378881344276574E-002
  -6.0396973702321596E-002   1.8268326884504527E-002   2.1954650239997292E-002
  -5.8168425631203849E-002   1.7497921538701861E-002   2.1645156923836201E-002
  -5.5939877560086081E-002   1.6724823505326669E-002   2.1483807686942413E-002
  -5.3711329488968326E-002   1.5949032784379619E-002   2.1470602529316013E-002
  -5.1482781417850565E-002   1.5170549375860487E-002   2.1605541450956944E-002
  -6.5032309115734988E-002   1.9678137189722833E-002   1.5033726581774917E-002
  -6.2650415133330875E-002   1.8885522582351155E-002   1.4718991444024720E-002
  -6.0268521150926763E-002   1.8066238200132478E-002   1.4562804049579603E-002
  -5.7886627168522643E-002   1.7220284043066525E-002   1.4565164398440036E-002
  -5.5504733186118538E-002   1.6347660111153628E-002   1.4726072490605840E-002
  -6.9663406951546963E-002   2.1087947494941056E-002   8.1025822056213087E-003
  -6.7117763393818433E-002   2.0273123626000672E-002   7.7586281590065684E-003
  -6.4572119836089931E-002   1.9407652894938093E-002   7.5836255197355359E-003
  -6.2026476278361414E-002   1.8491535301753237E-002   7.5775742878078037E-003
  -5.9480832720632905E-002   1.7524770846446547E-002   7.7404744632234498E-003
  -7.4290267209757621E-002   2.2497757800159390E-002   1.1612171115362724E-003
  -7.1570470412666620E-002   2.1660724669650466E-002   7.6406706878240360E-004
  -6.8850673615575619E-002   2.0749067589744125E-002   5.4627209740990001E-004
  -6.6130876818484591E-002   1.9762786560440608E-002   5.0783219741907387E-004
  -6.3411080021393618E-002   1.8701881581740132E-002   6.4874736880993211E-004
  -4.7414977415829007E-002   1.3993438640567124E-002   2.8378881344276574E-002
  -4.4757957996230058E-002   1.3234631809495023E-002   2.7879211807135817E-002
  -4.2100938576631108E-002   1.2305612686827144E-002   2.7532736164606220E-002
  -3.9443919157032242E-002   1.1206381272563092E-002   2.7339454416687420E-002
  -3.6786899737433154E-002   9.9369375667031079E-003   2.7299366563380278E-002
  -5.1482781417850565E-002   1.5170549375860487E-002   2.1605541450956944E-002
  -4.8659958674481613E-002   1.4372112780266844E-002   2.1060620587642659E-002
  -4.5837135931112633E-002   1.3536462498097701E-002   2.0694112477257581E-002
  -4.3014313187743569E-002   1.2663598529352199E-002   2.0506017119801143E-002
  -4.0191490444374645E-002   1.1753520874030476E-002   2.0496334515274217E-002
  -5.5504733186118538E-002   1.6347660111153628E-002   1.4726072490605840E-002
  -5.2490888260661624E-002   1.5509593751039052E-002   1.4268898906138222E-002
  -4.9477043335204640E-002   1.4767312309367939E-002   1.4015356932917153E-002
  -4.6463198409747698E-002   1.4120815786141199E-002   1.3965446570943167E-002
  -4.3449353484290784E-002   1.3570104181357845E-002   1.4119167820216105E-002
  -5.9480832720632905E-002   1.7524770846446547E-002   7.7404744632234498E-003
  -5.6250746754770063E-002   1.6647074721810623E-002   7.5040467626221671E-003
  -5.3020660788907381E-002   1.5998162120638391E-002   7.4964695315855728E-003
  -4.9790574823044637E-002   1.5578033042929975E-002   7.7177427701136253E-003
  -4.6560488857181809E-002   1.5386687488685269E-002   8.1678664782065674E-003
  -6.3411080021393618E-002   1.8701881581740132E-002   6.4874736880993211E-004
  -5.9939534156807084E-002   1.7784555692582638E-002   7.6606415709479236E-004
  -5.6467988292220661E-002   1.7229011931908844E-002   1.1374502732623137E-003
  -5.2996442427634100E-002   1.7035250299719112E-002   1.7629057173124754E-003
  -4.9524896563047704E-002   1.7203270796012582E-002   2.6424304892453954E-003
 </DataArray>
 </PointData>
 </Piece>
 <Piece  NumberOfPoints="          1600 "  NumberOfCells="         1024 ">
 <Points>
 <DataArray  type="Float64" NumberOfComponents="3"  format="ascii" >
  0.50000000000000000        0.0000000000000000        0.0000000000000000     
  0.53125000000000000        0.0000000000000000        0.0000000000000000     
  0.56250000000000000        0.0000000000000000        0.0000000000000000     
  0.59375000000000000        0.0000000000000000        0.0000000000000000     
  0.62500000000000000        0.0000000000000000        0.0000000000000000     
  0.50000000000000000        3.1250000000000000E-002   0.0000000000000000     
  0.53125000000000000        3.1250000000000000E-002   0.0000000000000000     
  0.56250000000000000        3.1250000000000000E-002   0.0000000000000000     
  0.59375000000000000        3.1250000000000000E-002   0.0000000000000000     
  0.62500000000000000        3.1250000000000000E-002   0.0000000000000000     
  0.50000000000000000        6.2500000000000000E-002   0.0000000000000000     
  0.53125000000000000        6.2500000000000000E-002   0.0000000000000000     
  0.56250000000000000        6.2500000000000000E-002   0.0000000000000000     
  0.59375000000000000        6.2500000000000000E-002   0.0000000000000000     
  0.62500000000000000        6.2500000000000000E-002   0.0000000000000000     
  0.50000000000000000        9.3750000000000000E-002   0.0000000000000000     
  0.53125000000000000        9.3750000000000000E-002   0.0000000000000000     
  0.56250000000000000        9.3750000000000000E-002   0.0000000000000000     
  0.59375000000000000        9.3750000000000000E-002   0.0000000000000000     
  0.62500000000000000        9.3750000000000000E-002   0.0000000000000000     
  0.50000000000000000       0.12500000000000000        0.0000000000000000     
  0.53125000000000000       0.12500000000000000        0.0000000000000000     
  0.56250000000000000       0.12500000000000000        0.0000000000000000     
  0.59375000000000000       0.12500000000000000        0.0000000000000000     
  0.62500000000000000       0.12500000000000000        0.0000000000000000     
  0.62500000000000000        0.0000000000000000        0.0000000000000000     
  0.65625000000000000        0.0000000000000000        0.0000000000000000     
  0.68750000000000000        0.0000000000000000        0.0000000000000000     
  0.71875000000000000        0.0000000000000000        0.0000000000000000     
  0.75000000000000000        0.0000000000000000        0.0000000000000000     
  0.62500000000000000        3.1250000000000000E-002   0.0000000000000000     
  0.65625000000000000        3.1250000000000000E-002   0.0000000000000000     
  0.68750000000000000        3.1250000000000000E-002   0.0000000000000000     
  0.71875000000000000        3.1250000000000000E-002   0.0000000000000000     
  0.75000000000000000        3.1250000000000000E-002   0.0000000000000000     
  0.62500000000000000        6.2500000000000000E-002   0.0000000000000000     
  0.65625000000000000        6.2500000000000000E-002   0.0000000000000000     
  0.68750000000000000        6.2500000000000000E-002   0.0000000000000000     
  0.71875000000000000        6.2500000000000000E-002   0.0000000000000000     
  0.75000000000000000        6.2500000000000000E-002   0.0000000000000000     
  0.62500000000000000        9.3750000000000000E-002   0.0000000000000000     
  0.65625000000000000        9.3750000000000000E-002   0.0000000000000000     
  0.68750000000000000        9.3750000000000000E-002   0.0000000000000000     
  0.71875000000000000        9.3750000000000000E-002   0.0000000000000000     
  0.75000000000000000        9.3750000000000000E-002   0.0000000000000000     
  0.62500000000000000       0.12500000000000000        0.0000000000000000     
  0.65625000000000000       0.12500000000000000        0.0000000000000000     
  0.68750000000000000       0.12500000000000000        0.0000000000000000     
  0.71875000000000000       0.12500000000000000        0.0000000000000000     
  0.75000000000000000       0.12500000000000000        0.0000000000000000     
  0.75000000000000000        0.0000000000000000        0.0000000000000000     
  0.78125000000000000        0.0000000000000000        0.0000000000000000     
  0.81250000000000000        0.0000000000000000        0.0000000000000000     
  0.84375000000000000        0.0000000000000000        0.0000000000000000     
  0.87500000000000000        0.0000000000000000        0.0000000000000000     
  0.75000000000000000        3.1250000000000000E-002   0.0000000000000000     
  0.78125000000000000        3.1250000000000000E-002   0.0000000000000000     
  0.81250000000000000        3.1250000000000000E-002   0.0000000000000000     
  0.84375000000000000        3.1250000000000000E-002   0.0000000000000000     
  0.87500000000000000        3.1250000000000000E-002   0.0000000000000000     
  0.75000000000000000        6.2500000000000000E-002   0.0000000000000000     
  0.78125000000000000        6.2500000000000000E-002   0.0000000000000000     
  0.81250000000000000        6.2500000000000000E-002   0.0000000000000000     
  0.84375000000000000        6.2500000000000000E-002   0.0000000000000000     
  0.87500000000000000        6.2500000000000000E-002   0.0000000000000000     
  0.75000000000000000        9.3750000000000000E-002   0.0000000000000000     
  0.78125000000000000        9.3750000000000000E-002   0.0000000000000000     
  0.81250000000000000        9.3750000000000000E-002   0.0000000000000000     
  0.84375000000000000        9.3750000000000000E-002   0.0000000000000000     
  0.87500000000000000        9.3750000000000000E-002   0.0000000000000000     
  0.75000000000000000       0.12500000000000000        0.0000000000000000     
  0.78125000000000000       0.12500000000000000        0.0000000000000000     
  0.81250000000000000       0.12500000000000000        0.0000000000000000     
  0.84375000000000000       0.12500000000000000        0.0000000000000000     
  0.87500000000000000       0.12500000000000000        0.0000000000000000     
  0.87500000000000000        0.0000000000000000        0.0000000000000000     
  0.90625000000000000        0.0000000000000000        0.0000000000000000     
  0.93750000000000000        0.0000000000000000        0.0000000000000000     
  0.96875000000000000        0.0000000000000000        0.0000000000000000     
   1.0000000000000000        0.0000000000000000        0.0000000000000000     
  0.87500000000000000        3.1250000000000000E-002   0.0000000000000000     
  0.90625000000000000        3.1250000000000000E-002   0.0000000000000000     
  0.93750000000000000        3.1250000000000000E-002   0.0000000000000000     
  0.96875000000000000        3.1250000000000000E-002   0.0000000000000000     
   1.0000000000000000        3.1250000000000000E-002   0.0000000000000000     
  0.87500000000000000        6.2500000000000000E-002   0.0000000000000000     
  0.90625000000000000        6.2500000000000000E-002   0.0000000000000000     
  0.93750000000000000        6.2500000000000000E-002   0.0000000000000000     
  0.96875000000000000        6.2500000000000000E-002   0.0000000000000000     
   1.0000000000000000        6.2500000000000000E-002   0.0000000000000000     
  0.87500000000000000        9.3750000000000000E-002   0.0000000000000000     
  0.90625000000000000        9.3750000000000000E-002   0.0000000000000000     
  0.93750000000000000        9.3750000000000000E-002   0.0000000000000000     
  0.96875000000000000        9.3750000000000000E-002   0.0000000000000000     
   1.0000000000000000        9.3750000000000000E-002   0.0000000000000000     
  0.87500000000000000       0.12500000000000000        0.0000000000000000     
  0.90625000000000000       0.12500000000000000        0.0000000000000000     
  0.93750000000000000       0.12500000000000000        0.0000000000000000     
  0.96875000000000000       0.12500000000000000        0.0000000000000000     
   1.0000000000000000       0.12500000000000000        0.0000000000000000     
   1.0000000000000000        0.0000000000000000        0.0000000000000000     
   1.0312500000000000        0.0000000000000000        0.0000000000000000     
   1.0625000000000000        0.0000000000000000        0.0000000000000000     
   1.0937500000000000        0.0000000000000000        0.0000000000000000     
   1.1250000000000000        0.0000000000000000        0.0000000000000000     
   1.0000000000000000        3.1250000000000000E-002   0.0000000000000000     
   1.0312500000000000        3.1250000000000000E-002   0.0000000000000000     
   1.0625000000000000        3.1250000000000000E-002   0.0000000000000000     
   1.0937500000000000        3.1250000000000000E-002   0.0000000000000000     
   1.1250000000000000        3.1250000000000000E-002   0.0000000000000000     
   1.0000000000000000        6.2500000000000000E-002   0.0000000000000000     
   1.0312500000000000        6.2500000000000000E-002   0.0000000000000000     
   1.0625000000000000        6.2500000000000000E-002   0.0000000000000000     
   1.0937500000000000        6.2500000000000000E-002   0.0000000000000000     
   1.1250000000000000        6.2500000000000000E-002   0.0000000000000000     
   1.0000000000000000        9.3750000000000000E-002   0.0000000000000000     
   1.0312500000000000        9.3750000000000000E-002   0.0000000000000000     
   1.0625000000000000        9.3750000000000000E-002   0.0000000000000000     
   1.0937500000000000        9.3750000000000000E-002   0.0000000000000000     
   1.1250000000000000        9.3750000000000000E-002   0.0000000000000000     
   1.0000000000000000       0.12500000000000000        0.0000000000000000     
   1.0312500000000000       0.12500000000000000        0.0000000000000000     
   1.0625000000000000       0.12500000000000000        0.0000000000000000     
   1.0937500000000000       0.12500000000000000        0.0000000000000000     
   1.1250000000000000       0.12500000000000000        0.0000000000000000     
   1.1250000000000000        0.0000000000000000        0.0000000000000000     
   1.1562500000000000        0.0000000000000000        0.0000000000000000     
   1.1875000000000000        0.0000000000000000        0.0000000000000000     
   1.2187500000000000        0.0000000000000000        0.0000000000000000     
   1.2500000000000000        0.0000000000000000        0.0000000000000000     
   1.1250000000000000        3.1250000000000000E-002   0.0000000000000000     
   1.1562500000000000        3.1250000000000000E-002   0.0000000000000000     
   1.1875000000000000        3.1250000000000000E-002   0.0000000000000000     
   1.2187500000000000        3.1250000000000000E-002   0.0000000000000000     
   1.2500000000000000        3.1250000000000000E-002   0.0000000000000000     
   1.1250000000000000        6.2500000000000000E-002   0.0000000000000000     
   1.1562500000000000        6.2500000000000000E-002   0.0000000000000000     
   1.1875000000000000        6.2500000000000000E-002   0.0000000000000000     
   1.2187500000000000        6.2500000000000000E-002   0.0000000000000000     
   1.2500000000000000        6.2500000000000000E-002   0.0000000000000000     
   1.1250000000000000        9.3750000000000000E-002   0.0000000000000000     
   1.1562500000000000        9.3750000000000000E-002   0.0000000000000000     
   1.1875000000000000        9.3750000000000000E-002   0.0000000000000000     
   1.2187500000000000        9.3750000000000000E-002   0.0000000000000000     
   1.2500000000000000        9.3750000000000000E-002   0.0000000000000000     
   1.1250000000000000       0.12500000000000000        0.0000000000000000     
   1.1562500000000000       0.12500000000000000        0.0000000000000000     
   1.1875000000000000       0.12500000000000000        0.0000000000000000     
   1.2187500000000000       0.12500000000000000        0.0000000000000000     
   1.2500000000000000       0.12500000000000000        0.0000000000000000     
   1.2500000000000000        0.0000000000000000        0.0000000000000000     
   1.2812500000000000        0.0000000000000000        0.0000000000000000     
   1.3125000000000000        0.0000000000000000        0.0000000000000000     
   1.3437500000000000        0.0000000000000000        0.0000000000000000     
   1.3750000000000000        0.0000000000000000        0.0000000000000000     
   1.2500000000000000        3.1250000000000000E-002   0.0000000000000000     
   1.2812500000000000        3.1250000000000000E-002   0.0000000000000000     
   1.3125000000000000        3.1250000000000000E-002   0.0000000000000000     
   1.3437500000000000        3.1250000000000000E-002   0.0000000000000000     
   1.3750000000000000        3.1250000000000000E-002   0.0000000000000000     
   1.2500000000000000        6.2500000000000000E-002   0.0000000000000000     
   1.2812500000000000        6.2500000000000000E-002   0.0000000000000000     
   1.3125000000000000        6.2500000000000000E-002   0.0000000000000000     
   1.3437500000000000        6.2500000000000000E-002   0.0000000000000000     
   1.3750000000000000        6.2500000000000000E-002   0.0000000000000000     
   1.2500000000000000        9.3750000000000000E-002   0.0000000000000000     
   1.2812500000000000        9.3750000000000000E-002   0.0000000000000000     
   1.3125000000000000        9.3750000000000000E-002   0.0000000000000000     
   1.3437500000000000        9.3750000000000000E-002   0.0000000000000000     
   1.3750000000000000        9.3750000000000000E-002   0.0000000000000000     
   1.2500000000000000       0.12500000000000000        0.0000000000000000     
   1.2812500000000000       0.12500000000000000        0.0000000000000000     
   1.3125000000000000       0.12500000000000000        0.0000000000000000     
   1.3437500000000000       0.12500000000000000        0.0000000000000000     
   1.3750000000000000       0.12500000000000000        0.0000000000000000     
   1.3750000000000000        0.0000000000000000        0.0000000000000000     
   1.4062500000000000        0.0000000000000000        0.0000000000000000     
   1.4375000000000000        0.0000000000000000        0.0000000000000000     
   1.4687500000000000        0.0000000000000000        0.0000000000000000     
   1.5000000000000000        0.0000000000000000        0.0000000000000000     
   1.3750000000000000        3.1250000000000000E-002   0.0000000000000000     
   1.4062500000000000        3.1250000000000000E-002   0.0000000000000000     
   1.4375000000000000        3.1250000000000000E-002   0.0000000000000000     
   1.4687500000000000        3.1250000000000000E-002   0.0000000000000000     
   1.5000000000000000        3.1250000000000000E-002   0.0000000000000000     
   1.3750000000000000        6.2500000000000000E-002   0.0000000000000000     
   1.4062500000000000        6.2500000000000000E-002   0.0000000000000000     
   1.4375000000000000        6.2500000000000000E-002   0.0000000000000000     
   1.4687500000000000        6.2500000000000000E-002   0.0000000000000000     
   1.5000000000000000        6.2500000000000000E-002   0.0000000000000000     
   1.3750000000000000        9.3750000000000000E-002   0.0000000000000000     
   1.4062500000000000        9.3750000000000000E-002   0.0000000000000000     
   1.4375000000000000        9.3750000000000000E-002   0.0000000000000000     
   1.4687500000000000        9.3750000000000000E-002   0.0000000000000000     
   1.5000000000000000        9.3750000000000000E-002   0.0000000000000000     
   1.3750000000000000       0.12500000000000000        0.0000000000000000     
   1.4062500000000000       0.12500000000000000        0.0000000000000000     
   1.4375000000000000       0.12500000000000000        0.0000000000000000     
   1.4687500000000000       0.12500000000000000        0.0000000000000000     
   1.5000000000000000       0.12500000000000000        0.0000000000000000     
  0.50000000000000000       0.12500000000000000        0.0000000000000000     
  0.53125000000000000       0.12500000000000000        0.0000000000000000     
  0.56250000000000000       0.12500000000000000        0.0000000000000000     
  0.59375000000000000       0.12500000000000000        0.0000000000000000     
  0.62500000000000000       0.12500000000000000        0.0000000000000000     
  0.50000000000000000       0.15625000000000000        0.0000000000000000     
  0.53125000000000000       0.15625000000000000        0.0000000000000000     
  0.56250000000000000       0.15625000000000000        0.0000000000000000     
  0.59375000000000000       0.15625000000000000        0.0000000000000000     
  0.62500000000000000       0.15625000000000000        0.0000000000000000     
  0.50000000000000000       0.18750000000000000        0.0000000000000000     
  0.53125000000000000       0.18750000000000000        0.0000000000000000     
  0.56250000000000000       0.18750000000000000        0.0000000000000000     
  0.59375000000000000       0.18750000000000000        0.0000000000000000     
  0.62500000000000000       0.18750000000000000        0.0000000000000000     
  0.50000000000000000       0.21875000000000000        0.0000000000000000     
  0.53125000000000000       0.21875000000000000        0.0000000000000000     
  0.56250000000000000       0.21875000000000000        0.0000000000000000     
  0.59375000000000000       0.21875000000000000        0.0000000000000000     
  0.62500000000000000       0.21875000000000000        0.0000000000000000     
  0.50000000000000000       0.25000000000000000        0.0000000000000000     
  0.53125000000000000       0.25000000000000000        0.0000000000000000     
  0.56250000000000000       0.25000000000000000        0.0000000000000000     
  0.59375000000000000       0.25000000000000000        0.0000000000000000     
  0.62500000000000000       0.25000000000000000        0.0000000000000000     
  0.62500000000000000       0.12500000000000000        0.0000000000000000     
  0.65625000000000000       0.12500000000000000        0.0000000000000000     
  0.68750000000000000       0.12500000000000000        0.0000000000000000     
  0.71875000000000000       0.12500000000000000        0.0000000000000000     
  0.75000000000000000       0.12500000000000000        0.0000000000000000     
  0.62500000000000000       0.15625000000000000        0.0000000000000000     
  0.65625000000000000       0.15625000000000000        0.0000000000000000     
  0.68750000000000000       0.15625000000000000        0.0000000000000000     
  0.71875000000000000       0.15625000000000000        0.0000000000000000     
  0.75000000000000000       0.15625000000000000        0.0000000000000000     
  0.62500000000000000       0.18750000000000000        0.0000000000000000     
  0.65625000000000000       0.18750000000000000        0.0000000000000000     
  0.68750000000000000       0.18750000000000000        0.0000000000000000     
  0.71875000000000000       0.18750000000000000        0.0000000000000000     
  0.75000000000000000       0.18750000000000000        0.0000000000000000     
  0.62500000000000000       0.21875000000000000        0.0000000000000000     
  0.65625000000000000       0.21875000000000000        0.0000000000000000     
  0.68750000000000000       0.21875000000000000        0.0000000000000000     
  0.71875000000000000       0.21875000000000000        0.0000000000000000     
  0.75000000000000000       0.21875000000000000        0.0000000000000000     
  0.62500000000000000       0.25000000000000000        0.0000000000000000     
  0.65625000000000000       0.25000000000000000        0.0000000000000000     
  0.68750000000000000       0.25000000000000000        0.0000000000000000     
  0.71875000000000000       0.25000000000000000        0.0000000000000000     
  0.75000000000000000       0.25000000000000000        0.0000000000000000     
  0.75000000000000000       0.12500000000000000        0.0000000000000000     
  0.78125000000000000       0.12500000000000000        0.0000000000000000     
  0.81250000000000000       0.12500000000000000        0.0000000000000000     
  0.84375000000000000       0.12500000000000000        0.0000000000000000     
  0.87500000000000000       0.12500000000000000        0.0000000000000000     
  0.75000000000000000       0.15625000000000000        0.0000000000000000     
  0.78125000000000000       0.15625000000000000        0.0000000000000000     
  0.81250000000000000       0.15625000000000000        0.0000000000000000     
  0.84375000000000000       0.15625000000000000        0.0000000000000000     
  0.87500000000000000       0.15625000000000000        0.0000000000000000     
  0.75000000000000000       0.18750000000000000        0.0000000000000000     
  0.78125000000000000       0.18750000000000000        0.0000000000000000     
  0.81250000000000000       0.18750000000000000        0.0000000000000000     
  0.84375000000000000       0.18750000000000000        0.0000000000000000     
  0.87500000000000000       0.18750000000000000        0.0000000000000000     
  0.75000000000000000       0.21875000000000000        0.0000000000000000     
  0.78125000000000000       0.21875000000000000        0.0000000000000000     
  0.81250000000000000       0.21875000000000000        0.0000000000000000     
  0.84375000000000000       0.21875000000000000        0.0000000000000000     
  0.87500000000000000       0.21875000000000000        0.0000000000000000     
  0.75000000000000000       0.25000000000000000        0.0000000000000000     
  0.78125000000000000       0.25000000000000000        0.0000000000000000     
  0.81250000000000000       0.25000000000000000        0.0000000000000000     
  0.84375000000000000       0.25000000000000000        0.0000000000000000     
  0.87500000000000000       0.25000000000000000        0.0000000000000000     
  0.87500000000000000       0.12500000000000000        0.0000000000000000     
  0.90625000000000000       0.12500000000000000        0.0000000000000000     
  0.93750000000000000       0.12500000000000000        0.0000000000000000     
  0.96875000000000000       0.12500000000000000        0.0000000000000000     
   1.0000000000000000       0.12500000000000000        0.0000000000000000     
  0.87500000000000000       0.15625000000000000        0.0000000000000000     
  0.90625000000000000       0.15625000000000000        0.0000000000000000     
  0.93750000000000000       0.15625000000000000        0.0000000000000000     
  0.96875000000000000       0.15625000000000000        0.0000000000000000     
   1.0000000000000000       0.15625000000000000        0.0000000000000000     
  0.87500000000000000       0.18750000000000000        0.0000000000000000     
  0.90625000000000000       0.18750000000000000        0.0000000000000000     
  0.93750000000000000       0.18750000000000000        0.0000000000000000     
  0.96875000000000000       0.18750000000000000        0.0000000000000000     
   1.0000000000000000       0.18750000000000000        0.0000000000000000     
  0.87500000000000000       0.21875000000000000        0.0000000000000000     
  0.90625000000000000       0.21875000000000000        0.0000000000000000     
  0.93750000000000000       0.21875000000000000        0.0000000000000000     
  0.96875000000000000       0.21875000000000000        0.0000000000000000     
   1.0000000000000000       0.21875000000000000        0.0000000000000000     
  0.87500000000000000       0.25000000000000000        0.0000000000000000     
  0.90625000000000000       0.25000000000000000        0.0000000000000000     
  0.93750000000000000       0.25000000000000000        0.0000000000000000     
  0.96875000000000000       0.25000000000000000        0.0000000000000000     
   1.0000000000000000       0.25000000000000000        0.0000000000000000     
   1.0000000000000000       0.12500000000000000        0.0000000000000000     
   1.0312500000000000       0.12500000000000000        0.0000000000000000     
   1.0625000000000000       0.12500000000000000        0.0000000000000000     
   1.0937500000000000       0.12500000000000000        0.0000000000000000     
   1.1250000000000000       0.12500000000000000        0.0000000000000000     
   1.0000000000000000       0.15625000000000000        0.0000000000000000     
   1.0312500000000000       0.15625000000000000        0.0000000000000000     
   1.0625000000000000       0.15625000000000000        0.0000000000000000     
   1.0937500000000000       0.15625000000000000        0.0000000000000000     
   1.1250000000000000       0.15625000000000000        0.0000000000000000     
   1.0000000000000000       0.18750000000000000        0.0000000000000000     
   1.0312500000000000       0.18750000000000000        0.0000000000000000     
   1.0625000000000000       0.18750000000000000        0.0000000000000000     
   1.0937500000000000       0.18750000000000000        0.0000000000000000     
   1.1250000000000000       0.18750000000000000        0.0000000000000000     
   1.0000000000000000       0.21875000000000000        0.0000000000000000     
   1.0312500000000000       0.21875000000000000        0.0000000000000000     
   1.0625000000000000       0.21875000000000000        0.0000000000000000     
   1.0937500000000000       0.21875000000000000        0.0000000000000000     
   1.1250000000000000       0.21875000000000000        0.0000000000000000     
   1.0000000000000000       0.25000000000000000        0.0000000000000000     
   1.0312500000000000       0.25000000000000000        0.0000000000000000     
   1.0625000000000000       0.25000000000000000        0.0000000000000000     
   1.0937500000000000       0.25000000000000000        0.0000000000000000     
   1.1250000000000000       0.25000000000000000        0.0000000000000000     
   1.1250000000000000       0.12500000000000000        0.0000000000000000     
   1.1562500000000000       0.12500000000000000        0.0000000000000000     
   1.1875000000000000       0.12500000000000000        0.0000000000000000     
   1.2187500000000000       0.12500000000000000        0.0000000000000000     
   1.2500000000000000       0.12500000000000000        0.0000000000000000     
   1.1250000000000000       0.15625000000000000        0.0000000000000000     
   1.1562500000000000       0.15625000000000000        0.0000000000000000     
   1.1875000000000000       0.15625000000000000        0.0000000000000000     
   1.2187500000000000       0.15625000000000000        0.0000000000000000     
   1.2500000000000000       0.15625000000000000        0.0000000000000000     
   1.1250000000000000       0.18750000000000000        0.0000000000000000     
   1.1562500000000000       0.18750000000000000        0.0000000000000000     
   1.1875000000000000       0.18750000000000000        0.0000000000000000     
   1.2187500000000000       0.18750000000000000        0.0000000000000000     
   1.2500000000000000       0.18750000000000000        0.0000000000000000     
   1.1250000000000000       0.21875000000000000        0.0000000000000000     
   1.1562500000000000       0.21875000000000000        0.0000000000000000     
   1.1875000000000000       0.21875000000000000        0.0000000000000000     
   1.2187500000000000       0.21875000000000000        0.0000000000000000     
   1.2500000000000000       0.21875000000000000        0.0000000000000000     
   1.1250000000000000       0.25000000000000000        0.0000000000000000     
   1.1562500000000000       0.25000000000000000        0.0000000000000000     
   1.1875000000000000       0.25000000000000000        0.0000000000000000     
   1.2187500000000000       0.25000000000000000        0.0000000000000000     
   1.2500000000000000       0.25000000000000000        0.0000000000000000     
   1.2500000000000000       0.12500000000000000        0.0000000000000000     
   1.2812500000000000       0.12500000000000000        0.0000000000000000     
   1.3125000000000000       0.12500000000000000        0.0000000000000000     
   1.3437500000000000       0.12500000000000000        0.0000000000000000     
   1.3750000000000000       0.12500000000000000        0.0000000000000000     
   1.2500000000000000       0.15625000000000000        0.0000000000000000     
   1.2812500000000000       0.15625000000000000        0.0000000000000000     
   1.3125000000000000       0.15625000000000000        0.0000000000000000     
   1.3437500000000000       0.15625000000000000        0.0000000000000000     
   1.3750000000000000       0.15625000000000000        0.0000000000000000     
   1.2500000000000000       0.18750000000000000        0.0000000000000000     
   1.2812500000000000       0.18750000000000000        0.0000000000000000     
   1.3125000000000000       0.18750000000000000        0.0000000000000000     
   1.3437500000000000       0.18750000000000000        0.0000000000000000     
   1.3750000000000000       0.18750000000000000        0.0000000000000000     
   1.2500000000000000       0.21875000000000000        0.0000000000000000     
   1.2812500000000000       0.21875000000000000        0.0000000000000000     
   1.3125000000000000       0.21875000000000000        0.0000000000000000     
   1.3437500000000000       0.21875000000000000        0.0000000000000000     
   1.3750000000000000       0.21875000000000000        0.0000000000000000     
   1.2500000000000000       0.25000000000000000        0.0000000000000000     
   1.2812500000000000       0.25000000000000000        0.0000000000000000     
   1.3125000000000000       0.25000000000000000        0.0000000000000000     
   1.3437500000000000       0.25000000000000000        0.0000000000000000     
   1.3750000000000000       0.25000000000000000        0.0000000000000000     
   1.3750000000000000       0.12500000000000000        0.0000000000000000     
   1.4062500000000000       0.12500000000000000        0.0000000000000000     
   1.4375000000000000       0.12500000000000000        0.0000000000000000     
   1.4687500000000000       0.12500000000000000        0.0000000000000000     
   1.5000000000000000       0.12500000000000000        0.0000000000000000     
   1.3750000000000000       0.15625000000000000        0.0000000000000000     
   1.4062500000000000       0.15625000000000000        0.0000000000000000     
   1.4375000000000000       0.15625000000000000        0.0000000000000000     
   1.4687500000000000       0.15625000000000000        0.0000000000000000     
   1.5000000000000000       0.15625000000000000        0.0000000000000000     
   1.3750000000000000       0.18750000000000000        0.0000000000000000     
   1.4062500000000000       0.18750000000000000        0.0000000000000000     
   1.4375000000000000       0.18750000000000000        0.0000000000000000     
   1.4687500000000000       0.18750000000000000        0.0000000000000000     
   1.5000000000000000       0.18750000000000000        0.0000000000000000     
   1.3750000000000000       0.21875000000000000        0.0000000000000000     
   1.4062500000000000       0.21875000000000000        0.0000000000000000     
   1.4375000000000000       0.21875000000000000        0.0000000000000000     
   1.4687500000000000       0.21875000000000000        0.0000000000000000     
   1.5000000000000000       0.21875000000000000        0.0000000000000000     
   1.3750000000000000       0.25000000000000000        0.0000000000000000     
   1.4062500000000000       0.25000000000000000        0.0000000000000000     
   1.4375000000000000       0.25000000000000000        0.0000000000000000     
   1.4687500000000000       0.25000000000000000        0.0000000000000000     
   1.5000000000000000       0.25000000000000000        0.0000000000000000     
  0.50000000000000000       0.25000000000000000        0.0000000000000000     
  0.53125000000000000       0.25000000000000000        0.0000000000000000     
  0.56250000000000000       0.25000000000000000        0.0000000000000000     
  0.59375000000000000       0.25000000000000000        0.0000000000000000     
  0.62500000000000000       0.25000000000000000        0.0000000000000000     
  0.50000000000000000       0.28125000000000000        0.0000000000000000     
  0.53125000000000000       0.28125000000000000        0.0000000000000000     
  0.56250000000000000       0.28125000000000000        0.0000000000000000     
  0.59375000000000000       0.28125000000000000        0.0000000000000000     
  0.62500000000000000       0.28125000000000000        0.0000000000000000     
  0.50000000000000000       0.31250000000000000        0.0000000000000000     
  0.53125000000000000       0.31250000000000000        0.0000000000000000     
  0.56250000000000000       0.31250000000000000        0.0000000000000000     
  0.59375000000000000       0.31250000000000000        0.0000000000000000     
  0.62500000000000000       0.31250000000000000        0.0000000000000000     
  0.50000000000000000       0.34375000000000000        0.0000000000000000     
  0.53125000000000000       0.34375000000000000        0.0000000000000000     
  0.56250000000000000       0.34375000000000000        0.0000000000000000     
  0.59375000000000000       0.34375000000000000        0.0000000000000000     
  0.62500000000000000       0.34375000000000000        0.0000000000000000     
  0.50000000000000000       0.37500000000000000        0.0000000000000000     
  0.53125000000000000       0.37500000000000000        0.0000000000000000     
  0.56250000000000000       0.37500000000000000        0.0000000000000000     
  0.59375000000000000       0.37500000000000000        0.0000000000000000     
  0.62500000000000000       0.37500000000000000        0.0000000000000000     
  0.62500000000000000       0.25000000000000000        0.0000000000000000     
  0.65625000000000000       0.25000000000000000        0.0000000000000000     
  0.68750000000000000       0.25000000000000000        0.0000000000000000     
  0.71875000000000000       0.25000000000000000        0.0000000000000000     
  0.75000000000000000       0.25000000000000000        0.0000000000000000     
  0.62500000000000000       0.28125000000000000        0.0000000000000000     
  0.65625000000000000       0.28125000000000000        0.0000000000000000     
  0.68750000000000000       0.28125000000000000        0.0000000000000000     
  0.71875000000000000       0.28125000000000000        0.0000000000000000     
  0.75000000000000000       0.28125000000000000        0.0000000000000000     
  0.62500000000000000       0.31250000000000000        0.0000000000000000     
  0.65625000000000000       0.31250000000000000        0.0000000000000000     
  0.68750000000000000       0.31250000000000000        0.0000000000000000     
  0.71875000000000000       0.31250000000000000        0.0000000000000000     
  0.75000000000000000       0.31250000000000000        0.0000000000000000     
  0.62500000000000000       0.34375000000000000        0.0000000000000000     
  0.65625000000000000       0.34375000000000000        0.0000000000000000     
  0.68750000000000000       0.34375000000000000        0.0000000000000000     
  0.71875000000000000       0.34375000000000000        0.0000000000000000     
  0.75000000000000000       0.34375000000000000        0.0000000000000000     
  0.62500000000000000       0.37500000000000000        0.0000000000000000     
  0.65625000000000000       0.37500000000000000        0.0000000000000000     
  0.68750000000000000       0.37500000000000000        0.0000000000000000     
  0.71875000000000000       0.37500000000000000        0.0000000000000000     
  0.75000000000000000       0.37500000000000000        0.0000000000000000     
  0.75000000000000000       0.25000000000000000        0.0000000000000000     
  0.78125000000000000       0.25000000000000000        0.0000000000000000     
  0.81250000000000000       0.25000000000000000        0.0000000000000000     
  0.84375000000000000       0.25000000000000000        0.0000000000000000     
  0.87500000000000000       0.25000000000000000        0.0000000000000000     
  0.75000000000000000       0.28125000000000000        0.0000000000000000     
  0.78125000000000000       0.28125000000000000        0.0000000000000000     
  0.81250000000000000       0.28125000000000000        0.0000000000000000     
  0.84375000000000000       0.28125000000000000        0.0000000000000000     
  0.87500000000000000       0.28125000000000000        0.0000000000000000     
  0.75000000000000000       0.31250000000000000        0.0000000000000000     
  0.78125000000000000       0.31250000000000000        0.0000000000000000     
  0.81250000000000000       0.31250000000000000        0.0000000000000000     
  0.84375000000000000       0.31250000000000000        0.0000000000000000     
  0.87500000000000000       0.31250000000000000        0.0000000000000000     
  0.75000000000000000       0.34375000000000000        0.0000000000000000     
  0.78125000000000000       0.34375000000000000        0.0000000000000000     
  0.81250000000000000       0.34375000000000000        0.0000000000000000     
  0.84375000000000000       0.34375000000000000        0.0000000000000000     
  0.87500000000000000       0.34375000000000000        0.0000000000000000     
  0.75000000000000000       0.37500000000000000        0.0000000000000000     
  0.78125000000000000       0.37500000000000000        0.0000000000000000     
  0.81250000000000000       0.37500000000000000        0.0000000000000000     
  0.84375000000000000       0.37500000000000000        0.0000000000000000     
  0.87500000000000000       0.37500000000000000        0.0000000000000000     
  0.87500000000000000       0.25000000000000000        0.0000000000000000     
  0.90625000000000000       0.25000000000000000        0.0000000000000000     
  0.93750000000000000       0.25000000000000000        0.0000000000000000     
  0.96875000000000000       0.25000000000000000        0.0000000000000000     
   1.0000000000000000       0.25000000000000000        0.0000000000000000     
  0.87500000000000000       0.28125000000000000        0.0000000000000000     
  0.90625000000000000       0.28125000000000000        0.0000000000000000     
  0.93750000000000000       0.28125000000000000        0.0000000000000000     
  0.96875000000000000       0.28125000000000000        0.0000000000000000     
   1.0000000000000000       0.28125000000000000        0.0000000000000000     
  0.87500000000000000       0.31250000000000000        0.0000000000000000     
  0.90625000000000000       0.31250000000000000        0.0000000000000000     
  0.93750000000000000       0.31250000000000000        0.0000000000000000     
  0.96875000000000000       0.31250000000000000        0.0000000000000000     
   1.0000000000000000       0.31250000000000000        0.0000000000000000     
  0.87500000000000000       0.34375000000000000        0.0000000000000000     
  0.90625000000000000       0.34375000000000000        0.0000000000000000     
  0.93750000000000000       0.34375000000000000        0.0000000000000000     
  0.96875000000000000       0.34375000000000000        0.0000000000000000     
   1.0000000000000000       0.34375000000000000        0.0000000000000000     
  0.87500000000000000       0.37500000000000000        0.0000000000000000     
  0.90625000000000000       0.37500000000000000        0.0000000000000000     
  0.93750000000000000       0.37500000000000000        0.0000000000000000     
  0.96875000000000000       0.37500000000000000        0.0000000000000000     
   1.0000000000000000       0.37500000000000000        0.0000000000000000     
   1.0000000000000000       0.25000000000000000        0.0000000000000000     
   1.0312500000000000       0.25000000000000000        0.0000000000000000     
   1.0625000000000000       0.25000000000000000        0.0000000000000000     
   1.0937500000000000       0.25000000000000000        0.0000000000000000     
   1.1250000000000000       0.25000000000000000        0.0000000000000000     
   1.0000000000000000       0.28125000000000000        0.0000000000000000     
   1.0312500000000000       0.28125000000000000        0.0000000000000000     
   1.0625000000000000       0.28125000000000000        0.0000000000000000     
   1.0937500000000000       0.28125000000000000        0.0000000000000000     
   1.1250000000000000       0.28125000000000000        0.0000000000000000     
   1.0000000000000000       0.31250000000000000        0.0000000000000000     
   1.0312500000000000       0.31250000000000000        0.0000000000000000     
   1.0625000000000000       0.31250000000000000        0.0000000000000000     
   1.0937500000000000       0.31250000000000000        0.0000000000000000     
   1.1250000000000000       0.31250000000000000        0.0000000000000000     
   1.0000000000000000       0.34375000000000000        0.0000000000000000     
   1.0312500000000000       0.34375000000000000        0.0000000000000000     
   1.0625000000000000       0.34375000000000000        0.0000000000000000     
   1.0937500000000000       0.34375000000000000        0.0000000000000000     
   1.1250000000000000       0.34375000000000000        0.0000000000000000     
   1.0000000000000000       0.37500000000000000        0.0000000000000000     
   1.0312500000000000       0.37500000000000000        0.0000000000000000     
   1.0625000000000000       0.37500000000000000        0.0000000000000000     
   1.0937500000000000       0.37500000000000000        0.0000000000000000     
   1.1250000000000000       0.37500000000000000        0.0000000000000000     
   1.1250000000000000       0.25000000000000000        0.0000000000000000     
   1.1562500000000000       0.25000000000000000        0.0000000000000000     
   1.1875000000000000       0.25000000000000000        0.0000000000000000     
   1.2187500000000000       0.25000000000000000        0.0000000000000000     
   1.2500000000000000       0.25000000000000000        0.0000000000000000     
   1.1250000000000000       0.28125000000000000        0.0000000000000000     
   1.1562500000000000       0.28125000000000000        0.0000000000000000     
   1.1875000000000000       0.28125000000000000        0.0000000000000000     
   1.2187500000000000       0.28125000000000000        0.0000000000000000     
   1.2500000000000000       0.28125000000000000        0.0000000000000000     
   1.1250000000000000       0.31250000000000000        0.0000000000000000     
   1.1562500000000000       0.31250000000000000        0.0000000000000000     
   1.1875000000000000       0.31250000000000000        0.0000000000000000     
   1.2187500000000000       0.31250000000000000        0.0000000000000000     
   1.2500000000000000       0.31250000000000000        0.0000000000000000     
   1.1250000000000000       0.34375000000000000        0.0000000000000000     
   1.1562500000000000       0.34375000000000000        0.0000000000000000     
   1.1875000000000000       0.34375000000000000        0.0000000000000000     
   1.2187500000000000       0.34375000000000000        0.0000000000000000     
   1.2500000000000000       0.34375000000000000        0.0000000000000000     
   1.1250000000000000       0.37500000000000000        0.0000000000000000     
   1.1562500000000000       0.37500000000000000        0.0000000000000000     
   1.1875000000000000       0.37500000000000000        0.0000000000000000     
   1.2187500000000000       0.37500000000000000        0.0000000000000000     
   1.2500000000000000       0.37500000000000000        0.0000000000000000     
   1.2500000000000000       0.25000000000000000        0.0000000000000000     
   1.2812500000000000       0.25000000000000000        0.0000000000000000     
   1.3125000000000000       0.25000000000000000        0.0000000000000000     
   1.3437500000000000       0.25000000000000000        0.0000000000000000     
   1.3750000000000000       0.25000000000000000        0.0000000000000000     
   1.2500000000000000       0.28125000000000000        0.0000000000000000     
   1.2812500000000000       0.28125000000000000        0.0000000000000000     
   1.3125000000000000       0.28125000000000000        0.0000000000000000     
   1.3437500000000000       0.28125000000000000        0.0000000000000000     
   1.3750000000000000       0.28125000000000000        0.0000000000000000     
   1.2500000000000000       0.31250000000000000        0.0000000000000000     
   1.2812500000000000       0.31250000000000000        0.0000000000000000     
   1.3125000000000000       0.31250000000000000        0.0000000000000000     
   1.3437500000000000       0.31250000000000000        0.0000000000000000     
   1.3750000000000000       0.31250000000000000        0.0000000000000000     
   1.2500000000000000       0.34375000000000000        0.0000000000000000     
   1.2812500000000000       0.34375000000000000        0.0000000000000000     
   1.3125000000000000       0.34375000000000000        0.0000000000000000     
   1.3437500000000000       0.34375000000000000        0.0000000000000000     
   1.3750000000000000       0.34375000000000000        0.0000000000000000     
   1.2500000000000000       0.37500000000000000        0.0000000000000000     
   1.2812500000000000       0.37500000000000000        0.0000000000000000     
   1.3125000000000000       0.37500000000000000        0.0000000000000000     
   1.3437500000000000       0.37500000000000000        0.0000000000000000     
   1.3750000000000000       0.37500000000000000        0.0000000000000000     
   1.3750000000000000       0.25000000000000000        0.0000000000000000     
   1.4062500000000000       0.25000000000000000        0.0000000000000000     
   1.4375000000000000       0.25000000000000000        0.0000000000000000     
   1.4687500000000000       0.25000000000000000        0.0000000000000000     
   1.5000000000000000       0.25000000000000000        0.0000000000000000     
   1.3750000000000000       0.28125000000000000        0.0000000000000000     
   1.4062500000000000       0.28125000000000000        0.0000000000000000     
   1.4375000000000000       0.28125000000000000        0.0000000000000000     
   1.4687500000000000       0.28125000000000000        0.0000000000000000     
   1.5000000000000000       0.28125000000000000        0.0000000000000000     
   1.3750000000000000       0.31250000000000000        0.0000000000000000     
   1.4062500000000000       0.31250000000000000        0.0000000000000000     
   1.4375000000000000       0.31250000000000000        0.0000000000000000     
   1.4687500000000000       0.31250000000000000        0.0000000000000000     
   1.5000000000000000       0.31250000000000000        0.0000000000000000     
   1.3750000000000000       0.34375000000000000        0.0000000000000000     
   1.4062500000000000       0.34375000000000000        0.0000000000000000     
   1.4375000000000000       0.34375000000000000        0.0000000000000000     
   1.4687500000000000       0.34375000000000000        0.0000000000000000     
   1.5000000000000000       0.34375000000000000        0.0000000000000000     
   1.3750000000000000       0.37500000000000000        0.0000000000000000     
   1.4062500000000000       0.37500000000000000        0.0000000000000000     
   1.4375000000000000       0.37500000000000000        0.0000000000000000     
   1.4687500000000000       0.37500000000000000        0.0000000000000000     
   1.5000000000000000       0.37500000000000000        0.0000000000000000     
  0.50000000000000000       0.37500000000000000        0.0000000000000000     
  0.53125000000000000       0.37500000000000000        0.0000000000000000     
  0.56250000000000000       0.37500000000000000        0.0000000000000000     
  0.59375000000000000       0.37500000000000000        0.0000000000000000     
  0.62500000000000000       0.37500000000000000        0.0000000000000000     
  0.50000000000000000       0.40625000000000000        0.0000000000000000     
  0.53125000000000000       0.40625000000000000        0.0000000000000000     
  0.56250000000000000       0.40625000000000000        0.0000000000000000     
  0.59375000000000000       0.40625000000000000        0.0000000000000000     
  0.62500000000000000       0.40625000000000000        0.0000000000000000     
  0.50000000000000000       0.43750000000000000        0.0000000000000000     
  0.53125000000000000       0.43750000000000000        0.0000000000000000     
  0.56250000000000000       0.43750000000000000        0.0000000000000000     
  0.59375000000000000       0.43750000000000000        0.0000000000000000     
  0.62500000000000000       0.43750000000000000        0.0000000000000000     
  0.50000000000000000       0.46875000000000000        0.0000000000000000     
  0.53125000000000000       0.46875000000000000        0.0000000000000000     
  0.56250000000000000       0.46875000000000000        0.0000000000000000     
  0.59375000000000000       0.46875000000000000        0.0000000000000000     
  0.62500000000000000       0.46875000000000000        0.0000000000000000     
  0.50000000000000000       0.50000000000000000        0.0000000000000000     
  0.53125000000000000       0.50000000000000000        0.0000000000000000     
  0.56250000000000000       0.50000000000000000        0.0000000000000000     
  0.59375000000000000       0.50000000000000000        0.0000000000000000     
  0.62500000000000000       0.50000000000000000        0.0000000000000000     
  0.62500000000000000       0.37500000000000000        0.0000000000000000     
  0.65625000000000000       0.37500000000000000        0.0000000000000000     
  0.68750000000000000       0.37500000000000000        0.0000000000000000     
  0.71875000000000000       0.37500000000000000        0.0000000000000000     
  0.75000000000000000       0.37500000000000000        0.0000000000000000     
  0.62500000000000000       0.40625000000000000        0.0000000000000000     
  0.65625000000000000       0.40625000000000000        0.0000000000000000     
  0.68750000000000000       0.40625000000000000        0.0000000000000000     
  0.71875000000000000       0.40625000000000000        0.0000000000000000     
  0.75000000000000000       0.40625000000000000        0.0000000000000000     
  0.62500000000000000       0.43750000000000000        0.0000000000000000     
  0.65625000000000000       0.43750000000000000        0.0000000000000000     
  0.68750000000000000       0.43750000000000000        0.0000000000000000     
  0.71875000000000000       0.43750000000000000        0.0000000000000000     
  0.75000000000000000       0.43750000000000000        0.0000000000000000     
  0.62500000000000000       0.46875000000000000        0.0000000000000000     
  0.65625000000000000       0.46875000000000000        0.0000000000000000     
  0.68750000000000000       0.46875000000000000        0.0000000000000000     
  0.71875000000000000       0.46875000000000000        0.0000000000000000     
  0.75000000000000000       0.46875000000000000        0.0000000000000000     
  0.62500000000000000       0.50000000000000000        0.0000000000000000     
  0.65625000000000000       0.50000000000000000        0.0000000000000000     
  0.68750000000000000       0.50000000000000000        0.0000000000000000     
  0.71875000000000000       0.50000000000000000        0.0000000000000000     
  0.75000000000000000       0.50000000000000000        0.0000000000000000     
  0.75000000000000000       0.37500000000000000        0.0000000000000000     
  0.78125000000000000       0.37500000000000000        0.0000000000000000     
  0.81250000000000000       0.37500000000000000        0.0000000000000000     
  0.84375000000000000       0.37500000000000000        0.0000000000000000     
  0.87500000000000000       0.37500000000000000        0.0000000000000000     
  0.75000000000000000       0.40625000000000000        0.0000000000000000     
  0.78125000000000000       0.40625000000000000        0.0000000000000000     
  0.81250000000000000       0.40625000000000000        0.0000000000000000     
  0.84375000000000000       0.40625000000000000        0.0000000000000000     
  0.87500000000000000       0.40625000000000000        0.0000000000000000     
  0.75000000000000000       0.43750000000000000        0.0000000000000000     
  0.78125000000000000       0.43750000000000000        0.0000000000000000     
  0.81250000000000000       0.43750000000000000        0.0000000000000000     
  0.84375000000000000       0.43750000000000000        0.0000000000000000     
  0.87500000000000000       0.43750000000000000        0.0000000000000000     
  0.75000000000000000       0.46875000000000000        0.0000000000000000     
  0.78125000000000000       0.46875000000000000        0.0000000000000000     
  0.81250000000000000       0.46875000000000000        0.0000000000000000     
  0.84375000000000000       0.46875000000000000        0.0000000000000000     
  0.87500000000000000       0.46875000000000000        0.0000000000000000     
  0.75000000000000000       0.50000000000000000        0.0000000000000000     
  0.78125000000000000       0.50000000000000000        0.0000000000000000     
  0.81250000000000000       0.50000000000000000        0.0000000000000000     
  0.84375000000000000       0.50000000000000000        0.0000000000000000     
  0.87500000000000000       0.50000000000000000        0.0000000000000000     
  0.87500000000000000       0.37500000000000000        0.0000000000000000     
  0.90625000000000000       0.37500000000000000        0.0000000000000000     
  0.93750000000000000       0.37500000000000000        0.0000000000000000     
  0.96875000000000000       0.37500000000000000        0.0000000000000000     
   1.0000000000000000       0.37500000000000000        0.0000000000000000     
  0.87500000000000000       0.40625000000000000        0.0000000000000000     
  0.90625000000000000       0.40625000000000000        0.0000000000000000     
  0.93750000000000000       0.40625000000000000        0.0000000000000000     
  0.96875000000000000       0.40625000000000000        0.0000000000000000     
   1.0000000000000000       0.40625000000000000        0.0000000000000000     
  0.87500000000000000       0.43750000000000000        0.0000000000000000     
  0.90625000000000000       0.43750000000000000        0.0000000000000000     
  0.93750000000000000       0.43750000000000000        0.0000000000000000     
  0.96875000000000000       0.43750000000000000        0.0000000000000000     
   1.0000000000000000       0.43750000000000000        0.0000000000000000     
  0.87500000000000000       0.46875000000000000        0.0000000000000000     
  0.90625000000000000       0.46875000000000000        0.0000000000000000     
  0.93750000000000000       0.46875000000000000        0.0000000000000000     
  0.96875000000000000       0.46875000000000000        0.0000000000000000     
   1.0000000000000000       0.46875000000000000        0.0000000000000000     
  0.87500000000000000       0.50000000000000000        0.0000000000000000     
  0.90625000000000000       0.50000000000000000        0.0000000000000000     
  0.93750000000000000       0.50000000000000000        0.0000000000000000     
  0.96875000000000000       0.50000000000000000        0.0000000000000000     
   1.0000000000000000       0.50000000000000000        0.0000000000000000     
   1.0000000000000000       0.37500000000000000        0.0000000000000000     
   1.0312500000000000       0.37500000000000000        0.0000000000000000     
   1.0625000000000000       0.37500000000000000        0.0000000000000000     
   1.0937500000000000       0.37500000000000000        0.0000000000000000     
   1.1250000000000000       0.37500000000000000        0.0000000000000000     
   1.0000000000000000       0.40625000000000000        0.0000000000000000     
   1.0312500000000000       0.40625000000000000        0.0000000000000000     
   1.0625000000000000       0.40625000000000000        0.0000000000000000     
   1.0937500000000000       0.40625000000000000        0.0000000000000000     
   1.1250000000000000       0.40625000000000000        0.0000000000000000     
   1.0000000000000000       0.43750000000000000        0.0000000000000000     
   1.0312500000000000       0.43750000000000000        0.0000000000000000     
   1.0625000000000000       0.43750000000000000        0.0000000000000000     
   1.0937500000000000       0.43750000000000000        0.0000000000000000     
   1.1250000000000000       0.43750000000000000        0.0000000000000000     
   1.0000000000000000       0.46875000000000000        0.0000000000000000     
   1.0312500000000000       0.46875000000000000        0.0000000000000000     
   1.0625000000000000       0.46875000000000000        0.0000000000000000     
   1.0937500000000000       0.46875000000000000        0.0000000000000000     
   1.1250000000000000       0.46875000000000000        0.0000000000000000     
   1.0000000000000000       0.50000000000000000        0.0000000000000000     
   1.0312500000000000       0.50000000000000000        0.0000000000000000     
   1.0625000000000000       0.50000000000000000        0.0000000000000000     
   1.0937500000000000       0.50000000000000000        0.0000000000000000     
   1.1250000000000000       0.50000000000000000        0.0000000000000000     
   1.1250000000000000       0.37500000000000000        0.0000000000000000     
   1.1562500000000000       0.37500000000000000        0.0000000000000000     
   1.1875000000000000       0.37500000000000000        0.0000000000000000     
   1.2187500000000000       0.37500000000000000        0.0000000000000000     
   1.2500000000000000       0.37500000000000000        0.0000000000000000     
   1.1250000000000000       0.40625000000000000        0.0000000000000000     
   1.1562500000000000       0.40625000000000000        0.0000000000000000     
   1.1875000000000000       0.40625000000000000        0.0000000000000000     
   1.2187500000000000       0.40625000000000000        0.0000000000000000     
   1.2500000000000000       0.40625000000000000        0.0000000000000000     
   1.1250000000000000       0.43750000000000000        0.0000000000000000     
   1.1562500000000000       0.43750000000000000        0.0000000000000000     
   1.1875000000000000       0.43750000000000000        0.0000000000000000     
   1.2187500000000000       0.43750000000000000        0.0000000000000000     
   1.2500000000000000       0.43750000000000000        0.0000000000000000     
   1.1250000000000000       0.46875000000000000        0.0000000000000000     
   1.1562500000000000       0.46875000000000000        0.0000000000000000     
   1.1875000000000000       0.46875000000000000        0.0000000000000000     
   1.2187500000000000       0.46875000000000000        0.0000000000000000     
   1.2500000000000000       0.46875000000000000        0.0000000000000000     
   1.1250000000000000       0.50000000000000000        0.0000000000000000     
   1.1562500000000000       0.50000000000000000        0.0000000000000000     
   1.1875000000000000       0.50000000000000000        0.0000000000000000     
   1.2187500000000000       0.50000000000000000        0.0000000000000000     
   1.2500000000000000       0.50000000000000000        0.0000000000000000     
   1.2500000000000000       0.37500000000000000        0.0000000000000000     
   1.2812500000000000       0.37500000000000000        0.0000000000000000     
   1.3125000000000000       0.37500000000000000        0.0000000000000000     
   1.3437500000000000       0.37500000000000000        0.0000000000000000     
   1.3750000000000000       0.37500000000000000        0.0000000000000000     
   1.2500000000000000       0.40625000000000000        0.0000000000000000     
   1.2812500000000000       0.40625000000000000        0.0000000000000000     
   1.3125000000000000       0.40625000000000000        0.0000000000000000     
   1.3437500000000000       0.40625000000000000        0.0000000000000000     
   1.3750000000000000       0.40625000000000000        0.0000000000000000     
   1.2500000000000000       0.43750000000000000        0.0000000000000000     
   1.2812500000000000       0.43750000000000000        0.0000000000000000     
   1.3125000000000000       0.43750000000000000        0.0000000000000000     
   1.3437500000000000       0.43750000000000000        0.0000000000000000     
   1.3750000000000000       0.43750000000000000        0.0000000000000000     
   1.2500000000000000       0.46875000000000000        0.0000000000000000     
   1.2812500000000000       0.46875000000000000        0.0000000000000000     
   1.3125000000000000       0.46875000000000000        0.0000000000000000     
   1.3437500000000000       0.46875000000000000        0.0000000000000000     
   1.3750000000000000       0.46875000000000000        0.0000000000000000     
   1.2500000000000000       0.50000000000000000        0.0000000000000000     
   1.2812500000000000       0.50000000000000000        0.0000000000000000     
   1.3125000000000000       0.50000000000000000        0.0000000000000000     
   1.3437500000000000       0.50000000000000000        0.0000000000000000     
   1.3750000000000000       0.50000000000000000        0.0000000000000000     
   1.3750000000000000       0.37500000000000000        0.0000000000000000     
   1.4062500000000000       0.37500000000000000        0.0000000000000000     
   1.4375000000000000       0.37500000000000000        0.0000000000000000     
   1.4687500000000000       0.37500000000000000        0.0000000000000000     
   1.5000000000000000       0.37500000000000000        0.0000000000000000     
   1.3750000000000000       0.40625000000000000        0.0000000000000000     
   1.4062500000000000       0.40625000000000000        0.0000000000000000     
   1.4375000000000000       0.40625000000000000        0.0000000000000000     
   1.4687500000000000       0.40625000000000000        0.0000000000000000     
   1.5000000000000000       0.40625000000000000        0.0000000000000000     
   1.3750000000000000       0.43750000000000000        0.0000000000000000     
   1.4062500000000000       0.43750000000000000        0.0000000000000000     
   1.4375000000000000       0.43750000000000000        0.0000000000000000     
   1.4687500000000000       0.43750000000000000        0.0000000000000000     
   1.5000000000000000       0.43750000000000000        0.0000000000000000     
   1.3750000000000000       0.46875000000000000        0.0000000000000000     
   1.4062500000000000       0.46875000000000000        0.0000000000000000     
   1.4375000000000000       0.46875000000000000        0.0000000000000000     
   1.4687500000000000       0.46875000000000000        0.0000000000000000     
   1.5000000000000000       0.46875000000000000        0.0000000000000000     
   1.3750000000000000       0.50000000000000000        0.0000000000000000     
   1.4062500000000000       0.50000000000000000        0.0000000000000000     
   1.4375000000000000       0.50000000000000000        0.0000000000000000     
   1.4687500000000000       0.50000000000000000        0.0000000000000000     
   1.5000000000000000       0.50000000000000000        0.0000000000000000     
  0.50000000000000000       0.50000000000000000        0.0000000000000000     
  0.53125000000000000       0.50000000000000000        0.0000000000000000     
  0.56250000000000000       0.50000000000000000        0.0000000000000000     
  0.59375000000000000       0.50000000000000000        0.0000000000000000     
  0.62500000000000000       0.50000000000000000        0.0000000000000000     
  0.50000000000000000       0.53125000000000000        0.0000000000000000     
  0.53125000000000000       0.53125000000000000        0.0000000000000000     
  0.56250000000000000       0.53125000000000000        0.0000000000000000     
  0.59375000000000000       0.53125000000000000        0.0000000000000000     
  0.62500000000000000       0.53125000000000000        0.0000000000000000     
  0.50000000000000000       0.56250000000000000        0.0000000000000000     
  0.53125000000000000       0.56250000000000000        0.0000000000000000     
  0.56250000000000000       0.56250000000000000        0.0000000000000000     
  0.59375000000000000       0.56250000000000000        0.0000000000000000     
  0.62500000000000000       0.56250000000000000        0.0000000000000000     
  0.50000000000000000       0.59375000000000000        0.0000000000000000     
  0.53125000000000000       0.59375000000000000        0.0000000000000000     
  0.56250000000000000       0.59375000000000000        0.0000000000000000     
  0.59375000000000000       0.59375000000000000        0.0000000000000000     
  0.62500000000000000       0.59375000000000000        0.0000000000000000     
  0.50000000000000000       0.62500000000000000        0.0000000000000000     
  0.53125000000000000       0.62500000000000000        0.0000000000000000     
  0.56250000000000000       0.62500000000000000        0.0000000000000000     
  0.59375000000000000       0.62500000000000000        0.0000000000000000     
  0.62500000000000000       0.62500000000000000        0.0000000000000000     
  0.62500000000000000       0.50000000000000000        0.0000000000000000     
  0.65625000000000000       0.50000000000000000        0.0000000000000000     
  0.68750000000000000       0.50000000000000000        0.0000000000000000     
  0.71875000000000000       0.50000000000000000        0.0000000000000000     
  0.75000000000000000       0.50000000000000000        0.0000000000000000     
  0.62500000000000000       0.53125000000000000        0.0000000000000000     
  0.65625000000000000       0.53125000000000000        0.0000000000000000     
  0.68750000000000000       0.53125000000000000        0.0000000000000000     
  0.71875000000000000       0.53125000000000000        0.0000000000000000     
  0.75000000000000000       0.53125000000000000        0.0000000000000000     
  0.62500000000000000       0.56250000000000000        0.0000000000000000     
  0.65625000000000000       0.56250000000000000        0.0000000000000000     
  0.68750000000000000       0.56250000000000000        0.0000000000000000     
  0.71875000000000000       0.56250000000000000        0.0000000000000000     
  0.75000000000000000       0.56250000000000000        0.0000000000000000     
  0.62500000000000000       0.59375000000000000        0.0000000000000000     
  0.65625000000000000       0.59375000000000000        0.0000000000000000     
  0.68750000000000000       0.59375000000000000        0.0000000000000000     
  0.71875000000000000       0.59375000000000000        0.0000000000000000     
  0.75000000000000000       0.59375000000000000        0.0000000000000000     
  0.62500000000000000       0.62500000000000000        0.0000000000000000     
  0.65625000000000000       0.62500000000000000        0.0000000000000000     
  0.68750000000000000       0.62500000000000000        0.0000000000000000     
  0.71875000000000000       0.62500000000000000        0.0000000000000000     
  0.75000000000000000       0.62500000000000000        0.0000000000000000     
  0.75000000000000000       0.50000000000000000        0.0000000000000000     
  0.78125000000000000       0.50000000000000000        0.0000000000000000     
  0.81250000000000000       0.50000000000000000        0.0000000000000000     
  0.84375000000000000       0.50000000000000000        0.0000000000000000     
  0.87500000000000000       0.50000000000000000        0.0000000000000000     
  0.75000000000000000       0.53125000000000000        0.0000000000000000     
  0.78125000000000000       0.53125000000000000        0.0000000000000000     
  0.81250000000000000       0.53125000000000000        0.0000000000000000     
  0.84375000000000000       0.53125000000000000        0.0000000000000000     
  0.87500000000000000       0.53125000000000000        0.0000000000000000     
  0.75000000000000000       0.56250000000000000        0.0000000000000000     
  0.78125000000000000       0.56250000000000000        0.0000000000000000     
  0.81250000000000000       0.56250000000000000        0.0000000000000000     
  0.84375000000000000       0.56250000000000000        0.0000000000000000     
  0.87500000000000000       0.56250000000000000        0.0000000000000000     
  0.75000000000000000       0.59375000000000000        0.0000000000000000     
  0.78125000000000000       0.59375000000000000        0.0000000000000000     
  0.81250000000000000       0.59375000000000000        0.0000000000000000     
  0.84375000000000000       0.59375000000000000        0.0000000000000000     
  0.87500000000000000       0.59375000000000000        0.0000000000000000     
  0.75000000000000000       0.62500000000000000        0.0000000000000000     
  0.78125000000000000       0.62500000000000000        0.0000000000000000     
  0.81250000000000000       0.62500000000000000        0.0000000000000000     
  0.84375000000000000       0.62500000000000000        0.0000000000000000     
  0.87500000000000000       0.62500000000000000        0.0000000000000000     
  0.87500000000000000       0.50000000000000000        0.0000000000000000     
  0.90625000000000000       0.50000000000000000        0.0000000000000000     
  0.93750000000000000       0.50000000000000000        0.0000000000000000     
  0.96875000000000000       0.50000000000000000        0.0000000000000000     
   1.0000000000000000       0.50000000000000000        0.0000000000000000     
  0.87500000000000000       0.53125000000000000        0.0000000000000000     
  0.90625000000000000       0.53125000000000000        0.0000000000000000     
  0.93750000000000000       0.53125000000000000        0.0000000000000000     
  0.96875000000000000       0.53125000000000000        0.0000000000000000     
   1.0000000000000000       0.53125000000000000        0.0000000000000000     
  0.87500000000000000       0.56250000000000000        0.0000000000000000     
  0.90625000000000000       0.56250000000000000        0.0000000000000000     
  0.93750000000000000       0.56250000000000000        0.0000000000000000     
  0.96875000000000000       0.56250000000000000        0.0000000000000000     
   1.0000000000000000       0.56250000000000000        0.0000000000000000     
  0.87500000000000000       0.59375000000000000        0.0000000000000000     
  0.90625000000000000       0.59375000000000000        0.0000000000000000     
  0.93750000000000000       0.59375000000000000        0.0000000000000000     
  0.96875000000000000       0.59375000000000000        0.0000000000000000     
   1.0000000000000000       0.59375000000000000        0.0000000000000000     
  0.87500000000000000       0.62500000000000000        0.0000000000000000     
  0.90625000000000000       0.62500000000000000        0.0000000000000000     
  0.93750000000000000       0.62500000000000000        0.0000000000000000     
  0.96875000000000000       0.62500000000000000        0.0000000000000000     
   1.0000000000000000       0.62500000000000000        0.0000000000000000     
   1.0000000000000000       0.50000000000000000        0.0000000000000000     
   1.0312500000000000       0.50000000000000000        0.0000000000000000     
   1.0625000000000000       0.50000000000000000        0.0000000000000000     
   1.0937500000000000       0.50000000000000000        0.0000000000000000     
   1.1250000000000000       0.50000000000000000        0.0000000000000000     
   1.0000000000000000       0.53125000000000000        0.0000000000000000     
   1.0312500000000000       0.53125000000000000        0.0000000000000000     
   1.0625000000000000       0.53125000000000000        0.0000000000000000     
   1.0937500000000000       0.53125000000000000        0.0000000000000000     
   1.1250000000000000       0.53125000000000000        0.0000000000000000     
   1.0000000000000000       0.56250000000000000        0.0000000000000000     
   1.0312500000000000       0.56250000000000000        0.0000000000000000     
   1.0625000000000000       0.56250000000000000        0.0000000000000000     
   1.0937500000000000       0.56250000000000000        0.0000000000000000     
   1.1250000000000000       0.56250000000000000        0.0000000000000000     
   1.0000000000000000       0.59375000000000000        0.0000000000000000     
   1.0312500000000000       0.59375000000000000        0.0000000000000000     
   1.0625000000000000       0.59375000000000000        0.0000000000000000     
   1.0937500000000000       0.59375000000000000        0.0000000000000000     
   1.1250000000000000       0.59375000000000000        0.0000000000000000     
   1.0000000000000000       0.62500000000000000        0.0000000000000000     
   1.0312500000000000       0.62500000000000000        0.0000000000000000     
   1.0625000000000000       0.62500000000000000        0.0000000000000000     
   1.0937500000000000       0.62500000000000000        0.0000000000000000     
   1.1250000000000000       0.62500000000000000        0.0000000000000000     
   1.1250000000000000       0.50000000000000000        0.0000000000000000     
   1.1562500000000000       0.50000000000000000        0.0000000000000000     
   1.1875000000000000       0.50000000000000000        0.0000000000000000     
   1.2187500000000000       0.50000000000000000        0.0000000000000000     
   1.2500000000000000       0.50000000000000000        0.0000000000000000     
   1.1250000000000000       0.53125000000000000        0.0000000000000000     
   1.1562500000000000       0.53125000000000000        0.0000000000000000     
   1.1875000000000000       0.53125000000000000        0.0000000000000000     
   1.2187500000000000       0.53125000000000000        0.0000000000000000     
   1.2500000000000000       0.53125000000000000        0.0000000000000000     
   1.1250000000000000       0.56250000000000000        0.0000000000000000     
   1.1562500000000000       0.56250000000000000        0.0000000000000000     
   1.1875000000000000       0.56250000000000000        0.0000000000000000     
   1.2187500000000000       0.56250000000000000        0.0000000000000000     
   1.2500000000000000       0.56250000000000000        0.0000000000000000     
   1.1250000000000000       0.59375000000000000        0.0000000000000000     
   1.1562500000000000       0.59375000000000000        0.0000000000000000     
   1.1875000000000000       0.59375000000000000        0.0000000000000000     
   1.2187500000000000       0.59375000000000000        0.0000000000000000     
   1.2500000000000000       0.59375000000000000        0.0000000000000000     
   1.1250000000000000       0.62500000000000000        0.0000000000000000     
   1.1562500000000000       0.62500000000000000        0.0000000000000000     
   1.1875000000000000       0.62500000000000000        0.0000000000000000     
   1.2187500000000000       0.62500000000000000        0.0000000000000000     
   1.2500000000000000       0.62500000000000000        0.0000000000000000     
   1.2500000000000000       0.50000000000000000        0.0000000000000000     
   1.2812500000000000       0.50000000000000000        0.0000000000000000     
   1.3125000000000000       0.50000000000000000        0.0000000000000000     
   1.3437500000000000       0.50000000000000000        0.0000000000000000     
   1.3750000000000000       0.50000000000000000        0.0000000000000000     
   1.2500000000000000       0.53125000000000000        0.0000000000000000     
   1.2812500000000000       0.53125000000000000        0.0000000000000000     
   1.3125000000000000       0.53125000000000000        0.0000000000000000     
   1.3437500000000000       0.53125000000000000        0.0000000000000000     
   1.3750000000000000       0.53125000000000000        0.0000000000000000     
   1.2500000000000000       0.56250000000000000        0.0000000000000000     
   1.2812500000000000       0.56250000000000000        0.0000000000000000     
   1.3125000000000000       0.56250000000000000        0.0000000000000000     
   1.3437500000000000       0.56250000000000000        0.0000000000000000     
   1.3750000000000000       0.56250000000000000        0.0000000000000000     
   1.2500000000000000       0.59375000000000000        0.0000000000000000     
   1.2812500000000000       0.59375000000000000        0.0000000000000000     
   1.3125000000000000       0.59375000000000000        0.0000000000000000     
   1.3437500000000000       0.59375000000000000        0.0000000000000000     
   1.3750000000000000       0.59375000000000000        0.0000000000000000     
   1.2500000000000000       0.62500000000000000        0.0000000000000000     
   1.2812500000000000       0.62500000000000000        0.0000000000000000     
   1.3125000000000000       0.62500000000000000        0.0000000000000000     
   1.3437500000000000       0.62500000000000000        0.0000000000000000     
   1.3750000000000000       0.62500000000000000        0.0000000000000000     
   1.3750000000000000       0.50000000000000000        0.0000000000000000     
   1.4062500000000000       0.50000000000000000        0.0000000000000000     
   1.4375000000000000       0.50000000000000000        0.0000000000000000     
   1.4687500000000000       0.50000000000000000        0.0000000000000000     
   1.5000000000000000       0.50000000000000000        0.0000000000000000     
   1.3750000000000000       0.53125000000000000        0.0000000000000000     
   1.4062500000000000       0.53125000000000000        0.0000000000000000     
   1.4375000000000000       0.53125000000000000        0.0000000000000000     
   1.4687500000000000       0.53125000000000000        0.0000000000000000     
   1.5000000000000000       0.53125000000000000        0.0000000000000000     
   1.3750000000000000       0.56250000000000000        0.0000000000000000     
   1.4062500000000000       0.56250000000000000        0.0000000000000000     
   1.4375000000000000       0.56250000000000000        0.0000000000000000     
   1.4687500000000000       0.56250000000000000        0.0000000000000000     
   1.5000000000000000       0.56250000000000000        0.0000000000000000     
   1.3750000000000000       0.59375000000000000        0.0000000000000000     
   1.4062500000000000       0.59375000000000000        0.0000000000000000     
   1.4375000000000000       0.59375000000000000        0.0000000000000000     
   1.4687500000000000       0.59375000000000000        0.0000000000000000     
   1.5000000000000000       0.59375000000000000        0.0000000000000000     
   1.3750000000000000       0.62500000000000000        0.0000000000000000     
   1.4062500000000000       0.62500000000000000        0.0000000000000000     
   1.4375000000000000       0.62500000000000000        0.0000000000000000     
   1.4687500000000000       0.62500000000000000        0.0000000000000000     
   1.5000000000000000       0.62500000000000000        0.0000000000000000     
  0.50000000000000000       0.62500000000000000        0.0000000000000000     
  0.53125000000000000       0.62500000000000000        0.0000000000000000     
  0.56250000000000000       0.62500000000000000        0.0000000000000000     
  0.59375000000000000       0.62500000000000000        0.0000000000000000     
  0.62500000000000000       0.62500000000000000        0.0000000000000000     
  0.50000000000000000       0.65625000000000000        0.0000000000000000     
  0.53125000000000000       0.65625000000000000        0.0000000000000000     
  0.56250000000000000       0.65625000000000000        0.0000000000000000     
  0.59375000000000000       0.65625000000000000        0.0000000000000000     
  0.62500000000000000       0.65625000000000000        0.0000000000000000     
  0.50000000000000000       0.68750000000000000        0.0000000000000000     
  0.53125000000000000       0.68750000000000000        0.0000000000000000     
  0.56250000000000000       0.68750000000000000        0.0000000000000000     
  0.59375000000000000       0.68750000000000000        0.0000000000000000     
  0.62500000000000000       0.68750000000000000        0.0000000000000000     
  0.50000000000000000       0.71875000000000000        0.0000000000000000     
  0.53125000000000000       0.71875000000000000        0.0000000000000000     
  0.56250000000000000       0.71875000000000000        0.0000000000000000     
  0.59375000000000000       0.71875000000000000        0.0000000000000000     
  0.62500000000000000       0.71875000000000000        0.0000000000000000     
  0.50000000000000000       0.75000000000000000        0.0000000000000000     
  0.53125000000000000       0.75000000000000000        0.0000000000000000     
  0.56250000000000000       0.75000000000000000        0.0000000000000000     
  0.59375000000000000       0.75000000000000000        0.0000000000000000     
  0.62500000000000000       0.75000000000000000        0.0000000000000000     
  0.62500000000000000       0.62500000000000000        0.0000000000000000     
  0.65625000000000000       0.62500000000000000        0.0000000000000000     
  0.68750000000000000       0.62500000000000000        0.0000000000000000     
  0.71875000000000000       0.62500000000000000        0.0000000000000000     
  0.75000000000000000       0.62500000000000000        0.0000000000000000     
  0.62500000000000000       0.65625000000000000        0.0000000000000000     
  0.65625000000000000       0.65625000000000000        0.0000000000000000     
  0.68750000000000000       0.65625000000000000        0.0000000000000000     
  0.71875000000000000       0.65625000000000000        0.0000000000000000     
  0.75000000000000000       0.65625000000000000        0.0000000000000000     
  0.62500000000000000       0.68750000000000000        0.0000000000000000     
  0.65625000000000000       0.68750000000000000        0.0000000000000000     
  0.68750000000000000       0.68750000000000000        0.0000000000000000     
  0.71875000000000000       0.68750000000000000        0.0000000000000000     
  0.75000000000000000       0.68750000000000000        0.0000000000000000     
  0.62500000000000000       0.71875000000000000        0.0000000000000000     
  0.65625000000000000       0.71875000000000000        0.0000000000000000     
  0.68750000000000000       0.71875000000000000        0.0000000000000000     
  0.71875000000000000       0.71875000000000000        0.0000000000000000     
  0.75000000000000000       0.71875000000000000        0.0000000000000000     
  0.62500000000000000       0.75000000000000000        0.0000000000000000     
  0.65625000000000000       0.75000000000000000        0.0000000000000000     
  0.68750000000000000       0.75000000000000000        0.0000000000000000     
  0.71875000000000000       0.75000000000000000        0.0000000000000000     
  0.75000000000000000       0.75000000000000000        0.0000000000000000     
  0.75000000000000000       0.62500000000000000        0.0000000000000000     
  0.78125000000000000       0.62500000000000000        0.0000000000000000     
  0.81250000000000000       0.62500000000000000        0.0000000000000000     
  0.84375000000000000       0.62500000000000000        0.0000000000000000     
  0.87500000000000000       0.62500000000000000        0.0000000000000000     
  0.75000000000000000       0.65625000000000000        0.0000000000000000     
  0.78125000000000000       0.65625000000000000        0.0000000000000000     
  0.81250000000000000       0.65625000000000000        0.0000000000000000     
  0.84375000000000000       0.65625000000000000        0.0000000000000000     
  0.87500000000000000       0.65625000000000000        0.0000000000000000     
  0.75000000000000000       0.68750000000000000        0.0000000000000000     
  0.78125000000000000       0.68750000000000000        0.0000000000000000     
  0.81250000000000000       0.68750000000000000        0.0000000000000000     
  0.84375000000000000       0.68750000000000000        0.0000000000000000     
  0.87500000000000000       0.68750000000000000        0.0000000000000000     
  0.75000000000000000       0.71875000000000000        0.0000000000000000     
  0.78125000000000000       0.71875000000000000        0.0000000000000000     
  0.81250000000000000       0.71875000000000000        0.0000000000000000     
  0.84375000000000000       0.71875000000000000        0.0000000000000000     
  0.87500000000000000       0.71875000000000000        0.0000000000000000     
  0.75000000000000000       0.75000000000000000        0.0000000000000000     
  0.78125000000000000       0.75000000000000000        0.0000000000000000     
  0.81250000000000000       0.75000000000000000        0.0000000000000000     
  0.84375000000000000       0.75000000000000000        0.0000000000000000     
  0.87500000000000000       0.75000000000000000        0.0000000000000000     
  0.87500000000000000       0.62500000000000000        0.0000000000000000     
  0.90625000000000000       0.62500000000000000        0.0000000000000000     
  0.93750000000000000       0.62500000000000000        0.0000000000000000     
  0.96875000000000000       0.62500000000000000        0.0000000000000000     
   1.0000000000000000       0.62500000000000000        0.0000000000000000     
  0.87500000000000000       0.65625000000000000        0.0000000000000000     
  0.90625000000000000       0.65625000000000000        0.0000000000000000     
  0.93750000000000000       0.65625000000000000        0.0000000000000000     
  0.96875000000000000       0.65625000000000000        0.0000000000000000     
   1.0000000000000000       0.65625000000000000        0.0000000000000000     
  0.87500000000000000       0.68750000000000000        0.0000000000000000     
  0.90625000000000000       0.68750000000000000        0.0000000000000000     
  0.93750000000000000       0.68750000000000000        0.0000000000000000     
  0.96875000000000000       0.68750000000000000        0.0000000000000000     
   1.0000000000000000       0.68750000000000000        0.0000000000000000     
  0.87500000000000000       0.71875000000000000        0.0000000000000000     
  0.90625000000000000       0.71875000000000000        0.0000000000000000     
  0.93750000000000000       0.71875000000000000        0.0000000000000000     
  0.96875000000000000       0.71875000000000000        0.0000000000000000     
   1.0000000000000000       0.71875000000000000        0.0000000000000000     
  0.87500000000000000       0.75000000000000000        0.0000000000000000     
  0.90625000000000000       0.75000000000000000        0.0000000000000000     
  0.93750000000000000       0.75000000000000000        0.0000000000000000     
  0.96875000000000000       0.75000000000000000        0.0000000000000000     
   1.0000000000000000       0.75000000000000000        0.0000000000000000     
   1.0000000000000000       0.62500000000000000        0.0000000000000000     
   1.0312500000000000       0.62500000000000000        0.0000000000000000     
   1.0625000000000000       0.62500000000000000        0.0000000000000000     
   1.0937500000000000       0.62500000000000000        0.0000000000000000     
   1.1250000000000000       0.62500000000000000        0.0000000000000000     
   1.0000000000000000       0.65625000000000000        0.0000000000000000     
   1.0312500000000000       0.65625000000000000        0.0000000000000000     
   1.0625000000000000       0.65625000000000000        0.0000000000000000     
   1.0937500000000000       0.65625000000000000        0.0000000000000000     
   1.1250000000000000       0.65625000000000000        0.0000000000000000     
   1.0000000000000000       0.68750000000000000        0.0000000000000000     
   1.0312500000000000       0.68750000000000000        0.0000000000000000     
   1.0625000000000000       0.68750000000000000        0.0000000000000000     
   1.0937500000000000       0.68750000000000000        0.0000000000000000     
   1.1250000000000000       0.68750000000000000        0.0000000000000000     
   1.0000000000000000       0.71875000000000000        0.0000000000000000     
   1.0312500000000000       0.71875000000000000        0.0000000000000000     
   1.0625000000000000       0.71875000000000000        0.0000000000000000     
   1.0937500000000000       0.71875000000000000        0.0000000000000000     
   1.1250000000000000       0.71875000000000000        0.0000000000000000     
   1.0000000000000000       0.75000000000000000        0.0000000000000000     
   1.0312500000000000       0.75000000000000000        0.0000000000000000     
   1.0625000000000000       0.75000000000000000        0.0000000000000000     
   1.0937500000000000       0.75000000000000000        0.0000000000000000     
   1.1250000000000000       0.75000000000000000        0.0000000000000000     
   1.1250000000000000       0.62500000000000000        0.0000000000000000     
   1.1562500000000000       0.62500000000000000        0.0000000000000000     
   1.1875000000000000       0.62500000000000000        0.0000000000000000     
   1.2187500000000000       0.62500000000000000        0.0000000000000000     
   1.2500000000000000       0.62500000000000000        0.0000000000000000     
   1.1250000000000000       0.65625000000000000        0.0000000000000000     
   1.1562500000000000       0.65625000000000000        0.0000000000000000     
   1.1875000000000000       0.65625000000000000        0.0000000000000000     
   1.2187500000000000       0.65625000000000000        0.0000000000000000     
   1.2500000000000000       0.65625000000000000        0.0000000000000000     
   1.1250000000000000       0.68750000000000000        0.0000000000000000     
   1.1562500000000000       0.68750000000000000        0.0000000000000000     
   1.1875000000000000       0.68750000000000000        0.0000000000000000     
   1.2187500000000000       0.68750000000000000        0.0000000000000000     
   1.2500000000000000       0.68750000000000000        0.0000000000000000     
   1.1250000000000000       0.71875000000000000        0.0000000000000000     
   1.1562500000000000       0.71875000000000000        0.0000000000000000     
   1.1875000000000000       0.71875000000000000        0.0000000000000000     
   1.2187500000000000       0.71875000000000000        0.0000000000000000     
   1.2500000000000000       0.71875000000000000        0.0000000000000000     
   1.1250000000000000       0.75000000000000000        0.0000000000000000     
   1.1562500000000000       0.75000000000000000        0.0000000000000000     
   1.1875000000000000       0.75000000000000000        0.0000000000000000     
   1.2187500000000000       0.75000000000000000        0.0000000000000000     
   1.2500000000000000       0.75000000000000000        0.0000000000000000     
   1.2500000000000000       0.62500000000000000        0.0000000000000000     
   1.2812500000000000       0.62500000000000000        0.0000000000000000     
   1.3125000000000000       0.62500000000000000        0.0000000000000000     
   1.3437500000000000       0.62500000000000000        0.0000000000000000     
   1.3750000000000000       0.62500000000000000        0.0000000000000000     
   1.2500000000000000       0.65625000000000000        0.0000000000000000     
   1.2812500000000000       0.65625000000000000        0.0000000000000000     
   1.3125000000000000       0.65625000000000000        0.0000000000000000     
   1.3437500000000000       0.65625000000000000        0.0000000000000000     
   1.3750000000000000       0.65625000000000000        0.0000000000000000     
   1.2500000000000000       0.68750000000000000        0.0000000000000000     
   1.2812500000000000       0.68750000000000000        0.0000000000000000     
   1.3125000000000000       0.68750000000000000        0.0000000000000000     
   1.3437500000000000       0.68750000000000000        0.0000000000000000     
   1.3750000000000000       0.68750000000000000        0.0000000000000000     
   1.2500000000000000       0.71875000000000000        0.0000000000000000     
   1.2812500000000000       0.71875000000000000        0.0000000000000000     
   1.3125000000000000       0.71875000000000000        0.0000000000000000     
   1.3437500000000000       0.71875000000000000        0.0000000000000000     
   1.3750000000000000       0.71875000000000000        0.0000000000000000     
   1.2500000000000000       0.75000000000000000        0.0000000000000000     
   1.2812500000000000       0.75000000000000000        0.0000000000000000     
   1.3125000000000000       0.75000000000000000        0.0000000000000000     
   1.3437500000000000       0.75000000000000000        0.0000000000000000     
   1.3750000000000000       0.75000000000000000        0.0000000000000000     
   1.3750000000000000       0.62500000000000000        0.0000000000000000     
   1.4062500000000000       0.62500000000000000        0.0000000000000000     
   1.4375000000000000       0.62500000000000000        0.0000000000000000     
   1.4687500000000000       0.62500000000000000        0.0000000000000000     
   1.5000000000000000       0.62500000000000000        0.0000000000000000     
   1.3750000000000000       0.65625000000000000        0.0000000000000000     
   1.4062500000000000       0.65625000000000000        0.0000000000000000     
   1.4375000000000000       0.65625000000000000        0.0000000000000000     
   1.4687500000000000       0.65625000000000000        0.0000000000000000     
   1.5000000000000000       0.65625000000000000        0.0000000000000000     
   1.3750000000000000       0.68750000000000000        0.0000000000000000     
   1.4062500000000000       0.68750000000000000        0.0000000000000000     
   1.4375000000000000       0.68750000000000000        0.0000000000000000     
   1.4687500000000000       0.68750000000000000        0.0000000000000000     
   1.5000000000000000       0.68750000000000000        0.0000000000000000     
   1.3750000000000000       0.71875000000000000        0.0000000000000000     
   1.4062500000000000       0.71875000000000000        0.0000000000000000     
   1.4375000000000000       0.71875000000000000        0.0000000000000000     
   1.4687500000000000       0.71875000000000000        0.0000000000000000     
   1.5000000000000000       0.71875000000000000        0.0000000000000000     
   1.3750000000000000       0.75000000000000000        0.0000000000000000     
   1.4062500000000000       0.75000000000000000        0.0000000000000000     
   1.4375000000000000       0.75000000000000000        0.0000000000000000     
   1.4687500000000000       0.75000000000000000        0.0000000000000000     
   1.5000000000000000       0.75000000000000000        0.0000000000000000     
  0.50000000000000000       0.75000000000000000        0.0000000000000000     
  0.53125000000000000       0.75000000000000000        0.0000000000000000     
  0.56250000000000000       0.75000000000000000        0.0000000000000000     
  0.59375000000000000       0.75000000000000000        0.0000000000000000     
  0.62500000000000000       0.75000000000000000        0.0000000000000000     
  0.50000000000000000       0.78125000000000000        0.0000000000000000     
  0.53125000000000000       0.78125000000000000        0.0000000000000000     
  0.56250000000000000       0.78125000000000000        0.0000000000000000     
  0.59375000000000000       0.78125000000000000        0.0000000000000000     
  0.62500000000000000       0.78125000000000000        0.0000000000000000     
  0.50000000000000000       0.81250000000000000        0.0000000000000000     
  0.53125000000000000       0.81250000000000000        0.0000000000000000     
  0.56250000000000000       0.81250000000000000        0.0000000000000000     
  0.59375000000000000       0.81250000000000000        0.0000000000000000     
  0.62500000000000000       0.81250000000000000        0.0000000000000000     
  0.50000000000000000       0.84375000000000000        0.0000000000000000     
  0.53125000000000000       0.84375000000000000        0.0000000000000000     
  0.56250000000000000       0.84375000000000000        0.0000000000000000     
  0.59375000000000000       0.84375000000000000        0.0000000000000000     
  0.62500000000000000       0.84375000000000000        0.0000000000000000     
  0.50000000000000000       0.87500000000000000        0.0000000000000000     
  0.53125000000000000       0.87500000000000000        0.0000000000000000     
  0.56250000000000000       0.87500000000000000        0.0000000000000000     
  0.59375000000000000       0.87500000000000000        0.0000000000000000     
  0.62500000000000000       0.87500000000000000        0.0000000000000000     
  0.62500000000000000       0.75000000000000000        0.0000000000000000     
  0.65625000000000000       0.75000000000000000        0.0000000000000000     
  0.68750000000000000       0.75000000000000000        0.0000000000000000     
  0.71875000000000000       0.75000000000000000        0.0000000000000000     
  0.75000000000000000       0.75000000000000000        0.0000000000000000     
  0.62500000000000000       0.78125000000000000        0.0000000000000000     
  0.65625000000000000       0.78125000000000000        0.0000000000000000     
  0.68750000000000000       0.78125000000000000        0.0000000000000000     
  0.71875000000000000       0.78125000000000000        0.0000000000000000     
  0.75000000000000000       0.78125000000000000        0.0000000000000000     
  0.62500000000000000       0.81250000000000000        0.0000000000000000     
  0.65625000000000000       0.81250000000000000        0.0000000000000000     
  0.68750000000000000       0.81250000000000000        0.0000000000000000     
  0.71875000000000000       0.81250000000000000        0.0000000000000000     
  0.75000000000000000       0.81250000000000000        0.0000000000000000     
  0.62500000000000000       0.84375000000000000        0.0000000000000000     
  0.65625000000000000       0.84375000000000000        0.0000000000000000     
  0.68750000000000000       0.84375000000000000        0.0000000000000000     
  0.71875000000000000       0.84375000000000000        0.0000000000000000     
  0.75000000000000000       0.84375000000000000        0.0000000000000000     
  0.62500000000000000       0.87500000000000000        0.0000000000000000     
  0.65625000000000000       0.87500000000000000        0.0000000000000000     
  0.68750000000000000       0.87500000000000000        0.0000000000000000     
  0.71875000000000000       0.87500000000000000        0.0000000000000000     
  0.75000000000000000       0.87500000000000000        0.0000000000000000     
  0.75000000000000000       0.75000000000000000        0.0000000000000000     
  0.78125000000000000       0.75000000000000000        0.0000000000000000     
  0.81250000000000000       0.75000000000000000        0.0000000000000000     
  0.84375000000000000       0.75000000000000000        0.0000000000000000     
  0.87500000000000000       0.75000000000000000        0.0000000000000000     
  0.75000000000000000       0.78125000000000000        0.0000000000000000     
  0.78125000000000000       0.78125000000000000        0.0000000000000000     
  0.81250000000000000       0.78125000000000000        0.0000000000000000     
  0.84375000000000000       0.78125000000000000        0.0000000000000000     
  0.87500000000000000       0.78125000000000000        0.0000000000000000     
  0.75000000000000000       0.81250000000000000        0.0000000000000000     
  0.78125000000000000       0.81250000000000000        0.0000000000000000     
  0.81250000000000000       0.81250000000000000        0.0000000000000000     
  0.84375000000000000       0.81250000000000000        0.0000000000000000     
  0.87500000000000000       0.81250000000000000        0.0000000000000000     
  0.75000000000000000       0.84375000000000000        0.0000000000000000     
  0.78125000000000000       0.84375000000000000        0.0000000000000000     
  0.81250000000000000       0.84375000000000000        0.0000000000000000     
  0.84375000000000000       0.84375000000000000        0.0000000000000000     
  0.87500000000000000       0.84375000000000000        0.0000000000000000     
  0.75000000000000000       0.87500000000000000        0.0000000000000000     
  0.78125000000000000       0.87500000000000000        0.0000000000000000     
  0.81250000000000000       0.87500000000000000        0.0000000000000000     
  0.84375000000000000       0.87500000000000000        0.0000000000000000     
  0.87500000000000000       0.87500000000000000        0.0000000000000000     
  0.87500000000000000       0.75000000000000000        0.0000000000000000     
  0.90625000000000000       0.75000000000000000        0.0000000000000000     
  0.93750000000000000       0.75000000000000000        0.0000000000000000     
  0.96875000000000000       0.75000000000000000        0.0000000000000000     
   1.0000000000000000       0.75000000000000000        0.0000000000000000     
  0.87500000000000000       0.78125000000000000        0.0000000000000000     
  0.90625000000000000       0.78125000000000000        0.0000000000000000     
  0.93750000000000000       0.78125000000000000        0.0000000000000000     
  0.96875000000000000       0.78125000000000000        0.0000000000000000     
   1.0000000000000000       0.78125000000000000        0.0000000000000000     
  0.87500000000000000       0.81250000000000000        0.0000000000000000     
  0.90625000000000000       0.81250000000000000        0.0000000000000000     
  0.93750000000000000       0.81250000000000000        0.0000000000000000     
  0.96875000000000000       0.81250000000000000        0.0000000000000000     
   1.0000000000000000       0.81250000000000000        0.0000000000000000     
  0.87500000000000000       0.84375000000000000        0.0000000000000000     
  0.90625000000000000       0.84375000000000000        0.0000000000000000     
  0.93750000000000000       0.84375000000000000        0.0000000000000000     
  0.96875000000000000       0.84375000000000000        0.0000000000000000     
   1.0000000000000000       0.84375000000000000        0.0000000000000000     
  0.87500000000000000       0.87500000000000000        0.0000000000000000     
  0.90625000000000000       0.87500000000000000        0.0000000000000000     
  0.93750000000000000       0.87500000000000000        0.0000000000000000     
  0.96875000000000000       0.87500000000000000        0.0000000000000000     
   1.0000000000000000       0.87500000000000000        0.0000000000000000     
   1.0000000000000000       0.75000000000000000        0.0000000000000000     
   1.0312500000000000       0.75000000000000000        0.0000000000000000     
   1.0625000000000000       0.75000000000000000        0.0000000000000000     
   1.0937500000000000       0.75000000000000000        0.0000000000000000     
   1.1250000000000000       0.75000000000000000        0.0000000000000000     
   1.0000000000000000       0.78125000000000000        0.0000000000000000     
   1.0312500000000000       0.78125000000000000        0.0000000000000000     
   1.0625000000000000       0.78125000000000000        0.0000000000000000     
   1.0937500000000000       0.78125000000000000        0.0000000000000000     
   1.1250000000000000       0.78125000000000000        0.0000000000000000     
   1.0000000000000000       0.81250000000000000        0.0000000000000000     
   1.0312500000000000       0.81250000000000000        0.0000000000000000     
   1.0625000000000000       0.81250000000000000        0.0000000000000000     
   1.0937500000000000       0.81250000000000000        0.0000000000000000     
   1.1250000000000000       0.81250000000000000        0.0000000000000000     
   1.0000000000000000       0.84375000000000000        0.0000000000000000     
   1.0312500000000000       0.84375000000000000        0.0000000000000000     
   1.0625000000000000       0.84375000000000000        0.0000000000000000     
   1.0937500000000000       0.84375000000000000        0.0000000000000000     
   1.1250000000000000       0.84375000000000000        0.0000000000000000     
   1.0000000000000000       0.87500000000000000        0.0000000000000000     
   1.0312500000000000       0.87500000000000000        0.0000000000000000     
   1.0625000000000000       0.87500000000000000        0.0000000000000000     
   1.0937500000000000       0.87500000000000000        0.0000000000000000     
   1.1250000000000000       0.87500000000000000        0.0000000000000000     
   1.1250000000000000       0.75000000000000000        0.0000000000000000     
   1.1562500000000000       0.75000000000000000        0.0000000000000000     
   1.1875000000000000       0.75000000000000000        0.0000000000000000     
   1.2187500000000000       0.75000000000000000        0.0000000000000000     
   1.2500000000000000       0.75000000000000000        0.0000000000000000     
   1.1250000000000000       0.78125000000000000        0.0000000000000000     
   1.1562500000000000       0.78125000000000000        0.0000000000000000     
   1.1875000000000000       0.78125000000000000        0.0000000000000000     
   1.2187500000000000       0.78125000000000000        0.0000000000000000     
   1.2500000000000000       0.78125000000000000        0.0000000000000000     
   1.1250000000000000       0.81250000000000000        0.0000000000000000     
   1.1562500000000000       0.81250000000000000        0.0000000000000000     
   1.1875000000000000       0.81250000000000000        0.0000000000000000     
   1.2187500000000000       0.81250000000000000        0.0000000000000000     
   1.2500000000000000       0.81250000000000000        0.0000000000000000     
   1.1250000000000000       0.84375000000000000        0.0000000000000000     
   1.1562500000000000       0.84375000000000000        0.0000000000000000     
   1.1875000000000000       0.84375000000000000        0.0000000000000000     
   1.2187500000000000       0.84375000000000000        0.0000000000000000     
   1.2500000000000000       0.84375000000000000        0.0000000000000000     
   1.1250000000000000       0.87500000000000000        0.0000000000000000     
   1.1562500000000000       0.87500000000000000        0.0000000000000000     
   1.1875000000000000       0.87500000000000000        0.0000000000000000     
   1.2187500000000000       0.87500000000000000        0.0000000000000000     
   1.2500000000000000       0.87500000000000000        0.0000000000000000     
   1.2500000000000000       0.75000000000000000        0.0000000000000000     
   1.2812500000000000       0.75000000000000000        0.0000000000000000     
   1.3125000000000000       0.75000000000000000        0.0000000000000000     
   1.3437500000000000       0.75000000000000000        0.0000000000000000     
   1.3750000000000000       0.75000000000000000        0.0000000000000000     
   1.2500000000000000       0.78125000000000000        0.0000000000000000     
   1.2812500000000000       0.78125000000000000        0.0000000000000000     
   1.3125000000000000       0.78125000000000000        0.0000000000000000     
   1.3437500000000000       0.78125000000000000        0.0000000000000000     
   1.3750000000000000       0.78125000000000000        0.0000000000000000     
   1.2500000000000000       0.81250000000000000        0.0000000000000000     
   1.2812500000000000       0.81250000000000000        0.0000000000000000     
   1.3125000000000000       0.81250000000000000        0.0000000000000000     
   1.3437500000000000       0.81250000000000000        0.0000000000000000     
   1.3750000000000000       0.81250000000000000        0.0000000000000000     
   1.2500000000000000       0.84375000000000000        0.0000000000000000     
   1.2812500000000000       0.84375000000000000        0.0000000000000000     
   1.3125000000000000       0.84375000000000000        0.0000000000000000     
   1.3437500000000000       0.84375000000000000        0.0000000000000000     
   1.3750000000000000       0.84375000000000000        0.0000000000000000     
   1.2500000000000000       0.87500000000000000        0.0000000000000000     
   1.2812500000000000       0.87500000000000000        0.0000000000000000     
   1.3125000000000000       0.87500000000000000        0.0000000000000000     
   1.3437500000000000       0.87500000000000000        0.0000000000000000     
   1.3750000000000000       0.87500000000000000        0.0000000000000000     
   1.3750000000000000       0.75000000000000000        0.0000000000000000     
   1.4062500000000000       0.75000000000000000        0.0000000000000000     
   1.4375000000000000       0.75000000000000000        0.0000000000000000     
   1.4687500000000000       0.75000000000000000        0.0000000000000000     
   1.5000000000000000       0.75000000000000000        0.0000000000000000     
   1.3750000000000000       0.78125000000000000        0.0000000000000000     
   1.4062500000000000       0.78125000000000000        0.0000000000000000     
   1.4375000000000000       0.78125000000000000        0.0000000000000000     
   1.4687500000000000       0.78125000000000000        0.0000000000000000     
   1.5000000000000000       0.78125000000000000        0.0000000000000000     
   1.3750000000000000       0.81250000000000000        0.0000000000000000     
   1.4062500000000000       0.81250000000000000        0.0000000000000000     
   1.4375000000000000       0.81250000000000000        0.0000000000000000     
   1.4687500000000000       0.81250000000000000        0.0000000000000000     
   1.5000000000000000       0.81250000000000000        0.0000000000000000     
   1.3750000000000000       0.84375000000000000        0.0000000000000000     
   1.4062500000000000       0.84375000000000000        0.0000000000000000     
   1.4375000000000000       0.84375000000000000        0.0000000000000000     
   1.4687500000000000       0.84375000000000000        0.0000000000000000     
   1.5000000000000000       0.84375000000000000        0.0000000000000000     
   1.3750000000000000       0.87500000000000000        0.0000000000000000     
   1.4062500000000000       0.87500000000000000        0.0000000000000000     
   1.4375000000000000       0.87500000000000000        0.0000000000000000     
   1.4687500000000000       0.87500000000000000        0.0000000000000000     
   1.5000000000000000       0.87500000000000000        0.0000000000000000     
  0.50000000000000000       0.87500000000000000        0.0000000000000000     
  0.53125000000000000       0.87500000000000000        0.0000000000000000     
  0.56250000000000000       0.87500000000000000        0.0000000000000000     
  0.59375000000000000       0.87500000000000000        0.0000000000000000     
  0.62500000000000000       0.87500000000000000        0.0000000000000000     
  0.50000000000000000       0.90625000000000000        0.0000000000000000     
  0.53125000000000000       0.90625000000000000        0.0000000000000000     
  0.56250000000000000       0.90625000000000000        0.0000000000000000     
  0.59375000000000000       0.90625000000000000        0.0000000000000000     
  0.62500000000000000       0.90625000000000000        0.0000000000000000     
  0.50000000000000000       0.93750000000000000        0.0000000000000000     
  0.53125000000000000       0.93750000000000000        0.0000000000000000     
  0.56250000000000000       0.93750000000000000        0.0000000000000000     
  0.59375000000000000       0.93750000000000000        0.0000000000000000     
  0.62500000000000000       0.93750000000000000        0.0000000000000000     
  0.50000000000000000       0.96875000000000000        0.0000000000000000     
  0.53125000000000000       0.96875000000000000        0.0000000000000000     
  0.56250000000000000       0.96875000000000000        0.0000000000000000     
  0.59375000000000000       0.96875000000000000        0.0000000000000000     
  0.62500000000000000       0.96875000000000000        0.0000000000000000     
  0.50000000000000000        1.0000000000000000        0.0000000000000000     
  0.53125000000000000        1.0000000000000000        0.0000000000000000     
  0.56250000000000000        1.0000000000000000        0.0000000000000000     
  0.59375000000000000        1.0000000000000000        0.0000000000000000     
  0.62500000000000000        1.0000000000000000        0.0000000000000000     
  0.62500000000000000       0.87500000000000000        0.0000000000000000     
  0.65625000000000000       0.87500000000000000        0.0000000000000000     
  0.68750000000000000       0.87500000000000000        0.0000000000000000     
  0.71875000000000000       0.87500000000000000        0.0000000000000000     
  0.75000000000000000       0.87500000000000000        0.0000000000000000     
  0.62500000000000000       0.90625000000000000        0.0000000000000000     
  0.65625000000000000       0.90625000000000000        0.0000000000000000     
  0.68750000000000000       0.90625000000000000        0.0000000000000000     
  0.71875000000000000       0.90625000000000000        0.0000000000000000     
  0.75000000000000000       0.90625000000000000        0.0000000000000000     
  0.62500000000000000       0.93750000000000000        0.0000000000000000     
  0.65625000000000000       0.93750000000000000        0.0000000000000000     
  0.68750000000000000       0.93750000000000000        0.0000000000000000     
  0.71875000000000000       0.93750000000000000        0.0000000000000000     
  0.75000000000000000       0.93750000000000000        0.0000000000000000     
  0.62500000000000000       0.96875000000000000        0.0000000000000000     
  0.65625000000000000       0.96875000000000000        0.0000000000000000     
  0.68750000000000000       0.96875000000000000        0.0000000000000000     
  0.71875000000000000       0.96875000000000000        0.0000000000000000     
  0.75000000000000000       0.96875000000000000        0.0000000000000000     
  0.62500000000000000        1.0000000000000000        0.0000000000000000     
  0.65625000000000000        1.0000000000000000        0.0000000000000000     
  0.68750000000000000        1.0000000000000000        0.0000000000000000     
  0.71875000000000000        1.0000000000000000        0.0000000000000000     
  0.75000000000000000        1.0000000000000000        0.0000000000000000     
  0.75000000000000000       0.87500000000000000        0.0000000000000000     
  0.78125000000000000       0.87500000000000000        0.0000000000000000     
  0.81250000000000000       0.87500000000000000        0.0000000000000000     
  0.84375000000000000       0.87500000000000000        0.0000000000000000     
  0.87500000000000000       0.87500000000000000        0.0000000000000000     
  0.75000000000000000       0.90625000000000000        0.0000000000000000     
  0.78125000000000000       0.90625000000000000        0.0000000000000000     
  0.81250000000000000       0.90625000000000000        0.0000000000000000     
  0.84375000000000000       0.90625000000000000        0.0000000000000000     
  0.87500000000000000       0.90625000000000000        0.0000000000000000     
  0.75000000000000000       0.93750000000000000        0.0000000000000000     
  0.78125000000000000       0.93750000000000000        0.0000000000000000     
  0.81250000000000000       0.93750000000000000        0.0000000000000000     
  0.84375000000000000       0.93750000000000000        0.0000000000000000     
  0.87500000000000000       0.93750000000000000        0.0000000000000000     
  0.75000000000000000       0.96875000000000000        0.0000000000000000     
  0.78125000000000000       0.96875000000000000        0.0000000000000000     
  0.81250000000000000       0.96875000000000000        0.0000000000000000     
  0.84375000000000000       0.96875000000000000        0.0000000000000000     
  0.87500000000000000       0.96875000000000000        0.0000000000000000     
  0.75000000000000000        1.0000000000000000        0.0000000000000000     
  0.78125000000000000        1.0000000000000000        0.0000000000000000     
  0.81250000000000000        1.0000000000000000        0.0000000000000000     
  0.84375000000000000        1.0000000000000000        0.0000000000000000     
  0.87500000000000000        1.0000000000000000        0.0000000000000000     
  0.87500000000000000       0.87500000000000000        0.0000000000000000     
  0.90625000000000000       0.87500000000000000        0.0000000000000000     
  0.93750000000000000       0.87500000000000000        0.0000000000000000     
  0.96875000000000000       0.87500000000000000        0.0000000000000000     
   1.0000000000000000       0.87500000000000000        0.0000000000000000     
  0.87500000000000000       0.90625000000000000        0.0000000000000000     
  0.90625000000000000       0.90625000000000000        0.0000000000000000     
  0.93750000000000000       0.90625000000000000        0.0000000000000000     
  0.96875000000000000       0.90625000000000000        0.0000000000000000     
   1.0000000000000000       0.90625000000000000        0.0000000000000000     
  0.87500000000000000       0.93750000000000000        0.0000000000000000     
  0.90625000000000000       0.93750000000000000        0.0000000000000000     
  0.93750000000000000       0.93750000000000000        0.0000000000000000     
  0.96875000000000000       0.93750000000000000        0.0000000000000000     
   1.0000000000000000       0.93750000000000000        0.0000000000000000     
  0.87500000000000000       0.96875000000000000        0.0000000000000000     
  0.90625000000000000       0.96875000000000000        0.0000000000000000     
  0.93750000000000000       0.96875000000000000        0.0000000000000000     
  0.96875000000000000       0.96875000000000000        0.0000000000000000     
   1.0000000000000000       0.96875000000000000        0.0000000000000000     
  0.87500000000000000        1.0000000000000000        0.0000000000000000     
  0.90625000000000000        1.0000000000000000        0.0000000000000000     
  0.93750000000000000        1.0000000000000000        0.0000000000000000     
  0.96875000000000000        1.0000000000000000        0.0000000000000000     
   1.0000000000000000        1.0000000000000000        0.0000000000000000     
   1.0000000000000000       0.87500000000000000        0.0000000000000000     
   1.0312500000000000       0.87500000000000000        0.0000000000000000     
   1.0625000000000000       0.87500000000000000        0.0000000000000000     
   1.0937500000000000       0.87500000000000000        0.0000000000000000     
   1.1250000000000000       0.87500000000000000        0.0000000000000000     
   1.0000000000000000       0.90625000000000000        0.0000000000000000     
   1.0312500000000000       0.90625000000000000        0.0000000000000000     
   1.0625000000000000       0.90625000000000000        0.0000000000000000     
   1.0937500000000000       0.90625000000000000        0.0000000000000000     
   1.1250000000000000       0.90625000000000000        0.0000000000000000     
   1.0000000000000000       0.93750000000000000        0.0000000000000000     
   1.0312500000000000       0.93750000000000000        0.0000000000000000     
   1.0625000000000000       0.93750000000000000        0.0000000000000000     
   1.0937500000000000       0.93750000000000000        0.0000000000000000     
   1.1250000000000000       0.93750000000000000        0.0000000000000000     
   1.0000000000000000       0.96875000000000000        0.0000000000000000     
   1.0312500000000000       0.96875000000000000        0.0000000000000000     
   1.0625000000000000       0.96875000000000000        0.0000000000000000     
   1.0937500000000000       0.96875000000000000        0.0000000000000000     
   1.1250000000000000       0.96875000000000000        0.0000000000000000     
   1.0000000000000000        1.0000000000000000        0.0000000000000000     
   1.0312500000000000        1.0000000000000000        0.0000000000000000     
   1.0625000000000000        1.0000000000000000        0.0000000000000000     
   1.0937500000000000        1.0000000000000000        0.0000000000000000     
   1.1250000000000000        1.0000000000000000        0.0000000000000000     
   1.1250000000000000       0.87500000000000000        0.0000000000000000     
   1.1562500000000000       0.87500000000000000        0.0000000000000000     
   1.1875000000000000       0.87500000000000000        0.0000000000000000     
   1.2187500000000000       0.87500000000000000        0.0000000000000000     
   1.2500000000000000       0.87500000000000000        0.0000000000000000     
   1.1250000000000000       0.90625000000000000        0.0000000000000000     
   1.1562500000000000       0.90625000000000000        0.0000000000000000     
   1.1875000000000000       0.90625000000000000        0.0000000000000000     
   1.2187500000000000       0.90625000000000000        0.0000000000000000     
   1.2500000000000000       0.90625000000000000        0.0000000000000000     
   1.1250000000000000       0.93750000000000000        0.0000000000000000     
   1.1562500000000000       0.93750000000000000        0.0000000000000000     
   1.1875000000000000       0.93750000000000000        0.0000000000000000     
   1.2187500000000000       0.93750000000000000        0.0000000000000000     
   1.2500000000000000       0.93750000000000000        0.0000000000000000     
   1.1250000000000000       0.96875000000000000        0.0000000000000000     
   1.1562500000000000       0.96875000000000000        0.0000000000000000     
   1.1875000000000000       0.96875000000000000        0.0000000000000000     
   1.2187500000000000       0.96875000000000000        0.0000000000000000     
   1.2500000000000000       0.96875000000000000        0.0000000000000000     
   1.1250000000000000        1.0000000000000000        0.0000000000000000     
   1.1562500000000000        1.0000000000000000        0.0000000000000000     
   1.1875000000000000        1.0000000000000000        0.0000000000000000     
   1.2187500000000000        1.0000000000000000        0.0000000000000000     
   1.2500000000000000        1.0000000000000000        0.0000000000000000     
   1.2500000000000000       0.87500000000000000        0.0000000000000000     
   1.2812500000000000       0.87500000000000000        0.0000000000000000     
   1.3125000000000000       0.87500000000000000        0.0000000000000000     
   1.3437500000000000       0.87500000000000000        0.0000000000000000     
   1.3750000000000000       0.87500000000000000        0.0000000000000000     
   1.2500000000000000       0.90625000000000000        0.0000000000000000     
   1.2812500000000000       0.90625000000000000        0.0000000000000000     
   1.3125000000000000       0.90625000000000000        0.0000000000000000     
   1.3437500000000000       0.90625000000000000        0.0000000000000000     
   1.3750000000000000       0.90625000000000000        0.0000000000000000     
   1.2500000000000000       0.93750000000000000        0.0000000000000000     
   1.2812500000000000       0.93750000000000000        0.0000000000000000     
   1.3125000000000000       0.93750000000000000        0.0000000000000000     
   1.3437500000000000       0.93750000000000000        0.0000000000000000     
   1.3750000000000000       0.93750000000000000        0.0000000000000000     
   1.2500000000000000       0.96875000000000000        0.0000000000000000     
   1.2812500000000000       0.96875000000000000        0.0000000000000000     
   1.3125000000000000       0.96875000000000000        0.0000000000000000     
   1.3437500000000000       0.96875000000000000        0.0000000000000000     
   1.3750000000000000       0.96875000000000000        0.0000000000000000     
   1.2500000000000000        1.0000000000000000        0.0000000000000000     
   1.2812500000000000        1.0000000000000000        0.0000000000000000     
   1.3125000000000000        1.0000000000000000        0.0000000000000000     
   1.3437500000000000        1.0000000000000000        0.0000000000000000     
   1.3750000000000000        1.0000000000000000        0.0000000000000000     
   1.3750000000000000       0.87500000000000000        0.0000000000000000     
   1.4062500000000000       0.87500000000000000        0.0000000000000000     
   1.4375000000000000       0.87500000000000000        0.0000000000000000     
   1.4687500000000000       0.87500000000000000        0.0000000000000000     
   1.5000000000000000       0.87500000000000000        0.0000000000000000     
   1.3750000000000000       0.90625000000000000        0.0000000000000000     
   1.4062500000000000       0.90625000000000000        0.0000000000000000     
   1.4375000000000000       0.90625000000000000        0.0000000000000000     
   1.4687500000000000       0.90625000000000000        0.0000000000000000     
   1.5000000000000000       0.90625000000000000        0.0000000000000000     
   1.3750000000000000       0.93750000000000000        0.0000000000000000     
   1.4062500000000000       0.93750000000000000        0.0000000000000000     
   1.4375000000000000       0.93750000000000000        0.0000000000000000     
   1.4687500000000000       0.93750000000000000        0.0000000000000000     
   1.5000000000000000       0.93750000000000000        0.0000000000000000     
   1.3750000000000000       0.96875000000000000        0.0000000000000000     
   1.4062500000000000       0.96875000000000000        0.0000000000000000     
   1.4375000000000000       0.96875000000000000        0.0000000000000000     
   1.4687500000000000       0.96875000000000000        0.0000000000000000     
   1.5000000000000000       0.96875000000000000        0.0000000000000000     
   1.3750000000000000        1.0000000000000000        0.0000000000000000     
   1.4062500000000000        1.0000000000000000        0.0000000000000000     
   1.4375000000000000        1.0000000000000000        0.0000000000000000     
   1.4687500000000000        1.0000000000000000        0.0000000000000000     
   1.5000000000000000        1.0000000000000000        0.0000000000000000     
 </DataArray>
 </Points>
 <Cells>
 <DataArray  type="Int32"  Name="connectivity"  format="ascii">
           0           1           6           5
           1           2           7           6
           2           3           8           7
           3           4           9           8
           5           6          11          10
           6           7          12          11
           7           8          13          12
           8           9          14          13
          10          11          16          15
          11          12          17          16
          12          13          18          17
          13          14          19          18
          15          16          21          20
          16          17          22          21
          17          18          23          22
          18          19          24          23
          25          26          31          30
          26          27          32          31
          27          28          33          32
          28          29          34          33
          30          31          36          35
          31          32          37          36
          32          33          38          37
          33          34          39          38
          35          36          41          40
          36          37          42          41
          37          38          43          42
          38          39          44          43
          40          41          46          45
          41          42          47          46
          42          43          48          47
          43          44          49          48
          50          51          56          55
          51          52          57          56
          52          53          58          57
          53          54          59          58
          55          56          61          60
          56          57          62          61
          57          58          63          62
          58          59          64          63
          60          61          66          65
          61          62          67          66
          62          63          68          67
          63          64          69          68
          65          66          71          70
          66          67          72          71
          67          68          73          72
          68          69          74          73
          75          76          81          80
          76          77          82          81
          77          78          83          82
          78          79          84          83
          80          81          86          85
          81          82          87          86
          82          83          88          87
          83          84          89          88
          85          86          91          90
          86          87          92          91
          87          88          93          92
          88          89          94          93
          90          91          96          95
          91          92          97          96
          92          93          98          97
          93          94          99          98
         100         101         106         105
         101         102         107         106
         102         103         108         107
         103         104         109         108
         105         106         111         110
         106         107         112         111
         107         108         113         112
         108         109         114         113
         110         111         116         115
         111         112         117         116
         112         113         118         117
         113         114         119         118
         115         116         121         120
         116         117         122         121
         117         118         123         122
         118         119         124         123
         125         126         131         130
         126         127         132         131
         127         128         133         132
         128         129         134         133
         130         131         136         135
         131         132         137         136
         132         133         138         137
         133         134         139         138
         135         136         141         140
         136         137         142         141
         137         138         143         142
         138         139         144         143
         140         141         146         145
         141         142         147         146
         142         143         148         147
         143         144         149         148
         150         151         156         155
         151         152         157         156
         152         153         158         157
         153         154         159         158
         155         156         161         160
         156         157         162         161
         157         158         163         162
         158         159         164         163
         160         161         166         165
         161         162         167         166
         162         163         168         167
         163         164         169         168
         165         166         171         170
         166         167         172         171
         167         168         173         172
         168         169         174         173
         175         176         181         180
         176         177         182         181
         177         178         183         182
         178         179         184         183
         180         181         186         185
         181         182         187         186
         182         183         188         187
         183         184         189         188
         185         186         191         190
         186         187         192         191
         187         188         193         192
         188         189         194         193
         190         191         196         195
         191         192         197         196
         192         193         198         197
         193         194         199         198
         200         201         206         205
         201         202         207         206
         202         203         208         207
         203         204         209         208
         205         206         211         210
         206         207         212         211
         207         208         213         212
         208         209         214         213
         210         211         216         215
         211         212         217         216
         212         213         218         217
         213         214         219         218
         215         216         221         220
         216         217         222         221
         217         218         223         222
         218         219         224         223
         225         226         231         230
         226         227         232         231
         227         228         233         232
         228         229         234         233
         230         231         236         235
         231         232         237         236
         232         233         238         237
         233         234         239         238
         235         236         241         240
         236         237         242         241
         237         238         243         242
         238         239         244         243
         240         241         246         245
         241         242         247         246
         242         243         248         247
         243         244         249         248
         250         251         256         255
         251         252         257         256
         252         253         258         257
         253         254         259         258
         255         256         261         260
         256         257         262         261
         257         258         263         262
         258         259         264         263
         260         261         266         265
         261         262         267         266
         262         263         268         267
         263         264         269         268
         265         266         271         270
         266         267         272         271
         267         268         273         272
         268         269         274         273
         275         276         281         280
         276         277         282         281
         277         278         283         282
         278         279         284         283
         280         281         286         285
         281         282         287         286
         282         283         288         287
         283         284         289         288
         285         286         291         290
         286         287         292         291
         287         288         293         292
         288         289         294         293
         290         291         296         295
         291         292         297         296
         292         293         298         297
         293         294         299         298
         300         301         306         305
         301         302         307         306
         302         303         308         307
         303         304         309         308
         305         306         311         310
         306         307         312         311
         307         308         313         312
         308         309         314         313
         310         311         316         315
         311         312         317         316
         312         313         318         317
         313         314         319         318
         315         316         321         320
         316         317         322         321
         317         318         323         322
         318         319         324         323
         325         326         331         330
         326         327         332         331
         327         328         333         332
         328         329         334         333
         330         331         336         335
         331         332         337         336
         332         333         338         337
         333         334         339         338
         335         336         341         340
         336         337         342         341
         337         338         343         342
         338         339         344         343
         340         341         346         345
         341         342         347         346
         342         343         348         347
         343         344         349         348
         350         351         356         355
         351         352         357         356
         352         353         358         357
         353         354         359         358
         355         356         361         360
         356         357         362         361
         357         358         363         362
         358         359         364         363
         360         361         366         365
         361         362         367         366
         362         363         368         367
         363         364         369         368
         365         366         371         370
         366         367         372         371
         367         368         373         372
         368         369         374         373
         375         376         381         380
         376         377         382         381
         377         378         383         382
         378         379         384         383
         380         381         386         385
         381         382         387         386
         382         383         388         387
         383         384         389         388
         385         386         391         390
         386         387         392         391
         387         388         393         392
         388         389         394         393
         390         391         396         395
         391         392         397         396
         392         393         398         397
         393         394         399         398
         400         401         406         405
         401         402         407         406
         402         403         408         407
         403         404         409         408
         405         406         411         410
         406         407         412         411
         407         408         413         412
         408         409         414         413
         410         411         416         415
         411         412         417         416
         412         413         418         417
         413         414         419         418
         415         416         421         420
         416         417         422         421
         417         418         423         422
         418         419         424         423
         425         426         431         430
         426         427         432         431
         427         428         433         432
         428         429         434         433
         430         431         436         435
         431         432         437         436
         432         433         438         437
         433         434         439         438
         435         436         441         440
         436         437         442         441
         437         438         443         442
         438         439         444         443
         440         441         446         445
         441         442         447         446
         442         443         448         447
         443         444         449         448
         450         451         456         455
         451         452         457         456
         452         453         458         457
         453         454         459         458
         455         456         461         460
         456         457         462         461
         457         458         463         462
         458         459         464         463
         460         461         466         465
         461         462         467         466
         462         463         468         467
         463         464         469         468
         465         466         471         470
         466         467         472         471
         467         468         473         472
         468         469         474         473
         475         476         481         480
         476         477         482         481
         477         478         483         482
         478         479         484         483
         480         481         486         485
         481         482         487         486
         482         483         488         487
         483         484         489         488
         485         486         491         490
         486         487         492         491
         487         488         493         492
         488         489         494         493
         490         491         496         495
         491         492         497         496
         492         493         498         497
         493         494         499         498
         500         501         506         505
         501         502         507         506
         502         503         508         507
         503         504         509         508
         505         506         511         510
         506         507         512         511
         507         508         513         512
         508         509         514         513
         510         511         516         515
         511         512         517         516
         512         513         518         517
         513         514         519         518
         515         516         521         520
         516         517         522         521
         517         518         523         522
         518         519         524         523
         525         526         531         530
         526         527         532         531
         527         528         533         532
         528         529         534         533
         530         531         536         535
         531         532         537         536
         532         533         538         537
         533         534         539         538
         535         536         541         540
         536         537         542         541
         537         538         543         542
         538         539         544         543
         540         541         546         545
         541         542         547         546
         542         543         548         547
         543         544         549         548
         550         551         556         555
         551         552         557         556
         552         553         558         557
         553         554         559         558
         555         556         561         560
         556         557         562         561
         557         558         563         562
         558         559         564         563
         560         561         566         565
         561         562         567         566
         562         563         568         567
         563         564         569         568
         565         566         571         570
         566         567         572         571
         567         568         573         572
         568         569         574         573
         575         576         581         580
         576         577         582         581
         577         578         583         582
         578         579         584         583
         580         581         586         585
         581         582         587         586
         582         583         588         587
         583         584         589         588
         585         586         591         590
         586         587         592         591
         587         588         593         592
         588         589         594         593
         590         591         596         595
         591         592         597         596
         592         593         598         597
         593         594         599         598
         600         601         606         605
         601         602         607         606
         602         603         608         607
         603         604         609         608
         605         606         611         610
         606         607         612         611
         607         608         613         612
         608         609         614         613
         610         611         616         615
         611         612         617         616
         612         613         618         617
         613         614         619         618
         615         616         621         620
         616         617         622         621
         617         618         623         622
         618         619         624         623
         625         626         631         630
         626         627         632         631
         627         628         633         632
         628         629         634         633
         630         631         636         635
         631         632         637         636
         632         633         638         637
         633         634         639         638
         635         636         641         640
         636         637         642         641
         637         638         643         642
         638         639         644         643
         640         641         646         645
         641         642         647         646
         642         643         648         647
         643         644         649         648
         650         651         656         655
         651         652         657         656
         652         653         658         657
         653         654         659         658
         655         656         661         660
         656         657         662         661
         657         658         663         662
         658         659         664         663
         660         661         666         665
         661         662         667         666
         662         663         668         667
         663         664         669         668
         665         666         671         670
         666         667         672         671
         667         668         673         672
         668         669         674         673
         675         676         681         680
         676         677         682         681
         677         678         683         682
         678         679         684         683
         680         681         686         685
         681         682         687         686
         682         683         688         687
         683         684         689         688
         685         686         691         690
         686         687         692         691
         687         688         693         692
         688         689         694         693
         690         691         696         695
         691         692         697         696
         692         693         698         697
         693         694         699         698
         700         701         706         705
         701         702         707         706
         702         703         708         707
         703         704         709         708
         705         706         711         710
         706         707         712         711
         707         708         713         712
         708         709         714         713
         710         711         716         715
         711         712         717         716
         712         713         718         717
         713         714         719         718
         715         716         721         720
         716         717         722         721
         717         718         723         722
         718         719         724         723
         725         726         731         730
         726         727         732         731
         727         728         733         732
         728         729         734         733
         730         731         736         735
         731         732         737         736
         732         733         738         737
         733         734         739         738
         735         736         741         740
         736         737         742         741
         737         738         743         742
         738         739         744         743
         740         741         746         745
         741         742         747         746
         742         743         748         747
         743         744         749         748
         750         751         756         755
         751         752         757         756
         752         753         758         757
         753         754         759         758
         755         756         761         760
         756         757         762         761
         757         758         763         762
         758         759         764         763
         760         761         766         765
         761         762         767         766
         762         763         768         767
         763         764         769         768
         765         766         771         770
         766         767         772         771
         767         768         773         772
         768         769         774         773
         775         776         781         780
         776         777         782         781
         777         778         783         782
         778         779         784         783
         780         781         786         785
         781         782         787         786
         782         783         788         787
         783         784         789         788
         785         786         791         790
         786         787         792         791
         787         788         793         792
         788         789         794         793
         790         791         796         795
         791         792         797         796
         792         793         798         797
         793         794         799         798
         800         801         806         805
         801         802         807         806
         802         803         808         807
         803         804         809         808
         805         806         811         810
         806         807         812         811
         807         808         813         812
         808         809         814         813
         810         811         816         815
         811         812         817         816
         812         813         818         817
         813         814         819         818
         815         816         821         820
         816         817         822         821
         817         818         823         822
         818         819         824         823
         825         826         831         830
         826         827         832         831
         827         828         833         832
         828         829         834         833
         830         831         836         835
         831         832         837         836
         832         833         838         837
         833         834         839         838
         835         836         841         840
         836         837         842         841
         837         838         843         842
         838         839         844         843
         840         841         846         845
         841         842         847         846
         842         843         848         847
         843         844         849         848
         850         851         856         855
         851         852         857         856
         852         853         858         857
         853         854         859         858
         855         856         861         860
         856         857         862         861
         857         858         863         862
         858         859         864         863
         860         861         866         865
         861         862         867         866
         862         863         868         867
         863         864         869         868
         865         866         871         870
         866         867         872         871
         867         868         873         872
         868         869         874         873
         875         876         881         880
         876         877         882         881
         877         878         883         882
         878         879         884         883
         880         881         886         885
         881         882         887         886
         882         883         888         887
         883         884         889         888
         885         886         891         890
         886         887         892         891
         887         888         893         892
         888         889         894         893
         890         891         896         895
         891         892         897         896
         892         893         898         897
         893         894         899         898
         900         901         906         905
         901         902         907         906
         902         903         908         907
         903         904         909         908
         905         906         911         910
         906         907         912         911
         907         908         913         912
         908         909         914         913
         910         911         916         915
         911         912         917         916
         912         913         918         917
         913         914         919         918
         915         916         921         920
         916         917         922         921
         917         918         923         922
         918         919         924         923
         925         926         931         930
         926         927         932         931
         927         928         933         932
         928         929         934         933
         930         931         936         935
         931         932         937         936
         932         933         938         937
         933         934         939         938
         935         936         941         940
         936         937         942         941
         937         938         943         942
         938         939         944         943
         940         941         946         945
         941         942         947         946
         942         943         948         947
         943         944         949         948
         950         951         956         955
         951         952         957         956
         952         953         958         957
         953         954         959         958
         955         956         961         960
         956         957         962         961
         957         958         963         962
         958         959         964         963
         960         961         966         965
         961         962         967         966
         962         963         968         967
         963         964         969         968
         965         966         971         970
         966         967         972         971
         967         968         973         972
         968         969         974         973
         975         976         981         980
         976         977         982         981
         977         978         983         982
         978         979         984         983
         980         981         986         985
         981         982         987         986
         982         983         988         987
         983         984         989         988
         985         986         991         990
         986         987         992         991
         987         988         993         992
         988         989         994         993
         990         991         996         995
         991         992         997         996
         992         993         998         997
         993         994         999         998
        1000        1001        1006        1005
        1001        1002        1007        1006
        1002        1003        1008        1007
        1003        1004        1009        1008
        1005        1006        1011        1010
        1006        1007        1012        1011
        1007        1008        1013        1012
        1008        1009        1014        1013
        1010        1011        1016        1015
        1011        1012        1017        1016
        1012        1013        1018        1017
        1013        1014        1019        1018
        1015        1016        1021        1020
        1016        1017        1022        1021
        1017        1018        1023        1022
        1018        1019        1024        1023
        1025        1026        1031        1030
        1026        1027        1032        1031
        1027        1028        1033        1032
        1028        1029        1034        1033
        1030        1031        1036        1035
        1031        1032        1037        1036
        1032        1033        1038        1037
        1033        1034        1039        1038
        1035        1036        1041        1040
        1036        1037        1042        1041
        1037        1038        1043        1042
        1038        1039        1044        1043
        1040        1041        1046        1045
        1041        1042        1047        1046
        1042        1043        1048        1047
        1043        1044        1049        1048
        1050        1051        1056        1055
        1051        1052        1057        1056
        1052        1053        1058        1057
        1053        1054        1059        1058
        1055        1056        1061        1060
        1056        1057        1062        1061
        1057        1058        1063        1062
        1058        1059        1064        1063
        1060        1061        1066        1065
        1061        1062        1067        1066
        1062        1063        1068        1067
        1063        1064        1069        1068
        1065        1066        1071        1070
        1066        1067        1072        1071
        1067        1068        1073        1072
        1068        1069        1074        1073
        1075        1076        1081        1080
        1076        1077        1082        1081
        1077        1078        1083        1082
        1078        1079        1084        1083
        1080        1081        1086        1085
        1081        1082        1087        1086
        1082        1083        1088        1087
        1083        1084        1089        1088
        1085        1086        1091        1090
        1086        1087        1092        1091
        1087        1088        1093        1092
        1088        1089        1094        1093
        1090        1091        1096        1095
        1091        1092        1097        1096
        1092        1093        1098        1097
        1093        1094        1099        1098
        1100        1101        1106        1105
        1101        1102        1107        1106
        1102        1103        1108        1107
        1103        1104        1109        1108
        1105        1106        1111        1110
        1106        1107        1112        1111
        1107        1108        1113        1112
        1108        1109        1114        1113
        1110        1111        1116        1115
        1111        1112        1117        1116
        1112        1113        1118        1117
        1113        1114        1119        1118
        1115        1116        1121        1120
        1116        1117        1122        1121
        1117        1118        1123        1122
        1118        1119        1124        1123
        1125        1126        1131        1130
        1126        1127        1132        1131
        1127        1128        1133        1132
        1128        1129        1134        1133
        1130        1131        1136        1135
        1131        1132        1137        1136
        1132        1133        1138        1137
        1133        1134        1139        1138
        1135        1136        1141        1140
        1136        1137        1142        1141
        1137        1138        1143        1142
        1138        1139        1144        1143
        1140        1141        1146        1145
        1141        1142        1147        1146
        1142        1143        1148        1147
        1143        1144        1149        1148
        1150        1151        1156        1155
        1151        1152        1157        1156
        1152        1153        1158        1157
        1153        1154        1159        1158
        1155        1156        1161        1160
        1156        1157        1162        1161
        1157        1158        1163        1162
        1158        1159        1164        1163
        1160        1161        1166        1165
        1161        1162        1167        1166
        1162        1163        1168        1167
        1163        1164        1169        1168
        1165        1166        1171        1170
        1166        1167        1172        1171
        1167        1168        1173        1172
        1168        1169        1174        1173
        1175        1176        1181        1180
        1176        1177        1182        1181
        1177        1178        1183        1182
        1178        1179        1184        1183
        1180        1181        1186        1185
        1181        1182        1187        1186
        1182        1183        1188        1187
        1183        1184        1189        1188
        1185        1186        1191        1190
        1186        1187        1192        1191
        1187        1188        1193        1192
        1188        1189        1194        1193
        1190        1191        1196        1195
        1191        1192        1197        1196
        1192        1193        1198        1197
        1193        1194        1199        1198
        1200        1201        1206        1205
        1201        1202        1207        1206
        1202        1203        1208        1207
        1203        1204        1209        1208
        1205        1206        1211        1210
        1206        1207        1212        1211
        1207        1208        1213        1212
        1208        1209        1214        1213
        1210        1211        1216        1215
        1211        1212        1217        1216
        1212        1213        1218        1217
        1213        1214        1219        1218
        1215        1216        1221        1220
        1216        1217        1222        1221
        1217        1218        1223        1222
        1218        1219        1224        1223
        1225        1226        1231        1230
        1226        1227        1232        1231
        1227        1228        1233        1232
        1228        1229        1234        1233
        1230        1231        1236        1235
        1231        1232        1237        1236
        1232        1233        1238        1237
        1233        1234        1239        1238
        1235        1236        1241        1240
        1236        1237        1242        1241
        1237        1238        1243        1242
        1238        1239        1244        1243
        1240        1241        1246        1245
        1241        1242        1247        1246
        1242        1243        1248        1247
        1243        1244        1249        1248
        1250        1251        1256        1255
        1251        1252        1257        1256
        1252        1253        1258        1257
        1253        1254        1259        1258
        1255        1256        1261        1260
        1256        1257        1262        1261
        1257        1258        1263        1262
        1258        1259        1264        1263
        1260        1261        1266        1265
        1261        1262        1267        1266
        1262        1263        1268        1267
        1263        1264        1269        1268
        1265        1266        1271        1270
        1266        1267        1272        1271
        1267        1268        1273        1272
        1268        1269        1274        1273
        1275        1276        1281        1280
        1276        1277        1282        1281
        1277        1278        1283        1282
        1278        1279        1284        1283
        1280        1281        1286        1285
        1281        1282        1287        1286
        1282        1283        1288        1287
        1283        1284        1289        1288
        1285        1286        1291        1290
        1286        1287        1292        1291
        1287        1288        1293        1292
        1288        1289        1294        1293
        1290        1291        1296        1295
        1291        1292        1297        1296
        1292        1293        1298        1297
        1293        1294        1299        1298
        1300        1301        1306        1305
        1301        1302        1307        1306
        1302        1303        1308        1307
        1303        1304        1309        1308
        1305        1306        1311        1310
        1306        1307        1312        1311
        1307        1308        1313        1312
        1308        1309        1314        1313
        1310        1311        1316        1315
        1311        1312        1317        1316
        1312        1313        1318        1317
        1313        1314        1319        1318
        1315        1316        1321        1320
        1316        1317        1322        1321
        1317        1318        1323        1322
        1318        1319        1324        1323
        1325        1326        1331        1330
        1326        1327        1332        1331
        1327        1328        1333        1332
        1328        1329        1334        1333
        1330        1331        1336        1335
        1331        1332        1337        1336
        1332        1333        1338        1337
        1333        1334        1339        1338
        1335        1336        1341        1340
        1336        1337        1342        1341
        1337        1338        1343        1342
        1338        1339        1344        1343
        1340        1341        1346        1345
        1341        1342        1347        1346
        1342        1343        1348        1347
        1343        1344        1349        1348
        1350        1351        1356        1355
        1351        1352        1357        1356
        1352        1353        1358        1357
        1353        1354        1359        1358
        1355        1356        1361        1360
        1356        1357        1362        1361
        1357        1358        1363        1362
        1358        1359        1364        1363
        1360        1361        1366        1365
        1361        1362        1367        1366
        1362        1363        1368        1367
        1363        1364        1369        1368
        1365        1366        1371        1370
        1366        1367        1372        1371
        1367        1368        1373        1372
        1368        1369        1374        1373
        1375        1376        1381        1380
        1376        1377        1382        1381
        1377        1378        1383        1382
        1378        1379        1384        1383
        1380        1381        1386        1385
        1381        1382        1387        1386
        1382        1383        1388        1387
        1383        1384        1389        1388
        1385        1386        1391        1390
        1386        1387        1392        1391
        1387        1388        1393        1392
        1388        1389        1394        1393
        1390        1391        1396        1395
        1391        1392        1397        1396
        1392        1393        1398        1397
        1393        1394        1399        1398
        1400        1401        1406        1405
        1401        1402        1407        1406
        1402        1403        1408        1407
        1403        1404        1409        1408
        1405        1406        1411        1410
        1406        1407        1412        1411
        1407        1408        1413        1412
        1408        1409        1414        1413
        1410        1411        1416        1415
        1411        1412        1417        1416
        1412        1413        1418        1417
        1413        1414        1419        1418
        1415        1416        1421        1420
        1416        1417        1422        1421
        1417        1418        1423        1422
        1418        1419        1424        1423
        1425        1426        1431        1430
        1426        1427        1432        1431
        1427        1428        1433        1432
        1428        1429        1434        1433
        1430        1431        1436        1435
        1431        1432        1437        1436
        1432        1433        1438        1437
        1433        1434        1439        1438
        1435        1436        1441        1440
        1436        1437        1442        1441
        1437        1438        1443        1442
        1438        1439        1444        1443
        1440        1441        1446        1445
        1441        1442        1447        1446
        1442        1443        1448        1447
        1443        1444        1449        1448
        1450        1451        1456        1455
        1451        1452        1457        1456
        1452        1453        1458        1457
        1453        1454        1459        1458
        1455        1456        1461        1460
        1456        1457        1462        1461
        1457        1458        1463        1462
        1458        1459        1464        1463
        1460        1461        1466        1465
        1461        1462        1467        1466
        1462        1463        1468        1467
        1463        1464        1469        1468
        1465        1466        1471        1470
        1466        1467        1472        1471
        1467        1468        1473        1472
        1468        1469        1474        1473
        1475        1476        1481        1480
        1476        1477        1482        1481
        1477        1478        1483        1482
        1478        1479        1484        1483
        1480        1481        1486        1485
        1481        1482        1487        1486
        1482        1483        1488        1487
        1483        1484        1489        1488
        1485        1486        1491        1490
        1486        1487        1492        1491
        1487        1488        1493        1492
        1488        1489        1494        1493
        1490        1491        1496        1495
        1491        1492        1497        1496
        1492        1493        1498        1497
        1493        1494        1499        1498
        1500        1501        1506        1505
        1501        1502        1507        1506
        1502        1503        1508        1507
        1503        1504        1509        1508
        1505        1506        1511        1510
        1506        1507        1512        1511
        1507        1508        1513        1512
        1508        1509        1514        1513
        1510        1511        1516        1515
        1511        1512        1517        1516
        1512        1513        1518        1517
        1513        1514        1519        1518
        1515        1516        1521        1520
        1516        1517        1522        1521
        1517        1518        1523        1522
        1518        1519        1524        1523
        1525        1526        1531        1530
        1526        1527        1532        1531
        1527        1528        1533        1532
        1528        1529        1534        1533
        1530        1531        1536        1535
        1531        1532        1537        1536
        1532        1533        1538        1537
        1533        1534        1539        1538
        1535        1536        1541        1540
        1536        1537        1542        1541
        1537        1538        1543        1542
        1538        1539        1544        1543
        1540        1541        1546        1545
        1541        1542        1547        1546
        1542        1543        1548        1547
        1543        1544        1549        1548
        1550        1551        1556        1555
        1551        1552        1557        1556
        1552        1553        1558        1557
        1553        1554        1559        1558
        1555        1556        1561        1560
        1556        1557        1562        1561
        1557        1558        1563        1562
        1558        1559        1564        1563
        1560        1561        1566        1565
        1561        1562        1567        1566
        1562        1563        1568        1567
        1563        1564        1569        1568
        1565        1566        1571        1570
        1566        1567        1572        1571
        1567        1568        1573        1572
        1568        1569        1574        1573
        1575        1576        1581        1580
        1576        1577        1582        1581
        1577        1578        1583        1582
        1578        1579        1584        1583
        1580        1581        1586        1585
        1581        1582        1587        1586
        1582        1583        1588        1587
        1583        1584        1589        1588
        1585        1586        1591        1590
        1586        1587        1592        1591
        1587        1588        1593        1592
        1588        1589        1594        1593
        1590        1591        1596        1595
        1591        1592        1597        1596
        1592        1593        1598        1597
        1593        1594        1599        1598
 </DataArray>
 <DataArray  type="Int32"  Name="offsets"  format="ascii"> 
           4
           8
          12
          16
          20
          24
          28
          32
          36
          40
          44
          48
          52
          56
          60
          64
          68
          72
          76
          80
          84
          88
          92
          96
         100
         104
         108
         112
         116
         120
         124
         128
         132
         136
         140
         144
         148
         152
         156
         160
         164
         168
         172
         176
         180
         184
         188
         192
         196
         200
         204
         208
         212
         216
         220
         224
         228
         232
         236
         240
         244
         248
         252
         256
         260
         264
         268
         272
         276
         280
         284
         288
         292
         296
         300
         304
         308
         312
         316
         320
         324
         328
         332
         336
         340
         344
         348
         352
         356
         360
         364
         368
         372
         376
         380
         384
         388
         392
         396
         400
         404
         408
         412
         416
         420
         424
         428
         432
         436
         440
         444
         448
         452
         456
         460
         464
         468
         472
         476
         480
         484
         488
         492
         496
         500
         504
         508
         512
         516
         520
         524
         528
         532
         536
         540
         544
         548
         552
         556
         560
         564
         568
         572
         576
         580
         584
         588
         592
         596
         600
         604
         608
         612
         616
         620
         624
         628
         632
         636
         640
         644
         648
         652
         656
         660
         664
         668
         672
         676
         680
         684
         688
         692
         696
         700
         704
         708
         712
         716
         720
         724
         728
         732
         736
         740
         744
         748
         752
         756
         760
         764
         768
         772
         776
         780
         784
         788
         792
         796
         800
         804
         808
         812
         816
         820
         824
         828
         832
         836
         840
         844
         848
         852
         856
         860
         864
         868
         872
         876
         880
         884
         888
         892
         896
         900
         904
         908
         912
         916
         920
         924
         928
         932
         936
         940
         944
         948
         952
         956
         960
         964
         968
         972
         976
         980
         984
         988
         992
         996
        1000
        1004
        1008
        1012
        1016
        1020
        1024
        1028
        1032
        1036
        1040
        1044
        1048
        1052
        1056
        1060
        1064
        1068
        1072
        1076
        1080
        1084
        1088
        1092
        1096
        1100
        1104
        1108
        1112
        1116
        1120
        1124
        1128
        1132
        1136
        1140
        1144
        1148
        1152
        1156
        1160
        1164
        1168
        1172
        1176
        1180
        1184
        1188
        1192
        1196
        1200
        1204
        1208
        1212
        1216
        1220
        1224
        1228
        1232
        1236
        1240
        1244
        1248
        1252
        1256
        1260
        1264
        1268
        1272
        1276
        1280
        1284
        1288
        1292
        1296
        1300
        1304
        1308
        1312
        1316
        1320
        1324
        1328
        1332
        1336
        1340
        1344
        1348
        1352
        1356
        1360
        1364
        1368
        1372
        1376
        1380
        1384
        1388
        1392
        1396
        1400
        1404
        1408
        1412
        1416
        1420
        1424
        1428
        1432
        1436
        1440
        1444
        1448
        1452
        1456
        1460
        1464
        1468
        1472
        1476
        1480
        1484
        1488
        1492
        1496
        1500
        1504
        1508
        1512
        1516
        1520
        1524
        1528
        1532
        1536
        1540
        1544
        1548
        1552
        1556
        1560
        1564
        1568
        1572
        1576
        1580
        1584
        1588
        1592
        1596
        1600
        1604
        1608
        1612
        1616
        1620
        1624
        1628
        1632
        1636
        1640
        1644
        1648
        1652
        1656
        1660
        1664
        1668
        1672
        1676
        1680
        1684
        1688
        1692
        1696
        1700
        1704
        1708
        1712
        1716
        1720
        1724
        1728
        1732
        1736
        1740
        1744
        1748
        1752
        1756
        1760
        1764
        1768
        1772
        1776
        1780
        1784
        1788
        1792
        1796
        1800
        1804
        1808
        1812
        1816
        1820
        1824
        1828
        1832
        1836
        1840
        1844
        1848
        1852
        1856
        1860
        1864
        1868
        1872
        1876
        1880
        1884
        1888
        1892
        1896
        1900
        1904
        1908
        1912
        1916
        1920
        1924
        1928
        1932
        1936
        1940
        1944
        1948
        1952
        1956
        1960
        1964
        1968
        1972
        1976
        1980
        1984
        1988
        1992
        1996
        2000
        2004
        2008
        2012
        2016
        2020
        2024
        2028
        2032
        2036
        2040
        2044
        2048
        2052
        2056
        2060
        2064
        2068
        2072
        2076
        2080
        2084
        2088
        2092
        2096
        2100
        2104
        2108
        2112
        2116
        2120
        2124
        2128
        2132
        2136
        2140
        2144
        2148
        2152
        2156
        2160
        2164
        2168
        2172
        2176
        2180
        2184
        2188
        2192
        2196
        2200
        2204
        2208
        2212
        2216
        2220
        2224
        2228
        2232
        2236
        2240
        2244
        2248
        2252
        2256
        2260
        2264
        2268
        2272
        2276
        2280
        2284
        2288
        2292
        2296
        2300
        2304
        2308
        2312
        2316
        2320
        2324
        2328
        2332
        2336
        2340
        2344
        2348
        2352
        2356
        2360
        2364
        2368
        2372
        2376
        2380
        2384
        2388
        2392
        2396
        2400
        2404
        2408
        2412
        2416
        2420
        2424
        2428
        2432
        2436
        2440
        2444
        2448
        2452
        2456
        2460
        2464
        2468
        2472
        2476
        2480
        2484
        2488
        2492
        2496
        2500
        2504
        2508
        2512
        2516
        2520
        2524
        2528
        2532
        2536
        2540
        2544
        2548
        2552
        2556
        2560
        2564
        2568
        2572
        2576
        2580
        2584
        2588
        2592
        2596
        2600
        2604
        2608
        2612
        2616
        2620
        2624
        2628
        2632
        2636
        2640
        2644
        2648
        2652
        2656
        2660
        2664
        2668
        2672
        2676
        2680
        2684
        2688
        2692
        2696
        2700
        2704
        2708
        2712
        2716
        2720
        2724
        2728
        2732
        2736
        2740
        2744
        2748
        2752
        2756
        2760
        2764
        2768
        2772
        2776
        2780
        2784
        2788
        2792
        2796
        2800
        2804
        2808
        2812
        2816
        2820
        2824
        2828
        2832
        2836
        2840
        2844
        2848
        2852
        2856
        2860
        2864
        2868
        2872
        2876
        2880
        2884
        2888
        2892
        2896
        2900
        2904
        2908
        2912
        2916
        2920
        2924
        2928
        2932
        2936
        2940
        2944
        2948
        2952
        2956
        2960
        2964
        2968
        2972
        2976
        2980
        2984
        2988
        2992
        2996
        3000
        3004
        3008
        3012
        3016
        3020
        3024
        3028
        3032
        3036
        3040
        3044
        3048
        3052
        3056
        3060
        3064
        3068
        3072
        3076
        3080
        3084
        3088
        3092
        3096
        3100
        3104
        3108
        3112
        3116
        3120
        3124
        3128
        3132
        3136
        3140
        3144
        3148
        3152
        3156
        3160
        3164
        3168
        3172
        3176
        3180
        3184
        3188
        3192
        3196
        3200
        3204
        3208
        3212
        3216
        3220
        3224
        3228
        3232
        3236
        3240
        3244
        3248
        3252
        3256
        3260
        3264
        3268
        3272
        3276
        3280
        3284
        3288
        3292
        3296
        3300
        3304
        3308
        3312
        3316
        3320
        3324
        3328
        3332
        3336
        3340
        3344
        3348
        3352
        3356
        3360
        3364
        3368
        3372
        3376
        3380
        3384
        3388
        3392
        3396
        3400
        3404
        3408
        3412
        3416
        3420
        3424
        3428
        3432
        3436
        3440
        3444
        3448
        3452
        3456
        3460
        3464
        3468
        3472
        3476
        3480
        3484
        3488
        3492
        3496
        3500
        3504
        3508
        3512
        3516
        3520
        3524
        3528
        3532
        3536
        3540
        3544
        3548
        3552
        3556
        3560
        3564
        3568
        3572
        3576
        3580
        3584
        3588
        3592
        3596
        3600
        3604
        3608
        3612
        3616
        3620
        3624
        3628
        3632
        3636
        3640
        3644
        3648
        3652
        3656
        3660
        3664
        3668
        3672
        3676
        3680
        3684
        3688
        3692
        3696
        3700
        3704
        3708
        3712
        3716
        3720
        3724
        3728
        3732
        3736
        3740
        3744
        3748
        3752
        3756
        3760
        3764
        3768
        3772
        3776
        3780
        3784
        3788
        3792
        3796
        3800
        3804
        3808
        3812
        3816
        3820
        3824
        3828
        3832
        3836
        3840
        3844
        3848
        3852
        3856
        3860
        3864
        3868
        3872
        3876
        3880
        3884
        3888
        3892
        3896
        3900
        3904
        3908
        3912
        3916
        3920
        3924
        3928
        3932
        3936
        3940
        3944
        3948
        3952
        3956
        3960
        3964
        3968
        3972
        3976
        3980
        3984
        3988
        3992
        3996
        4000
        4004
        4008
        4012
        4016
        4020
        4024
        4028
        4032
        4036
        4040
        4044
        4048
        4052
        4056
        4060
        4064
        4068
        4072
        4076
        4080
        4084
        4088
        4092
        4096
 </DataArray>
 <DataArray  type="UInt8"  Name="types"  format="ascii">
 9
 9
 9
 9
 9
 9
 9
 9
 9
 9
 9
 9
 9
 9
 9
 9
 9
 9
 9
 9
 9
 9
 9
 9
 9
 9
 9
 9
 9
 9
 9
 9
 9
 9
 9
 9
 9
 9
 9
 9
 9
 9
 9
 9
 9
 9
 9
 9
 9
 9
 9
 9
 9
 9
 9
 9
 9
 9
 9
 9
 9
 9
 9
 9
 9
 9
 9
 9
 9
 9
 9
 9
 9
 9
 9
 9
 9
 9
 9
 9
 9
 9
 9
 9
 9
 9
 9
 9
 9
 9
 9
 9
 9
 9
 9
 9
 9
 9
 9
 9
 9
 9
 9
 9
 9
 9
 9
 9
 9
 9
 9
 9
 9
 9
 9
 9
 9
 9
 9
 9
 9
 9
 9
 9
 9
 9
 9
 9
 9
 9
 9
 9
 9
 9
 9
 9
 9
 9
 9
 9
 9
 9
 9
 9
 9
 9
 9
 9
 9
 9
 9
 9
 9
 9
 9
 9
 9
 9
 9
 9
 9
 9
 9
 9
 9
 9
 9
 9
 9
 9
 9
 9
 9
 9
 9
 9
 9
 9
 9
 9
 9
 9
 9
 9
 9
 9
 9
 9
 9
 9
 9
 9
 9
 9
 9
 9
 9
 9
 9
 9
 9
 9
 9
 9
 9
 9
 9
 9
 9
 9
 9
 9
 9
 9
 9
 9
 9
 9
 9
 9
 9
 9
 9
 9
 9
 9
 9
 9
 9
 9
 9
 9
 9
 9
 9
 9
 9
 9
 9
 9
 9
 9
 9
 9
 9
 9
 9
 9
 9
 9
 9
 9
 9
 9
 9
 9
 9
 9
 9
 9
 9
 9
 9
 9
 9
 9
 9
 9
 9
 9
 9
 9
 9
 9
 9
 9
 9
 9
 9
 9
 9
 9
 9
 9
 9
 9
 9
 9
 9
 9
 9
 9
 9
 9
 9
 9
 9
 9
 9
 9
 9
 9
 9
 9
 9
 9
 9
 9
 9
 9
 9
 9
 9
 9
 9
 9
 9
 9
 9
 9
 9
 9
 9
 9
 9
 9
 9
 9
 9
 9
 9
 9
 9
 9
 9
 9
 9
 9
 9
 9
 9
 9
 9
 9
 9
 9
 9
 9
 9
 9
 9
 9
 9
 9
 9
 9
 9
 9
 9
 9
 9
 9
 9
 9
 9
 9
 9
 9
 9
 9
 9
 9
 9
 9
 9
 9
 9
 9
 9
 9
 9
 9
 9
 9
 9
 9
 9
 9
 9
 9
 9
 9
 9
 9
 9
 9
 9
 9
 9
 9
 9
 9
 9
 9
 9
 9
 9
 9
 9
 9
 9
 9
 9
 9
 9
 9
 9
 9
 9
 9
 9
 9
 9
 9
 9
 9
 9
 9
 9
 9
 9
 9
 9
 9
 9
 9
 9
 9
 9
 9
 9
 9
 9
 9
 9
 9
 9
 9
 9
 9
 9
 9
 9
 9
 9
 9
 9
 9
 9
 9
 9
 9
 9
 9
 9
 9
 9
 9
 9
 9
 9
 9
 9
 9
 9
 9
 9
 9
 9
 9
 9
 9
 9
 9
 9
 9
 9
 9
 9
 9
 9
 9
 9
 9
 9
 9
 9
 9
 9
 9
 9
 9
 9
 9
 9
 9
 9
 9
 9
 9
 9
 9
 9
 9
 9
 9
 9
 9
 9
 9
 9
 9
 9
 9
 9
 9
 9
 9
 9
 9
 9
 9
 9
 9
 9
 9
 9
 9
 9
 9
 9
 9
 9
 9
 9
 9
 9
 9
 9
 9
 9
 9
 9
 9
 9
 9
 9
 9
 9
 9
 9
 9
 9
 9
 9
 9
 9
 9
 9
 9
 9
 9
 9
 9
 9
 9
 9
 9
 9
 9
 9
 9
 9
 9
 9
 9
 9
 9
 9
 9
 9
 9
 9
 9
 9
 9
 9
 9
 9
 9
 9
 9
 9
 9
 9
 9
 9
 9
 9
 9
 9
 9
 9
 9
 9
 9
 9
 9
 9
 9
 9
 9
 9
 9
 9
 9
 9
 9
 9
 9
 9
 9
 9
 9
 9
 9
 9
 9
 9
 9
 9
 9
 9
 9
 9
 9
 9
 9
 9
 9
 9
 9
 9
 9
 9
 9
 9
 9
 9
 9
 9
 9
 9
 9
 9
 9
 9
 9
 9
 9
 9
 9
 9
 9
 9
 9
 9
 9
 9
 9
 9
 9
 9
 9
 9
 9
 9
 9
 9
 9
 9
 9
 9
 9
 9
 9
 9
 9
 9
 9
 9
 9
 9
 9
 9
 9
 9
 9
 9
 9
 9
 9
 9
 9
 9
 9
 9
 9
 9
 9
 9
 9
 9
 9
 9
 9
 9
 9
 9
 9
 9
 9
 9
 9
 9
 9
 9
 9
 9
 9
 9
 9
 9
 9
 9
 9
 9
 9
 9
 9
 9
 9
 9
 9
 9
 9
 9
 9
 9
 9
 9
 9
 9
 9
 9
 9
 9
 9
 9
 9
 9
 9
 9
 9
 9
 9
 9
 9
 9
 9
 9
 9
 9
 9
 9
 9
 9
 9
 9
 9
 9
 9
 9
 9
 9
 9
 9
 9
 9
 9
 9
 9
 9
 9
 9
 9
 9
 9
 9
 9
 9
 9
 9
 9
 9
 9
 9
 9
 9
 9
 9
 9
 9
 9
 9
 9
 9
 9
 9
 9
 9
 9
 9
 9
 9
 9
 9
 9
 9
 9
 9
 9
 9
 9
 9
 9
 9
 9
 9
 9
 9
 9
 9
 9
 9
 9
 9
 9
 9
 9
 9
 9
 9
 9
 9
 9
 9
 9
 9
 9
 9
 9
 9
 9
 9
 9
 9
 9
 9
 9
 9
 9
 9
 9
 9
 9
 9
 9
 9
 9
 9
 9
 9
 9
 9
 9
 9
 9
 9
 9
 9
 9
 9
 9
 9
 9
 9
 9
 9
 9
 9
 9
 9
 9
 9
 9
 9
 9
 9
 9
 9
 9
 9
 9
 9
 9
 9
 9
 9
 9
 9
 9
 9
 9
 9
 9
 9
 9
 9
 9
 9
 9
 9
 9
 9
 9
 9
 9
 9
 9
 9
 9
 9
 9
 9
 9
 9
 9
 9
 9
 9
 9
 9
 9
 9
 9
 9
 9
 9
 9
 9
 9
 9
 9
 9
 9
 9
 9
 9
 9
 9
 9
 9
 9
 9
 9
 9
 9
 9
 9
 9
 9
 9
 9
 9
 9
 9
 9
 9
 9
 9
 9
 9
 9
 9
 9
 9
 9
 9
 9
 9
 9
 9
 9
 9
 9
 9
 9
 9
 9
 9
 9
 9
 9
 </DataArray>
 </Cells> 
 <PointData>
 <DataArray  type="Float64" Name="disp" NumberOfComponents="3" format="ascii">
   6.5394648235337152E-002   6.2915609149716167E-002   0.0000000000000000     
   6.8479165367837352E-002   6.8242070563389823E-002   0.0000000000000000     
   7.1446787649563193E-002   7.3767418151939018E-002   0.0000000000000000     
   7.4297515080514701E-002   7.9491651915363726E-002   0.0000000000000000     
   7.7031347660691835E-002   8.5414771853663987E-002   0.0000000000000000     
   6.0070017638017677E-002   6.1879576221775812E-002   0.0000000000000000     
   6.2996543304582597E-002   6.7279507022638754E-002   0.0000000000000000     
   6.5807095700160731E-002   7.2866550173001532E-002   0.0000000000000000     
   6.8501674824752057E-002   7.8640705672864186E-002   0.0000000000000000     
   7.1080280678356561E-002   8.4601973522226703E-002   0.0000000000000000     
   5.5022217403234805E-002   6.0969408019872932E-002   0.0000000000000000     
   5.7774917251512917E-002   6.6419490822898331E-002   0.0000000000000000     
   6.0415072804288157E-002   7.2050263262605302E-002   0.0000000000000000     
   6.2942684061560519E-002   7.7861725338993854E-002   0.0000000000000000     
   6.5357751023330024E-002   8.3853877052063958E-002   0.0000000000000000     
   5.0251247530988516E-002   6.0185104544007516E-002   0.0000000000000000     
   5.2814287208628283E-002   6.5662021964168579E-002   0.0000000000000000     
   5.5270718961945478E-002   7.1318557420750286E-002   0.0000000000000000     
   5.7620542790940130E-002   7.7154710913752700E-002   0.0000000000000000     
   5.9863758695612217E-002   8.3170482443175750E-002   0.0000000000000000     
   4.5757108021278831E-002   5.9526665794179576E-002   0.0000000000000000     
   4.8114653175928696E-002   6.5007100446449487E-002   0.0000000000000000     
   5.0374034173132694E-002   7.0671432647436541E-002   0.0000000000000000     
   5.2535251012890853E-002   7.6519662397140739E-002   0.0000000000000000     
   5.4598303695203153E-002   8.2551789695562094E-002   0.0000000000000000     
   7.7031347660691835E-002   8.5414771853663987E-002   0.0000000000000000     
   7.9667982902083975E-002   9.1515204474357695E-002   0.0000000000000000     
   8.2227118316680406E-002   9.7771376284962783E-002   0.0000000000000000     
   8.4708753904481168E-002  0.10418328728547922        0.0000000000000000     
   8.7112889665486221E-002  0.11075093747590704        0.0000000000000000     
   7.1080280678356561E-002   8.4601973522226703E-002   0.0000000000000000     
   7.3563613670743683E-002   9.0734139734712699E-002   0.0000000000000000     
   7.5972374211682833E-002   9.7020990323945830E-002   0.0000000000000000     
   7.8306562301174026E-002  0.10346252528992607        0.0000000000000000     
   8.0566177939217221E-002  0.11005874463265344        0.0000000000000000     
   6.5357751023330024E-002   8.3853877052063958E-002   0.0000000000000000     
   6.7681231826437316E-002   9.0013484126595336E-002   0.0000000000000000     
   6.9934084607723074E-002   9.6327312287367628E-002   0.0000000000000000     
   7.2116309367187298E-002  0.10279536153438092        0.0000000000000000     
   7.4227906104829988E-002  0.10941763186763512        0.0000000000000000     
   5.9863758695612217E-002   8.3170482443175750E-002   0.0000000000000000     
   6.2020837369164847E-002   8.9353237650005565E-002   0.0000000000000000     
   6.4112249504801100E-002   9.5690342175228205E-002   0.0000000000000000     
   6.6137995102520997E-002  0.10218179601884371        0.0000000000000000     
   6.8098074162324537E-002  0.10882759918085208        0.0000000000000000     
   5.4598303695203153E-002   8.2551789695562094E-002   0.0000000000000000     
   5.6582430298926276E-002   8.8753400304943414E-002   0.0000000000000000     
   5.8506868902916939E-002   9.5110079987527574E-002   0.0000000000000000     
   6.0371619507175123E-002  0.10162182874331452        0.0000000000000000     
   6.2176682111700826E-002  0.10828864657230430        0.0000000000000000     
   8.7112889665486221E-002  0.11075093747590704        0.0000000000000000     
   8.9426357341455653E-002  0.11746328323286909        0.0000000000000000     
   9.1635988674149488E-002  0.12430928093298824        0.0000000000000000     
   9.3741783663567738E-002  0.13128893057626451        0.0000000000000000     
   9.5743742309710417E-002  0.13840223216269784        0.0000000000000000     
   8.0566177939217221E-002  0.11005874463265344        0.0000000000000000     
   8.2739493649531856E-002  0.11679928334301051        0.0000000000000000     
   8.4814781955837304E-002  0.12367377641187986        0.0000000000000000     
   8.6792042858133564E-002  0.13068222383926142        0.0000000000000000     
   8.8671276356420636E-002  0.13782462562515532        0.0000000000000000     
   7.4227906104829988E-002  0.10941763186763512        0.0000000000000000     
   7.6258221715701680E-002  0.11618416728650729        0.0000000000000000     
   7.8196603094852865E-002  0.12308501179037440        0.0000000000000000     
   8.0043050242283559E-002  0.13012016537923643        0.0000000000000000     
   8.1797563157993719E-002  0.13728962805309342        0.0000000000000000     
   6.8098074162324537E-002  0.10882759918085208        0.0000000000000000     
   6.9982541539965096E-002  0.11561793506335941        0.0000000000000000     
   7.1781452091196171E-002  0.12254298706847189        0.0000000000000000     
   7.3494805816017666E-002  0.12960275519618947        0.0000000000000000     
   7.5122602714429665E-002  0.13679723944651218        0.0000000000000000     
   6.2176682111700826E-002  0.10828864657230430        0.0000000000000000     
   6.3912453122322146E-002  0.11510058667356690        0.0000000000000000     
   6.5569328944867195E-002  0.12204770224617230        0.0000000000000000     
   6.7147309579335956E-002  0.12912999329012051        0.0000000000000000     
   6.8646395025728446E-002  0.13634745980541155        0.0000000000000000     
   9.5743742309710417E-002  0.13840223216269784        0.0000000000000000     
   9.7648651411028908E-002  0.14563734709412671        0.0000000000000000     
   9.9463297765974679E-002  0.15298243677238951        0.0000000000000000     
  0.10118768137454770       0.16043750119748626        0.0000000000000000     
  0.10282180223674797       0.16800254036941692        0.0000000000000000     
   8.8671276356420636E-002  0.13782462562515532        0.0000000000000000     
   9.0459094298107251E-002  0.14508863751634657        0.0000000000000000     
   9.2162108530602124E-002  0.15246191525962036        0.0000000000000000     
   9.3780319053905284E-002  0.15994445885497666        0.0000000000000000     
   9.5313725868016688E-002  0.16753626830241547        0.0000000000000000     
   8.1797563157993719E-002  0.13728962805309342        0.0000000000000000     
   8.3466218918374649E-002  0.14458062680442768        0.0000000000000000     
   8.5055094599817527E-002  0.15198038862572141        0.0000000000000000     
   8.6564190202322380E-002  0.15948891351697472        0.0000000000000000     
   8.7993505725889209E-002  0.16710620147818758        0.0000000000000000     
   7.5122602714429665E-002  0.13679723944651218        0.0000000000000000     
   7.6670025271831074E-002  0.14411331495836993        0.0000000000000000     
   7.8142255973620844E-002  0.15153785687069271        0.0000000000000000     
   7.9539294819799003E-002  0.15907086518348051        0.0000000000000000     
   8.0861141810365550E-002  0.16671233989673329        0.0000000000000000     
   6.8646395025728446E-002  0.13634745980541155        0.0000000000000000     
   7.0070513358476527E-002  0.14368670197817343        0.0000000000000000     
   7.1423592652012105E-002  0.15113431999453425        0.0000000000000000     
   7.2705632906335166E-002  0.15869031385449398        0.0000000000000000     
   7.3916634121445696E-002  0.16635468355805261        0.0000000000000000     
  0.10282180223674797       0.16800254036941692        0.0000000000000000     
  0.10436794093143753       0.17566737819733949        0.0000000000000000     
  0.10582837803747835       0.18342183859041200        0.0000000000000000     
  0.10720311355487047       0.19126592154863431        0.0000000000000000     
  0.10849214748361383       0.19919962707200659        0.0000000000000000     
   9.5313725868016688E-002  0.16753626830241547        0.0000000000000000     
   9.6762618415400126E-002  0.17522765155967659        0.0000000000000000     
   9.8127286138519260E-002  0.18300891658449980        0.0000000000000000     
   9.9407729037374146E-002  0.19088006337688512        0.0000000000000000     
  0.10060394711196478       0.19884109193683258        0.0000000000000000     
   8.7993505725889209E-002  0.16710620147818758        0.0000000000000000     
   8.9341980064235563E-002  0.17482289213973234        0.0000000000000000     
   9.0608552111078905E-002  0.18262962513198130        0.0000000000000000     
   9.1793221866419306E-002  0.19052640045493452        0.0000000000000000     
   9.2895989330256709E-002  0.19851321810859207        0.0000000000000000     
   8.0861141810365550E-002  0.16671233989673329        0.0000000000000000     
   8.2106025877943842E-002  0.17445309993750674        0.0000000000000000     
   8.3272175955157290E-002  0.18228396423285653        0.0000000000000000     
   8.4359592042005868E-002  0.19020493278278258        0.0000000000000000     
   8.5368274138489603E-002  0.19821600558728494        0.0000000000000000     
   7.3916634121445696E-002  0.16635468355805261        0.0000000000000000     
   7.5054755856525018E-002  0.17411827495299986        0.0000000000000000     
   7.6118157670754416E-002  0.18197193388712540        0.0000000000000000     
   7.7106839564133903E-002  0.18991566036042920        0.0000000000000000     
   7.8020801536663492E-002  0.19794945437291137        0.0000000000000000     
  0.10849214748361383       0.19919962707200659        0.0000000000000000     
  0.10970061887664657       0.20721900172714774        0.0000000000000000     
  0.11083366678690676       0.21532009208067687        0.0000000000000000     
  0.11189129121439441       0.22350289813259386        0.0000000000000000     
  0.11287349215910952       0.23176741988289890        0.0000000000000000     
  0.10060394711196478       0.19884109193683258        0.0000000000000000     
  0.10172143030440625       0.20688586768744818        0.0000000000000000     
  0.10276566855681366       0.21500825605183804        0.0000000000000000     
  0.10373666186918701       0.22320825703000213        0.0000000000000000     
  0.10463441024152628       0.23148587062194048        0.0000000000000000     
   9.2895989330256709E-002  0.19851321810859207        0.0000000000000000     
   9.3921726077953335E-002  0.20658263810469280        0.0000000000000000     
   9.4875303684871334E-002  0.21472722045497580        0.0000000000000000     
   9.5756722151010762E-002  0.22294696515944104        0.0000000000000000     
   9.6565981476371576E-002  0.23124187221808862        0.0000000000000000     
   8.5368274138489603E-002  0.19821600558728494        0.0000000000000000     
   8.6301506197287797E-002  0.20630931297888150        0.0000000000000000     
   8.7162572171079838E-002  0.21447698529009007        0.0000000000000000     
   8.7951472059865698E-002  0.22271902252091066        0.0000000000000000     
   8.8668205863645336E-002  0.23103542467134330        0.0000000000000000     
   7.8020801536663492E-002  0.19794945437291137        0.0000000000000000     
   7.8860770662409721E-002  0.20606589231001440        0.0000000000000000     
   7.9627474015439140E-002  0.21425755055718090        0.0000000000000000     
   8.0320911595751776E-002  0.22252442911441100        0.0000000000000000     
   8.0941083403347616E-002  0.23086652798170454        0.0000000000000000     
  0.11287349215910952       0.23176741988289890        0.0000000000000000     
  0.11380843038237040       0.24013026007878807        0.0000000000000000     
  0.11472426664549544       0.24860802146745761        0.0000000000000000     
  0.11562100094848458       0.25720070404890760        0.0000000000000000     
  0.11649863329133786       0.26590830782313801        0.0000000000000000     
  0.10463441024152628       0.23148587062194048        0.0000000000000000     
  0.10546394993380702       0.23986453915749403        0.0000000000000000     
  0.10623031720600470       0.24836770496650373        0.0000000000000000     
  0.10693351205811931       0.25699536804896966        0.0000000000000000     
  0.10757353449015086       0.26574752840489174        0.0000000000000000     
   9.6565981476371576E-002  0.23124187221808862        0.0000000000000000     
   9.7293952269584594E-002  0.23963834198817718        0.0000000000000000     
   9.7931505139280617E-002  0.24816277482696555        0.0000000000000000     
   9.8478640085459659E-002  0.25681517073445370        0.0000000000000000     
   9.8935357108121708E-002  0.26559552971064171        0.0000000000000000     
   8.8668205863645336E-002  0.23103542467134330        0.0000000000000000     
   8.9298437389703084E-002  0.23945166857083758        0.0000000000000000     
   8.9827830445323192E-002  0.24799323104884308        0.0000000000000000     
   9.0256385030505620E-002  0.25666011210535988        0.0000000000000000     
   9.0584101145250465E-002  0.26545231174038791        0.0000000000000000     
   8.0941083403347616E-002  0.23086652798170454        0.0000000000000000     
   8.1477405294162544E-002  0.23930451890547513        0.0000000000000000     
   8.1919293124132431E-002  0.24785907363213627        0.0000000000000000     
   8.2266746893257289E-002  0.25653019216168804        0.0000000000000000     
   8.2519766601537092E-002  0.26531787449413025        0.0000000000000000     
  0.11649863329133786       0.26590830782313801        0.0000000000000000     
  0.11729756105456365       0.27489536272582898        0.0000000000000000     
  0.11795818161867039       0.28432639869266069        0.0000000000000000     
  0.11848049498365805       0.29420141572363323        0.0000000000000000     
  0.11886450114952662       0.30452041381874650        0.0000000000000000     
  0.10757353449015086       0.26574752840489174        0.0000000000000000     
  0.10813142696221448       0.27475631000956091        0.0000000000000000     
  0.10858823193442532       0.28415383683826800        0.0000000000000000     
  0.10894394940678341       0.29394010889101296        0.0000000000000000     
  0.10919857937928872       0.30411512616779585        0.0000000000000000     
   9.8935357108121708E-002  0.26559552971064171        0.0000000000000000     
   9.9312673582226271E-002  0.27460214731224608        0.0000000000000000     
   9.9621606882732805E-002  0.28393331909598352        0.0000000000000000     
   9.9862157009641336E-002  0.29358904506185390        0.0000000000000000     
  0.10003432396295184       0.30356932520985735        0.0000000000000000     
   9.0584101145250465E-002  0.26545231174038791        0.0000000000000000     
   9.0841300914599049E-002  0.27443287463388455        0.0000000000000000     
   9.1058306463592822E-002  0.28366484546580728        0.0000000000000000     
   9.1235117792231799E-002  0.29314822423615611        0.0000000000000000     
   9.1371734900515963E-002  0.30288301094493086        0.0000000000000000     
   8.2519766601537092E-002  0.26531787449413025        0.0000000000000000     
   8.2717308959332825E-002  0.27424849197447632        0.0000000000000000     
   8.2898330677005402E-002  0.28334841594773946        0.0000000000000000     
   8.3062831754554839E-002  0.29261764641391946        0.0000000000000000     
   8.3210812191981121E-002  0.30205618337301660        0.0000000000000000     
   4.5757108021278831E-002   5.9526665794179576E-002   0.0000000000000000     
   4.8114653175928696E-002   6.5007100446449487E-002   0.0000000000000000     
   5.0374034173132694E-002   7.0671432647436541E-002   0.0000000000000000     
   5.2535251012890853E-002   7.6519662397140739E-002   0.0000000000000000     
   5.4598303695203153E-002   8.2551789695562094E-002   0.0000000000000000     
   4.1440986255016812E-002   5.8933524611327032E-002   0.0000000000000000     
   4.3589916699466942E-002   6.4412494987801244E-002   0.0000000000000000     
   4.5649874558032426E-002   7.0080587771562994E-002   0.0000000000000000     
   4.7620859830713270E-002   7.5937802962612197E-002   0.0000000000000000     
   4.9502872517509455E-002   8.1984140560948909E-002   0.0000000000000000     
   3.7204069613113504E-002   5.8345113836387796E-002   0.0000000000000000     
   3.9153979325295810E-002   6.3835974306284099E-002   0.0000000000000000     
   4.1023096236827289E-002   6.9517721622028600E-002   0.0000000000000000     
   4.2811420347707942E-002   7.5390355783621271E-002   0.0000000000000000     
   4.4518951657937775E-002   8.1453876791062169E-002   0.0000000000000000     
   3.3046358095568919E-002   5.7761433469361891E-002   0.0000000000000000     
   3.4806841053415291E-002   6.3277538401898037E-002   0.0000000000000000     
   3.6493699209517269E-002   6.8982834198833429E-002   0.0000000000000000     
   3.8106932563874880E-002   7.4877320860168003E-002   0.0000000000000000     
   3.9646541116488097E-002   8.0960998385901858E-002   0.0000000000000000     
   2.8967851702383064E-002   5.7182483510249286E-002   0.0000000000000000     
   3.0548501883825394E-002   6.2737187274643044E-002   0.0000000000000000     
   3.2061683476102394E-002   6.8475925501977411E-002   0.0000000000000000     
   3.3507396479214073E-002   7.4398698192252394E-002   0.0000000000000000     
   3.4885640893160430E-002   8.0505505345467979E-002   0.0000000000000000     
   5.4598303695203153E-002   8.2551789695562094E-002   0.0000000000000000     
   5.6582430298926276E-002   8.8753400304943414E-002   0.0000000000000000     
   5.8506868902916939E-002   9.5110079987527574E-002   0.0000000000000000     
   6.0371619507175123E-002  0.10162182874331452        0.0000000000000000     
   6.2176682111700826E-002  0.10828864657230430        0.0000000000000000     
   4.9502872517509455E-002   8.1984140560948909E-002   0.0000000000000000     
   5.1313574138879249E-002   8.8202961348509454E-002   0.0000000000000000     
   5.3070626215280900E-002   9.4577626107230112E-002   0.0000000000000000     
   5.4774028746714387E-002  0.10110813483711091        0.0000000000000000     
   5.6423781733179745E-002  0.10779448753815185        0.0000000000000000     
   4.4518951657937775E-002   8.1453876791062169E-002   0.0000000000000000     
   4.6161832412181358E-002   8.7690910037804187E-002   0.0000000000000000     
   4.7756204855103283E-002   9.4084080917300278E-002   0.0000000000000000     
   4.9302068986703529E-002  0.10063338942955048        0.0000000000000000     
   5.0799424806982130E-002  0.10733883557455476        0.0000000000000000     
   3.9646541116488097E-002   8.0960998385901858E-002   0.0000000000000000     
   4.1127205118832617E-002   8.7217246372827628E-002   0.0000000000000000     
   4.2563604822384089E-002   9.3629444417738100E-002   0.0000000000000000     
   4.3955740227142555E-002  0.10019759252063323        0.0000000000000000     
   4.5303611333107965E-002  0.10692169068151303        0.0000000000000000     
   3.4885640893160430E-002   8.0505505345467979E-002   0.0000000000000000     
   3.6209692258832998E-002   8.6781970353579818E-002   0.0000000000000000     
   3.7492826117123339E-002   9.3213716608543537E-002   0.0000000000000000     
   3.8735042468031430E-002   9.9800744110359135E-002   0.0000000000000000     
   3.9936341311557294E-002  0.10654305285902664        0.0000000000000000     
   6.2176682111700826E-002  0.10828864657230430        0.0000000000000000     
   6.3912453122322146E-002  0.11510058667356690        0.0000000000000000     
   6.5569328944867195E-002  0.12204770224617230        0.0000000000000000     
   6.7147309579335956E-002  0.12912999329012051        0.0000000000000000     
   6.8646395025728446E-002  0.13634745980541155        0.0000000000000000     
   5.6423781733179745E-002  0.10779448753815185        0.0000000000000000     
   5.8010574569376763E-002  0.11462656470647127        0.0000000000000000     
   5.9525096650005320E-002  0.12159424683818752        0.0000000000000000     
   6.0967347975065381E-002  0.12869753393330058        0.0000000000000000     
   6.2337328544556973E-002  0.13593642599181049        0.0000000000000000     
   5.0799424806982130E-002  0.10733883557455476        0.0000000000000000     
   5.2239523987732933E-002  0.11419031175141407        0.0000000000000000     
   5.3613618200749870E-002  0.12117771035922936        0.0000000000000000     
   5.4921707446032933E-002  0.12830103139800064        0.0000000000000000     
   5.6163791723582115E-002  0.13556027486772790        0.0000000000000000     
   4.5303611333107965E-002  0.10692169068151303        0.0000000000000000     
   4.6599301377390649E-002  0.11379182780839529        0.0000000000000000     
   4.7834893597100851E-002  0.12079809280929783        0.0000000000000000     
   4.9010387992238613E-002  0.12794048568422067        0.0000000000000000     
   5.0125784562803886E-002  0.13521900643316373        0.0000000000000000     
   3.9936341311557294E-002  0.10654305285902664        0.0000000000000000     
   4.1089906738349904E-002  0.11343111287741492        0.0000000000000000     
   4.2188922839058278E-002  0.12045539418839293        0.0000000000000000     
   4.3233389613682401E-002  0.12761589679196064        0.0000000000000000     
   4.4223307062222286E-002  0.13491262068811813        0.0000000000000000     
   6.8646395025728446E-002  0.13634745980541155        0.0000000000000000     
   7.0070513358476527E-002  0.14368670197817343        0.0000000000000000     
   7.1423592652012105E-002  0.15113431999453425        0.0000000000000000     
   7.2705632906335166E-002  0.15869031385449398        0.0000000000000000     
   7.3916634121445696E-002  0.16635468355805261        0.0000000000000000     
   6.2337328544556973E-002  0.13593642599181049        0.0000000000000000     
   6.3637739228610948E-002  0.14329736216501829        0.0000000000000000     
   6.4871280897358233E-002  0.15076678160422508        0.0000000000000000     
   6.6037953550798806E-002  0.15834468430943072        0.0000000000000000     
   6.7137757188932654E-002  0.16603107028063546        0.0000000000000000     
   5.6163791723582115E-002  0.13556027486772790        0.0000000000000000     
   5.7341758932534258E-002  0.14294186982008455        0.0000000000000000     
   5.8457496972026207E-002  0.15043224530674407        0.0000000000000000     
   5.9511005842057943E-002  0.15803140132770649        0.0000000000000000     
   6.0502285542629472E-002  0.16573933788297171        0.0000000000000000     
   5.0125784562803886E-002  0.13521900643316373        0.0000000000000000     
   5.1182572470246449E-002  0.14262022494337231        0.0000000000000000     
   5.2182240876016008E-002  0.15013071110209145        0.0000000000000000     
   5.3124789780112563E-002  0.15775046490932113        0.0000000000000000     
   5.4010219182536144E-002  0.16547948636506141        0.0000000000000000     
   4.4223307062222286E-002  0.13491262068811813        0.0000000000000000     
   4.5160179841747507E-002  0.14233242753488148        0.0000000000000000     
   4.6045512609327648E-002  0.14986217899026702        0.0000000000000000     
   4.6879305364962688E-002  0.15750187505427471        0.0000000000000000     
   4.7661558108652663E-002  0.16525151572690452        0.0000000000000000     
   7.3916634121445696E-002  0.16635468355805261        0.0000000000000000     
   7.5054755856525018E-002  0.17411827495299986        0.0000000000000000     
   7.6118157670754416E-002  0.18197193388712540        0.0000000000000000     
   7.7106839564133903E-002  0.18991566036042920        0.0000000000000000     
   7.8020801536663492E-002  0.19794945437291137        0.0000000000000000     
   6.7137757188932654E-002  0.16603107028063546        0.0000000000000000     
   6.8169015164269250E-002  0.17381666597061859        0.0000000000000000     
   6.9130050829318029E-002  0.18169219783215962        0.0000000000000000     
   7.0020864184079004E-002  0.18965766586525856        0.0000000000000000     
   7.0841455228552161E-002  0.19771307006991548        0.0000000000000000     
   6.0502285542629472E-002  0.16573933788297171        0.0000000000000000     
   6.1429648965466800E-002  0.17354652177476981        0.0000000000000000     
   6.2291409002295899E-002  0.18144341980533080        0.0000000000000000     
   6.3087565653116767E-002  0.18943003197465474        0.0000000000000000     
   6.3818118917929420E-002  0.19750635828274157        0.0000000000000000     
   5.4010219182536144E-002  0.16547948636506141        0.0000000000000000     
   5.4836657260117654E-002  0.17330784236545357        0.0000000000000000     
   5.5602232189687996E-002  0.18122559980663908        0.0000000000000000     
   5.6306943971247234E-002  0.18923275868861769        0.0000000000000000     
   5.6950792604795311E-002  0.19732931901138964        0.0000000000000000     
   4.7661558108652663E-002  0.16525151572690452        0.0000000000000000     
   4.8390040048221797E-002  0.17310062774266990        0.0000000000000000     
   4.9062520391494363E-002  0.18103873783608421        0.0000000000000000     
   4.9678999138470362E-002  0.18906584600714746        0.0000000000000000     
   5.0239476289149793E-002  0.19718195225585969        0.0000000000000000     
   7.8020801536663492E-002  0.19794945437291137        0.0000000000000000     
   7.8860770662409721E-002  0.20606589231001440        0.0000000000000000     
   7.9627474015439140E-002  0.21425755055718090        0.0000000000000000     
   8.0320911595751776E-002  0.22252442911441100        0.0000000000000000     
   8.0941083403347616E-002  0.23086652798170454        0.0000000000000000     
   7.0841455228552161E-002  0.19771307006991548        0.0000000000000000     
   7.1590082578631017E-002  0.20585156912384478        0.0000000000000000     
   7.2265004850209119E-002  0.21406632170476120        0.0000000000000000     
   7.2866222043286438E-002  0.22235732781266451        0.0000000000000000     
   7.3393734157863003E-002  0.23072458744755495        0.0000000000000000     
   6.3818118917929420E-002  0.19750635828274157        0.0000000000000000     
   6.4480005051263750E-002  0.20566553644612623        0.0000000000000000     
   6.5070160307649644E-002  0.21390070418134371        0.0000000000000000     
   6.5588584687087115E-002  0.22221186148839403        0.0000000000000000     
   6.6035278189576135E-002  0.23059900836727718        0.0000000000000000     
   5.6950792604795311E-002  0.19732931901138964        0.0000000000000000     
   5.7530538080307912E-002  0.20550779427685861        0.0000000000000000     
   5.8042940387760741E-002  0.21376069798692854        0.0000000000000000     
   5.8487999527153764E-002  0.22208803014159939        0.0000000000000000     
   5.8865715498487015E-002  0.23048979074087114        0.0000000000000000     
   5.0239476289149793E-002  0.19718195225585969        0.0000000000000000     
   5.0741681665763518E-002  0.20537834261604201        0.0000000000000000     
   5.1183345090542391E-002  0.21364630312151567        0.0000000000000000     
   5.1564466563486420E-002  0.22198583377228071        0.0000000000000000     
   5.1885046084595619E-002  0.23039693456833701        0.0000000000000000     
   8.0941083403347616E-002  0.23086652798170454        0.0000000000000000     
   8.1477405294162544E-002  0.23930451890547513        0.0000000000000000     
   8.1919293124132431E-002  0.24785907363213627        0.0000000000000000     
   8.2266746893257289E-002  0.25653019216168804        0.0000000000000000     
   8.2519766601537092E-002  0.26531787449413025        0.0000000000000000     
   7.3393734157863003E-002  0.23072458744755495        0.0000000000000000     
   7.3844295409849423E-002  0.23918190106797799        0.0000000000000000     
   7.4214660015156322E-002  0.24774306913247940        0.0000000000000000     
   7.4504827973783702E-002  0.25640809164105904        0.0000000000000000     
   7.4714799285731562E-002  0.26517696859371709        0.0000000000000000     
   6.6035278189576135E-002  0.23059900836727718        0.0000000000000000     
   6.6412547163650221E-002  0.23906882313423428        0.0000000000000000     
   6.6722697957842858E-002  0.24762798410550654        0.0000000000000000     
   6.6965730572154047E-002  0.25627649128109403        0.0000000000000000     
   6.7141645006583789E-002  0.26501434466099666        0.0000000000000000     
   5.8865715498487015E-002  0.23048979074087114        0.0000000000000000     
   5.9182160555564932E-002  0.23896528510424395        0.0000000000000000     
   5.9443406952192045E-002  0.24751381855121787        0.0000000000000000     
   5.9649454688368332E-002  0.25613539108179284        0.0000000000000000     
   5.9800303764093794E-002  0.26483000269596890        0.0000000000000000     
   5.1885046084595619E-002  0.23039693456833701        0.0000000000000000     
   5.2153135585593563E-002  0.23887128697800705        0.0000000000000000     
   5.2376786998203875E-002  0.24740057246961322        0.0000000000000000     
   5.2556000322426542E-002  0.25598479104315552        0.0000000000000000     
   5.2690775558261564E-002  0.26462394269863393        0.0000000000000000     
   8.2519766601537092E-002  0.26531787449413025        0.0000000000000000     
   8.2717308959332825E-002  0.27424849197447632        0.0000000000000000     
   8.2898330677005402E-002  0.28334841594773946        0.0000000000000000     
   8.3062831754554839E-002  0.29261764641391946        0.0000000000000000     
   8.3210812191981121E-002  0.30205618337301660        0.0000000000000000     
   7.4714799285731562E-002  0.26517696859371709        0.0000000000000000     
   7.4885498119460991E-002  0.27404330684882289        0.0000000000000000     
   7.5057848643433123E-002  0.28300071326474591        0.0000000000000000     
   7.5231850857647928E-002  0.29204918784148620        0.0000000000000000     
   7.5407504762105421E-002  0.30118873057904383        0.0000000000000000     
   6.7141645006583789E-002  0.26501434466099666        0.0000000000000000     
   6.7290668798017012E-002  0.27381162677172588        0.0000000000000000     
   6.7453029483338617E-002  0.28263842013979318        0.0000000000000000     
   6.7628727062548633E-002  0.29149472476519861        0.0000000000000000     
   6.7817761535647045E-002  0.30038054064794206        0.0000000000000000     
   5.9800303764093794E-002  0.26483000269596890        0.0000000000000000     
   5.9932820995000829E-002  0.27355345174318518        0.0000000000000000     
   6.0083873196721885E-002  0.28226153657288117        0.0000000000000000     
   6.0253460369256918E-002  0.29095425718505646        0.0000000000000000     
   6.0441582512605958E-002  0.29963161357971130        0.0000000000000000     
   5.2690775558261564E-002  0.26462394269863393        0.0000000000000000     
   5.2811954710412501E-002  0.27326878176320113        0.0000000000000000     
   5.2950379783582920E-002  0.28187006256400976        0.0000000000000000     
   5.3106050777772813E-002  0.29042778510105993        0.0000000000000000     
   5.3278967692982182E-002  0.29894194937435153        0.0000000000000000     
   2.8967851702383064E-002   5.7182483510249286E-002   0.0000000000000000     
   3.0548501883825394E-002   6.2737187274643044E-002   0.0000000000000000     
   3.2061683476102394E-002   6.8475925501977411E-002   0.0000000000000000     
   3.3507396479214073E-002   7.4398698192252394E-002   0.0000000000000000     
   3.4885640893160430E-002   8.0505505345467979E-002   0.0000000000000000     
   2.5001330073553513E-002   5.6661791912817325E-002   0.0000000000000000     
   2.6401051213520422E-002   6.2251577165480299E-002   0.0000000000000000     
   2.7739896952503278E-002   6.8020970250385920E-002   0.0000000000000000     
   2.9017867290502080E-002   7.3969971167534163E-002   0.0000000000000000     
   3.0234962227516829E-002   8.0098579916925094E-002   0.0000000000000000     
   2.1179572849077850E-002   5.6252886630833318E-002   0.0000000000000000     
   2.2386578439494688E-002   6.1857364315370957E-002   0.0000000000000000     
   2.3541187554640547E-002   6.7641943162984233E-002   0.0000000000000000     
   2.4643400194515438E-002   7.3606623173673169E-002   0.0000000000000000     
   2.5693216359119357E-002   7.9751404347437729E-002   0.0000000000000000     
   1.7502580028956091E-002   5.5955767664297273E-002   0.0000000000000000     
   1.8505083561748192E-002   6.1554548724315011E-002   0.0000000000000000     
   1.9465555282514212E-002   6.7338844239772377E-002   0.0000000000000000     
   2.0383995191254157E-002   7.3308654210669358E-002   0.0000000000000000     
   2.1260403287968011E-002   7.9463978637005925E-002   0.0000000000000000     
   1.3970351613188225E-002   5.5770435013209177E-002   0.0000000000000000     
   1.4756566580280940E-002   6.1343130392312484E-002   0.0000000000000000     
   1.5513000136124274E-002   6.7111673480750339E-002   0.0000000000000000     
   1.6239652280718223E-002   7.3076064278522715E-002   0.0000000000000000     
   1.6936523014062798E-002   7.9236302785629653E-002   0.0000000000000000     
   3.4885640893160430E-002   8.0505505345467979E-002   0.0000000000000000     
   3.6209692258832998E-002   8.6781970353579818E-002   0.0000000000000000     
   3.7492826117123339E-002   9.3213716608543537E-002   0.0000000000000000     
   3.8735042468031430E-002   9.9800744110359135E-002   0.0000000000000000     
   3.9936341311557294E-002  0.10654305285902664        0.0000000000000000     
   3.0234962227516829E-002   8.0098579916925094E-002   0.0000000000000000     
   3.1402829965991655E-002   8.6394209082323356E-002   0.0000000000000000     
   3.2533118708370660E-002   9.2844271247493684E-002   0.0000000000000000     
   3.3625828454653853E-002   9.9448766412436065E-002   0.0000000000000000     
   3.4680959204841239E-002  0.10620769457715049        0.0000000000000000     
   2.5693216359119357E-002   7.9751404347437729E-002   0.0000000000000000     
   2.6700154374117661E-002   8.6063089661320896E-002   0.0000000000000000     
   2.7673732565175690E-002   9.2528482092365583E-002   0.0000000000000000     
   2.8613950932293467E-002   9.9147581640571775E-002   0.0000000000000000     
   2.9520809475470977E-002  0.10592038830593950        0.0000000000000000     
   2.1260403287968011E-002   7.9463978637005925E-002   0.0000000000000000     
   2.2101665483211033E-002   8.5788612090572439E-002   0.0000000000000000     
   2.2914667687538453E-002   9.2266349143159246E-002   0.0000000000000000     
   2.3699409900950277E-002   9.8897189794766319E-002   0.0000000000000000     
   2.4455892123446496E-002  0.10568113404539368        0.0000000000000000     
   1.6936523014062798E-002   7.9236302785629653E-002   0.0000000000000000     
   1.7607363293271772E-002   8.5570776370078011E-002   0.0000000000000000     
   1.8255924075458934E-002   9.2057872399874688E-002   0.0000000000000000     
   1.8882205360624287E-002   9.8697590875019670E-002   0.0000000000000000     
   1.9486207148767819E-002  0.10548993179551300        0.0000000000000000     
   3.9936341311557294E-002  0.10654305285902664        0.0000000000000000     
   4.1089906738349904E-002  0.11343111287741492        0.0000000000000000     
   4.2188922839058278E-002  0.12045539418839293        0.0000000000000000     
   4.3233389613682401E-002  0.12761589679196064        0.0000000000000000     
   4.4223307062222286E-002  0.13491262068811813        0.0000000000000000     
   3.4680959204841239E-002  0.10620769457715049        0.0000000000000000     
   3.5692841146988216E-002  0.11311201389024177        0.0000000000000000     
   3.6655804469150212E-002  0.12015268250031463        0.0000000000000000     
   3.7569849171327191E-002  0.12732970040736905        0.0000000000000000     
   3.8434975253519188E-002  0.13464306761140504        0.0000000000000000     
   2.9520809475470977E-002  0.10592038830593950        0.0000000000000000     
   3.0389605679683098E-002  0.11283837777864461        0.0000000000000000     
   3.1215637029904722E-002  0.11989302574886282        0.0000000000000000     
   3.1998903526135845E-002  0.12708433221659421        0.0000000000000000     
   3.2739405168376472E-002  0.13441229718183872        0.0000000000000000     
   2.4455892123446496E-002  0.10568113404539368        0.0000000000000000     
   2.5180200336434543E-002  0.11261020454262340        0.0000000000000000     
   2.5868420521321836E-002  0.11967642393403755        0.0000000000000000     
   2.6520552678108360E-002  0.12687979221963611        0.0000000000000000     
   2.7136596806794130E-002  0.13422030939941915        0.0000000000000000     
   1.9486207148767819E-002  0.10548993179551300        0.0000000000000000     
   2.0064625117242562E-002  0.11242749418217819        0.0000000000000000     
   2.0614154943401540E-002  0.11950287705583880        0.0000000000000000     
   2.1134796627244743E-002  0.12671608041649482        0.0000000000000000     
   2.1626550168772171E-002  0.13406710426414625        0.0000000000000000     
   4.4223307062222286E-002  0.13491262068811813        0.0000000000000000     
   4.5160179841747507E-002  0.14233242753488148        0.0000000000000000     
   4.6045512609327648E-002  0.14986217899026702        0.0000000000000000     
   4.6879305364962688E-002  0.15750187505427471        0.0000000000000000     
   4.7661558108652663E-002  0.16525151572690452        0.0000000000000000     
   3.8434975253519188E-002  0.13464306761140504        0.0000000000000000     
   3.9252817112734907E-002  0.14207991084363655        0.0000000000000000     
   4.0025009145983059E-002  0.14962735683527750        0.0000000000000000     
   4.0751551353263651E-002  0.15728540558632781        0.0000000000000000     
   4.1432443734576684E-002  0.16505405709678753        0.0000000000000000     
   3.2739405168376472E-002  0.13441229718183872        0.0000000000000000     
   3.3438720348906090E-002  0.14186410811866196        0.0000000000000000     
   3.4098427460004195E-002  0.14942695250112936        0.0000000000000000     
   3.4718526501670795E-002  0.15710083032924099        0.0000000000000000     
   3.5299017473905889E-002  0.16488574160299679        0.0000000000000000     
   2.7136596806794130E-002  0.13422030939941915        0.0000000000000000     
   2.7717889550261058E-002  0.14168501935995764        0.0000000000000000     
   2.8265767551391058E-002  0.14926096598782268        0.0000000000000000     
   2.8780230810184129E-002  0.15694814928301423        0.0000000000000000     
   2.9261279326640275E-002  0.16474656924553238        0.0000000000000000     
   2.1626550168772171E-002  0.13406710426414625        0.0000000000000000     
   2.2090324716799812E-002  0.14154264456752363        0.0000000000000000     
   2.2527029420143639E-002  0.14912939729535740        0.0000000000000000     
   2.2936664278803646E-002  0.15682736244764761        0.0000000000000000     
   2.3319229292779839E-002  0.16463654002439421        0.0000000000000000     
   4.7661558108652663E-002  0.16525151572690452        0.0000000000000000     
   4.8390040048221797E-002  0.17310062774266990        0.0000000000000000     
   4.9062520391494363E-002  0.18103873783608421        0.0000000000000000     
   4.9678999138470362E-002  0.18906584600714746        0.0000000000000000     
   5.0239476289149793E-002  0.19718195225585969        0.0000000000000000     
   4.1432443734576684E-002  0.16505405709678753        0.0000000000000000     
   4.2065149474509005E-002  0.17292230201126996        0.0000000000000000     
   4.2647131757647470E-002  0.18087913097438837        0.0000000000000000     
   4.3178390583992067E-002  0.18892454398614275        0.0000000000000000     
   4.3658925953542815E-002  0.19705854104653317        0.0000000000000000     
   3.5299017473905889E-002  0.16488574160299679        0.0000000000000000     
   3.5837337683709052E-002  0.17277028927610491        0.0000000000000000     
   3.6330924438079830E-002  0.18074307630227343        0.0000000000000000     
   3.6779777737018265E-002  0.18880410268150230        0.0000000000000000     
   3.7183897580524324E-002  0.19695336841379155        0.0000000000000000     
   2.9261279326640275E-002  0.16474656924553238        0.0000000000000000     
   2.9706604675821917E-002  0.17264458953717482        0.0000000000000000     
   3.0113898432791469E-002  0.18063057381973935        0.0000000000000000     
   3.0483160597548929E-002  0.18870452209322602        0.0000000000000000     
   3.0814391170094310E-002  0.19686643435763485        0.0000000000000000     
   2.3319229292779839E-002  0.16463654002439421        0.0000000000000000     
   2.3672950450847611E-002  0.17254520279447963        0.0000000000000000     
   2.3996053741782358E-002  0.18054162352678624        0.0000000000000000     
   2.4288539165584083E-002  0.18862580222131400        0.0000000000000000     
   2.4550406722252782E-002  0.19679773887806296        0.0000000000000000     
   5.0239476289149793E-002  0.19718195225585969        0.0000000000000000     
   5.0741681665763518E-002  0.20537834261604201        0.0000000000000000     
   5.1183345090542391E-002  0.21364630312151567        0.0000000000000000     
   5.1564466563486420E-002  0.22198583377228071        0.0000000000000000     
   5.1885046084595619E-002  0.23039693456833701        0.0000000000000000     
   4.3658925953542815E-002  0.19705854104653317        0.0000000000000000     
   4.4087812756031575E-002  0.20527085951859911        0.0000000000000000     
   4.4464125881190225E-002  0.21355123676538001        0.0000000000000000     
   4.4787865329018760E-002  0.22189967278687595        0.0000000000000000     
   4.5059031099517186E-002  0.23031616758308690        0.0000000000000000     
   3.7183897580524324E-002  0.19695336841379155        0.0000000000000000     
   3.7543308299513141E-002  0.20517902303945246        0.0000000000000000     
   3.7858034224899854E-002  0.21346921609879640        0.0000000000000000     
   3.8128075356684457E-002  0.22182394759182325        0.0000000000000000     
   3.8353431694866942E-002  0.23024321751853305        0.0000000000000000     
   3.0814391170094310E-002  0.19686643435763485        0.0000000000000000     
   3.1108168296208223E-002  0.20510283317860226        0.0000000000000000     
   3.1365070121671286E-002  0.21340024112176484        0.0000000000000000     
   3.1585096646483506E-002  0.22175865818712259        0.0000000000000000     
   3.1768247870644875E-002  0.23017808437467549        0.0000000000000000     
   2.4550406722252782E-002  0.19679773887806296        0.0000000000000000     
   2.4782392746116808E-002  0.20504228993604834        0.0000000000000000     
   2.4985233571504516E-002  0.21334431183428532        0.0000000000000000     
   2.5158929198415909E-002  0.22170380457277397        0.0000000000000000     
   2.5303479626850981E-002  0.23012076815151419        0.0000000000000000     
   5.1885046084595619E-002  0.23039693456833701        0.0000000000000000     
   5.2153135585593563E-002  0.23887128697800705        0.0000000000000000     
   5.2376786998203875E-002  0.24740057246961322        0.0000000000000000     
   5.2556000322426542E-002  0.25598479104315552        0.0000000000000000     
   5.2690775558261564E-002  0.26462394269863393        0.0000000000000000     
   4.5059031099517186E-002  0.23031616758308690        0.0000000000000000     
   4.5286379229172377E-002  0.23878539039764637        0.0000000000000000     
   4.5478665754471202E-002  0.24729201047418795        0.0000000000000000     
   4.5635890675413661E-002  0.25583602781271159        0.0000000000000000     
   4.5758053991999753E-002  0.26441744241321735        0.0000000000000000     
   3.8353431694866942E-002  0.23024321751853305        0.0000000000000000     
   3.8542798461737644E-002  0.23870615700528475        0.0000000000000000     
   3.8704870879586885E-002  0.24719189717843729        0.0000000000000000     
   3.8839648948414685E-002  0.25570043803799064        0.0000000000000000     
   3.8947132668221016E-002  0.26423177958394484        0.0000000000000000     
   3.1768247870644875E-002  0.23017808437467549        0.0000000000000000     
   3.1922393283289358E-002  0.23863358680092214        0.0000000000000000     
   3.2055402373550937E-002  0.24710023258236119        0.0000000000000000     
   3.2167275141429599E-002  0.25557802171899263        0.0000000000000000     
   3.2258011586925352E-002  0.26406695421081638        0.0000000000000000     
   2.5303479626850981E-002  0.23012076815151419        0.0000000000000000     
   2.5425163693827527E-002  0.23856767978455862        0.0000000000000000     
   2.5530260236363341E-002  0.24701701668595971        0.0000000000000000     
   2.5618769254458423E-002  0.25546877885571756        0.0000000000000000     
   2.5690690748112765E-002  0.26392296629383205        0.0000000000000000     
   5.2690775558261564E-002  0.26462394269863393        0.0000000000000000     
   5.2811954710412501E-002  0.27326878176320113        0.0000000000000000     
   5.2950379783582920E-002  0.28187006256400976        0.0000000000000000     
   5.3106050777772813E-002  0.29042778510105993        0.0000000000000000     
   5.3278967692982182E-002  0.29894194937435153        0.0000000000000000     
   4.5758053991999753E-002  0.26441744241321735        0.0000000000000000     
   4.5869314844588963E-002  0.27298632273846263        0.0000000000000000     
   4.5993832373540766E-002  0.28149273725120494        0.0000000000000000     
   4.6131606578855178E-002  0.28993668595144428        0.0000000000000000     
   4.6282637460532190E-002  0.29831816883918066        0.0000000000000000     
   3.8947132668221016E-002  0.26423177958394484        0.0000000000000000     
   3.9046146297867186E-002  0.27273478057565903        0.0000000000000000     
   3.9155514096214490E-002  0.28115829977249240        0.0000000000000000     
   3.9275236063262921E-002  0.28950233717444490        0.0000000000000000     
   3.9405312199012478E-002  0.29776689278151658        0.0000000000000000     
   3.2258011586925352E-002  0.26406695421081638        0.0000000000000000     
   3.2342449070247185E-002  0.27251415527479028        0.0000000000000000     
   3.2435424951604071E-002  0.28086675012787210        0.0000000000000000     
   3.2536939230996029E-002  0.28912473877006173        0.0000000000000000     
   3.2646991908423038E-002  0.29728812120135939        0.0000000000000000     
   2.5690690748112765E-002  0.26392296629383205        0.0000000000000000     
   2.5758223161728943E-002  0.27232444683585649        0.0000000000000000     
   2.5833564939709522E-002  0.28061808831734414        0.0000000000000000     
   2.5916716082054501E-002  0.28880389073829499        0.0000000000000000     
   2.6007676588763878E-002  0.29688185409870893        0.0000000000000000     
   1.3970351613188225E-002   5.5770435013209177E-002   0.0000000000000000     
   1.4756566580280940E-002   6.1343130392312484E-002   0.0000000000000000     
   1.5513000136124274E-002   6.7111673480750339E-002   0.0000000000000000     
   1.6239652280718223E-002   7.3076064278522715E-002   0.0000000000000000     
   1.6936523014062798E-002   7.9236302785629653E-002   0.0000000000000000     
   1.0504858920131173E-002   5.5648143597162247E-002   0.0000000000000000     
   1.1074883679433087E-002   6.1193849378290130E-002   0.0000000000000000     
   1.1626916662460518E-002   6.6945062816685150E-002   0.0000000000000000     
   1.2160957869213462E-002   7.2901783912347293E-002   0.0000000000000000     
   1.2677007299691921E-002   7.9064012665276587E-002   0.0000000000000000     
   7.0280732681418535E-003   5.5540148335749717E-002   0.0000000000000000     
   7.3938910435448011E-003   6.1077445741174727E-002   0.0000000000000000     
   7.7506994085127434E-003   6.6823644178343827E-002   0.0000000000000000     
   8.0984983630456742E-003   7.2778743647257033E-002   0.0000000000000000     
   8.4372879071435997E-003   7.8942744147914370E-002   0.0000000000000000     
   3.5399946572202642E-003   5.5446449228971587E-002   0.0000000000000000     
   3.7135886726160799E-003   6.0993919480966260E-002   0.0000000000000000     
   3.8843483742809462E-003   6.6747417565726372E-002   0.0000000000000000     
   4.0522737622148627E-003   7.2706943483251976E-002   0.0000000000000000     
   4.2173648364178303E-003   7.8872497233543032E-002   0.0000000000000000     
   4.0623087366407559E-005   5.5367046276827842E-002   0.0000000000000000     
   3.3976566646923625E-005   6.0943270597664745E-002   0.0000000000000000     
   2.7863559765130557E-005   6.6716382978832811E-002   0.0000000000000000     
   2.2284066721027078E-005   7.2686383420332096E-002   0.0000000000000000     
   1.7238087514615062E-005   7.8853271922162543E-002   0.0000000000000000     
   1.6936523014062798E-002   7.9236302785629653E-002   0.0000000000000000     
   1.7607363293271772E-002   8.5570776370078011E-002   0.0000000000000000     
   1.8255924075458934E-002   9.2057872399874688E-002   0.0000000000000000     
   1.8882205360624287E-002   9.8697590875019670E-002   0.0000000000000000     
   1.9486207148767819E-002  0.10548993179551300        0.0000000000000000     
   1.2677007299691921E-002   7.9064012665276587E-002   0.0000000000000000     
   1.3176053484837611E-002   8.5405215105978483E-002   0.0000000000000000     
   1.3659084955592250E-002   9.1898857264958500E-002   0.0000000000000000     
   1.4126101711955831E-002   9.8544939142216625E-002   0.0000000000000000     
   1.4577103753928362E-002  0.10534346073775289        0.0000000000000000     
   8.4372879071435997E-003   7.8942744147914370E-002   0.0000000000000000     
   8.7665417384462895E-003   8.5287560904414819E-002   0.0000000000000000     
   9.0857335545935121E-003   9.1785109140857329E-002   0.0000000000000000     
   9.3948633555852746E-003   9.8435388857241971E-002   0.0000000000000000     
   9.6939311414215700E-003  0.10523840005356873        0.0000000000000000     
   4.2173648364178303E-003   7.8872497233543032E-002   0.0000000000000000     
   4.3788280540978004E-003   8.5217813765386952E-002   0.0000000000000000     
   4.5358698724627267E-003   9.1716628027571190E-002   0.0000000000000000     
   4.6884902915126075E-003   9.8368940020095733E-002   0.0000000000000000     
   4.8366893112474453E-003  0.10517474974296057        0.0000000000000000     
   1.7238087514615062E-005   7.8853271922162543E-002   0.0000000000000000     
   1.2912431792149901E-005   8.5195973688894963E-002   0.0000000000000000     
   9.4939091998892710E-006   9.1693413925100067E-002   0.0000000000000000     
   6.9825197378330886E-006   9.8345592630777870E-002   0.0000000000000000     
   5.3782634059809480E-006  0.10515250980592836        0.0000000000000000     
   1.9486207148767819E-002  0.10548993179551300        0.0000000000000000     
   2.0064625117242562E-002  0.11242749418217819        0.0000000000000000     
   2.0614154943401540E-002  0.11950287705583880        0.0000000000000000     
   2.1134796627244743E-002  0.12671608041649482        0.0000000000000000     
   2.1626550168772171E-002  0.13406710426414625        0.0000000000000000     
   1.4577103753928362E-002  0.10534346073775289        0.0000000000000000     
   1.5009364196731795E-002  0.11228742774226666        0.0000000000000000     
   1.5420156155588083E-002  0.11936984584645741        0.0000000000000000     
   1.5809479630497232E-002  0.12659071505032513        0.0000000000000000     
   1.6177334621459236E-002  0.13395003535386987        0.0000000000000000     
   9.6939311414215700E-003  0.10523840005356873        0.0000000000000000     
   9.9809017495268940E-003  0.11218718626784652        0.0000000000000000     
   1.0253740017325734E-002  0.11927479103808422        0.0000000000000000     
   1.0512445944818087E-002  0.12650121436428197        0.0000000000000000     
   1.0757019532003958E-002  0.13386645624643961        0.0000000000000000     
   4.8366893112474453E-003  0.10517474974296057        0.0000000000000000     
   4.9792377756278615E-003  0.11212676975891772        0.0000000000000000     
   5.1149065286144827E-003  0.11921771263071929        0.0000000000000000     
   5.2436955702073107E-003  0.12644757835836523        0.0000000000000000     
   5.3656049004063445E-003  0.13381636694185556        0.0000000000000000     
   5.3782634059809480E-006  0.10515250980592836        0.0000000000000000     
   4.3722750346952052E-006  0.11210617821548033        0.0000000000000000     
   3.6556894543340965E-006  0.11919861062436252        0.0000000000000000     
   3.2285066648996279E-006  0.12642980703257498        0.0000000000000000     
   3.0907266663909860E-006  0.13379976744011768        0.0000000000000000     
   2.1626550168772171E-002  0.13406710426414625        0.0000000000000000     
   2.2090324716799812E-002  0.14154264456752363        0.0000000000000000     
   2.2527029420143639E-002  0.14912939729535740        0.0000000000000000     
   2.2936664278803646E-002  0.15682736244764761        0.0000000000000000     
   2.3319229292779839E-002  0.16463654002439421        0.0000000000000000     
   1.6177334621459236E-002  0.13395003535386987        0.0000000000000000     
   1.6524169573465228E-002  0.14143412966293803        0.0000000000000000     
   1.6850432931506343E-002  0.14902932088337606        0.0000000000000000     
   1.7156124695582576E-002  0.15673560901518402        0.0000000000000000     
   1.7441244865693928E-002  0.16455299405836185        0.0000000000000000     
   1.0757019532003958E-002  0.13386645624643961        0.0000000000000000     
   1.0987567845200177E-002  0.14135662056777884        0.0000000000000000     
   1.1204197950723570E-002  0.14895781121152107        0.0000000000000000     
   1.1406909848574145E-002  0.15667002817766640        0.0000000000000000     
   1.1595703538751896E-002  0.16449327146621481        0.0000000000000000     
   5.3656049004063445E-003  0.13381636694185556        0.0000000000000000     
   5.4805195320046570E-003  0.14131011728204604        0.0000000000000000     
   5.5883244777953280E-003  0.14891486827979245        0.0000000000000000     
   5.6890197377783541E-003  0.15663061993509481        0.0000000000000000     
   5.7826053119537368E-003  0.16445737224795307        0.0000000000000000     
   3.0907266663909860E-006  0.13379976744011768        0.0000000000000000     
   3.0246338786742849E-006  0.14129461980573971        0.0000000000000000     
   2.8125127216118437E-006  0.14890049208819020        0.0000000000000000     
   2.4543631952052075E-006  0.15661738428746919        0.0000000000000000     
   1.9501852994547285E-006  0.16444529640357664        0.0000000000000000     
   2.3319229292779839E-002  0.16463654002439421        0.0000000000000000     
   2.3672950450847611E-002  0.17254520279447963        0.0000000000000000     
   2.3996053741782358E-002  0.18054162352678624        0.0000000000000000     
   2.4288539165584083E-002  0.18862580222131400        0.0000000000000000     
   2.4550406722252782E-002  0.19679773887806296        0.0000000000000000     
   1.7441244865693928E-002  0.16455299405836185        0.0000000000000000     
   1.7704646773966735E-002  0.17246973209174560        0.0000000000000000     
   1.7945183752527325E-002  0.18047407919417108        0.0000000000000000     
   1.8162855801375700E-002  0.18856603536563846        0.0000000000000000     
   1.8357662920511855E-002  0.19674560060614760        0.0000000000000000     
   1.1595703538751896E-002  0.16449327146621481        0.0000000000000000     
   1.1769965410359885E-002  0.17241578047269890        0.0000000000000000     
   1.1929081852501175E-002  0.18042579459265115        0.0000000000000000     
   1.2073052865175769E-002  0.18852331382607160        0.0000000000000000     
   1.2201878448383659E-002  0.19670833817296030        0.0000000000000000     
   5.7826053119537368E-003  0.16445737224795307        0.0000000000000000     
   5.8689063600270612E-003  0.17238334793733953        0.0000000000000000     
   5.9477480417039113E-003  0.18039676972222632        0.0000000000000000     
   6.0191303569842904E-003  0.18849763760261354        0.0000000000000000     
   6.0830533058681942E-003  0.19668595157850111        0.0000000000000000     
   1.9501852994547285E-006  0.16444529640357664        0.0000000000000000     
   1.4696229682622988E-006  0.17237243448566747        0.0000000000000000     
   1.1823201355327375E-006  0.18038700458289664        0.0000000000000000     
   1.0882768012631988E-006  0.18848900669526414        0.0000000000000000     
   1.1874929654572333E-006  0.19667844082276997        0.0000000000000000     
   2.4550406722252782E-002  0.19679773887806296        0.0000000000000000     
   2.4782392746116808E-002  0.20504228993604834        0.0000000000000000     
   2.4985233571504516E-002  0.21334431183428532        0.0000000000000000     
   2.5158929198415909E-002  0.22170380457277397        0.0000000000000000     
   2.5303479626850981E-002  0.23012076815151419        0.0000000000000000     
   1.8357662920511855E-002  0.19674560060614760        0.0000000000000000     
   1.8530257587350510E-002  0.20499615536798985        0.0000000000000000     
   1.8681292279306375E-002  0.21330108010345655        0.0000000000000000     
   1.8810766996379444E-002  0.22166037481254761        0.0000000000000000     
   1.8918681738569719E-002  0.23007403949526306        0.0000000000000000     
   1.2201878448383659E-002  0.19670833817296030        0.0000000000000000     
   1.2316038758020936E-002  0.20496319153062592        0.0000000000000000     
   1.2416013949983673E-002  0.21327019779637707        0.0000000000000000     
   1.2501804024271873E-002  0.22162935697021380        0.0000000000000000     
   1.2573408980885537E-002  0.23004066905213610        0.0000000000000000     
   6.0830533058681942E-003  0.19668595157850111        0.0000000000000000     
   6.1397362581280864E-003  0.20494339842395648        0.0000000000000000     
   6.1893985835364219E-003  0.21325166491304692        0.0000000000000000     
   6.2320402820932042E-003  0.22161075104577255        0.0000000000000000     
   6.2676613537984314E-003  0.23002065682213321        0.0000000000000000     
   1.1874929654572333E-006  0.19667844082276997        0.0000000000000000     
   1.3500876719588911E-006  0.20493677604798152        0.0000000000000000     
   1.4461799646187275E-006  0.21324548145346614        0.0000000000000000     
   1.4757698434335982E-006  0.22160455703922374        0.0000000000000000     
   1.4388573084059969E-006  0.23001400280525447        0.0000000000000000     
   2.5303479626850981E-002  0.23012076815151419        0.0000000000000000     
   2.5425163693827527E-002  0.23856767978455862        0.0000000000000000     
   2.5530260236363341E-002  0.24701701668595971        0.0000000000000000     
   2.5618769254458423E-002  0.25546877885571756        0.0000000000000000     
   2.5690690748112765E-002  0.26392296629383205        0.0000000000000000     
   1.8918681738569719E-002  0.23007403949526306        0.0000000000000000     
   1.9009445870535106E-002  0.23851293029372353        0.0000000000000000     
   1.9087468756933505E-002  0.24694790335004949        0.0000000000000000     
   1.9152750397764914E-002  0.25537895866424093        0.0000000000000000     
   1.9205290793029337E-002  0.26380609623629786        0.0000000000000000     
   1.2573408980885537E-002  0.23004066905213610        0.0000000000000000     
   1.2633575990595058E-002  0.23847383266594646        0.0000000000000000     
   1.2685052224170837E-002  0.24689854643544717        0.0000000000000000     
   1.2727837681612871E-002  0.25531481036063841        0.0000000000000000     
   1.2761932362921162E-002  0.26372262444152000        0.0000000000000000     
   6.2676613537984314E-003  0.23002065682213321        0.0000000000000000     
   6.2975540540073840E-003  0.23845038690122727        0.0000000000000000     
   6.3230106380753343E-003  0.24686894594215281        0.0000000000000000     
   6.3440311060022868E-003  0.25527633394490984        0.0000000000000000     
   6.3606154577882396E-003  0.26367255090949837        0.0000000000000000     
   1.4388573084059969E-006  0.23001400280525447        0.0000000000000000     
   1.3800607720792536E-006  0.23844259299956605        0.0000000000000000     
   1.3439986469960478E-006  0.24685910187016635        0.0000000000000000     
   1.3306709331596862E-006  0.25526352941705538        0.0000000000000000     
   1.3400776305671873E-006  0.26365587564023313        0.0000000000000000     
   2.5690690748112765E-002  0.26392296629383205        0.0000000000000000     
   2.5758223161728943E-002  0.27232444683585649        0.0000000000000000     
   2.5833564939709522E-002  0.28061808831734414        0.0000000000000000     
   2.5916716082054501E-002  0.28880389073829499        0.0000000000000000     
   2.6007676588763878E-002  0.29688185409870893        0.0000000000000000     
   1.9205290793029337E-002  0.26380609623629786        0.0000000000000000     
   1.9255051197862725E-002  0.27217198039746093        0.0000000000000000     
   1.9311992867401043E-002  0.28041927547897072        0.0000000000000000     
   1.9376115801644285E-002  0.28854798148082716        0.0000000000000000     
   1.9447420000592450E-002  0.29655809840303038        0.0000000000000000     
   1.2761932362921162E-002  0.26372262444152000        0.0000000000000000     
   1.2794515804198790E-002  0.27206308109820687        0.0000000000000000     
   1.2832767541548842E-002  0.28027727275081399        0.0000000000000000     
   1.2876687574971317E-002  0.28836519939934130        0.0000000000000000     
   1.2926275904466209E-002  0.29632686104378880        0.0000000000000000     
   6.3606154577882396E-003  0.26367255090949837        0.0000000000000000     
   6.3766169807371363E-003  0.27199774893809453        0.0000000000000000     
   6.3958889621529231E-003  0.28019208013287411        0.0000000000000000     
   6.4184314020355989E-003  0.28825554449383728        0.0000000000000000     
   6.4442443003851612E-003  0.29618814202098409        0.0000000000000000     
   1.3400776305671873E-006  0.26365587564023313        0.0000000000000000     
   1.3547274777612594E-006  0.27197598391712363        0.0000000000000000     
   1.3571292132826592E-006  0.28016369762515098        0.0000000000000000     
   1.3472828371306820E-006  0.28821901676431527        0.0000000000000000     
   1.3251883493048400E-006  0.29614194133461635        0.0000000000000000     
   4.0623087366407559E-005   5.5367046276827842E-002   0.0000000000000000     
   3.3976566646923625E-005   6.0943270597664745E-002   0.0000000000000000     
   2.7863559765130557E-005   6.6716382978832811E-002   0.0000000000000000     
   2.2284066721027078E-005   7.2686383420332096E-002   0.0000000000000000     
   1.7238087514615062E-005   7.8853271922162543E-002   0.0000000000000000     
  -3.4669626179289039E-003   5.5338432796270903E-002   0.0000000000000000     
  -3.6526946253087446E-003   6.0943963577293356E-002   0.0000000000000000     
  -3.8345607178620449E-003   6.6736652182502063E-002   0.0000000000000000     
  -4.0125608955887994E-003   7.2716498611897010E-002   0.0000000000000000     
  -4.1866951584890117E-003   7.8883502865478225E-002   0.0000000000000000     
  -6.9796836351748558E-003   5.5397102104253158E-002   0.0000000000000000     
  -7.3541742541970061E-003   6.1014462905875304E-002   0.0000000000000000     
  -7.7187301414279163E-003   6.6814336941573044E-002   0.0000000000000000     
  -8.0733512968675838E-003   7.2796724211346364E-002   0.0000000000000000     
  -8.4180377205160094E-003   7.8961624715195342E-002   0.0000000000000000     
  -1.0497539964371449E-002   5.5543054200774614E-002   0.0000000000000000     
  -1.1070462320017856E-002   6.1154768583410561E-002   0.0000000000000000     
  -1.1624644710932483E-002   6.6949437256045755E-002   0.0000000000000000     
  -1.2160087137115326E-002   7.2927060218680187E-002   0.0000000000000000     
  -1.2676789598566386E-002   7.9087637471313865E-002   0.0000000000000000     
  -1.4020531605518683E-002   5.5776289085835276E-002   0.0000000000000000     
  -1.4801558822771300E-002   6.1364880609899142E-002   0.0000000000000000     
  -1.5552304426375747E-002   6.7141953125920209E-002   0.0000000000000000     
  -1.6272768416332028E-002   7.3107506633898436E-002   0.0000000000000000     
  -1.6962950792640132E-002   7.9261541133833838E-002   0.0000000000000000     
   1.7238087514615062E-005   7.8853271922162543E-002   0.0000000000000000     
   1.2912431792149901E-005   8.5195973688894963E-002   0.0000000000000000     
   9.4939091998892710E-006   9.1693413925100067E-002   0.0000000000000000     
   6.9825197378330886E-006   9.8345592630777870E-002   0.0000000000000000     
   5.3782634059809480E-006  0.10515250980592836        0.0000000000000000     
  -4.1866951584890117E-003   7.8883502865478225E-002   0.0000000000000000     
  -4.3558726971375059E-003   8.5222019291039577E-002   0.0000000000000000     
  -4.5190027021091159E-003   9.1716402236374936E-002   0.0000000000000000     
  -4.6760851734038355E-003   9.8366651701484314E-002   0.0000000000000000     
  -4.8271201110216683E-003  0.10517276768636774        0.0000000000000000     
  -8.4180377205160094E-003   7.8961624715195342E-002   0.0000000000000000     
  -8.7521949013580121E-003   8.5295929187921588E-002   0.0000000000000000     
  -9.0752283283784037E-003   9.1786528364326825E-002   0.0000000000000000     
  -9.3871380015771860E-003   9.8433422244411053E-002   0.0000000000000000     
  -9.6879239209543572E-003  0.10523661082817430        0.0000000000000000     
  -1.2676789598566386E-002   7.9087637471313865E-002   0.0000000000000000     
  -1.3176054180869368E-002   8.5417703379540980E-002   0.0000000000000000     
  -1.3659182969607980E-002   9.1903792308955720E-002   0.0000000000000000     
  -1.4126175964782217E-002   9.8545904259558073E-002   0.0000000000000000     
  -1.4577033166392086E-002  0.10534403923134807        0.0000000000000000     
  -1.6962950792640132E-002   7.9261541133833838E-002   0.0000000000000000     
  -1.7627450535671569E-002   8.5587341865897809E-002   0.0000000000000000     
  -1.8270866625797837E-002   9.2068194070261650E-002   0.0000000000000000     
  -1.8893199063018926E-002   9.8704097746925387E-002   0.0000000000000000     
  -1.9494447847334853E-002  0.10549505289588901        0.0000000000000000     
   5.3782634059809480E-006  0.10515250980592836        0.0000000000000000     
   4.3722750346952052E-006  0.11210617821548033        0.0000000000000000     
   3.6556894543340965E-006  0.11919861062436252        0.0000000000000000     
   3.2285066648996279E-006  0.12642980703257498        0.0000000000000000     
   3.0907266663909860E-006  0.13379976744011768        0.0000000000000000     
  -4.8271201110216683E-003  0.10517276768636774        0.0000000000000000     
  -4.9714313221831162E-003  0.11212606316649465        0.0000000000000000     
  -5.1083426141086824E-003  0.11921785111733454        0.0000000000000000     
  -5.2378539867983685E-003  0.12644813153888743        0.0000000000000000     
  -5.3599654402521710E-003  0.13381690443115329        0.0000000000000000     
  -9.6879239209543572E-003  0.10523661082817430        0.0000000000000000     
  -9.9759095859560856E-003  0.11218707614092106        0.0000000000000000     
  -1.0249418496028537E-002  0.11927580020795592        0.0000000000000000     
  -1.0508450651171713E-002  0.12650278302927886        0.0000000000000000     
  -1.0753006051385613E-002  0.13386802460488983        0.0000000000000000     
  -1.4577033166392086E-002  0.10534403923134807        0.0000000000000000     
  -1.5009062516284213E-002  0.11228921713875963        0.0000000000000000     
  -1.5419571956305224E-002  0.11937245789622665        0.0000000000000000     
  -1.5808561486455135E-002  0.12659376150374918        0.0000000000000000     
  -1.6176031106733931E-002  0.13395312796132722        0.0000000000000000     
  -1.9494447847334853E-002  0.10549505289588901        0.0000000000000000     
  -2.0070890113167497E-002  0.11243248616001023        0.0000000000000000     
  -2.0618802994938755E-002  0.11950782418214673        0.0000000000000000     
  -2.1138186492648637E-002  0.12672106696229846        0.0000000000000000     
  -2.1629040606297133E-002  0.13407221450046550        0.0000000000000000     
   3.0907266663909860E-006  0.13379976744011768        0.0000000000000000     
   3.0246338786742849E-006  0.14129461980573971        0.0000000000000000     
   2.8125127216118437E-006  0.14890049208819020        0.0000000000000000     
   2.4543631952052075E-006  0.15661738428746919        0.0000000000000000     
   1.9501852994547285E-006  0.16444529640357664        0.0000000000000000     
  -5.3599654402521710E-003  0.13381690443115329        0.0000000000000000     
  -5.4749568217498162E-003  0.14131043992620604        0.0000000000000000     
  -5.5831079785710284E-003  0.14891500815611947        0.0000000000000000     
  -5.6844189107158093E-003  0.15663060912089355        0.0000000000000000     
  -5.7788896181841564E-003  0.16445724282052837        0.0000000000000000     
  -1.0753006051385613E-002  0.13386802460488983        0.0000000000000000     
  -1.0983464807452851E-002  0.14135788943079119        0.0000000000000000     
  -1.1200207030156045E-002  0.14895874200298520        0.0000000000000000     
  -1.1403232719495195E-002  0.15667058232147182        0.0000000000000000     
  -1.1592541875470298E-002  0.16449341038625120        0.0000000000000000     
  -1.6176031106733931E-002  0.13395312796132722        0.0000000000000000     
  -1.6522499323230428E-002  0.14143696831949518        0.0000000000000000     
  -1.6848484642033434E-002  0.14903169362878746        0.0000000000000000     
  -1.7153987063142952E-002  0.15673730388920409        0.0000000000000000     
  -1.7439006586558975E-002  0.16455379910074505        0.0000000000000000     
  -2.1629040606297133E-002  0.13407221450046550        0.0000000000000000     
  -2.2092060369082549E-002  0.14154767659231801        0.0000000000000000     
  -2.2527940814203198E-002  0.14913386303352630        0.0000000000000000     
  -2.2936681941659078E-002  0.15683077382409027        0.0000000000000000     
  -2.3318283751450185E-002  0.16463840896400997        0.0000000000000000     
   1.9501852994547285E-006  0.16444529640357664        0.0000000000000000     
   1.4696229682622988E-006  0.17237243448566747        0.0000000000000000     
   1.1823201355327375E-006  0.18038700458289664        0.0000000000000000     
   1.0882768012631988E-006  0.18848900669526414        0.0000000000000000     
   1.1874929654572333E-006  0.19667844082276997        0.0000000000000000     
  -5.7788896181841564E-003  0.16445724282052837        0.0000000000000000     
  -5.8660379143827867E-003  0.17238314007442879        0.0000000000000000     
  -5.9453816127184190E-003  0.18039653170199976        0.0000000000000000     
  -6.0169207131910507E-003  0.18849741770324119        0.0000000000000000     
  -6.0806552158006854E-003  0.19668579807815323        0.0000000000000000     
  -1.1592541875470298E-002  0.16449341038625120        0.0000000000000000     
  -1.1767309365592364E-002  0.17241556466036956        0.0000000000000000     
  -1.1926710057372399E-002  0.18042538360687332        0.0000000000000000     
  -1.2070743950810401E-002  0.18852286722576247        0.0000000000000000     
  -1.2199411045906371E-002  0.19670801551703704        0.0000000000000000     
  -1.7439006586558975E-002  0.16455379910074505        0.0000000000000000     
  -1.7702344730660468E-002  0.17246970824348967        0.0000000000000000     
  -1.7942803013826406E-002  0.18047356029751729        0.0000000000000000     
  -1.8160381436056788E-002  0.18856535526282789        0.0000000000000000     
  -1.8355079997351597E-002  0.19674509313942154        0.0000000000000000     
  -2.3318283751450185E-002  0.16463840896400997        0.0000000000000000     
  -2.3671144009587104E-002  0.17254557082378921        0.0000000000000000     
  -2.3993660482080452E-002  0.18054106177393173        0.0000000000000000     
  -2.4285833168930203E-002  0.18862488181443751        0.0000000000000000     
  -2.4547662070136370E-002  0.19679703094530657        0.0000000000000000     
   1.1874929654572333E-006  0.19667844082276997        0.0000000000000000     
   1.3500876719588911E-006  0.20493677604798152        0.0000000000000000     
   1.4461799646187275E-006  0.21324548145346614        0.0000000000000000     
   1.4757698434335982E-006  0.22160455703922374        0.0000000000000000     
   1.4388573084059969E-006  0.23001400280525447        0.0000000000000000     
  -6.0806552158006854E-003  0.19668579807815323        0.0000000000000000     
  -6.1370382502230246E-003  0.20494332542658406        0.0000000000000000     
  -6.1865229461337736E-003  0.21325165234838211        0.0000000000000000     
  -6.2291093035329332E-003  0.22161077884354735        0.0000000000000000     
  -6.2647973224204973E-003  0.23002070491207974        0.0000000000000000     
  -1.2199411045906371E-002  0.19670801551703704        0.0000000000000000     
  -1.2313347252432454E-002  0.20496304758364700        0.0000000000000000     
  -1.2413188480160793E-002  0.21327018252854232        0.0000000000000000     
  -1.2498934729091384E-002  0.22162942035172295        0.0000000000000000     
  -1.2570585999224233E-002  0.23004076105318896        0.0000000000000000     
  -1.8355079997351597E-002  0.19674509313942154        0.0000000000000000     
  -1.8527576918956328E-002  0.20499594251917039        0.0000000000000000     
  -1.8678550422116434E-002  0.21330107199394677        0.0000000000000000     
  -1.8808000506831922E-002  0.22166048156375071        0.0000000000000000     
  -1.8915927173102795E-002  0.23007417122858215        0.0000000000000000     
  -2.4547662070136370E-002  0.19679703094530657        0.0000000000000000     
  -2.4779727249794634E-002  0.20504201023315416        0.0000000000000000     
  -2.4982608772000699E-002  0.21334432074459550        0.0000000000000000     
  -2.5156306636754548E-002  0.22170396247963051        0.0000000000000000     
  -2.5300820844056198E-002  0.23012093543825929        0.0000000000000000     
   1.4388573084059969E-006  0.23001400280525447        0.0000000000000000     
   1.3800607720792536E-006  0.23844259299956605        0.0000000000000000     
   1.3439986469960478E-006  0.24685910187016635        0.0000000000000000     
   1.3306709331596862E-006  0.25526352941705538        0.0000000000000000     
   1.3400776305671873E-006  0.26365587564023313        0.0000000000000000     
  -6.2647973224204973E-003  0.23002070491207974        0.0000000000000000     
  -6.2947975867096093E-003  0.23845044257406370        0.0000000000000000     
  -6.3203206803134097E-003  0.24686900384958349        0.0000000000000000     
  -6.3413666032318908E-003  0.25527638873863917        0.0000000000000000     
  -6.3579353554650605E-003  0.26367259724123071        0.0000000000000000     
  -1.2570585999224233E-002  0.23004076105318896        0.0000000000000000     
  -1.2630830486036441E-002  0.23847392723782102        0.0000000000000000     
  -1.2682356385005110E-002  0.24689864151049984        0.0000000000000000     
  -1.2725163696130252E-002  0.25531490387122535        0.0000000000000000     
  -1.2759252419411860E-002  0.26372271431999778        0.0000000000000000     
  -1.8915927173102795E-002  0.23007417122858215        0.0000000000000000     
  -1.9006718637208413E-002  0.23851304699083803        0.0000000000000000     
  -1.9084763115428120E-002  0.24694801485291537        0.0000000000000000     
  -1.9150060607761924E-002  0.25537907481481414        0.0000000000000000     
  -1.9202611114209820E-002  0.26380622687653432        0.0000000000000000     
  -2.5300820844056198E-002  0.23012093543825929        0.0000000000000000     
  -2.5422462040225524E-002  0.23856780183311482        0.0000000000000000     
  -2.5527540871582422E-002  0.24701712387683017        0.0000000000000000     
  -2.5616057338126896E-002  0.25546890156940538        0.0000000000000000     
  -2.5688011439858952E-002  0.26392313491084035        0.0000000000000000     
   1.3400776305671873E-006  0.26365587564023313        0.0000000000000000     
   1.3547274777612594E-006  0.27197598391712363        0.0000000000000000     
   1.3571292132826592E-006  0.28016369762515098        0.0000000000000000     
   1.3472828371306820E-006  0.28821901676431527        0.0000000000000000     
   1.3251883493048400E-006  0.29614194133461635        0.0000000000000000     
  -6.3579353554650605E-003  0.26367259724123071        0.0000000000000000     
  -6.3739119859782083E-003  0.27199779094508569        0.0000000000000000     
  -6.3931815437366195E-003  0.28019213143793170        0.0000000000000000     
  -6.4157440287402976E-003  0.28825561871976874        0.0000000000000000     
  -6.4415994409892409E-003  0.29618825279059691        0.0000000000000000     
  -1.2759252419411860E-002  0.26372271431999778        0.0000000000000000     
  -1.2791824190029642E-002  0.27206317493177201        0.0000000000000000     
  -1.2830080643163322E-002  0.28027738778150330        0.0000000000000000     
  -1.2874021778812890E-002  0.28836535286919163        0.0000000000000000     
  -1.2923647596978357E-002  0.29632707019483695        0.0000000000000000     
  -1.9202611114209820E-002  0.26380622687653432        0.0000000000000000     
  -1.9252381884676546E-002  0.27217213587718259        0.0000000000000000     
  -1.9309340169066824E-002  0.28041946665586581        0.0000000000000000     
  -1.9373485967380654E-002  0.28854821921258372        0.0000000000000000     
  -1.9444819279618043E-002  0.29655839354733665        0.0000000000000000     
  -2.5688011439858952E-002  0.26392313491084035        0.0000000000000000     
  -2.5755585069918912E-002  0.27232467378131753        0.0000000000000000     
  -2.5830960121447127E-002  0.28061836806101914        0.0000000000000000     
  -2.5914136594443582E-002  0.28880421774994525        0.0000000000000000     
  -2.6005114488908299E-002  0.29688222284809584        0.0000000000000000     
  -1.4020531605518683E-002   5.5776289085835276E-002   0.0000000000000000     
  -1.4801558822771300E-002   6.1364880609899142E-002   0.0000000000000000     
  -1.5552304426375747E-002   6.7141953125920209E-002   0.0000000000000000     
  -1.6272768416332028E-002   7.3107506633898436E-002   0.0000000000000000     
  -1.6962950792640132E-002   7.9261541133833838E-002   0.0000000000000000     
  -1.7597622057256238E-002   5.6071918924980424E-002   0.0000000000000000     
  -1.8588267458577140E-002   6.1633603047624212E-002   0.0000000000000000     
  -1.9536679637752307E-002   6.7389910881633930E-002   0.0000000000000000     
  -2.0442858594781746E-002   7.3340842427009514E-002   0.0000000000000000     
  -2.1306804329665446E-002   7.9486397683751070E-002   0.0000000000000000     
  -2.1277774818223787E-002   5.6405055883755342E-002   0.0000000000000000     
  -2.2471391923555177E-002   6.1949739958868912E-002   0.0000000000000000     
  -2.3612740695056773E-002   6.7691336853624426E-002   0.0000000000000000     
  -2.4701821132728549E-002   7.3629846568021892E-002   0.0000000000000000     
  -2.5738633236570524E-002   7.9765269102061317E-002   0.0000000000000000     
  -2.5060989888421328E-002   5.6775699962160031E-002   0.0000000000000000     
  -2.6450932217705423E-002   6.2313291343633233E-002   0.0000000000000000     
  -2.7780487598289130E-002   6.8046231041891739E-002   0.0000000000000000     
  -2.9049656030172441E-002   7.3974519056935500E-002   0.0000000000000000     
  -3.0258437513355361E-002   8.0098155388764594E-002   0.0000000000000000     
  -2.8947267267848863E-002   5.7183851160194490E-002   0.0000000000000000     
  -3.0526888341027868E-002   6.2724257201917183E-002   0.0000000000000000     
  -3.2039920347449388E-002   6.8454593446435813E-002   0.0000000000000000     
  -3.3486363287113421E-002   7.4374859893750409E-002   0.0000000000000000     
  -3.4866217160019961E-002   8.0485056543860942E-002   0.0000000000000000     
  -1.6962950792640132E-002   7.9261541133833838E-002   0.0000000000000000     
  -1.7627450535671569E-002   8.5587341865897809E-002   0.0000000000000000     
  -1.8270866625797837E-002   9.2068194070261650E-002   0.0000000000000000     
  -1.8893199063018926E-002   9.8704097746925387E-002   0.0000000000000000     
  -1.9494447847334853E-002  0.10549505289588901        0.0000000000000000     
  -2.1306804329665446E-002   7.9486397683751070E-002   0.0000000000000000     
  -2.2136623786456349E-002   8.5806257475655748E-002   0.0000000000000000     
  -2.2940423909207384E-002   9.2280102626520852E-002   0.0000000000000000     
  -2.3718204697918556E-002   9.8907933136346368E-002   0.0000000000000000     
  -2.4469966152589853E-002  0.10568974900513228        0.0000000000000000     
  -2.5738633236570524E-002   7.9765269102061317E-002   0.0000000000000000     
  -2.6733813753915436E-002   8.6075863037478592E-002   0.0000000000000000     
  -2.7697999432096033E-002   9.2539886956009634E-002   0.0000000000000000     
  -2.8631190271112310E-002   9.9157340857654444E-002   0.0000000000000000     
  -2.9533386270964281E-002  0.10592822474241302        0.0000000000000000     
  -3.0258437513355361E-002   8.0098155388764594E-002   0.0000000000000000     
  -3.1419020438048825E-002   8.6396158551366314E-002   0.0000000000000000     
  -3.2543593194463788E-002   9.2847547058728011E-002   0.0000000000000000     
  -3.3632155782600211E-002   9.9452320910849656E-002   0.0000000000000000     
  -3.4684708202458142E-002  0.10621048010773122        0.0000000000000000     
  -3.4866217160019961E-002   8.0485056543860942E-002   0.0000000000000000     
  -3.6192243838856525E-002   8.6767144017318942E-002   0.0000000000000000     
  -3.7477205196310627E-002   9.3203082934675940E-002   0.0000000000000000     
  -3.8721101232382260E-002   9.9792873295931936E-002   0.0000000000000000     
  -3.9923931947071424E-002  0.10653651510108689        0.0000000000000000     
  -1.9494447847334853E-002  0.10549505289588901        0.0000000000000000     
  -2.0070890113167497E-002  0.11243248616001023        0.0000000000000000     
  -2.0618802994938755E-002  0.11950782418214673        0.0000000000000000     
  -2.1138186492648637E-002  0.12672106696229846        0.0000000000000000     
  -2.1629040606297133E-002  0.13407221450046550        0.0000000000000000     
  -2.4469966152589853E-002  0.10568974900513228        0.0000000000000000     
  -2.5191013208795448E-002  0.11261740105066408        0.0000000000000000     
  -2.5876650802109508E-002  0.11968274009072724        0.0000000000000000     
  -2.6526878932532028E-002  0.12688576612532171        0.0000000000000000     
  -2.7141697600063013E-002  0.13422647915444758        0.0000000000000000     
  -2.9533386270964281E-002  0.10592822474241302        0.0000000000000000     
  -3.0399052635357582E-002  0.11284447965671233        0.0000000000000000     
  -3.1222654567997866E-002  0.11989804664697935        0.0000000000000000     
  -3.2004192068885128E-002  0.12708892571321401        0.0000000000000000     
  -3.2743665138019379E-002  0.13441711685541641        0.0000000000000000     
  -3.4684708202458142E-002  0.10621048010773122        0.0000000000000000     
  -3.5695008392853889E-002  0.11311372197815495        0.0000000000000000     
  -3.6656814292603819E-002  0.12015374385090299        0.0000000000000000     
  -3.7570125901707940E-002  0.12733054572597530        0.0000000000000000     
  -3.8434943220166218E-002  0.13464412760337197        0.0000000000000000     
  -3.9923931947071424E-002  0.10653651510108689        0.0000000000000000     
  -4.1078880481284386E-002  0.11342512801499195        0.0000000000000000     
  -4.2179129975927383E-002  0.12044983170249822        0.0000000000000000     
  -4.3224680431000445E-002  0.12761062616360563        0.0000000000000000     
  -4.4215531846503550E-002  0.13490751139831425        0.0000000000000000     
  -2.1629040606297133E-002  0.13407221450046550        0.0000000000000000     
  -2.2092060369082549E-002  0.14154767659231801        0.0000000000000000     
  -2.2527940814203198E-002  0.14913386303352630        0.0000000000000000     
  -2.2936681941659078E-002  0.15683077382409027        0.0000000000000000     
  -2.3318283751450185E-002  0.16463840896400997        0.0000000000000000     
  -2.7141697600063013E-002  0.13422647915444758        0.0000000000000000     
  -2.7722001031656920E-002  0.14169131236483432        0.0000000000000000     
  -2.8268683454268202E-002  0.14926669894321143        0.0000000000000000     
  -2.8781744867896867E-002  0.15695263888957897        0.0000000000000000     
  -2.9261185272542903E-002  0.16474913220393692        0.0000000000000000     
  -3.2743665138019379E-002  0.13441711685541641        0.0000000000000000     
  -3.3442174397601228E-002  0.14186917375261859        0.0000000000000000     
  -3.4100820469831310E-002  0.14943165008385276        0.0000000000000000     
  -3.4719603354709611E-002  0.15710454584911882        0.0000000000000000     
  -3.5298523052236130E-002  0.16488786104841693        0.0000000000000000     
  -3.8434943220166218E-002  0.13464412760337197        0.0000000000000000     
  -3.9252580466915488E-002  0.14208126075567093        0.0000000000000000     
  -4.0024351860892503E-002  0.14962871645545020        0.0000000000000000     
  -4.0750257402097298E-002  0.15728649470270992        0.0000000000000000     
  -4.1430297090529852E-002  0.16505459549744989        0.0000000000000000     
  -4.4215531846503550E-002  0.13490751139831425        0.0000000000000000     
  -4.5153219239599682E-002  0.14232757337399127        0.0000000000000000     
  -4.6039277627451816E-002  0.14985789805800387        0.0000000000000000     
  -4.6873707010059946E-002  0.15749848545035208        0.0000000000000000     
  -4.7656507387424066E-002  0.16524933555103594        0.0000000000000000     
  -2.3318283751450185E-002  0.16463840896400997        0.0000000000000000     
  -2.3671144009587104E-002  0.17254557082378921        0.0000000000000000     
  -2.3993660482080452E-002  0.18054106177393173        0.0000000000000000     
  -2.4285833168930203E-002  0.18862488181443751        0.0000000000000000     
  -2.4547662070136370E-002  0.19679703094530657        0.0000000000000000     
  -2.9261185272542903E-002  0.16474913220393692        0.0000000000000000     
  -2.9705050533503363E-002  0.17264524058472011        0.0000000000000000     
  -3.0111386516075287E-002  0.18063002573036324        0.0000000000000000     
  -3.0480193220258672E-002  0.18870348764086645        0.0000000000000000     
  -3.0811470646053520E-002  0.19686562631622967        0.0000000000000000     
  -3.5298523052236130E-002  0.16488786104841693        0.0000000000000000     
  -3.5835407633540345E-002  0.17277080570973438        0.0000000000000000     
  -3.6328085169751702E-002  0.18074258986105876        0.0000000000000000     
  -3.6776555660870222E-002  0.18880321350239002        0.0000000000000000     
  -3.7180819106895892E-002  0.19695267663372817        0.0000000000000000     
  -4.1430297090529852E-002  0.16505459549744989        0.0000000000000000     
  -4.2062215309698024E-002  0.17292226619883205        0.0000000000000000     
  -4.2643756443109693E-002  0.18087875416601812        0.0000000000000000     
  -4.3174920490764844E-002  0.18892405939900811        0.0000000000000000     
  -4.3655707452663492E-002  0.19705818189780203        0.0000000000000000     
  -4.7656507387424066E-002  0.16524933555103594        0.0000000000000000     
  -4.8385473561976422E-002  0.17309962205201307        0.0000000000000000     
  -4.9058400336149256E-002  0.18103851864524140        0.0000000000000000     
  -4.9675287709942541E-002  0.18906602533072084        0.0000000000000000     
  -5.0236135683356303E-002  0.19718214210845136        0.0000000000000000     
  -2.4547662070136370E-002  0.19679703094530657        0.0000000000000000     
  -2.4779727249794634E-002  0.20504201023315416        0.0000000000000000     
  -2.4982608772000699E-002  0.21334432074459550        0.0000000000000000     
  -2.5156306636754548E-002  0.22170396247963051        0.0000000000000000     
  -2.5300820844056198E-002  0.23012093543825929        0.0000000000000000     
  -3.0811470646053520E-002  0.19686562631622967        0.0000000000000000     
  -3.1105493039571733E-002  0.20510252459845896        0.0000000000000000     
  -3.1362534646925219E-002  0.21340026532956052        0.0000000000000000     
  -3.1582595468113976E-002  0.22175884850953431        0.0000000000000000     
  -3.1765675503138004E-002  0.23017827413838032        0.0000000000000000     
  -3.7180819106895892E-002  0.19695267663372817        0.0000000000000000     
  -3.7540569082911951E-002  0.20517875948794539        0.0000000000000000     
  -3.7855499164001619E-002  0.21346924229791403        0.0000000000000000     
  -3.8125609350164909E-002  0.22182412506363397        0.0000000000000000     
  -3.8350899641401814E-002  0.23024340778510524        0.0000000000000000     
  -4.3655707452663492E-002  0.19705818189780203        0.0000000000000000     
  -4.4084955379815285E-002  0.20527071490161347        0.0000000000000000     
  -4.4461502323229894E-002  0.21355125164965597        0.0000000000000000     
  -4.4785348282907339E-002  0.22189979214192948        0.0000000000000000     
  -4.5056493258847613E-002  0.23031633637843410        0.0000000000000000     
  -5.0236135683356303E-002  0.19718214210845136        0.0000000000000000     
  -5.0738651930281743E-002  0.20537839083946313        0.0000000000000000     
  -5.1180544124610067E-002  0.21364629338478636        0.0000000000000000     
  -5.1561812266341295E-002  0.22198584974442090        0.0000000000000000     
  -5.1882456355475413E-002  0.23039705991836679        0.0000000000000000     
  -2.5300820844056198E-002  0.23012093543825929        0.0000000000000000     
  -2.5422462040225524E-002  0.23856780183311482        0.0000000000000000     
  -2.5527540871582422E-002  0.24701712387683017        0.0000000000000000     
  -2.5616057338126896E-002  0.25546890156940538        0.0000000000000000     
  -2.5688011439858952E-002  0.26392313491084035        0.0000000000000000     
  -3.1765675503138004E-002  0.23017827413838032        0.0000000000000000     
  -3.1919722322825771E-002  0.23863371523088983        0.0000000000000000     
  -3.2052683498005718E-002  0.24710034480185417        0.0000000000000000     
  -3.2164559028677868E-002  0.25557816285127338        0.0000000000000000     
  -3.2255348914842212E-002  0.26406716937914732        0.0000000000000000     
  -3.8350899641401814E-002  0.23024340778510524        0.0000000000000000     
  -3.8540161112747141E-002  0.23870631065040182        0.0000000000000000     
  -3.8702184839235709E-002  0.24719205384759754        0.0000000000000000     
  -3.8836970820867518E-002  0.25570063737669246        0.0000000000000000     
  -3.8944519057642561E-002  0.26423206123768661        0.0000000000000000     
  -4.5056493258847613E-002  0.23031633637843410        0.0000000000000000     
  -4.5283778409989650E-002  0.23878558809165068        0.0000000000000000     
  -4.5476044895272384E-002  0.24729225101406024        0.0000000000000000     
  -4.5633292714695850E-002  0.25583632514566279        0.0000000000000000     
  -4.5755521868260006E-002  0.26441781048645824        0.0000000000000000     
  -5.1882456355475413E-002  0.23039705991836679        0.0000000000000000     
  -5.2150574214553283E-002  0.23887154755463644        0.0000000000000000     
  -5.2374263666115771E-002  0.24740093630124227        0.0000000000000000     
  -5.2553524710162856E-002  0.25598522615818420        0.0000000000000000     
  -5.2688357346694560E-002  0.26462441712546231        0.0000000000000000     
  -2.5688011439858952E-002  0.26392313491084035        0.0000000000000000     
  -2.5755585069918912E-002  0.27232467378131753        0.0000000000000000     
  -2.5830960121447127E-002  0.28061836806101914        0.0000000000000000     
  -2.5914136594443582E-002  0.28880421774994525        0.0000000000000000     
  -2.6005114488908299E-002  0.29688222284809584        0.0000000000000000     
  -3.2255348914842212E-002  0.26406716937914732        0.0000000000000000     
  -3.2339854887184660E-002  0.27251445692643361        0.0000000000000000     
  -3.2432878676391157E-002  0.28086711803408976        0.0000000000000000     
  -3.2534420282461687E-002  0.28912515270211570        0.0000000000000000     
  -3.2644479705396252E-002  0.29728856093051159        0.0000000000000000     
  -3.8944519057642561E-002  0.26423206123768661        0.0000000000000000     
  -3.9043612477901717E-002  0.27273515359478778        0.0000000000000000     
  -3.9153034009985842E-002  0.28115874261220386        0.0000000000000000     
  -3.9272783653894951E-002  0.28950282828993473        0.0000000000000000     
  -3.9402861409629050E-002  0.29776741062798057        0.0000000000000000     
  -4.5755521868260006E-002  0.26441781048645824        0.0000000000000000     
  -4.5866857842070063E-002  0.27298676378638004        0.0000000000000000     
  -4.5991426122231199E-002  0.28149324179536139        0.0000000000000000     
  -4.6129226708743414E-002  0.28993724451340236        0.0000000000000000     
  -4.6280259601606678E-002  0.29831877194050288        0.0000000000000000     
  -5.2688357346694560E-002  0.26462441712546231        0.0000000000000000     
  -5.2809590979689722E-002  0.27326928750121049        0.0000000000000000     
  -5.2948055013127215E-002  0.28187061558356252        0.0000000000000000     
  -5.3103749447007027E-002  0.29042840137251857        0.0000000000000000     
  -5.3276674281329157E-002  0.29894264486807853        0.0000000000000000     
  -2.8947267267848863E-002   5.7183851160194490E-002   0.0000000000000000     
  -3.0526888341027868E-002   6.2724257201917183E-002   0.0000000000000000     
  -3.2039920347449388E-002   6.8454593446435813E-002   0.0000000000000000     
  -3.3486363287113421E-002   7.4374859893750409E-002   0.0000000000000000     
  -3.4866217160019961E-002   8.0485056543860942E-002   0.0000000000000000     
  -3.2950648320466520E-002   5.7650341674597816E-002   0.0000000000000000     
  -3.4718591246037524E-002   6.3192472464050242E-002   0.0000000000000000     
  -3.6414089714590564E-002   6.8918798524894728E-002   0.0000000000000000     
  -3.8037143726125648E-002   7.4829319857131246E-002   0.0000000000000000     
  -3.9587753280642769E-002   8.0924036460759810E-002   0.0000000000000000     
  -3.7085174410234421E-002   5.8196003702109110E-002   0.0000000000000000     
  -3.9045371885249390E-002   6.3727772060361926E-002   0.0000000000000000     
  -4.0926046471765683E-002   6.9441220734906481E-002   0.0000000000000000     
  -4.2727198169783293E-002   7.5336349725742741E-002   0.0000000000000000     
  -4.4448826979302240E-002   8.1413159032870719E-002   0.0000000000000000     
  -4.1350845537152556E-002   5.8820837242728359E-002   0.0000000000000000     
  -4.3507230258663460E-002   6.4330155990852220E-002   0.0000000000000000     
  -4.5575790618974724E-002   7.0021860076471071E-002   0.0000000000000000     
  -4.7556526618086362E-002   7.5895949499584878E-002   0.0000000000000000     
  -4.9449438255998367E-002   8.1952424260193640E-002   0.0000000000000000     
  -4.5747661701220931E-002   5.9524842296455570E-002   0.0000000000000000     
  -4.8104166366279746E-002   6.4999624255521138E-002   0.0000000000000000     
  -5.0363322156217721E-002   7.0660716549588498E-002   0.0000000000000000     
  -5.2525129071034855E-002   7.6508119178657658E-002   0.0000000000000000     
  -5.4589587110731148E-002   8.2541832142728588E-002   0.0000000000000000     
  -3.4866217160019961E-002   8.0485056543860942E-002   0.0000000000000000     
  -3.6192243838856525E-002   8.6767144017318942E-002   0.0000000000000000     
  -3.7477205196310627E-002   9.3203082934675940E-002   0.0000000000000000     
  -3.8721101232382260E-002   9.9792873295931936E-002   0.0000000000000000     
  -3.9923931947071424E-002  0.10653651510108689        0.0000000000000000     
  -3.9587753280642769E-002   8.0924036460759810E-002   0.0000000000000000     
  -4.1079115204960569E-002   8.7188069692981457E-002   0.0000000000000000     
  -4.2524426325897702E-002   9.3606540910997196E-002   0.0000000000000000     
  -4.3923686643454127E-002  0.10017945011480706        0.0000000000000000     
  -4.5276896157629892E-002  0.10690679730441104        0.0000000000000000     
  -4.4448826979302240E-002   8.1413159032870719E-002   0.0000000000000000     
  -4.6105265784983009E-002   8.7658185835998825E-002   0.0000000000000000     
  -4.7710847471486101E-002   9.4057967314835525E-002   0.0000000000000000     
  -4.9265572038811524E-002  0.10061250346938078        0.0000000000000000     
  -5.0769439486959264E-002  0.10732179429963462        0.0000000000000000     
  -4.9449438255998367E-002   8.1952424260193640E-002   0.0000000000000000     
  -5.1270695578923831E-002   8.8177492446371061E-002   0.0000000000000000     
  -5.3036468633075845E-002   9.4557362146190871E-002   0.0000000000000000     
  -5.4746757418454438E-002  0.10109203335965308        0.0000000000000000     
  -5.6401561935059574E-002  0.10778150608675764        0.0000000000000000     
  -5.4589587110731148E-002   8.2541832142728588E-002   0.0000000000000000     
  -5.6575404586783035E-002   8.8745989524098151E-002   0.0000000000000000     
  -5.8501289810666934E-002   9.5104725405063303E-002   0.0000000000000000     
  -6.0367242782382861E-002  0.10161803978562395        0.0000000000000000     
  -6.2173263501930809E-002  0.10828593266578011        0.0000000000000000     
  -3.9923931947071424E-002  0.10653651510108689        0.0000000000000000     
  -4.1078880481284386E-002  0.11342512801499195        0.0000000000000000     
  -4.2179129975927383E-002  0.12044983170249822        0.0000000000000000     
  -4.3224680431000445E-002  0.12761062616360563        0.0000000000000000     
  -4.4215531846503550E-002  0.13490751139831425        0.0000000000000000     
  -4.5276896157629892E-002  0.10690679730441104        0.0000000000000000     
  -4.6576682025337268E-002  0.11377908245934963        0.0000000000000000     
  -4.7815671403488566E-002  0.12078680555916339        0.0000000000000000     
  -4.8993864292083800E-002  0.12792996660385231        0.0000000000000000     
  -5.0111260691122969E-002  0.13520856559341640        0.0000000000000000     
  -5.0769439486959264E-002  0.10732179429963462        0.0000000000000000     
  -5.2214426149700753E-002  0.11417597000335424        0.0000000000000000     
  -5.3592508360807367E-002  0.12116516077829693        0.0000000000000000     
  -5.4903686120279141E-002  0.12828936662446269        0.0000000000000000     
  -5.6147959428116054E-002  0.13554858754185151        0.0000000000000000     
  -5.6401561935059574E-002  0.10778150608675764        0.0000000000000000     
  -5.7992112854374847E-002  0.11461579064700585        0.0000000000000000     
  -5.9509640847883814E-002  0.12158489735989886        0.0000000000000000     
  -6.0954145915586462E-002  0.12868882622543679        0.0000000000000000     
  -6.2325628057482811E-002  0.13592757724361954        0.0000000000000000     
  -6.2173263501930809E-002  0.10828593266578011        0.0000000000000000     
  -6.3909742139359557E-002  0.11509854439030436        0.0000000000000000     
  -6.5567068864717873E-002  0.12204601530396916        0.0000000000000000     
  -6.7145243678005770E-002  0.12912834540677459        0.0000000000000000     
  -6.8644266579223262E-002  0.13634553469872054        0.0000000000000000     
  -4.4215531846503550E-002  0.13490751139831425        0.0000000000000000     
  -4.5153219239599682E-002  0.14232757337399127        0.0000000000000000     
  -4.6039277627451816E-002  0.14985789805800387        0.0000000000000000     
  -4.6873707010059946E-002  0.15749848545035208        0.0000000000000000     
  -4.7656507387424066E-002  0.16524933555103594        0.0000000000000000     
  -5.0111260691122969E-002  0.13520856559341640        0.0000000000000000     
  -5.1169724605270583E-002  0.14260995037159990        0.0000000000000000     
  -5.2171120039191214E-002  0.15012146878214719        0.0000000000000000     
  -5.3115446992884834E-002  0.15774312082505818        0.0000000000000000     
  -5.4002705466351469E-002  0.16547490650033289        0.0000000000000000     
  -5.6147959428116054E-002  0.13554858754185151        0.0000000000000000     
  -5.7327730453544952E-002  0.14293023051251719        0.0000000000000000     
  -5.8445401365792696E-002  0.15042170251851369        0.0000000000000000     
  -5.9500972164859285E-002  0.15802300355984089        0.0000000000000000     
  -6.0494442850744720E-002  0.16573413363649891        0.0000000000000000     
  -6.2325628057482811E-002  0.13592757724361954        0.0000000000000000     
  -6.3627236784422794E-002  0.14328841379674306        0.0000000000000000     
  -6.4862121607256282E-002  0.15075859926710336        0.0000000000000000     
  -6.6030282525983280E-002  0.15833813365470026        0.0000000000000000     
  -6.7131719540603832E-002  0.16602701695953390        0.0000000000000000     
  -6.8644266579223262E-002  0.13634553469872054        0.0000000000000000     
  -7.0068243597904076E-002  0.14368450022427759        0.0000000000000000     
  -7.1421280763581924E-002  0.15113215902791613        0.0000000000000000     
  -7.2703378076256847E-002  0.15868851110963622        0.0000000000000000     
  -7.3914535535928805E-002  0.16635355646943784        0.0000000000000000     
  -4.7656507387424066E-002  0.16524933555103594        0.0000000000000000     
  -4.8385473561976422E-002  0.17309962205201307        0.0000000000000000     
  -4.9058400336149256E-002  0.18103851864524140        0.0000000000000000     
  -4.9675287709942541E-002  0.18906602533072084        0.0000000000000000     
  -5.0236135683356303E-002  0.19718214210845136        0.0000000000000000     
  -5.4002705466351469E-002  0.16547490650033289        0.0000000000000000     
  -5.4830795351846852E-002  0.17330599050016526        0.0000000000000000     
  -5.5597616541626767E-002  0.18122553751674911        0.0000000000000000     
  -5.6303169035691200E-002  0.18923354755008451        0.0000000000000000     
  -5.6947452834040138E-002  0.19733002060017138        0.0000000000000000     
  -6.0494442850744720E-002  0.16573413363649891        0.0000000000000000     
  -6.1423793640780620E-002  0.17354448877417636        0.0000000000000000     
  -6.2287004752298598E-002  0.18144346499856193        0.0000000000000000     
  -6.3084076185298668E-002  0.18943106230965559        0.0000000000000000     
  -6.3815007939780830E-002  0.19750728070745738        0.0000000000000000     
  -6.7131719540603832E-002  0.16602701695953390        0.0000000000000000     
  -6.8164468428777727E-002  0.17381511687404633        0.0000000000000000     
  -6.9126564968164772E-002  0.18169230109067974        0.0000000000000000     
  -7.0018009158764966E-002  0.18965856960943409        0.0000000000000000     
  -7.0838801000578350E-002  0.19771392243030939        0.0000000000000000     
  -7.3914535535928805E-002  0.16635355646943784        0.0000000000000000     
  -7.5052819715838159E-002  0.17411787479977522        0.0000000000000000     
  -7.6116297189225260E-002  0.18197204579310261        0.0000000000000000     
  -7.7104967956090106E-002  0.18991606944941999        0.0000000000000000     
  -7.8018832016432699E-002  0.19794994576872735        0.0000000000000000     
  -5.0236135683356303E-002  0.19718214210845136        0.0000000000000000     
  -5.0738651930281743E-002  0.20537839083946313        0.0000000000000000     
  -5.1180544124610067E-002  0.21364629338478636        0.0000000000000000     
  -5.1561812266341295E-002  0.22198584974442090        0.0000000000000000     
  -5.1882456355475413E-002  0.23039705991836679        0.0000000000000000     
  -5.6947452834040138E-002  0.19733002060017138        0.0000000000000000     
  -5.7527418283627146E-002  0.20550804157854802        0.0000000000000000     
  -5.8040015731405749E-002  0.21376069539675269        0.0000000000000000     
  -5.8485245177375932E-002  0.22208798205478536        0.0000000000000000     
  -5.8863106621537709E-002  0.23048990155264601        0.0000000000000000     
  -6.3815007939780830E-002  0.19750728070745738        0.0000000000000000     
  -6.4477013989167359E-002  0.20566592139592157        0.0000000000000000     
  -6.5067308306880581E-002  0.21390078557900249        0.0000000000000000     
  -6.5585890892920454E-002  0.22221187325670008        0.0000000000000000     
  -6.6032761747287005E-002  0.23059918442901439        0.0000000000000000     
  -7.0838801000578350E-002  0.19771392243030939        0.0000000000000000     
  -7.1587439046902346E-002  0.20585203029158386        0.0000000000000000     
  -7.2262421851034542E-002  0.21406656393153575        0.0000000000000000     
  -7.2863749412974826E-002  0.22235752335016509        0.0000000000000000     
  -7.3391421732723325E-002  0.23072490854747188        0.0000000000000000     
  -7.8018832016432699E-002  0.19794994576872735        0.0000000000000000     
  -7.8858693456832163E-002  0.20606636826553482        0.0000000000000000     
  -7.9625356363867639E-002  0.21425803045435252        0.0000000000000000     
  -8.0318820737539126E-002  0.22252493233518042        0.0000000000000000     
  -8.0939086577846625E-002  0.23086707390801853        0.0000000000000000     
  -5.1882456355475413E-002  0.23039705991836679        0.0000000000000000     
  -5.2150574214553283E-002  0.23887154755463644        0.0000000000000000     
  -5.2374263666115771E-002  0.24740093630124227        0.0000000000000000     
  -5.2553524710162856E-002  0.25598522615818420        0.0000000000000000     
  -5.2688357346694560E-002  0.26462441712546231        0.0000000000000000     
  -5.8863106621537709E-002  0.23048990155264601        0.0000000000000000     
  -5.9179671746465344E-002  0.23896562065435259        0.0000000000000000     
  -5.9441012234733116E-002  0.24751430612392289        0.0000000000000000     
  -5.9647128086341011E-002  0.25613595796135702        0.0000000000000000     
  -5.9798019301289064E-002  0.26483057616665495        0.0000000000000000     
  -6.6032761747287005E-002  0.23059918442901439        0.0000000000000000     
  -6.6410194225753144E-002  0.23906923900579247        0.0000000000000000     
  -6.6720461684091750E-002  0.24762855689688151        0.0000000000000000     
  -6.6963564122302824E-002  0.25627713810228148        0.0000000000000000     
  -6.7139501540386379E-002  0.26501498262199230        0.0000000000000000     
  -7.3391421732723325E-002  0.23072490854747188        0.0000000000000000     
  -7.3842141652416662E-002  0.23918240260895618        0.0000000000000000     
  -7.4212612014191645E-002  0.24774368862011803        0.0000000000000000     
  -7.4502832818048245E-002  0.25640876658095757        0.0000000000000000     
  -7.4712804063986518E-002  0.26517763649147452        0.0000000000000000     
  -8.0939086577846625E-002  0.23086707390801853        0.0000000000000000     
  -8.1475514026455934E-002  0.23930511146384362        0.0000000000000000     
  -8.1917463225032836E-002  0.24785970129363252        0.0000000000000000     
  -8.2264934173577345E-002  0.25653084339738513        0.0000000000000000     
  -8.2517926872089448E-002  0.26531853777510150        0.0000000000000000     
  -5.2688357346694560E-002  0.26462441712546231        0.0000000000000000     
  -5.2809590979689722E-002  0.27326928750121049        0.0000000000000000     
  -5.2948055013127215E-002  0.28187061558356252        0.0000000000000000     
  -5.3103749447007027E-002  0.29042840137251857        0.0000000000000000     
  -5.3276674281329157E-002  0.29894264486807853        0.0000000000000000     
  -5.9798019301289064E-002  0.26483057616665495        0.0000000000000000     
  -5.9930563743808743E-002  0.27355401584968547        0.0000000000000000     
  -6.0081639278131573E-002  0.28226213212031770        0.0000000000000000     
  -6.0251245904257567E-002  0.29095492497855147        0.0000000000000000     
  -6.0439383622186690E-002  0.29963239442438688        0.0000000000000000     
  -6.7139501540386379E-002  0.26501498262199230        0.0000000000000000     
  -6.7288527987475158E-002  0.27381223994221171        0.0000000000000000     
  -6.7450897512701946E-002  0.28263905954913737        0.0000000000000000     
  -6.7626610116066729E-002  0.29149544144276923        0.0000000000000000     
  -6.7815665797569508E-002  0.30038138562310718        0.0000000000000000     
  -7.4712804063986518E-002  0.26517763649147452        0.0000000000000000     
  -7.4883483710688994E-002  0.27404395977878915        0.0000000000000000     
  -7.5055829716838343E-002  0.28300139787002160        0.0000000000000000     
  -7.5229842082434537E-002  0.29204995076517171        0.0000000000000000     
  -7.5405520807477616E-002  0.30118961846423953        0.0000000000000000     
  -8.2517926872089448E-002  0.26531853777510150        0.0000000000000000     
  -8.2715430913450225E-002  0.27424917535941784        0.0000000000000000     
  -8.2896435890540757E-002  0.28334914708297038        0.0000000000000000     
  -8.3060941803361002E-002  0.29261845294575900        0.0000000000000000     
  -8.3208948651911002E-002  0.30205709294778382        0.0000000000000000     
  -4.5747661701220931E-002   5.9524842296455570E-002   0.0000000000000000     
  -4.8104166366279746E-002   6.4999624255521138E-002   0.0000000000000000     
  -5.0363322156217721E-002   7.0660716549588498E-002   0.0000000000000000     
  -5.2525129071034855E-002   7.6508119178657658E-002   0.0000000000000000     
  -5.4589587110731148E-002   8.2541832142728588E-002   0.0000000000000000     
  -5.0317401222713054E-002   6.0283323070726758E-002   0.0000000000000000     
  -5.2871655766318443E-002   6.5724021124220711E-002   0.0000000000000000     
  -5.5319780630449671E-002   7.1354163946382401E-002   0.0000000000000000     
  -5.7661775815106737E-002   7.7173751537211829E-002   0.0000000000000000     
  -5.9897641320289657E-002   8.3182783896708967E-002   0.0000000000000000     
  -5.5101842421902442E-002   6.1071583772977910E-002   0.0000000000000000     
  -5.7845174016999748E-002   6.6491190866802996E-002   0.0000000000000000     
  -6.0476305588625580E-002   7.2098576058976405E-002   0.0000000000000000     
  -6.2995237136779972E-002   7.7893739349498142E-002   0.0000000000000000     
  -6.5401968661462903E-002   8.3876680738368209E-002   0.0000000000000000     
  -6.0100985298789079E-002   6.1889624403209054E-002   0.0000000000000000     
  -6.3024721118323634E-002   6.7301133483267994E-002   0.0000000000000000     
  -6.5832897030745463E-002   7.2893952887370508E-002   0.0000000000000000     
  -6.8525513036054544E-002   7.8668082615516624E-002   0.0000000000000000     
  -7.1102569134250948E-002   8.4623522667706313E-002   0.0000000000000000     
  -6.5314829853372974E-002   6.2737444961420155E-002   0.0000000000000000     
  -6.8410297070290144E-002   6.8153848973615677E-002   0.0000000000000000     
  -7.1389554956809320E-002   7.3740294431564699E-002   0.0000000000000000     
  -7.4252603512930518E-002   7.9496781335267233E-002   0.0000000000000000     
  -7.6999442738653723E-002   8.5423309684723281E-002   0.0000000000000000     
  -5.4589587110731148E-002   8.2541832142728588E-002   0.0000000000000000     
  -5.6575404586783035E-002   8.8745989524098151E-002   0.0000000000000000     
  -5.8501289810666934E-002   9.5104725405063303E-002   0.0000000000000000     
  -6.0367242782382861E-002  0.10161803978562395        0.0000000000000000     
  -6.2173263501930809E-002  0.10828593266578011        0.0000000000000000     
  -5.9897641320289657E-002   8.3182783896708967E-002   0.0000000000000000     
  -6.2048178085852321E-002   8.9363840109614179E-002   0.0000000000000000     
  -6.4134187051648667E-002   9.5699499260667759E-002   0.0000000000000000     
  -6.6155668217678695E-002  0.10218976134986976        0.0000000000000000     
  -6.8112621583942393E-002  0.10883462637722012        0.0000000000000000     
  -6.5401968661462903E-002   8.3876680738368209E-002   0.0000000000000000     
  -6.7717801353423368E-002   9.0031207243353117E-002   0.0000000000000000     
  -6.9964036403410340E-002   9.6341125882219339E-002   0.0000000000000000     
  -7.2140673811423806E-002  0.10280643665496687        0.0000000000000000     
  -7.4247713577463778E-002  0.10942713956159575        0.0000000000000000     
  -7.1102569134250948E-002   8.4623522667706313E-002   0.0000000000000000     
  -7.3584274389496204E-002   9.0748090925314981E-002   0.0000000000000000     
  -7.5990837865951941E-002   9.7029605269717975E-002   0.0000000000000000     
  -7.8322259563618199E-002  0.10346806570091532        0.0000000000000000     
  -8.0578539482494937E-002  0.11006347221890696        0.0000000000000000     
  -7.6999442738653723E-002   8.5423309684723281E-002   0.0000000000000000     
  -7.9647597194070788E-002   9.1514491155499783E-002   0.0000000000000000     
  -8.2214591439273496E-002   9.7764937423163709E-002   0.0000000000000000     
  -8.4700425474261862E-002  0.10417464848771504        0.0000000000000000     
  -8.7105099299035899E-002  0.11074362434915380        0.0000000000000000     
  -6.2173263501930809E-002  0.10828593266578011        0.0000000000000000     
  -6.3909742139359557E-002  0.11509854439030436        0.0000000000000000     
  -6.5567068864717873E-002  0.12204601530396916        0.0000000000000000     
  -6.7145243678005770E-002  0.12912834540677459        0.0000000000000000     
  -6.8644266579223262E-002  0.13634553469872054        0.0000000000000000     
  -6.8112621583942393E-002  0.10883462637722012        0.0000000000000000     
  -6.9994686713445442E-002  0.11562421463613747        0.0000000000000000     
  -7.1791503169193541E-002  0.12254864642004037        0.0000000000000000     
  -7.3503070951186716E-002  0.12960792172892882        0.0000000000000000     
  -7.5129390059424928E-002  0.13680204056280287        0.0000000000000000     
  -7.4247713577463778E-002  0.10942713956159575        0.0000000000000000     
  -7.6274319285423151E-002  0.11619278478739284        0.0000000000000000     
  -7.8209654519194871E-002  0.12309292251764505        0.0000000000000000     
  -8.0053719278778912E-002  0.13012755275235238        0.0000000000000000     
  -8.1806513564175287E-002  0.13729667549151486        0.0000000000000000     
  -8.0578539482494937E-002  0.11006347221890696        0.0000000000000000     
  -8.2748639855292641E-002  0.11680425484407045        0.0000000000000000     
  -8.4821522914721795E-002  0.12367884359678319        0.0000000000000000     
  -8.6797188660782371E-002  0.13068723847704525        0.0000000000000000     
  -8.8675637093474383E-002  0.13782943948485657        0.0000000000000000     
  -8.7105099299035899E-002  0.11074362434915380        0.0000000000000000     
  -8.9417648423053928E-002  0.11745862480617029        0.0000000000000000     
  -9.1627108355774339E-002  0.12430640965745481        0.0000000000000000     
  -9.3733479097197078E-002  0.13128697890300736        0.0000000000000000     
  -9.5736760647322200E-002  0.13840033254282796        0.0000000000000000     
  -6.8644266579223262E-002  0.13634553469872054        0.0000000000000000     
  -7.0068243597904076E-002  0.14368450022427759        0.0000000000000000     
  -7.1421280763581924E-002  0.15113215902791613        0.0000000000000000     
  -7.2703378076256847E-002  0.15868851110963622        0.0000000000000000     
  -7.3914535535928805E-002  0.16635355646943784        0.0000000000000000     
  -7.5129390059424928E-002  0.13680204056280287        0.0000000000000000     
  -7.6675501443363894E-002  0.14411769552754106        0.0000000000000000     
  -7.8146446052459406E-002  0.15154157922902195        0.0000000000000000     
  -7.9542223886711422E-002  0.15907369166724564        0.0000000000000000     
  -8.0862834946119955E-002  0.16671403284221209        0.0000000000000000     
  -8.1806513564175287E-002  0.13729667549151486        0.0000000000000000     
  -8.3473760870177341E-002  0.14458720543895387        0.0000000000000000     
  -8.5061184691578418E-002  0.15198605729849066        0.0000000000000000     
  -8.6568785028378517E-002  0.15949323107012536        0.0000000000000000     
  -8.7996561880577653E-002  0.16710872675385785        0.0000000000000000     
  -8.8675637093474383E-002  0.13782943948485657        0.0000000000000000     
  -9.0463021878344388E-002  0.14509302995851600        0.0000000000000000     
  -9.2165496680938985E-002  0.15246559323632222        0.0000000000000000     
  -9.3783061501258133E-002  0.15994712931827532        0.0000000000000000     
  -9.5315716339301873E-002  0.16753763820437523        0.0000000000000000     
  -9.5736760647322200E-002  0.13840033254282796        0.0000000000000000     
  -9.7643284467865077E-002  0.14563516908622745        0.0000000000000000     
  -9.9459382020541109E-002  0.15298018704251662        0.0000000000000000     
 -0.10118505330535028       0.16043538641169552        0.0000000000000000     
 -0.10282029832229261       0.16800076719376417        0.0000000000000000     
  -7.3914535535928805E-002  0.16635355646943784        0.0000000000000000     
  -7.5052819715838159E-002  0.17411787479977522        0.0000000000000000     
  -7.6116297189225260E-002  0.18197204579310261        0.0000000000000000     
  -7.7104967956090106E-002  0.18991606944941999        0.0000000000000000     
  -7.8018832016432699E-002  0.19794994576872735        0.0000000000000000     
  -8.0862834946119955E-002  0.16671403284221209        0.0000000000000000     
  -8.2106617838396206E-002  0.17445375227472107        0.0000000000000000     
  -8.3271911171251364E-002  0.18228399948557231        0.0000000000000000     
  -8.4358714944685387E-002  0.19020477447476591        0.0000000000000000     
  -8.5367029158698329E-002  0.19821607724230181        0.0000000000000000     
  -8.7996561880577653E-002  0.16710872675385785        0.0000000000000000     
  -8.9343633132886138E-002  0.17482373902224180        0.0000000000000000     
  -9.0609116670014284E-002  0.18262946254783072        0.0000000000000000     
  -9.1793012491962159E-002  0.19052589733062447        0.0000000000000000     
  -9.2895320598729694E-002  0.19851304337062325        0.0000000000000000     
  -9.5315716339301873E-002  0.16753763820437523        0.0000000000000000     
  -9.6763865599307941E-002  0.17522783504233755        0.0000000000000000     
  -9.8127913685514115E-002  0.18300843497987770        0.0000000000000000     
  -9.9407860597920394E-002  0.19087943801699575        0.0000000000000000     
 -0.10060370633652677       0.19884084415369163        0.0000000000000000     
 -0.10282029832229261       0.16800076719376417        0.0000000000000000     
 -0.10436731523766161       0.17566604033500821        0.0000000000000000     
 -0.10582830221775076       0.18342091678171338        0.0000000000000000     
 -0.10720325926256009       0.19126539653387964        0.0000000000000000     
 -0.10849218637208959       0.19919947959150699        0.0000000000000000     
  -7.8018832016432699E-002  0.19794994576872735        0.0000000000000000     
  -7.8858693456832163E-002  0.20606636826553482        0.0000000000000000     
  -7.9625356363867639E-002  0.21425803045435252        0.0000000000000000     
  -8.0318820737539126E-002  0.22252493233518042        0.0000000000000000     
  -8.0939086577846625E-002  0.23086707390801853        0.0000000000000000     
  -8.5367029158698329E-002  0.19821607724230181        0.0000000000000000     
  -8.6300051016452300E-002  0.20630975834489670        0.0000000000000000     
  -8.7160977721109464E-002  0.21447766833926732        0.0000000000000000     
  -8.7949809272669779E-002  0.22271980722541362        0.0000000000000000     
  -8.8666545671133329E-002  0.23103617500333565        0.0000000000000000     
  -9.2895320598729694E-002  0.19851304337062325        0.0000000000000000     
  -9.3920785523258346E-002  0.20658302355679170        0.0000000000000000     
  -9.4874151798489598E-002  0.21472796077809478        0.0000000000000000     
  -9.5755419424423407E-002  0.22294785503453241        0.0000000000000000     
  -9.6564588401059831E-002  0.23124270632610458        0.0000000000000000     
 -0.10060370633652677       0.19884084415369163        0.0000000000000000     
 -0.10172089697725033       0.20688616390121986        0.0000000000000000     
 -0.10276487859600802       0.21500890777083487        0.0000000000000000     
 -0.10373565119279998       0.22320907576253665        0.0000000000000000     
 -0.10463321476762610       0.23148666787632521        0.0000000000000000     
 -0.10849218637208959       0.19919947959150699        0.0000000000000000     
 -0.10970038537842818       0.20721917937818110        0.0000000000000000     
 -0.11083315811366481       0.21532050931748759        0.0000000000000000     
 -0.11189050457779945       0.22350346940942642        0.0000000000000000     
 -0.11287242477083215       0.23176805965399766        0.0000000000000000     
  -8.0939086577846625E-002  0.23086707390801853        0.0000000000000000     
  -8.1475514026455934E-002  0.23930511146384362        0.0000000000000000     
  -8.1917463225032836E-002  0.24785970129363252        0.0000000000000000     
  -8.2264934173577345E-002  0.25653084339738513        0.0000000000000000     
  -8.2517926872089448E-002  0.26531853777510150        0.0000000000000000     
  -8.8666545671133329E-002  0.23103617500333565        0.0000000000000000     
  -8.9296803306238695E-002  0.23945233567323937        0.0000000000000000     
  -8.9826198567724544E-002  0.24799385323533082        0.0000000000000000     
  -9.0254731455590917E-002  0.25666072768960996        0.0000000000000000     
  -9.0582401969837745E-002  0.26545295903607691        0.0000000000000000     
  -9.6564588401059831E-002  0.23124270632610458        0.0000000000000000     
  -9.7292501450132698E-002  0.23963904533992786        0.0000000000000000     
  -9.7930001293376021E-002  0.24816340276311893        0.0000000000000000     
  -9.8477087930789742E-002  0.25681577859567767        0.0000000000000000     
  -9.8933761362373904E-002  0.26559617283760423        0.0000000000000000     
 -0.10463321476762610       0.23148666787632521        0.0000000000000000     
 -0.10546260845813800       0.23986524046390909        0.0000000000000000     
 -0.10622887140198724       0.24836834987699677        0.0000000000000000     
 -0.10693200359917389       0.25699599611558827        0.0000000000000000     
 -0.10757200504969792       0.26574817917968357        0.0000000000000000     
 -0.11287242477083215       0.23176805965399766        0.0000000000000000     
 -0.11380712433025451       0.24013092104518302        0.0000000000000000     
 -0.11472280889355825       0.24860869457696438        0.0000000000000000     
 -0.11561947846074334       0.25720138024934164        0.0000000000000000     
 -0.11649713303180978       0.26590897806231489        0.0000000000000000     
  -8.2517926872089448E-002  0.26531853777510150        0.0000000000000000     
  -8.2715430913450225E-002  0.27424917535941784        0.0000000000000000     
  -8.2896435890540757E-002  0.28334914708297038        0.0000000000000000     
  -8.3060941803361002E-002  0.29261845294575900        0.0000000000000000     
  -8.3208948651911002E-002  0.30205709294778382        0.0000000000000000     
  -9.0582401969837745E-002  0.26545295903607691        0.0000000000000000     
  -9.0839555709904568E-002  0.27443357731456292        0.0000000000000000     
  -9.1056538275230872E-002  0.28366561256489953        0.0000000000000000     
  -9.1233349665816657E-002  0.29314906478708680        0.0000000000000000     
  -9.1369989881661923E-002  0.30288393398112456        0.0000000000000000     
  -9.8933761362373904E-002  0.26559617283760423        0.0000000000000000     
  -9.9311044214197702E-002  0.27460285627468961        0.0000000000000000     
  -9.9619959112330445E-002  0.28393409969272509        0.0000000000000000     
  -9.9860506056772061E-002  0.29358990309171051        0.0000000000000000     
 -0.10003268504752261       0.30357026647164603        0.0000000000000000     
 -0.10757200504969792       0.26574817917968357        0.0000000000000000     
 -0.10812989642632963       0.27475701223979809        0.0000000000000000     
 -0.10858669840183940       0.28415460846644697        0.0000000000000000     
 -0.10894241097622724       0.29394096785963031        0.0000000000000000     
 -0.10919703414949311       0.30411609041934817        0.0000000000000000     
 -0.11649713303180978       0.26590897806231489        0.0000000000000000     
 -0.11729611234630036       0.27489604520988803        0.0000000000000000     
 -0.11795675614375782       0.28432713888606514        0.0000000000000000     
 -0.11847906442418214       0.29420225909084613        0.0000000000000000     
 -0.11886303718757338       0.30452140582423110        0.0000000000000000     
 </DataArray>
 <DataArray  type="Float64" Name="stress" NumberOfComponents="3" format="ascii">
   5935701036.8695850       -329303047.58057165       -174297195.58293039     
   5742949015.3552876       -223682741.00570440       -138251495.80493507     
   5541051011.6070242       -148549041.87741256       -102451052.44095968     
   5330007025.6247921       -103901950.19569016       -66895865.490988858     
   5109817057.4085741       -89741465.960569382       -31585934.955048211     
   5681052411.6012497       -164037361.16913056        88732955.122585207     
   5475485686.1492119       -107030845.02705574        104391077.50201660     
   5264160056.3017149       -69220676.869833231        121655558.75091818     
   5047075522.0587635       -50606856.697449923        140526398.86928675     
   4824232083.4203577       -51189384.509917974        161003597.85712165     
   5390349878.2191887       -9587847.1918072701        332568318.40249473     
   5177258778.2107849        391977.33187747002        331790454.19497156     
   4961795851.6454372        2465713.3324456215        334470564.14040422     
   4743961098.5231609       -3366639.1900854111        340608648.23878825     
   4523754518.8439541       -17105080.235722065        350204706.49012548     
   5063593436.7234077        134045494.35140324        557208894.25679946     
   4848268291.5400095        98585726.071100473        543946634.27393365     
   4633958397.6382074        66510128.729443550        535993963.72750580     
   4420663755.0179892        37818702.326410532        533350882.61751556     
   4208384363.6793628        12511446.862010479        536017390.94396740     
   4700783087.1138897        266862663.46048927        762654682.68550193     
   4488514226.1368914        187550401.19063210        740859617.73889899     
   4280647694.2800183        122912569.32115126        726225757.51221943     
   4077183491.5432463        72949167.852034092        718753102.00546396     
   3878121617.9265904        37660196.783301830        718441651.21863246     
   5109817057.4085741       -89741465.960569382       -31585934.955048211     
   4967745834.9819231       -67313315.890330315       -27367908.338101253     
   4824819743.4254732       -47734729.586104631       -21363655.351905107     
   4681038782.7391996       -31005707.047956467       -13573175.996471301     
   4536402952.9231129       -17126248.275841713       -3996470.2717831810     
   4824232083.4203577       -51189384.509917974        161003597.85712165     
   4685620144.8765497       -35965490.388916016        159605806.54983529     
   4546527751.5447493       -22343112.227900982        160745297.07915312     
   4406954903.4249477       -10322250.026890993        164422069.44508147     
   4266901600.5171404        97096.214100122452        170636123.64762041     
   4523754518.8439541       -17105080.235722065        350204706.49012548     
   4390747736.9468937       -8441680.2347867489        343627913.99070776     
   4257634914.6036506       -131748.38780331612        340339458.79526937     
   4124416051.8142142        7824715.3052029610        340339340.90380293     
   3991091148.5785894        15427710.844261646        343627560.31631577     
   4208384363.6793628        12511446.862010479        536017390.94396740     
   4083128611.1929550        15258114.572064638        524698413.98452950     
   3958141232.6021643        18899361.934181690        517418829.79644591     
   3833422227.9070005        23435188.948380232        514178638.37969786     
   3708971597.1074586        28865595.614659309        514977839.73429322     
   3878121617.9265904        37660196.783301830        718441651.21863246     
   3762762767.6147270        35133894.031612158        702817306.53130019     
   3648046705.5402970        34750218.738040209        691983410.08267987     
   3533973431.7033086        36509170.902607441        685939961.87276709     
   3420542946.1037517        40410750.525274038        684686961.90156364     
   4536402952.9231129       -17126248.275841713       -3996470.2717831810     
   4335859964.5624762       -21050279.180868626       -7744868.2559928708     
   4135491839.5423346       -24391432.284244299       -7308535.5901712459     
   3935298577.8626938       -27149707.585962057       -2687472.2743112603     
   3735280179.5235543       -29325105.085983515        6118321.6915941313     
   4266901600.5171404        97096.214100122452        170636123.64762041     
   4077224685.0583224       -4783902.9898366928        165007810.51289645     
   3887755744.1591768       -8971653.6615426540        163774123.18312916     
   3698494777.8196964       -12466155.801020861        166935061.65831274     
   3509441786.0398760       -15267409.408285856        174490625.93844530     
   3991091148.5785894        15427710.844261646        343627560.31631577     
   3812880006.4642153        9769653.4742121696        336157961.78677499     
   3634909950.1286721        4915215.3669481277        333292884.21710849     
   3457180979.5719657        864396.52247381210        335032327.60731024     
   3279693094.7941074       -2382803.0591890812        341376291.95739335     
   3708971597.1074586        28865595.614659309        514977839.73429322     
   3542825928.7801471        22610390.211284399        505705585.56563574     
   3376954457.4508333        17269174.801242113        501247747.51176900     
   3211357183.1195335        12841949.384584427        501604325.57269359     
   3046034105.7862420        9328713.9612724781        506775319.74840343     
   3420542946.1037517        40410750.525274038        684686961.90156364     
   3267062452.0061188        33738307.221350670        673650681.84948921     
   3113889266.1256599        28090224.641347408        667638713.06711555     
   2961023388.4623823        23466502.785270691        666651055.55445039     
   2808464819.0162740        19867141.653106332        670687709.31148922     
   3735280179.5235543       -29325105.085983515        6118321.6915941313     
   3563731041.5871520       -23473988.088464975        1627809.4742088018     
   3391667965.3938141       -19335998.614064217        1329351.8867209572     
   3219090950.9435472       -16911136.662755728        5222948.9291357221     
   3045999998.2363429       -16199402.234580755        13308600.601445410     
   3509441786.0398760       -15267409.408285856        174490625.93844530     
   3348201586.5724244       -9991002.1393573284        167947252.36089236     
   3186577911.3469224       -5992847.3972756863        165274402.14385313     
   3024570760.3633609       -3272945.1820511818        166472075.28730267     
   2862180133.6217523       -1831295.4936509132        171540271.79126722     
   3279693094.7941074       -2382803.0591890812        341376291.95739335     
   3127843173.0259128        2043296.2502014637        332932263.26836085     
   2975740237.9985499        5626018.0290403366        328037226.67044353     
   2823384289.7120166        8365362.2773121595        326691182.16365278     
   2670775328.1663184        10261328.995025635        328894129.74797273     
   3046034105.7862420        9328713.9612724781        506775319.74840343     
   2902655800.9476180        12628907.080245495        496582842.19659346     
   2759154945.3487067        15520597.664929271        489617825.46651471     
   2615531538.9895096        18003785.715323448        485880269.55815870     
   2471785581.8700328        20078471.231446862        485370174.47152638     
   2808464819.0162740        19867141.653106332        670687709.31148922     
   2672639470.3375344        21765830.350746274        658898989.14559758     
   2536822033.3973889        23690891.510370135        650016198.53204465     
   2401012508.1958427        25642325.131990314        644039337.47083032     
   2265210894.7328963        27620131.215606093        640968405.96195030     
   3045999998.2363429       -16199402.234580755        13308600.601445410     
   2882373260.1146488       -13131695.288372278        8850101.1867124178     
   2718941806.2778025       -9413040.7260257006        5169851.7629154949     
   2555705636.7258458       -5043438.5473580360        2267852.3300469532     
   2392664751.4587235       -22888.752598047256        144102.88810935593     
   2862180133.6217523       -1831295.4936509132        171540271.79126722     
   2700885577.0237308       -440942.19578146935        164930737.80272478     
   2539723869.3044510        1392240.6978904009        159724021.22182640     
   2378695010.4639015        3668253.1873538494        155920122.04859322     
   2217799000.5021234        6387095.2726767063        153519040.28303102     
   2670775328.1663184        10261328.995025635        328894129.74797273     
   2513597431.4254899        10509672.144625664        320060719.87845725     
   2356489948.1572804        10992726.869619012        313254694.83332461     
   2199452878.3617058        11710493.170056105        308476054.61259878     
   2042486222.0387554        12662971.045921087        305724799.21626532     
   2471785581.8700328        20078471.231446862        485370174.47152638     
   2320508823.3199182        19720147.732813358        474240047.41390926     
   2169240042.8363085        19388417.789201379        465761872.59742278     
   2017979240.4192238        19083281.400666356        459935650.02205825     
   1866726416.0686386        18804738.567127466        456761379.68782675     
   2265210894.7328963        27620131.215606093        640968405.96195030     
   2121619752.7070224        27190484.568814039        627468720.40909541     
   1977974153.3415430        26579313.456669092        617245554.51410604     
   1834274096.6364627        25786617.879181981        610298908.27697492     
   1690519582.5917666        24812397.836320519        606628781.69770277     
   2392664751.4587235       -22888.752598047256        144102.88810935593     
   2249847077.6861248        6628488.4163645506       -6423316.2822566405     
   2103909194.7445390        2879168.3553707600       -10978490.913547369     
   1954851102.6340313       -11270848.935367584       -13521421.005770516     
   1802672801.3545313       -35821563.456068993       -14052106.558903022     
   2217799000.5021234        6387095.2726767063        153519040.28303102     
   2079098751.4152663        12820547.867821693        143361716.79221272     
   1938324476.9094748        12340582.399829388        134409688.80685031     
   1795476176.9847445        4947198.8687088490        126662956.32693285     
   1650553851.6410749       -9359602.7255439758        120121519.35246484     
   2042486222.0387554        12662971.045921087        305724799.21626532     
   1905597828.9701731        18186828.467054963        293198119.11335129     
   1767681594.2326546        20284546.991736293        281069785.48226535     
   1628737517.8262367        18956126.620085895        269339798.32300657     
   1488765599.7508843        14201567.351980984        258008157.63558808     
   1866726416.0686386        18804738.567127466        456761379.68782675     
   1729344310.3508182        22727330.213979602        443085890.68116736     
   1591980546.7140937        26711062.131133378        429001799.11271816     
   1454635125.1584721        30755934.318638980        414509104.98248535     
   1317308045.6839504        34861946.776466250        399607808.29044849     
   1690519582.5917666        24812397.836320519        606628781.69770277     
   1550338195.5572164        26442053.108626962        593025031.49566424     
   1411221334.3537896        31620127.818022549        578205729.69820142     
   1273168998.9814692        40346621.964427829        562170876.30533624     
   1136181189.4402740        52621535.547928810        544920471.31704950     
   1802672801.3545313       -35821563.456068993       -14052106.558903022     
   1771764193.0721848       -16597712.860985398       -8434005.0125552267     
   1748850732.7829227        29276631.044390798       -41572534.755174309     
   1733932420.4867373        101801468.26002306       -113467695.78676410     
   1727009256.1836596        200976798.78600299       -224119488.10734895     
   1650553851.6410749       -9359602.7255439758        120121519.35246484     
   1527910193.1904812       -13868309.029267907        135639224.04090229     
   1409394073.4923882       -4618552.8246464729        124824880.71169148     
   1295005492.5468075        18389665.888334095        87678489.364833713     
   1184744450.3537507        55156347.109727085        24200050.000337921     
   1488765599.7508843        14201567.351980984        258008157.63558808     
   1309885700.4787052       -3390053.0465788245        278913254.68542475     
   1131265730.7184579       -20115241.738700688        285910886.98894584     
   952905690.47015357       -35973998.724344969        279001054.54615879     
   774805579.73377299       -50966324.003582835        258183757.35707092     
   1317308045.6839504        34861946.776466250        399607808.29044849     
   1117690714.9368551        14837055.087077975        421388086.92100638     
   914465704.46112788       -17213435.697775722        441685484.07660115     
   707633014.25674677       -61289525.578116745        460499999.75721723     
   497192644.32373226       -117391214.55390492        477831633.96286035     
   1136181189.4402740        52621535.547928810        544920471.31704950     
   951325236.56493759        40813015.371708035        563063720.74766707     
   758993994.72038829        4086865.2981213927        592148671.97464728     
   559187463.90662062       -57556914.672862232        632175324.99799597     
   351905644.12363303       -144118324.54125130        683143679.81769848     
   1727009256.1836596        200976798.78600299       -224119488.10734895     
   1456509565.0662556        184477236.09007603       -96575271.705834359     
   1153881581.8826623        60883366.506852210        60121475.727347419     
   819125306.63284206       -169804809.96381146        245970754.19223222     
   452240739.31679869       -507587293.32185221        460972563.68880469     
   1184744450.3537507        55156347.109727085        24200050.000337921     
   977652205.92488146        11808864.737923741        155601585.61433232     
   732763321.91556203       -157527416.23540175        312821222.95918345     
   450077798.32573354       -452852495.81039703        495858962.03489518     
   129595635.15544611       -874166373.98697698        704714802.84144068     
   774805579.73377299       -50966324.003582835        258183757.35707092     
   621593841.13392258       -124019808.30909738        386829540.08358479     
   424917115.43933868       -341956582.93039596        537958995.24010003     
   184775402.64998147       -704776647.86760974        711572122.82665277     
  -98831297.234113336       -1212480003.1205904        907668922.84321713     
   497192644.32373226       -117391214.55390492        477831633.96286035     
   388334470.69337434       -223008783.05099860        597108591.70190060     
   230342962.45398748       -492404133.57816690        735534792.57012832     
   23218119.605588317       -925577266.13538432        893110236.56754124     
  -233040057.85182971       -1522528180.7226508        1069834923.6941240     
   351905644.12363303       -144118324.54125130        683143679.81769848     
   277874094.60322130       -285158059.48782128        786438740.46929312     
   149040862.95953199       -608870068.17864406        905548614.94923770     
  -34594050.807441115       -1115254350.6137438        1040473303.2575277     
  -273030646.69769329       -1804310906.7931287        1191212805.3941715     
   4700783087.1138897        266862663.46048927        762654682.68550193     
   4488514226.1368914        187550401.19063210        740859617.73889899     
   4280647694.2800183        122912569.32115126        726225757.51221943     
   4077183491.5432463        72949167.852034092        718753102.00546396     
   3878121617.9265904        37660196.783301830        718441651.21863246     
   4253926562.5818501        141888089.29444695        818134130.76761878     
   4069503782.9971008        96570040.340363026        807282206.62267172     
   3887293000.7461390        58625315.832222939        802844321.90973628     
   3707294215.8289561        28053915.770014763        804820476.62880790     
   3529507428.2455497        4855840.1537344456        813210670.77989435     
   3828379656.1855488        23306400.569124222        884752960.42949045     
   3669668200.0275812        11342137.541181326        882288790.00214922     
   3510978409.4170709       -549906.99526238441        885491493.71890461     
   3352310284.3540087       -12369733.040206909        894361071.57975638     
   3193663824.8383923       -24117340.593657851        908897523.58470893     
   3424142367.9249930       -88882402.715474129        962511171.67112434     
   3289007477.2283454       -68133307.206919432        965879367.87733436     
   3151703920.2928171       -54613099.161296725        974167272.93972981     
   3012231697.1184030       -48321778.578623414        987374886.85830474     
   2870590807.7051086       -49259345.458888173        1005502209.6330653     
   3041214697.8001761       -194678320.55935061        1051408764.4925195     
   2927521614.5993819       -141856293.90393317        1058053940.2482252     
   2809469533.3733649       -103564260.66590226        1068871659.5721992     
   2687058454.1221418       -79802220.845238328        1083861922.4644499     
   2560288376.8457012       -70570174.441962004        1103024728.9249663     
   3878121617.9265904        37660196.783301830        718441651.21863246     
   3762762767.6147270        35133894.031612158        702817306.53130019     
   3648046705.5402970        34750218.738040209        691983410.08267987     
   3533973431.7033086        36509170.902607441        685939961.87276709     
   3420542946.1037517        40410750.525274038        684686961.90156364     
   3529507428.2455497        4855840.1537344456        813210670.77989435     
   3427523464.7521806        8266382.9719908237        802296981.98262477     
   3325877682.7431626        12804197.404759407        795511178.13703799     
   3224570082.2185073        18469283.452069521        792853259.24313664     
   3123600663.1782074        25261641.113888979        794323225.30091679     
   3193663824.8383923       -24117340.593657851        908897523.58470893     
   3103161710.2005825       -15337863.594352841        902339116.13224089     
   3012693170.2940497       -6446470.8241219521        899246030.34442878     
   2922258205.1188006        2556837.7170530558        899618266.22127962     
   2831856814.6748319        11672062.029163122        903455823.76278687     
   2870590807.7051086       -49259345.458888173        1005502209.6330653     
   2789677503.9599319       -35678845.667415619        1002943708.9801408     
   2708493168.1929588       -23001785.948601484        1003187966.7048502     
   2627037800.4041910       -11228166.302428961        1006234982.8071959     
   2545311400.5936275       -357986.72891557217        1012084757.2871776     
   2560288376.8457012       -70570174.441962004        1103024728.9249663     
   2487070846.0302377       -52756563.247179866        1104110760.5263326     
   2413277676.4398947       -36861747.968658924        1107336987.2183027     
   2338908868.0746803       -22885728.606375337        1112703409.0008872     
   2263964420.9345894       -10828505.160344362        1120210025.8740816     
   3420542946.1037517        40410750.525274038        684686961.90156364     
   3267062452.0061188        33738307.221350670        673650681.84948921     
   3113889266.1256599        28090224.641347408        667638713.06711555     
   2961023388.4623823        23466502.785270691        666651055.55445039     
   2808464819.0162740        19867141.653106332        670687709.31148922     
   3123600663.1782074        25261641.113888979        794323225.30091679     
   2983629827.0027938        21225022.834124088        785291138.01099873     
   2843895391.2324176        17976405.904499888        781018516.69365823     
   2704397355.8670936        15515790.325035691        781505361.34890163     
   2565135720.9068208        13843176.095736265        786751671.97671795     
   2831856814.6748319        11672062.029163122        903455823.76278687     
   2704638935.5726957        10044258.518857956        896345203.45421171     
   2577586549.0634799        8968096.9849478006        893729203.82108700     
   2450699655.1471791        8443577.4274199009        895607824.86341476     
   2323978253.8237939        8470699.8462857008        901981066.58120072     
   2545311400.5936275       -357986.72891557217        1012084757.2871776     
   2430089777.7158442        196014.27557301521        1006812878.1791257     
   2314962739.6188464        1065297.8826816082        1005770774.4493955     
   2199930286.3026352        2249864.0924184322        1008958446.0979928     
   2084992417.7672133        3749712.9047732353        1016375893.1249192     
   2263964420.9345894       -10828505.160344362        1120210025.8740816     
   2159982353.4322209       -8319709.8957500458        1116694162.1857328     
   2056023962.8985124       -5731991.4022912979        1117143228.5785882     
   1952089249.3334551       -3065349.6799880266        1121557225.0526400     
   1848178212.7370615       -319784.72881066799        1129936151.6078892     
   2808464819.0162740        19867141.653106332        670687709.31148922     
   2672639470.3375344        21765830.350746274        658898989.14559758     
   2536822033.3973889        23690891.510370135        650016198.53204465     
   2401012508.1958427        25642325.131990314        644039337.47083032     
   2265210894.7328963        27620131.215606093        640968405.96195030     
   2565135720.9068208        13843176.095736265        786751671.97671795     
   2437453403.4721088        16197149.276304841        775975822.69745791     
   2309899163.9744701        18978048.913789511        768452848.40365672     
   2182473002.4138966        22185875.008168340        764182749.09533846     
   2055174918.7904050        25820627.559456825        763165524.77248466     
   2323978253.8237939        8470699.8462857008        901981066.58120072     
   2205430240.2992101        11577339.309631705        892358282.08677614     
   2087130470.9101682        15511459.224783778        886335318.01095831     
   1969078945.6566703        20273059.591755271        883912174.35374296     
   1851275664.5387154        25862140.410538077        885088851.11512673     
   2084992417.7672133        3749712.9047732353        1016375893.1249192     
   1976569980.8188472        7906400.4507074356        1008046367.3135632     
   1868515954.2044904        13291122.443364024        1003663607.3539454     
   1760830337.9241560        19903878.882752538        1003227613.2460551     
   1653513131.9778433        27744669.768862963        1006738384.9899069     
   1848178212.7370615       -319784.72881066799        1129936151.6078892     
   1750872625.0310073        5184332.6995568275        1123040078.3778179     
   1654055613.8574395        12317038.569540381        1120437716.4326134     
   1557727179.2163649        21078332.881179035        1122129065.7722747     
   1461887321.1077821        31468215.634444296        1128114126.3968081     
   2265210894.7328963        27620131.215606093        640968405.96195030     
   2121619752.7070224        27190484.568814039        627468720.40909541     
   1977974153.3415430        26579313.456669092        617245554.51410604     
   1834274096.6364627        25786617.879181981        610298908.27697492     
   1690519582.5917666        24812397.836320519        606628781.69770277     
   2055174918.7904050        25820627.559456825        763165524.77248466     
   1920809867.5161693        27359909.154022694        751761474.63359010     
   1786332970.8357375        28526372.727933049        743723529.66701555     
   1651744228.7491241        29320018.281238139        739051689.87275195     
   1517043641.2563198        29740845.813902020        737745955.25081038     
   1851275664.5387154        25862140.410538077        885088851.11512673     
   1726392662.6288514        29447137.830287099        875713483.64585030     
   1601340427.2462096        32468023.674107015        869793806.86334598     
   1476118958.3907869        34924797.941994786        867329820.76761210     
   1350728256.0625961        36817460.633980453        868321525.35865223     
   1653513131.9778433        27744669.768862963        1006738384.9899069     
   1538368138.0450766        33452170.597610176        999324747.44589722     
   1422996522.5729411        38404266.295145392        995456386.10310507     
   1307398285.5614445        42600956.861463130        995133300.96154010     
   1191573427.0105879        46042242.296580195        998355492.02120459     
   1461887321.1077821        31468215.634444296        1128114126.3968081     
   1356736293.7648382        39375007.456004202        1122595266.0337033     
   1251301256.8159428        46335100.591063142        1120711267.3862870     
   1145582210.2610962        52348495.039616048        1122462130.4545479     
   1039579154.1003108        57415190.801705897        1127847855.2384858     
   1690519582.5917666        24812397.836320519        606628781.69770277     
   1550338195.5572164        26442053.108626962        593025031.49566424     
   1411221334.3537896        31620127.818022549        578205729.69820142     
   1273168998.9814692        40346621.964427829        562170876.30533624     
   1136181189.4402740        52621535.547928810        544920471.31704950     
   1517043641.2563198        29740845.813902020        737745955.25081038     
   1375060602.1877956        28176551.323724627        728302531.82760108     
   1233321021.7891133        27423785.733014524        719425839.14962649     
   1091824900.0602875        27482549.041829884        711115877.21689606     
   950572237.00130343        28352841.250114977        703372646.02940989     
   1350728256.0625961        36817460.633980453        868321525.35865223     
   1212035800.2191072        33586886.958997071        862080517.02611411     
   1072765735.8842080        28430951.645956933        858188521.77948225     
   932918063.05787992        21349654.694823921        856645539.61874354     
   792492781.74013078        12342996.105633855        857451570.54390812     
   1191573427.0105879        46042242.296580195        998355492.02120459     
   1061263789.6511662        42673060.014499605        994358987.09120417     
   929555476.63905907        34641625.556806684        994493777.58776057     
   796448487.97425795        21947938.923467100        998759863.51087344     
   661942823.65677202        4592000.1145069599        1007157244.8605328     
   1039579154.1003108        57415190.801705897        1127847855.2384858     
   922744570.48397791        55435070.490261167        1125137942.0228724     
   803690244.05368137        46055807.465609491        1128341606.5744734     
   682416174.80942106        29277401.727742910        1137458848.8932805     
   558922362.75120950        5099853.2767055631        1152489668.9793046     
   1136181189.4402740        52621535.547928810        544920471.31704950     
   951325236.56493759        40813015.371708035        563063720.74766707     
   758993994.72038829        4086865.2981213927        592148671.97464728     
   559187463.90662062       -57556914.672862232        632175324.99799597     
   351905644.12363303       -144118324.54125130        683143679.81769848     
   950572237.00130343        28352841.250114977        703372646.02940989     
   791437847.12552178        11163413.746443868        721337927.78293860     
   623689535.94235897       -34739084.781826168        749389073.27686095     
   447327303.45182192       -109354654.33467802        787526082.51119542     
   262351149.65390950       -212683294.91211703        835748955.48591971     
   792492781.74013078        12342996.105633855        857451570.54390812     
   656634703.27544761       -10960914.202034473        873910480.22581756     
   511024071.16522336       -66773336.661499798        899599415.59216785     
   355660885.40946519       -155094271.27274808        934518376.64296305     
   190545146.00816712       -275923718.03578508        978667363.37820184     
   661942823.65677202        4592000.1145069599        1007157244.8605328     
   546915805.01473010       -25559968.473694146        1020781378.0763170     
   420997600.38898230       -92015890.340914637        1042779698.9205726     
   284188209.77955002       -194775765.48708558        1073152207.3933160     
   136487633.18641585       -333839593.91225743        1111898903.4945385     
   558922362.75120950        5099853.2767055631        1152489668.9793046     
   462281152.34335762       -32633749.068560272        1161950621.3344238     
   353610123.61363709       -110466745.82004902        1178929923.2620625     
   232909276.56207013       -228399136.97769287        1203427574.7622292     
   100178611.18864289       -386430922.54154307        1235443575.8349166     
   351905644.12363303       -144118324.54125130        683143679.81769848     
   277874094.60322130       -285158059.48782128        786438740.46929312     
   149040862.95953199       -608870068.17864406        905548614.94923770     
  -34594050.807441115       -1115254350.6137438        1040473303.2575277     
  -273030646.69769329       -1804310906.7931287        1191212805.3941715     
   262351149.65390950       -212683294.91211703        835748955.48591971     
   223637587.91359362       -352299318.26636052        885084742.04789674     
   140681138.42961484       -639391634.09946346        945444848.86027992     
   13481801.201974511       -1073960242.4114594        1016829275.9230937     
  -157960423.76933450       -1656005143.2023256        1099238023.2363060     
   190545146.00816712       -275923718.03578508        978667363.37820184     
   173462447.53956425       -418222167.15022695        986362469.29344022     
   122695655.70692071       -672800927.47814178        1000291401.8811619     
   38244770.510234535       -1039659999.0195148        1020454161.1413652     
  -79890208.050496340       -1518799381.7743783        1046850747.0740668     
   136487633.18641585       -333839593.91225743        1111898903.4945385     
   127348673.48115122       -482926606.13939184        1090271922.2059369     
   95084414.791453511       -709097948.31461918        1070088274.0118738     
   39694857.117344856       -1012353620.4379052        1051347958.9123774     
  -38819999.541201532       -1392693622.5093007        1034050976.9074208     
   100178611.18864289       -386430922.54154307        1235443575.8349166     
   85296265.738324672       -546412635.23392737        1196813100.7853637     
   57847415.683206618       -748282696.60897207        1154835465.2524142     
   17832061.023295343       -992041106.66666079        1109510669.2360888     
  -34749798.241429329       -1277687865.4070668        1060838712.7363962     
   3041214697.8001761       -194678320.55935061        1051408764.4925195     
   2927521614.5993819       -141856293.90393317        1058053940.2482252     
   2809469533.3733649       -103564260.66590226        1068871659.5721992     
   2687058454.1221418       -79802220.845238328        1083861922.4644499     
   2560288376.8457012       -70570174.441962004        1103024728.9249663     
   2723275903.7465439       -75430233.115366578        1185852487.3026791     
   2610588122.5510025       -61453604.135905027        1180524883.6570613     
   2496655516.7828074       -51626390.398615122        1180762368.2185986     
   2381478086.4419737       -45948591.903462768        1186564940.9872746     
   2265055831.5284843       -44420208.650490761        1197932601.9630985     
   2378479523.3919539        35760578.438331842        1303423074.9792783     
   2270775743.1698751        12085419.432296157        1289755894.2936702     
   2164941311.8277178       -5358576.6406817436        1283046346.4540858     
   2060976229.3654773       -16571409.780597091        1283294431.4605203     
   1958880495.7831564       -21553079.987451077        1290500149.3129754     
   2006825556.7363951        138894114.10173804        1404120527.5223107     
   1908084476.4560001        78760776.800672531        1385746972.1580398     
   1814326918.5080886        35239180.607886910        1375723594.2786646     
   1725552882.8926616        8329325.5233819485        1374050393.8841820     
   1641762369.6097178       -1968788.4528452158        1380727370.9745984     
   1608314003.7798731        233970373.87485689        1487944844.9317870     
   1522514322.4093742        138572467.96922857        1468498117.2501760     
   1444812336.8239217        70166881.347090721        1458794111.6923387     
   1375208047.0235200        28753614.008455634        1458832828.2582681     
   1313701453.0081699        14332665.953324258        1468614266.9479690     
   2560288376.8457012       -70570174.441962004        1103024728.9249663     
   2487070846.0302377       -52756563.247179866        1104110760.5263326     
   2413277676.4398947       -36861747.968658924        1107336987.2183027     
   2338908868.0746803       -22885728.606375337        1112703409.0008872     
   2263964420.9345894       -10828505.160344362        1120210025.8740816     
   2265055831.5284843       -44420208.650490761        1197932601.9630985     
   2196914925.5484662       -31050986.904023528        1194887426.1611969     
   2128275833.4686441       -19342385.490237951        1194632779.6301761     
   2059138555.2890093       -9294404.4091646671        1197168662.3700414     
   1989503091.0095718       -907043.66076004505        1202495074.3807869     
   1958880495.7831564       -21553079.987451077        1290500149.3129754     
   1897674312.2965086       -12070818.391915560        1283414127.5620537     
   1836047395.3851228       -3991001.5455120802        1279768969.2622850     
   1773999745.0489950        2686370.5517530441        1279564674.4136715     
   1711531361.2881308        7961297.8998941183        1282801243.0162144     
   1641762369.6097178       -1968788.4528452158        1380727370.9745984     
   1589349006.2743607        4183942.2891280055        1369690864.7289002     
   1536592362.1893349        9192403.8655325770        1362745556.1146286     
   1483492437.3546357        13056596.276362062        1359891445.1317866     
   1430049231.7702656        15776519.521622419        1361128531.7803688     
   1313701453.0081699        14332665.953324258        1468614266.9479690     
   1271939007.4820290        17713295.139124930        1453717637.6617389     
   1229910733.8812857        20207830.742917776        1443562540.1872079     
   1187616632.2059333        21816272.764678955        1438148974.5243771     
   1145056702.4559760        22538621.204423547        1437476940.6732512     
   2263964420.9345894       -10828505.160344362        1120210025.8740816     
   2159982353.4322209       -8319709.8957500458        1116694162.1857328     
   2056023962.8985124       -5731991.4022912979        1117143228.5785882     
   1952089249.3334551       -3065349.6799880266        1121557225.0526400     
   1848178212.7370615       -319784.72881066799        1129936151.6078892     
   1989503091.0095718       -907043.66076004505        1202495074.3807869     
   1895762357.4623649       -296987.58081483841        1198038226.8913152     
   1802159992.0667491        774295.67110598087        1197932569.0979912     
   1708695994.8227262        2306806.0950046778        1202178101.0008194     
   1615370365.7302976        4300543.6908811927        1210774822.5998023     
   1711531361.2881308        7961297.8998941183        1282801243.0162144     
   1629135560.5959470        7003694.4651517272        1277537218.1057069     
   1546992819.2382889        6889622.1455005407        1277010642.5063035     
   1465103137.2151606        7619080.9409461617        1281221516.2180035     
   1383466514.5265586        9192070.8514804840        1290169839.2408028     
   1430049231.7702656        15776519.521622419        1361128531.7803688     
   1360101962.8329644        13582336.242145658        1355191135.8289227     
   1290522444.4131262        12613988.020877898        1354377448.8035212     
   1221310676.5107560        12871474.857839346        1358687470.7041788     
   1152466659.1258457        14354796.752994180        1368121201.5308912     
   1145056702.4559760        22538621.204423547        1437476940.6732512     
   1088661564.1734228        19438937.750178576        1430999980.0609446     
   1032748867.5912658        17947393.297252476        1430032987.9896483     
   977318612.70951176        18063987.845667243        1434575964.4593575     
   922370799.52815306        19788721.395400643        1444628909.4700692     
   1848178212.7370615       -319784.72881066799        1129936151.6078892     
   1750872625.0310073        5184332.6995568275        1123040078.3778179     
   1654055613.8574395        12317038.569540381        1120437716.4326134     
   1557727179.2163649        21078332.881179035        1122129065.7722747     
   1461887321.1077821        31468215.634444296        1128114126.3968081     
   1615370365.7302976        4300543.6908811927        1210774822.5998023     
   1529183016.3671265        9168265.3393698335        1204737131.4576030     
   1443340265.9735730        15184650.219917059        1203105080.6281080     
   1357842114.5496380        22349698.332527399        1205878670.1113188     
   1272688562.0953126        30663409.677172422        1213057899.9072318     
   1383466514.5265586        9192070.8514804840        1290169839.2408028     
   1308717200.7286654        13519335.886826932        1284822556.3631217     
   1234168508.3375111        18515338.944634259        1283992842.8259833     
   1159820437.3531017        24180080.024929643        1287680698.6293838     
   1085672987.7754314        30513559.127677023        1295886123.7733283     
   1152466659.1258457        14354796.752994180        1368121201.5308912     
   1089475178.1156225        18237544.341913700        1363296353.0943742     
   1026540340.9492579        22309104.743697941        1363101003.0262365     
   963662147.62676930        26569477.958397985        1367535151.3264775     
   900840598.14813876        31018663.985958189        1376598797.9950960     
   922370799.52815306        19788721.395400643        1444628909.4700692     
   871456948.52798676        23322890.704605997        1440158521.6513622     
   820455763.80881071        26565947.617103338        1440429561.2288709     
   769367245.37063146        29517892.132928044        1445442028.2025950     
   718191393.21343088        32178724.252014697        1455195922.5725310     
   1461887321.1077821        31468215.634444296        1128114126.3968081     
   1356736293.7648382        39375007.456004202        1122595266.0337033     
   1251301256.8159428        46335100.591063142        1120711267.3862870     
   1145582210.2610962        52348495.039616048        1122462130.4545479     
   1039579154.1003108        57415190.801705897        1127847855.2384858     
   1272688562.0953126        30663409.677172422        1213057899.9072318     
   1176882443.7112467        35939805.210982740        1208260250.9863739     
   1080836201.5013478        40415787.992017746        1207623146.3846033     
   984549835.46562314        44091358.020294487        1211146586.1019213     
   888023345.60406947        46966515.295818001        1218830570.1383376     
   1085672987.7754314        30513559.127677023        1295886123.7733283     
   1000713728.6456978        33610143.462369025        1291860886.3715124     
   915558231.47025895        36052600.978038400        1292521875.8921986     
   830206496.24910629        37840931.674659997        1297869092.3353841     
   744658522.98224068        38975135.552247196        1307902535.7010686     
   900840598.14813876        31018663.985958189        1376598797.9950960     
   828230148.56820071        32386022.210186601        1373397172.1891320     
   755467346.72266841        33245539.549104750        1375407455.9090765     
   682552192.61154151        33597216.002701044        1382629649.1549299     
   609484686.23482430        33441051.571000099        1395063751.9266961     
   718191393.21343088        32178724.252014697        1455195922.5725310     
   659431703.47873795        32267441.454394579        1452869108.4392250     
   600563547.25857377        31994603.705203205        1456279886.4352322     
   541586924.55293727        31360211.004437774        1465428256.5605628     
   482501835.36182451        30364263.352084637        1480314218.8152144     
   1039579154.1003108        57415190.801705897        1127847855.2384858     
   922744570.48397791        55435070.490261167        1125137942.0228724     
   803690244.05368137        46055807.465609491        1128341606.5744734     
   682416174.80942106        29277401.727742910        1137458848.8932805     
   558922362.75120950        5099853.2767055631        1152489668.9793046     
   888023345.60406947        46966515.295818001        1218830570.1383376     
   786360321.41068923        44561302.897258490        1216365176.3433139     
   682471876.40059316        34738021.109643519        1219754733.2803624     
   576358010.57378280        17496669.932983100        1228999240.9495053     
   468018723.93025780       -7162750.6327282488        1244098699.3507292     
   744658522.98224068        38975135.552247196        1307902535.7010686     
   657999552.39716625        36094579.322178811        1305675036.9900815     
   569109482.99262285        25777027.027218729        1309243861.9760516     
   477988314.76860416        8022478.6673409641        1318609010.6589804     
   384636047.72512114       -17169065.757417560        1333770483.0388680     
   609484686.23482430        33441051.571000099        1395063751.9266961     
   537662263.44340444        30034899.765027493        1393067523.9632032     
   463603063.82976764        19172825.218328848        1396808992.6615365     
   387307087.39390355        854827.93087233603        1406288158.0217040     
   308774334.13580662       -24919092.097356871        1421505020.0437012     
   482501835.36182451        30364263.352084637        1480314218.8152144     
   425348454.54941028        26382264.225809827        1478542637.2626655     
   365952618.91202533        14925415.682966202        1482450125.3368142     
   304314328.44965309       -4006282.2765045464        1492036683.0376692     
   240433583.16230586       -30412829.652558729        1507302310.3652320     
   558922362.75120950        5099853.2767055631        1152489668.9793046     
   462281152.34335762       -32633749.068560272        1161950621.3344238     
   353610123.61363709       -110466745.82004902        1178929923.2620625     
   232909276.56207013       -228399136.97769287        1203427574.7622292     
   100178611.18864289       -386430922.54154307        1235443575.8349166     
   468018723.93025780       -7162750.6327282488        1244098699.3507292     
   390430589.68332314       -41395596.908426285        1242648283.2905247     
   302673081.90434623       -109526354.95760965        1247527863.3039682     
   204746200.59332889       -211555024.78025660        1258737439.3910925     
   96649945.750253752       -347481606.37643266        1276277011.5518706     
   384636047.72512114       -17169065.757417560        1333770483.0388680     
   322705693.92810297       -48919744.676826343        1323579217.4847589     
   252466411.38884383       -108366852.73703955        1318529594.5054669     
   173918200.10735393       -195510389.93802351        1318621614.1009860     
   87061060.083619192       -310350356.27981925        1323855276.2713239     
   308774334.13580662       -24919092.097356871        1421505020.0437012     
   259106465.07767931       -55206192.373804942        1404743423.9171464     
   202990112.06713456       -106988239.15832193        1391935116.8665533     
   140425275.10415560       -180265232.45094752        1383080098.8919246     
   71411954.188755795       -275037172.25164282        1378178369.9932430     
   240433583.16230586       -30412829.652558729        1507302310.3652320     
   199632903.13206676       -60254939.999326885        1486140902.5876813     
   154244183.93920949       -105390514.22148903        1467744430.3872356     
   104267425.58373564       -165819552.31903970        1452112893.7638943     
   49702628.065644726       -241542054.29198074        1439246292.7176604     
   100178611.18864289       -386430922.54154307        1235443575.8349166     
   85296265.738324672       -546412635.23392737        1196813100.7853637     
   57847415.683206618       -748282696.60897207        1154835465.2524142     
   17832061.023295343       -992041106.66666079        1109510669.2360888     
  -34749798.241429329       -1277687865.4070668        1060838712.7363962     
   96649945.750253752       -347481606.37643266        1276277011.5518706     
   79730664.029945374       -488721940.83143491        1221964218.6248376     
   51442176.855559409       -667859626.80004597        1165106778.6879632     
   11784484.227079511       -884894664.28228509        1105704691.7412210     
  -39242413.855492353       -1139827053.2781782        1043757957.7846411     
   87061060.083619192       -310350356.27981925        1323855276.2713239     
   70397737.731986403       -432161443.80582631        1255257014.4759781     
   43562509.076971203       -587878885.67643428        1184916619.1443043     
   6555374.1185871363       -777502681.89160538        1112834090.2763214     
  -40623667.143181562       -1001032832.4514042        1039009427.8720003     
   71411954.188755795       -275037172.25164282        1378178369.9932430     
   57297486.844444409       -376731144.15708101        1296691488.3387578     
   34208412.347464859       -508340473.23808205        1214264986.6214786     
   2144730.6978259385       -669865159.49461317        1130898864.8414009     
  -38893558.104475528       -861305202.92669177        1046593122.9985474     
   49702628.065644726       -241542054.29198074        1439246292.7176604     
   40429911.367315128       -322431041.88523859        1346267640.2131910     
   23379886.667024463       -429244389.48503339        1253151881.1194527     
  -1447446.0352037549       -561982097.09128392        1159899015.4364660     
  -34052086.739392132       -720644164.70407939        1066509043.1642098     
   1608314003.7798731        233970373.87485689        1487944844.9317870     
   1522514322.4093742        138572467.96922857        1468498117.2501760     
   1444812336.8239217        70166881.347090721        1458794111.6923387     
   1375208047.0235200        28753614.008455634        1458832828.2582681     
   1313701453.0081699        14332665.953324258        1468614266.9479690     
   1148787999.9723735        123561189.63064072        1456107899.0556018     
   1099624453.9653797        74830071.097362220        1452643821.3366473     
   1054592069.3363581        39869490.490663707        1456849405.4568498     
   1013690846.0853107        18679447.810541749        1468724651.4162018     
   976920784.21223760        11259943.057003260        1488269559.2147112     
   717506796.43116248        21625445.466311067        1440306282.9027619     
   699056356.40305352        17784205.489998907        1448197231.6715441     
   680770543.34584165        14491722.083344102        1461684781.9948611     
   662649357.25953066        11747995.246358305        1480768933.8727179     
   644692798.14411581        9553024.9790270329        1505449687.3051081     
   314470393.15623796       -71836858.618130937        1440539996.4732692     
   320810029.72239399       -32565128.852868214        1455158348.2548647     
   323347758.85237449       -5966423.8748573810        1473300241.3063803     
   322083580.54617864        7959256.3158990294        1494965675.6278124     
   317017494.80380565        9211911.7193967998        1520154651.2191684     
  -60321209.852398850       -156825722.62268996        1456809039.7671199     
  -35114526.076593652       -76217931.931225419        1473527171.0866082     
  -17676284.144044466       -21504947.383946896        1491695783.3913991     
  -8006484.0547421686        7313231.0191760343        1511314876.6814902     
  -6105125.8086986300        10236603.278101709        1532384450.9568858     
   1313701453.0081699        14332665.953324258        1468614266.9479690     
   1271939007.4820290        17713295.139124930        1453717637.6617389     
   1229910733.8812857        20207830.742917776        1443562540.1872079     
   1187616632.2059333        21816272.764678955        1438148974.5243771     
   1145056702.4559760        22538621.204423547        1437476940.6732512     
   976920784.21223760        11259943.057003260        1488269559.2147112     
   946404940.16847610        12034635.013873637        1474716201.1777647     
   915923603.77637267        12924352.476269364        1465673913.3683922     
   885476775.03592610        13929095.444191337        1461142695.7865946     
   855064453.94714022        15048863.917643636        1461122548.4323757     
   644692798.14411581        9553024.9790270329        1505449687.3051081     
   624765093.91380095        7524241.2062781155        1493589992.1980882     
   605172233.06140816        6611602.0266058743        1486010905.7345192     
   585914215.58693862        6815107.4400097728        1482712427.9143987     
   566991041.49039185        8134757.4464899600        1483694558.7377264     
   317017494.80380565        9211911.7193967998        1520154651.2191684     
   307019468.71800548        4182113.7163502425        1510339010.7227180     
   297656621.73639363        1269579.3939305097        1504573517.2855897     
   288928953.85896653        474308.75212609768        1502858170.9077840     
   280836465.08573157        1796301.7909626663        1505192971.5893047     
  -6105125.8086986300        10236603.278101709        1532384450.9568858     
  -6831935.4189110417        2008252.5440860712        1524963256.7516451     
  -6623230.1986715794       -3101715.4217583891        1521361748.0216019     
  -5479010.1479835371       -5093300.6194405705        1521579924.7667594     
  -3399275.2668404188       -3966503.0489381249        1525617786.9871118     
   1145056702.4559760        22538621.204423547        1437476940.6732512     
   1088661564.1734228        19438937.750178576        1430999980.0609446     
   1032748867.5912658        17947393.297252476        1430032987.9896483     
   977318612.70951176        18063987.845667243        1434575964.4593575     
   922370799.52815306        19788721.395400643        1444628909.4700692     
   855064453.94714022        15048863.917643636        1461122548.4323757     
   813320468.42396295        13300542.768767565        1455752027.4420493     
   771892355.27638292        12605129.538546741        1455829802.5782228     
   730780114.50439203        12962624.226958632        1461355873.8409059     
   689983746.10799527        14373026.834014744        1472330241.2300966     
   566991041.49039185        8134757.4464899600        1483694558.7377264     
   539722001.82802403        7684936.5334295332        1479236146.4904323     
   512602265.21644306        7732792.4563238323        1480164357.9551420     
   485631831.65564638        8278325.2151654959        1486479193.1318593     
   458810701.14563572        9321534.8099616468        1498180652.0205796     
   280836465.08573157        1796301.7909626663        1505192971.5893047     
   267866164.38559759        2592119.0441352427        1501452337.2061052     
   254878597.41144806        3330382.0505878031        1503036654.1204066     
   241873764.16327170        4011090.8102853596        1509945922.3322177     
   228851664.64107504        4634245.3232481927        1522180141.8415296     
  -3399275.2668404188       -3966503.0489381249        1525617786.9871118     
  -2247043.9033111013       -1977909.6991004122        1522400599.5890608     
  -1278648.1386061942       -602101.67867601477        1524446691.0740166     
  -494087.97273297311        160921.01230873712        1531756061.4419777     
   106636.59431464756        311158.37387482065        1544328710.6929445     
   922370799.52815306        19788721.395400643        1444628909.4700692     
   871456948.52798676        23322890.704605997        1440158521.6513622     
   820455763.80881071        26565947.617103338        1440429561.2288709     
   769367245.37063146        29517892.132928044        1445442028.2025950     
   718191393.21343088        32178724.252014697        1455195922.5725310     
   689983746.10799527        14373026.834014744        1472330241.2300966     
   651208204.08649683        16779421.470916480        1468256735.2270384     
   612373763.83272672        18989488.666913033        1469039218.2741904     
   573480425.34669888        21003228.422047645        1474677690.3715601     
   534528188.62840474        22820640.736300290        1485172151.5191405     
   458810701.14563572        9321534.8099616468        1498180652.0205796     
   432500787.11422461        10698350.477987394        1494537202.5677097     
   406160410.33728981        11973623.660933539        1495864303.8190472     
   379789570.81483430        13147354.358810976        1502161955.7745953     
   353388268.54685700        14219542.571616083        1513430158.4343534     
   228851664.64107504        4634245.3232481927        1522180141.8415296     
   215334697.61116961        5079677.7258159220        1518999923.6733763     
   201815703.32249069        5518352.5991403759        1520904817.8634317     
   188294681.77502874        5950269.9431870207        1527894824.4116929     
   174771632.96878999        6375429.7579793781        1539969943.3181632     
   106636.59431464756        311158.37387482065        1544328710.6929445     
  -290064.42266096070       -76596.785574878857        1541644898.5440431     
  -660357.21167085750       -376324.51847151318        1544160760.4073503     
  -1004241.7727160725       -588024.82481955457        1551876296.2828636     
  -1321718.1057926021       -711697.70460531197        1564791506.1705778     
   718191393.21343088        32178724.252014697        1455195922.5725310     
   659431703.47873795        32267441.454394579        1452869108.4392250     
   600563547.25857377        31994603.705203205        1456279886.4352322     
   541586924.55293727        31360211.004437774        1465428256.5605628     
   482501835.36182451        30364263.352084637        1480314218.8152144     
   534528188.62840474        22820640.736300290        1485172151.5191405     
   490667805.15077144        22954912.635702938        1483606189.0417888     
   446727399.21065813        22822442.993509650        1487753126.6258516     
   402706970.80807060        22423231.809733644        1497612964.2713258     
   358606519.94300175        21757279.084353432        1513185701.9782109     
   353388268.54685700        14219542.571616083        1513430158.4343534     
   324356642.56083524        14378204.538417056        1512658232.3064551     
   295273438.13532531        14364938.373590961        1517574514.1720641     
   266138655.27033520        14179744.077165559        1528179004.0311785     
   236952293.96586195        13822621.649127074        1544471701.8837960     
   174771632.96878999        6375429.7579793781        1539969943.3181632     
   160498215.70892960        6537317.1625386849        1540025238.2332110     
   146201664.03257570        6622089.8454538882        1545744049.0738616     
   131881977.93973531        6629747.8067464605        1557126375.8401091     
   117539157.43040784        6560291.0464164279        1574172218.5319548     
  -1321718.1057926021       -711697.70460531197        1564791506.1705778     
  -907475.40494183905       -567749.49192277249        1565707206.8220696     
  -487923.09759736061       -406102.59092854307        1572261731.3312519     
  -63061.183738281703       -226757.00155265882        1584455079.6981266     
   367110.33663002192       -29712.723811304357        1602287251.9226875     
   482501835.36182451        30364263.352084637        1480314218.8152144     
   425348454.54941028        26382264.225809827        1478542637.2626655     
   365952618.91202533        14925415.682966202        1482450125.3368142     
   304314328.44965309       -4006282.2765045464        1492036683.0376692     
   240433583.16230586       -30412829.652558729        1507302310.3652320     
   358606519.94300175        21757279.084353432        1513185701.9782109     
   316377850.19898558        18978885.854171515        1509830957.2478988     
   272466142.58263320        10590366.382863700        1511999934.6597834     
   226871397.09395021       -3408279.3295442015        1519692634.2138598     
   179593613.73292917       -23017051.283080250        1532909055.9101331     
   236952293.96586195        13822621.649127074        1544471701.8837960     
   209204485.33449420        12114679.328274898        1540186447.0871375     
   180333055.78344479        6661333.9418156594        1541269566.9481649     
   150338005.31270462       -2537414.5102799833        1547721061.4668825     
   119219333.92228362       -15481566.027975775        1559540930.6432867     
   117539157.43040784        6560291.0464164279        1574172218.5319548     
   103828359.95595846        5789644.6482007541        1569609106.7803698     
   89553358.514464900        3138318.3598368429        1570259022.2019701     
   74714153.105935991       -1393687.8186460361        1576121964.7967517     
   59310743.730370134       -7806373.8872516751        1587197934.5647042     
   367110.33663002192       -29712.723811304357        1602287251.9226875     
   249474.06335511466        3781.8138697097311        1598098936.3276050     
   127050.77568841066        21319.636910707741        1598968300.4211988     
  -159.52637210298963        22900.745305673401        1604895344.2034647     
  -132156.84281800818        8525.1390833612022        1615880067.6743963     
   240433583.16230586       -30412829.652558729        1507302310.3652320     
   199632903.13206676       -60254939.999326885        1486140902.5876813     
   154244183.93920949       -105390514.22148903        1467744430.3872356     
   104267425.58373564       -165819552.31903970        1452112893.7638943     
   49702628.065644726       -241542054.29198074        1439246292.7176604     
   179593613.73292917       -23017051.283080250        1532909055.9101331     
   148359964.25156808       -45585244.592222542        1507301963.6506774     
   113684520.87143865       -79626084.230595410        1484610593.8430369     
   75567283.592527762       -125139570.19823895        1464834946.4872093     
   34008252.414839238       -182125702.49514002        1447975021.5831947     
   119219333.92228362       -15481566.027975775        1559540930.6432867     
   97983534.631827280       -30646596.406870849        1530825440.0430775     
   74452186.706439689       -53463455.568870202        1505176458.7693889     
   48625290.146110192       -83932143.514007792        1482593986.8222189     
   20502844.950853080       -122052660.24224024        1463078024.2015750     
   59310743.730370134       -7806373.8872516751        1587197934.5647042     
   48503614.272835165       -15438995.443304557        1556711331.7648909     
   36547181.444212943       -26902628.236316659        1529442025.1663058     
   23441445.244491406       -42197272.266327001        1505390014.7689385     
   9186405.6736779325       -61322927.533310473        1484555300.5728133     
  -132156.84281800818        8525.1390833612022        1615880067.6743963     
  -79796.825405160082        37558.298493943039        1584959638.8161149     
  -30494.915237814675        56397.767081325357        1557407293.0337746     
   15748.887665132897        65043.544789463216        1533223030.3273644     
   58934.583319924219        63495.631671107469        1512406850.6968894     
   49702628.065644726       -241542054.29198074        1439246292.7176604     
   40429911.367315128       -322431041.88523859        1346267640.2131910     
   23379886.667024463       -429244389.48503339        1253151881.1194527     
  -1447446.0352037549       -561982097.09128392        1159899015.4364660     
  -34052086.739392132       -720644164.70407939        1066509043.1642098     
   34008252.414839238       -182125702.49514002        1447975021.5831947     
   29846877.971156016       -241957044.75226980        1347497311.4373033     
   19853996.120454669       -321226745.03279471        1246229052.9989872     
   4029606.8627477586       -419934803.33667427        1144170246.2682476     
  -17626289.801978767       -538081219.66394281        1041320891.2450780     
   20502844.950853080       -122052660.24224024        1463078024.2015750     
   19585836.467072003       -161386450.05167186        1357371357.1083515     
   14783121.171216935       -213672595.90135139        1250220700.0195515     
   6094699.0632867366       -278911097.79128224        1141626052.9351625     
  -6479429.8567157984       -357101955.72145134        1031587415.8551943     
   9186405.6736779325       -61322927.533310473        1484555300.5728133     
   9646786.8550554104       -80719257.783470318        1375889777.2263529     
   8167261.8193070889       -106581942.09071894        1265126822.1811540     
   4747830.5664144009       -138910980.45511666        1152266435.4372098     
  -611506.90361049771       -177706372.87661383        1037308616.9945320     
   58934.583319924219        63495.631671107469        1512406850.6968894     
   29729.135116586123        44532.052367858581        1403052571.7912934     
   6418.0647295368472        45216.399118211863        1290947419.4837990     
  -10998.627869726453        65548.671829933388        1176091393.7744019     
  -22520.942653066944        105528.87059264928        1058484494.6630999     
  -60321209.852398850       -156825722.62268996        1456809039.7671199     
  -35114526.076593652       -76217931.931225419        1473527171.0866082     
  -17676284.144044466       -21504947.383946896        1491695783.3913991     
  -8006484.0547421686        7313231.0191760343        1511314876.6814902     
  -6105125.8086986300        10236603.278101709        1532384450.9568858     
  -386440279.23548073       -87078489.442343399        1478251205.6556525     
  -365264605.68260962       -41234765.822649628        1480640701.0660555     
  -348638327.69194514       -10555694.076979399        1486501415.4131517     
  -336561445.26348537        4958725.7946755737        1495833348.6969421     
  -329033958.39723623        5308493.7922970951        1508636500.9174302     
  -735855347.85170150       -24320056.031943530        1484909916.0834911     
  -712937147.51778173       -11508338.382816494        1476726329.5793610     
  -691349296.46502495       -3131118.3375677466        1474034699.9633169     
  -671091794.69342792        811604.10381522775        1476835027.2353606     
  -652164642.20299447        319828.94131961465        1485127311.3954942     
  -1108566415.7010589        31449577.608519495        1476785171.0506358     
  -1078132151.5821118        12961350.388267934        1461784056.6265242     
  -1045809190.4632818        768779.83429187536        1454295637.0418930     
  -1011597532.3445663       -5128134.0534021854        1454319912.2967441     
  -975497177.22596824       -4729391.2748157978        1461856882.3910754     
  -1504573482.7835550        80230411.479037702        1453876970.5570920     
  -1460849617.8755980        32174300.490603983        1435813882.2075500     
  -1412018009.6867163        1144000.4385964274        1427284226.6488843     
  -1358078658.2169046       -12860488.676978290        1428288003.8810923     
  -1299031563.4661636       -9839166.8561277986        1438825213.9041727     
  -6105125.8086986300        10236603.278101709        1532384450.9568858     
  -6831935.4189110417        2008252.5440860712        1524963256.7516451     
  -6623230.1986715794       -3101715.4217583891        1521361748.0216019     
  -5479010.1479835371       -5093300.6194405705        1521579924.7667594     
  -3399275.2668404188       -3966503.0489381249        1525617786.9871118     
  -329033958.39723623        5308493.7922970951        1508636500.9174302     
  -318931932.03915787        277699.45380870998        1501953983.1679554     
  -308337383.20699447       -3111353.3043966293        1499043756.1353085     
  -297250311.90075195       -4858664.4823382646        1499905819.8194878     
  -285670718.12043041       -4964234.0800159276        1504540174.2204926     
  -652164642.20299447        319828.94131961465        1485127311.3954942     
  -631369193.47196615       -1554033.0802271068        1478666645.6860199     
  -610524214.62322986       -3262794.7094119787        1475930875.9350002     
  -589629705.65678120       -4806455.9462242424        1476920002.1424341     
  -568685666.57262313       -6185016.7906712592        1481634024.3083282     
  -975497177.22596824       -4729391.2748157978        1461856882.3910754     
  -944143719.71734107       -3486945.0580362678        1455101244.3058329     
  -913183724.44737411       -3556039.6367949247        1452023107.4206767     
  -882617191.41606617       -4936675.0110818744        1452622471.7356050     
  -852444120.62342048       -7628851.1809062362        1456899337.2506135     
  -1299031563.4661636       -9839166.8561277986        1438825213.9041727     
  -1257255510.7752805       -5521036.4796180725        1431257779.0273998     
  -1216315912.6794291       -3991088.0865477324        1427320450.5923388     
  -1176212769.1786096       -5249321.6769162416        1427013228.5989914     
  -1136946080.2728221       -9295737.2507259250        1430336113.0473573     
  -3399275.2668404188       -3966503.0489381249        1525617786.9871118     
  -2247043.9033111013       -1977909.6991004122        1522400599.5890608     
  -1278648.1386061942       -602101.67867601477        1524446691.0740166     
  -494087.97273297311        160921.01230873712        1531756061.4419777     
   106636.59431464756        311158.37387482065        1544328710.6929445     
  -285670718.12043041       -4964234.0800159276        1504540174.2204926     
  -271071429.05120593       -3659420.2922417819        1500849810.4526880     
  -256632041.70960677       -2887612.2632194608        1502397853.6282766     
  -242352556.09564701       -2648809.9929945916        1509184303.7472537     
  -228232972.20931277       -2943013.4815203696        1521209160.8096254     
  -568685666.57262313       -6185016.7906712592        1481634024.3083282     
  -540710382.48231494       -5585301.3703441024        1477498407.0204999     
  -512871066.24843848       -5438812.1381222308        1478576324.7364490     
  -485167717.87099916       -5745549.0940227211        1484867777.4561744     
  -457600337.34999460       -6505512.2380419075        1496372765.1796763     
  -852444120.62342048       -7628851.1809062362        1456899337.2506135     
  -811163904.19663858       -7755552.9334024787        1452346389.2924914     
  -769995721.75509775       -8255701.3033683002        1452982104.3985317     
  -728939573.29879236       -9129296.2907865047        1458806482.5687354     
  -687995458.82772553       -10376337.895666480        1469819523.8030989     
  -1136946080.2728221       -9295737.2507259250        1430336113.0473573     
  -1082431994.1941838       -10170174.981448948        1425393757.2686670     
  -1028006008.2295830       -11338279.758959711        1425615192.6145279     
  -973668122.37902498       -12800051.583281457        1431000419.0849366     
  -919418336.64251244       -14555490.454421163        1441549436.6798933     
   106636.59431464756        311158.37387482065        1544328710.6929445     
  -290064.42266096070       -76596.785574878857        1541644898.5440431     
  -660357.21167085750       -376324.51847151318        1544160760.4073503     
  -1004241.7727160725       -588024.82481955457        1551876296.2828636     
  -1321718.1057926021       -711697.70460531197        1564791506.1705778     
  -228232972.20931277       -2943013.4815203696        1521209160.8096254     
  -215379323.92448968       -3874957.1279489025        1518134504.7266259     
  -202535857.08395815       -4840838.9220166206        1520178332.9759548     
  -189702571.68773282       -5840658.8637726754        1527340645.5576117     
  -176879467.73580194       -6874416.9531742111        1539621442.4716008     
  -457600337.34999460       -6505512.2380419075        1496372765.1796763     
  -431728310.27729565       -8051235.5255994499        1492864577.2116020     
  -405903054.32116020       -9752862.5350361615        1494393683.8959765     
  -380124569.48159468       -11610393.266369343        1500960085.2328069     
  -354392855.75859064       -13623827.719576910        1512563781.2220864     
  -687995458.82772553       -10376337.895666480        1469819523.8030989     
  -649337023.48108983       -12605431.978554755        1465835115.9989674     
  -610761948.92328167       -15112395.357538193        1466806813.1674180     
  -572270235.15430295       -17897228.032621622        1472734615.3084424     
  -533861882.17416012       -20959930.003817201        1483618522.4220412     
  -919418336.64251244       -14555490.454421163        1441549436.6798933     
  -868205463.53586340       -17537546.486797273        1437046121.0887339     
  -817112540.89031422       -20919437.389501840        1437417720.7902756     
  -766139568.70586467       -24701163.162540317        1442664235.7845178     
  -715286546.98250628       -28882723.805883825        1452785666.0714569     
  -1321718.1057926021       -711697.70460531197        1564791506.1705778     
  -907475.40494183905       -567749.49192277249        1565707206.8220696     
  -487923.09759736061       -406102.59092854307        1572261731.3312519     
  -63061.183738281703       -226757.00155265882        1584455079.6981266     
   367110.33663002192       -29712.723811304357        1602287251.9226875     
  -176879467.73580194       -6874416.9531742111        1539621442.4716008     
  -161989916.96560046       -7192007.3756951988        1539880575.8439724     
  -147026734.01170444       -7264157.1858986765        1545742246.6355033     
  -131989918.87412988       -7090866.3838410452        1557206454.8462036     
  -116879471.55286524       -6672134.9694838934        1574273200.4760644     
  -354392855.75859064       -13623827.719576910        1512563781.2220864     
  -325131672.45767736       -14434059.438873112        1512246056.9887147     
  -295728534.39589757       -14771108.621942058        1517494583.7359822     
  -266183441.57324553       -14634975.268770158        1528309361.4638841     
  -236496393.98972052       -14025659.379357822        1544690390.1724329     
  -533861882.17416012       -20959930.003817201        1483618522.4220412     
  -490332741.88118666       -22293905.681497395        1482803650.2563055     
  -446593324.25015742       -22926956.898991719        1487518742.6326826     
  -402643629.28107494       -22859083.656308323        1497763799.5511739     
  -358483656.97393453       -22090285.953432709        1513538821.0117753     
  -715286546.98250628       -28882723.805883825        1452785666.0714569     
  -657593125.23611522       -30771546.103534162        1451553355.6467431     
  -599621103.57448232       -31731702.017042607        1455814723.3256116     
  -541370481.99762058       -31763191.546458423        1465569769.1080666     
  -482841260.50552171       -30866014.691746205        1480818492.9941103     
   367110.33663002192       -29712.723811304357        1602287251.9226875     
   249474.06335511466        3781.8138697097311        1598098936.3276050     
   127050.77568841066        21319.636910707741        1598968300.4211988     
  -159.52637210298963        22900.745305673401        1604895344.2034647     
  -132156.84281800818        8525.1390833612022        1615880067.6743963     
  -116879471.55286524       -6672134.9694838934        1574273200.4760644     
  -103370130.60231546       -5790364.9418352097        1569657943.4305732     
  -89312419.291829333       -3080693.7144011222        1570271540.9862866     
  -74706337.621414751        1456878.7127972580        1576113993.1431952     
  -59551885.591058925        7822352.3397966661        1587185299.9013102     
  -236496393.98972052       -14025659.379357822        1544690390.1724329     
  -208871004.63668489       -12148892.508141458        1540293541.9465718     
  -180144087.54939225       -6600366.5227323323        1541296723.2344484     
  -150315642.72783607        2619918.5768887699        1547699934.0360558     
  -119385670.17202285        15511962.790699728        1559503174.3513982     
  -358483656.97393453       -22090285.953432709        1513538821.0117753     
  -316253148.03975791       -19071800.885059610        1510005731.8756006     
  -272367953.99699146       -10537698.788054854        1512043847.1656907     
  -226828074.84564245        3512020.3375580013        1519653166.8820388     
  -179633510.58570826        23077356.491789676        1532833691.0246584     
  -482841260.50552171       -30866014.691746205        1480818492.9941103     
  -425516560.81153601       -26559090.072595924        1478794513.2176611     
  -365984018.63464642       -14892690.510432437        1482512912.7800074     
  -304243633.97483391        4133183.9948071241        1491973691.6811504     
  -240295406.83211902        30518533.443055362        1507176849.9210830     
  -132156.84281800818        8525.1390833612022        1615880067.6743963     
  -79796.825405160082        37558.298493943039        1584959638.8161149     
  -30494.915237814675        56397.767081325357        1557407293.0337746     
   15748.887665132897        65043.544789463216        1533223030.3273644     
   58934.583319924219        63495.631671107469        1512406850.6968894     
  -59551885.591058925        7822352.3397966661        1587185299.9013102     
  -48657321.933810592        15483672.144613504        1556709559.6413155     
  -36614109.280603454        26973821.935958650        1529444596.0332432     
  -23422247.631449386        42292801.713793576        1505390409.0770893     
  -9081736.9863339029        61440611.478167579        1484546998.7728629     
  -119385670.17202285        15511962.790699728        1559503174.3513982     
  -98098349.800690189        30670735.163187481        1530815780.9767616     
  -74510673.330189586        53497361.199570671        1505181857.8300338     
  -48622640.760528199        83991840.899821937        1482601404.9112213     
  -20434252.091699496        122154174.26396717        1463074422.2203176     
  -179633510.58570826        23077356.491789676        1532833691.0246584     
  -148402880.42604005        45598747.354225375        1507278302.8224599     
  -113720187.06399834        79627015.557908833        1484619078.4241645     
  -75585430.499580666        125162161.10284474        1464856017.8297603     
  -33998610.732786171        182204183.98903546        1447989121.0392640     
  -240295406.83211902        30518533.443055362        1507176849.9210830     
  -199570913.80986595        60267708.717713818        1486097125.1784070     
  -154242650.48202452        105362785.01099172        1467756257.8156171     
  -104310616.84859985        165803762.32288343        1452154247.8327086     
  -49774812.909585506        241590640.65340996        1439291095.2296915     
   58934.583319924219        63495.631671107469        1512406850.6968894     
   29729.135116586123        44532.052367858581        1403052571.7912934     
   6418.0647295368472        45216.399118211863        1290947419.4837990     
  -10998.627869726453        65548.671829933388        1176091393.7744019     
  -22520.942653066944        105528.87059264928        1058484494.6630999     
  -9081736.9863339029        61440611.478167579        1484546998.7728629     
  -9588273.1010544077        80826892.132135212        1375885026.1637943     
  -8149446.1781825572        106697716.24474540        1265128616.2362461     
  -4765256.2177209556        139053083.81599069        1152277768.9902074     
   564296.78033251315        177892994.84587175        1037332484.4257032     
  -20434252.091699496        122154174.26396717        1463074422.2203176     
  -19542587.206027806        161508358.65125519        1357367469.3441930     
  -14766090.622972652        213811982.02982336        1250222515.2330050     
  -6104762.3425439894        279065044.39964014        1141639559.8867600     
   6441397.6352739483        357267545.76075095        1031618603.3054551     
  -33998610.732786171        182204183.98903546        1447989121.0392640     
  -29833213.179804489        242088931.60972419        1347499901.3325055     
  -19843515.269646406        321388013.75433576        1246229116.4740982     
  -4029517.0023259819        420101430.42281842        1144176766.4640563     
   17608781.622165948        538229181.61520851        1041342851.3023833     
  -49774812.909585506        241590640.65340996        1439291095.2296915     
  -40460151.022373959        322568611.00758195        1346282322.1287129     
  -23381720.118209243        429425811.41825986        1253148419.9595211     
   1460479.8029199839        562162241.88548636        1159889388.7220986     
   34066448.741009623        720777902.40925181        1066505228.4164717     
  -1504573482.7835550        80230411.479037702        1453876970.5570920     
  -1460849617.8755980        32174300.490603983        1435813882.2075500     
  -1412018009.6867163        1144000.4385964274        1427284226.6488843     
  -1358078658.2169046       -12860488.676978290        1428288003.8810923     
  -1299031563.4661636       -9839166.8561277986        1438825213.9041727     
  -1935712336.2583072        22902425.125771403        1355631257.0645809     
  -1860500862.3878448        3314716.2946189642        1347012500.6287785     
  -1782620854.0413260       -7377877.6163463593        1346511917.7985086     
  -1702072311.2187443       -9175356.6071015596        1354129508.5737650     
  -1618855233.9201055       -2077720.6776677370        1369865272.9545503     
  -2350806048.3573275       -29612018.814775229        1266124615.1704926     
  -2248150563.1967816       -21944404.790380597        1264104447.0427547     
  -2145265752.3650403       -13512371.862016439        1268787193.3351986     
  -2042151615.8621085       -4315920.0296835899        1280172854.0478234     
  -1938808153.6879916        5644950.7066107988        1298261429.1806316     
  -2749854619.0806270       -77312920.342604280        1185357044.8748350     
  -2623798720.3024068       -43603062.764382839        1187089721.4494772     
  -2499952704.6578617       -17259482.298417211        1194110053.2589538     
  -2378316572.1470022        1717821.0552728176        1206418040.3032665     
  -2258890322.7698188        13328847.296704412        1224013682.5824139     
  -3132858048.4281940       -120200279.45771670        1113328546.1776085     
  -2987445333.7047181       -61661257.627390862        1115968323.8489456     
  -2846681710.9197946       -18619208.925559998        1122480497.5697761     
  -2710567180.0734177        8925866.6477806568        1132865067.3400946     
  -2579101741.1655912        20973969.092614532        1147122033.1599014     
  -1299031563.4661636       -9839166.8561277986        1438825213.9041727     
  -1257255510.7752805       -5521036.4796180725        1431257779.0273998     
  -1216315912.6794291       -3991088.0865477324        1427320450.5923388     
  -1176212769.1786096       -5249321.6769162416        1427013228.5989914     
  -1136946080.2728221       -9295737.2507259250        1430336113.0473573     
  -1618855233.9201055       -2077720.6776677370        1369865272.9545503     
  -1568769998.8406498       -1650674.9346341491        1361480021.3634183     
  -1519197938.3607607       -2934211.1901571751        1356754284.6987381     
  -1470139052.4804363       -5928329.4442256689        1355688062.9605136     
  -1421593341.1996763       -10633029.696849763        1358281356.1487386     
  -1938808153.6879916        5644950.7066107988        1298261429.1806316     
  -1880329711.9778504        2206119.0887954235        1289435520.8698518     
  -1822041164.8718050       -1865694.5426734686        1284298535.9702640     
  -1763942512.3698604       -6570490.1878142357        1282850474.4818709     
  -1706033754.4720161       -11908267.846617699        1285091336.4046667     
  -2258890322.7698188        13328847.296704412        1224013682.5824139     
  -2191934650.1868753        6049345.5906835794        1215124277.5466967     
  -2124845592.2125626       -785538.14410257339        1209953204.4069104     
  -2057623148.8468902       -7175803.9076896906        1208500463.1630611     
  -1990267320.0898416       -13121451.700030446        1210766053.8151391     
  -2579101741.1655912        20973969.092614532        1147122033.1599014     
  -2503584813.4677339        9879004.5710165501        1138546291.3939569     
  -2427611220.3830395        306258.00554049015        1133718290.0086846     
  -2351180961.9115143       -7744270.6038340330        1132638029.0040884     
  -2274294038.0531559       -14272581.257093191        1135305508.3801610     
  -1136946080.2728221       -9295737.2507259250        1430336113.0473573     
  -1082431994.1941838       -10170174.981448948        1425393757.2686670     
  -1028006008.2295830       -11338279.758959711        1425615192.6145279     
  -973668122.37902498       -12800051.583281457        1431000419.0849366     
  -919418336.64251244       -14555490.454421163        1441549436.6798933     
  -1421593341.1996763       -10633029.696849763        1358281356.1487386     
  -1353585864.2732568       -10562002.447955310        1353167469.5648749     
  -1285765961.4454100       -11116222.194306731        1353051139.0517683     
  -1218133632.7161417       -12295688.935915172        1357932364.6094201     
  -1150688878.0854466       -14100402.672773659        1367811146.2378278     
  -1706033754.4720161       -11908267.846617699        1285091336.4046667     
  -1625007843.9943628       -11034262.807077467        1279689866.0336730     
  -1544268981.5998144       -11117084.711226642        1279119716.6796458     
  -1463817167.2883763       -12156733.559074163        1283380888.3425834     
  -1383652401.0600457       -14153209.350612342        1292473381.0224872     
  -1990267320.0898416       -13121451.700030446        1210766053.8151391     
  -1896697933.3575003       -11586956.058809519        1204960946.6750607     
  -1803515068.6927972       -11340867.309723496        1203820925.4981565     
  -1710718726.0957365       -12383185.452772379        1207345990.2844245     
  -1618308905.5663149       -14713910.487955272        1215536141.0338719     
  -2274294038.0531559       -14272581.257093191        1135305508.3801610     
  -2168656132.3626690       -12220082.203145742        1128980711.4890356     
  -2063504222.7243578       -11787569.989788771        1127154765.5073020     
  -1958838309.1382225       -12975044.617013931        1129827670.4349477     
  -1854658391.6042569       -15782506.084806800        1136999426.2719793     
  -919418336.64251244       -14555490.454421163        1441549436.6798933     
  -868205463.53586340       -17537546.486797273        1437046121.0887339     
  -817112540.89031422       -20919437.389501840        1437417720.7902756     
  -766139568.70586467       -24701163.162540317        1442664235.7845178     
  -715286546.98250628       -28882723.805883825        1452785666.0714569     
  -1150688878.0854466       -14100402.672773659        1367811146.2378278     
  -1087159602.0553999       -17510606.728062630        1362500588.3982165     
  -1023726826.6992562       -21242479.696361184        1361888074.7507329     
  -960390552.01701224       -25296021.577657998        1365973605.2953758     
  -897150778.00866282       -29671232.371939361        1374757180.0321362     
  -1383652401.0600457       -14153209.350612342        1292473381.0224872     
  -1308312068.1082451       -18143165.229313970        1286382939.0194867     
  -1233044786.0431504       -22376624.063698769        1284813670.1080415     
  -1157850554.8647535       -26853585.853746891        1287765574.2881427     
  -1082729374.5730591       -31574050.599466801        1295238651.5597990     
  -1618308905.5663149       -14713910.487955272        1215536141.0338719     
  -1531662861.6944005       -19435221.990558445        1208693172.9525471     
  -1445066418.9219971       -24321870.491522372        1206194506.8622012     
  -1358519577.2490911       -29373855.990818202        1208040142.7628312     
  -1272022336.6756940       -34591178.488472402        1214230080.6544325     
  -1854658391.6042569       -15782506.084806800        1136999426.2719793     
  -1757211982.8138733       -21386777.011804581        1129431290.1973939     
  -1659791725.3357956       -27078218.979825020        1126030585.0132110     
  -1562397619.1700246       -32856831.988866508        1126797310.7194271     
  -1465029664.3165622       -38722616.038934827        1131731467.3160455     
  -715286546.98250628       -28882723.805883825        1452785666.0714569     
  -657593125.23611522       -30771546.103534162        1451553355.6467431     
  -599621103.57448232       -31731702.017042607        1455814723.3256116     
  -541370481.99762058       -31763191.546458423        1465569769.1080666     
  -482841260.50552171       -30866014.691746205        1480818492.9941103     
  -897150778.00866282       -29671232.371939361        1374757180.0321362     
  -825632468.83392811       -31464250.142799377        1372294117.8362262     
  -753952626.58516908       -32718824.333582938        1374949797.5908084     
  -682111251.26238656       -33434954.944284767        1382724219.2958891     
  -610108342.86560059       -33612641.974977136        1395617382.9514623     
  -1082729374.5730591       -31574050.599466801        1295238651.5597990     
  -998457424.12166166       -33592637.689034164        1291408259.6112671     
  -914141007.43746161       -35463004.002584159        1292321673.4601424     
  -829780124.52046275       -37185149.540140599        1297978893.1064262     
  -745374775.37066340       -38759074.301699907        1308379918.5501082     
  -1272022336.6756940       -34591178.488472402        1214230080.6544325     
  -1176067991.0993228       -37156708.742250502        1208895780.9718640     
  -1080186246.1313715       -39964241.024084330        1207930350.9336116     
  -984377101.77183390       -43013775.333973348        1211333790.5396738     
  -888640558.02071893       -46305311.671928793        1219106099.7900474     
  -1465029664.3165622       -38722616.038934827        1131731467.3160455     
  -1358464169.7669094       -42156463.302441120        1124756681.9180176     
  -1252088342.6668885       -46222535.398056626        1121775830.0112128     
  -1145902183.0165005       -50920832.325783908        1122788911.5956326     
  -1039905690.8157548       -56251354.085645199        1127795926.6712780     
  -482841260.50552171       -30866014.691746205        1480818492.9941103     
  -425516560.81153601       -26559090.072595924        1478794513.2176611     
  -365984018.63464642       -14892690.510432437        1482512912.7800074     
  -304243633.97483391        4133183.9948071241        1491973691.6811504     
  -240295406.83211902        30518533.443055362        1507176849.9210830     
  -610108342.86560059       -33612641.974977136        1395617382.9514623     
  -538063357.64500904       -30139722.693926871        1393402035.7711613     
  -463781235.21407944       -19209679.378421739        1396960068.5813210     
  -387261975.57283640       -822512.02853576839        1406291481.3819461     
  -308505578.72126985        25021779.355760768        1421396274.1730335     
  -745374775.37066340       -38759074.301699907        1308379918.5501082     
  -658520931.33297133       -36093588.371577948        1306007381.1479352     
  -569400655.35753930       -25873329.315659940        1309439224.3878891     
  -478013947.44436777       -8098297.1339375377        1318675448.2699802     
  -384360807.59345978        17231508.173564449        1333716052.7942097     
  -888640558.02071893       -46305311.671928793        1219106099.7900474     
  -786889281.87543929       -44420687.105594069        1216610549.3479824     
  -682842279.06500506       -34883640.322079539        1219950380.1997161     
  -576499549.58942032       -17694171.321392208        1229125592.3452556     
  -467861093.44868553        7147719.8964557052        1244136185.7846069     
  -1039905690.8157548       -56251354.085645199        1127795926.6712780     
  -923168409.27240586       -55121018.895963043        1125211540.3713009     
  -804106106.33648479       -46240612.397706628        1128493536.0167978     
  -682718782.00800109       -29610134.590909541        1137641913.6077719     
  -559006436.28695416       -5229585.4755658805        1152656673.1442223     
  -240295406.83211902        30518533.443055362        1507176849.9210830     
  -199570913.80986595        60267708.717713818        1486097125.1784070     
  -154242650.48202452        105362785.01099172        1467756257.8156171     
  -104310616.84859985        165803762.32288343        1452154247.8327086     
  -49774812.909585506        241590640.65340996        1439291095.2296915     
  -308505578.72126985        25021779.355760768        1421396274.1730335     
  -258941907.35642377        55285892.388613760        1404691048.9669857     
  -202926819.82088447        107054725.99044318        1391927502.5465336     
  -140460316.11464572        180328280.16127169        1383105634.9116874     
  -71542396.237708032        275106554.90109664        1378225446.0624354     
  -384360807.59345978        17231508.173564449        1333716052.7942097     
  -322521325.29826987        49041548.740913928        1323540913.9674158     
  -252382780.96727338        108515129.42762430        1318510275.3319421     
  -173945174.60046077        195652250.23371631        1318624136.8877814     
  -87208506.197834715        310452911.15919209        1323882498.6349385     
  -467861093.44868553        7147719.8964557052        1244136185.7846069     
  -390309167.63539636        41534677.774636596        1242646720.1797016     
  -302610533.92118311        109743995.32256164        1247504576.1718333     
  -204765192.30604094        211775672.54025120        1258709753.7609987     
  -96773142.789975539        347629709.42768496        1276262252.9471900     
  -559006436.28695416       -5229585.4755658805        1152656673.1442223     
  -462305434.36780483        32765279.489778072        1162008467.6038444     
  -353610078.68262184        110741323.67522867        1178910405.0662143     
  -232920369.23139465        228698547.08082777        1203362485.5313303     
  -100236306.01412815        386636949.70656097        1235364708.9991956     
  -49774812.909585506        241590640.65340996        1439291095.2296915     
  -40460151.022373959        322568611.00758195        1346282322.1287129     
  -23381720.118209243        429425811.41825986        1253148419.9595211     
   1460479.8029199839        562162241.88548636        1159889388.7220986     
   34066448.741009623        720777902.40925181        1066505228.4164717     
  -71542396.237708032        275106554.90109664        1378225446.0624354     
  -57374049.239064336        376848406.15974855        1296709383.4927831     
  -34236163.433806509        508488720.10712504        1214260389.0991075     
  -2128738.8218971193        670027496.74333823        1130878462.8814039     
   38948224.596649408        861464736.06832778        1046563604.8396872     
  -87208506.197834715        310452911.15919209        1323882498.6349385     
  -70494481.961502314        432266240.96017087        1255265878.0178971     
  -43605149.128867120        587997266.08215880        1184908522.8210251     
  -6540507.6999083459        777645986.52522206        1112810433.0443153     
   40699442.325353563        1001212402.2892965        1038971608.6877981     
  -96773142.789975539        347629709.42768496        1276262252.9471900     
  -79821449.189686745        488822115.40885258        1221951805.7040493     
  -51488677.203391075        667951449.34337652        1165092821.1252759     
  -11774826.831126213        885017711.23114192        1105685299.2108636     
   39320101.927133024        1140020901.0721943        1043729239.9608247     
  -100236306.01412815        386636949.70656097        1235364708.9991956     
  -85354950.923595309        546516029.50585699        1196767166.5512424     
  -57886747.657403260        748351269.89068103        1154813284.0118532     
  -17831696.215532720        992142670.86110544        1109503061.3810115     
   34810203.401989996        1277890232.4170289        1060836498.6587571     
  -3132858048.4281940       -120200279.45771670        1113328546.1776085     
  -2987445333.7047181       -61661257.627390862        1115968323.8489456     
  -2846681710.9197946       -18619208.925559998        1122480497.5697761     
  -2710567180.0734177        8925866.6477806568        1132865067.3400946     
  -2579101741.1655912        20973969.092614532        1147122033.1599014     
  -3486260619.5188570       -74211745.617628932        1019874153.2777598     
  -3336144460.5791163       -37469074.066773415        1015374759.1662985     
  -3188639254.7308273       -9429579.4874205589        1015650930.0054293     
  -3043745001.9739852        9906738.1204439402        1020702665.7951531     
  -2901461702.3085971        20539878.756796956        1030529966.5354710     
  -3849250990.5119553       -31099551.748268366        916304929.30261052     
  -3691850904.7813663       -15379085.704509974        907044192.06329775     
  -3535023633.2951288       -1568000.4752504826        903462188.67568064     
  -3378769176.0532465        10333703.939506054        905558919.13975918     
  -3223087533.0557127        20326027.539754868        913334383.45553386     
  -4221829161.4074841        9136302.1503610611        802620874.25216115     
  -4054564666.3114696        4608707.4594051838        790976622.53994334     
  -3885834846.6127105        4965528.1109297276        785914273.58052897     
  -3715639702.3112040        10206764.104953051        787433827.37390852     
  -3543979233.4069467        20332415.441476345        795535283.92009103     
  -4603995132.2054567        46495816.078257799        678821988.12641013     
  -4424285745.1694326        22494305.424948931        667172050.59623671     
  -4241072894.6835651        10171006.271129608        663007184.71997225     
  -4054356580.7478514        9525918.6168003082        666327390.49760425     
  -3864136803.3622899        20559042.461961985        677132667.92914140     
  -2579101741.1655912        20973969.092614532        1147122033.1599014     
  -2503584813.4677339        9879004.5710165501        1138546291.3939569     
  -2427611220.3830395        306258.00554049015        1133718290.0086846     
  -2351180961.9115143       -7744270.6038340330        1132638029.0040884     
  -2274294038.0531559       -14272581.257093191        1135305508.3801610     
  -2901461702.3085971        20539878.756796956        1030529966.5354710     
  -2816028658.9724402        10591548.240954757        1022578155.3640296     
  -2730309757.6569843        1596077.6561007500        1018241777.2246648     
  -2644304998.3622394       -6446532.9977822304        1017520832.1173749     
  -2558014381.0881929       -13536283.720660090        1020415320.0421649     
  -3223087533.0557127        20326027.539754868        913334383.45553386     
  -3128116395.0772514        11410924.730849028        905807227.56980443     
  -3033030206.5270276        2879323.8278180361        901763197.36755538     
  -2937828967.4050465       -5268775.1693482399        901202292.84878206     
  -2842512677.7112999       -13033372.260645032        904124514.01349282     
  -3543979233.4069467        20332415.441476345        795535283.92009103     
  -3439848021.7821698        12337134.040717125        788233508.01127994     
  -3335772566.9931674        4155996.5207114220        784282550.43735456     
  -3231752869.0399408       -4210997.1185491085        783682411.19830763     
  -3127788927.9224901       -12763846.877057910        786433090.29414678     
  -3864136803.3622899        20559042.461961985        677132667.92914140     
  -3751223539.0871897        13370176.170555115        669856996.68845749     
  -3638536839.0553999        5426095.7347786427        665799836.43406177     
  -3526076703.2669206       -3273198.8453691006        664961187.16594696     
  -3413843131.7217541       -12727707.569889545        667341048.88412488     
  -2274294038.0531559       -14272581.257093191        1135305508.3801610     
  -2168656132.3626690       -12220082.203145742        1128980711.4890356     
  -2063504222.7243578       -11787569.989788771        1127154765.5073020     
  -1958838309.1382225       -12975044.617013931        1129827670.4349477     
  -1854658391.6042569       -15782506.084806800        1136999426.2719793     
  -2558014381.0881929       -13536283.720660090        1020415320.0421649     
  -2440639278.4351606       -11383474.702751517        1013340031.8779045     
  -2323604617.8534503       -10365472.589245319        1010771357.3991495     
  -2206910399.3430595       -10482277.380144715        1012709296.6058993     
  -2090556622.9039965       -11733889.075456619        1019153849.4981505     
  -2842512677.7112999       -13033372.260645032        904124514.01349282     
  -2713378198.7353773       -10773599.470660448        896468547.55375504     
  -2584438607.8499289       -9163453.6489166021        893326957.55564165     
  -2455693905.0549445       -8202934.7953962088        894699744.01915526     
  -2327144090.3504367       -7892042.9101167917        900586906.94429195     
  -3127788927.9224901       -12763846.877057910        786433090.29414678     
  -2986872893.2633410       -10390456.506917238        778366258.51659298     
  -2846006192.7138004       -8181513.1688129902        774821565.97678328     
  -2705188826.2738771       -6137016.8627723455        775799012.67471981     
  -2564420793.9435711       -4256967.5887783766        781298598.61040175     
  -3413843131.7217541       -12727707.569889545        667341048.88412488     
  -3261123362.0190248       -10234045.811462045        659033164.76641273     
  -3108307372.4450555       -7419651.1489152908        655255182.66256952     
  -2955395162.9998493       -4284523.5822426081        656007102.57259166     
  -2802386733.6834154       -828663.11146962643        661288924.49648321     
  -1854658391.6042569       -15782506.084806800        1136999426.2719793     
  -1757211982.8138733       -21386777.011804581        1129431290.1973939     
  -1659791725.3357956       -27078218.979825020        1126030585.0132110     
  -1562397619.1700246       -32856831.988866508        1126797310.7194271     
  -1465029664.3165622       -38722616.038934827        1131731467.3160455     
  -2090556622.9039965       -11733889.075456619        1019153849.4981505     
  -1982307382.6923659       -16141361.822815418        1011098575.3054245     
  -1874195392.8383079       -21006335.762087941        1006909556.3510296     
  -1766220653.3418310       -26328810.893291950        1006586792.6349720     
  -1658383164.2029235       -32108787.216401041        1010130284.1572423     
  -2327144090.3504367       -7892042.9101167917        900586906.94429195     
  -2208952520.5806084       -11360868.036754727        891914879.08061028     
  -2091009300.2136207       -15657524.506194353        886807930.80319345     
  -1973314429.2494802       -20782012.318456769        885266062.11204445     
  -1855867907.6881795       -26734331.473522305        887289273.00716221     
  -2564420793.9435711       -4256967.5887783766        781298598.61040175     
  -2437147396.4785991       -7045295.6536167860        771880201.52295089     
  -2310233447.4617286       -11031785.212137699        765725708.36970222     
  -2183678946.8929749       -16216436.264378667        762835119.15065014     
  -2057483894.7723305       -22599248.810322046        763208433.86579883     
  -2802386733.6834154       -828663.11146962643        661288924.49648321     
  -2666892010.3863406       -3194644.6734071970        650994542.63245142     
  -2531867834.5826330       -7129117.8799173832        643662889.05055344     
  -2397314206.2723188       -12632082.731057882        639293963.75078845     
  -2263231125.4553781       -19703539.226777315        637887766.73315668     
  -1465029664.3165622       -38722616.038934827        1131731467.3160455     
  -1358464169.7669094       -42156463.302441120        1124756681.9180176     
  -1252088342.6668885       -46222535.398056626        1121775830.0112128     
  -1145902183.0165005       -50920832.325783908        1122788911.5956326     
  -1039905690.8157548       -56251354.085645199        1127795926.6712780     
  -1658383164.2029235       -32108787.216401041        1010130284.1572423     
  -1541750567.3420467       -35453116.925869286        1001468653.8875145     
  -1425114490.9167616       -38785848.087321579        996536357.08426380     
  -1308474934.9270632       -42106980.700729072        995333393.74749148     
  -1191831899.3729601       -45416514.766121209        997859763.87720084     
  -1855867907.6881795       -26734331.473522305        887289273.00716221     
  -1729924208.5867920       -30215943.650208235        877166136.04878891     
  -1603783882.9069397       -33042133.898698151        870507732.53214633     
  -1477446930.6486299       -35212902.218995452        867314062.45724332     
  -1350913351.8118641       -36728248.611090183        867585125.82406712     
  -2057483894.7723305       -22599248.810322046        763208433.86579883     
  -1922985093.5011277       -26444943.475423336        751849128.40183413     
  -1788096518.6374128       -28991392.832163095        743689956.35486007     
  -1652818170.1811874       -30238596.880532265        738730917.72487259     
  -1517150048.1324611       -30186555.620565414        736972012.51187778     
  -2263231125.4553781       -19703539.226777315        637887766.73315668     
  -2120933222.0850523       -24140116.401485205        625517630.94666004     
  -1978052398.1081734       -26633624.887681007        616083028.55240548     
  -1834588653.5247526       -27184064.685401559        609583959.55039668     
  -1690541988.3347650       -25791435.794565916        606020423.94062984     
  -1039905690.8157548       -56251354.085645199        1127795926.6712780     
  -923168409.27240586       -55121018.895963043        1125211540.3713009     
  -804106106.33648479       -46240612.397706628        1128493536.0167978     
  -682718782.00800109       -29610134.590909541        1137641913.6077719     
  -559006436.28695416       -5229585.4755658805        1152656673.1442223     
  -1191831899.3729601       -45416514.766121209        997859763.87720084     
  -1061595144.1878610       -42449209.056276321        994084703.14916945     
  -929912160.51053035       -34661141.705666423        994403554.69543922     
  -796782948.34095848       -22052312.714250058        998816318.51600361     
  -662207507.67915690       -4622722.0820657909        1007322994.6108609     
  -1350913351.8118641       -36728248.611090183        867585125.82406712     
  -1212241322.0455327       -33443232.099266410        861594132.28427088     
  -1073001856.6872913       -28266763.614412546        857924581.34758937     
  -933194955.73715103       -21198843.156560659        856576473.01402271     
  -792820619.19510949       -12239470.725693941        857549807.28357410     
  -1517150048.1324611       -30186555.620565414        736972012.51187778     
  -1375106942.8454158       -28103088.024910569        727739827.77658606     
  -1233375194.8667862       -27057478.123993039        719056615.97323763     
  -1091954804.1965826       -27049725.917836607        710922377.10182965     
  -950845770.83481610       -28079831.406446636        703337111.16235220     
  -1690541988.3347650       -25791435.794565916        606020423.94062984     
  -1550192006.5875072       -26428776.833227336        592521789.62613678     
  -1411032175.0490041       -31033285.234395325        577799658.57239854     
  -1273062493.7192631       -39604960.998108387        561854030.77941823     
  -1136282962.5982752       -52143804.124331832        544684906.24719644     
  -559006436.28695416       -5229585.4755658805        1152656673.1442223     
  -462305434.36780483        32765279.489778072        1162008467.6038444     
  -353610078.68262184        110741323.67522867        1178910405.0662143     
  -232920369.23139465        228698547.08082777        1203362485.5313303     
  -100236306.01412815        386636949.70656097        1235364708.9991956     
  -662207507.67915690       -4622722.0820657909        1007322994.6108609     
  -547092583.22490215        25656018.142300606        1020843529.8746018     
  -421102587.62257677        92184995.526902944        1042759122.1028221     
  -284237520.87219429        194964210.07169610        1073069771.2955226     
  -136497382.97375619        333993661.77667320        1111775477.4527135     
  -792820619.19510949       -12239470.725693941        857549807.28357410     
  -656877732.31506944        11047356.724933743        873933253.63044894     
  -511179056.90494221        66853479.275839955        899556670.90354598     
  -355724592.96473169        155178896.92702955        934420059.10285509     
  -190514340.49444267        276023609.67848134        978523418.22838986     
  -950845770.83481610       -28079831.406446636        703337111.16235220     
  -791660881.63831937       -11060704.762377024        721277638.87139332     
  -623839486.52971506        34746774.922055125        749303051.46839225     
  -447381585.50900644        109342607.64683524        787413348.95334339     
  -262287178.57618958        212726793.41197124        835608531.32624698     
  -1136282962.5982752       -52143804.124331832        544684906.24719644     
  -951442031.19464803       -40668166.319598138        562876685.59743035     
  -759083876.49689567       -4135117.5344586968        591998263.79735494     
  -559208498.50500762        57455342.231144667        632049640.84696770     
  -351815897.21900421        144103212.97712088        683030816.74626625     
  -100236306.01412815        386636949.70656097        1235364708.9991956     
  -85354950.923595309        546516029.50585699        1196767166.5512424     
  -57886747.657403260        748351269.89068103        1154813284.0118532     
  -17831696.215532720        992142670.86110544        1109503061.3810115     
   34810203.401989996        1277890232.4170289        1060836498.6587571     
  -136497382.97375619        333993661.77667320        1111775477.4527135     
  -127367994.24223852        483023945.08857387        1090197764.6316316     
  -95102210.928920835        709175543.67313957        1070055370.8152316     
  -39700033.033784389        1012448457.5304360        1051348296.0034990     
   38838539.443166673        1392842686.6604354        1034076540.1964422     
  -190514340.49444267        276023609.67848134        978523418.22838986     
  -173446463.56162831        418312232.87106001        986273339.17469251     
  -122692645.64085585        672887326.02349293        1000250238.2217798     
  -38252886.732130408        1039748889.1357718        1020454115.3696606     
   79872813.164550900        1518896922.2079043        1046884970.6183114     
  -262287178.57618958        212726793.41197124        835608531.32624698     
  -223590358.88176009        352380892.85332692        884993890.18043482     
  -140658051.79321900        639486616.94168794        945397886.23152101     
  -13490257.310586214        1074043965.6770713        1016820519.4794925     
   157913024.56615514        1656052939.0594392        1099261789.9243772     
  -351815897.21900421        144103212.97712088        683030816.74626625     
  -277799680.20262593        285229925.03538030        786359417.64884508     
  -148998429.38600746        608973416.42777348        905498314.84443069     
   34587855.230853200        1115333687.1543241        1040447508.3330147     
   272959173.64797288        1804310737.2150383        1191206998.1146219     
  -4603995132.2054567        46495816.078257799        678821988.12641013     
  -4424285745.1694326        22494305.424948931        667172050.59623671     
  -4241072894.6835651        10171006.271129608        663007184.71997225     
  -4054356580.7478514        9525918.6168003082        666327390.49760425     
  -3864136803.3622899        20559042.461961985        677132667.92914140     
  -5011639198.6583509       -18619942.136058807        493946074.20505172     
  -4805179172.9428282       -9649805.0522727966        491015344.59162873     
  -4598254624.3220348        868741.71577334404        493568115.90766144     
  -4390865552.7959557        12935698.168092966        501604388.15315026     
  -4183011958.3646035        26551064.304669857        515124161.32809675     
  -5398125166.3346138       -77388270.717383146        320437666.42183620     
  -5170633275.4380198       -37162117.946028709        322680714.08983320     
  -4945715802.1807184       -5517357.3056402206        328405691.96283799     
  -4723372746.5627031        17546011.203786135        337612600.04085368     
  -4503604108.5839739        32027987.582264900        350301438.32388228     
  -5763453035.2342806       -129809169.66573024        158296764.77676693     
  -5520648052.6550293       -60042633.256334066        162168159.09085307     
  -5283456428.2596283       -8987290.7931268215        167519912.88550249     
  -5051878162.0480890        23356857.723894119        174352026.16071284     
  -4825913254.0203981        36989812.294743776        182664498.91649288     
  -6107622805.3573399       -175882638.98109484        7523369.2698402246     
  -5855223504.5938377       -78291350.983175993        9477679.5946844164     
  -5611476502.5587616       -9541058.7466735840        10910778.675651181     
  -5376381799.2521124        30368237.728412867        11822666.512734115     
  -5149939394.6738834        41436538.442100525        12213343.105934497     
  -3864136803.3622899        20559042.461961985        677132667.92914140     
  -3751223539.0871897        13370176.170555115        669856996.68845749     
  -3638536839.0553999        5426095.7347786427        665799836.43406177     
  -3526076703.2669206       -3273198.8453691006        664961187.16594696     
  -3413843131.7217541       -12727707.569889545        667341048.88412488     
  -4183011958.3646035        26551064.304669857        515124161.32809675     
  -4062572746.1090517        15037186.652030230        507440712.85604793     
  -3941876032.0135946        4381648.4657278061        503326023.69680816     
  -3820921816.0782475       -5415550.2542588711        502780093.85036945     
  -3699710098.3029938       -14354409.507894754        505802923.31673980     
  -4503604108.5839739        32027987.582264900        350301438.32388228     
  -4374638238.8436241        16489311.419692755        342774956.38421327     
  -4244930801.1801672        3422528.3341469765        339167482.08386999     
  -4114481795.5935955       -7172361.6743445396        339479015.42285943     
  -3983291222.0839128       -15295358.605806589        343709556.40117580     
  -4825913254.0203981        36989812.294743776        182664498.91649288     
  -4687420017.2909098        17726550.473529577        175859727.27295426     
  -4547701146.5550995        2548735.3400681019        173324211.59526283     
  -4406756641.8129635       -8543633.1056380272        175057951.88341540     
  -4264586503.0645037       -15550554.863614798        181060948.13742360     
  -5149939394.6738834        41436538.442100525        12213343.105934497     
  -5000918081.4509087        18748903.813565016        6695025.5222690655     
  -4850187068.1384001        1760269.4834721088        5796212.2309783101     
  -4697746354.7363491       -9529364.5481412411        9516903.2320510224     
  -4543595941.2447662       -15119998.281324863        17857098.525497772     
  -3413843131.7217541       -12727707.569889545        667341048.88412488     
  -3261123362.0190248       -10234045.811462045        659033164.76641273     
  -3108307372.4450555       -7419651.1489152908        655255182.66256952     
  -2955395162.9998493       -4284523.5822426081        656007102.57259166     
  -2802386733.6834154       -828663.11146962643        661288924.49648321     
  -3699710098.3029938       -14354409.507894754        505802923.31673980     
  -3534708887.3402610       -9941884.9971327782        498255838.80245376     
  -3369823726.0362115       -5916192.6820049286        495183300.30069262     
  -3205054614.3908658       -2277332.5625361204        496585307.81145495     
  -3040401552.4042025        974695.36130571365        502461861.33473790     
  -3983291222.0839128       -15295358.605806589        343709556.40117580     
  -3806166729.8650050       -9011419.3438463211        336675623.70539880     
  -3629370556.8347201       -3821877.3773064613        334060881.02079999     
  -3452902702.9930630        273267.29381942749        335865328.34738612     
  -3276763168.3400221        3274014.6695599556        342088965.68514800     
  -4264586503.0645037       -15550554.863614798        181060948.13742360     
  -4075496889.5932612       -7442648.8516218662        174292519.47523636     
  -3886947864.8405733       -1136705.2347981930        171887924.82289007     
  -3698939428.8064423        3367275.9868321419        173847164.18038186     
  -3511471581.4908552        6069294.8133158684        180170237.54770359     
  -4543595941.2447662       -15119998.281324863        17857098.525497772     
  -4342699366.5250320       -5235573.5204517841        11106526.111989487     
  -4142555650.0537796        2139323.7454957962        8664431.7069619521     
  -3943164791.8310161        7004693.5164709091        10530815.310446395     
  -3744526791.8567233        9360535.7925477028        16705676.922409344     
  -2802386733.6834154       -828663.11146962643        661288924.49648321     
  -2666892010.3863406       -3194644.6734071970        650994542.63245142     
  -2531867834.5826330       -7129117.8799173832        643662889.05055344     
  -2397314206.2723188       -12632082.731057882        639293963.75078845     
  -2263231125.4553781       -19703539.226777315        637887766.73315668     
  -3040401552.4042025        974695.36130571365        502461861.33473790     
  -2897136979.6553249       -2544087.8073732853        492561745.45692128     
  -2753989938.1188588       -6454641.6841135025        485941739.70760816     
  -2610960427.7948060       -10756966.268887401        482601844.08680016     
  -2468048448.6831675       -15451061.561709523        482542058.59449500     
  -3276763168.3400221        3274014.6695599556        342088965.68514800     
  -3124821940.8639913       -1125528.5232657194        332994968.12133652     
  -2972645228.3194132       -4740121.4875946045        327498462.53239799     
  -2820233030.7062840       -7569764.2234244347        325599448.91833586     
  -2667585348.0246077       -9614456.7307467461        327297927.27914673     
  -3511471581.4908552        6069294.8133158684        180170237.54770359     
  -3349946894.0123372        1061033.1789388657        172294210.62568653     
  -3187833705.1843014       -1985557.2903627157        168333057.52491918     
  -3025132015.0067539       -3070476.5946272612        168286778.24539524     
  -2861841823.4796939       -2193724.7338626385        172155372.78710911     
  -3744526791.8567233        9360535.7925477028        16705676.922409344     
  -3572511839.1003551        4015597.2992820740        10459472.969983106     
  -3399555368.7135320        1809050.9075429440        8445524.6851684768     
  -3225657380.6962190        2740896.6174322367        10663832.067966096     
  -3050817875.0484314        6811134.4289059639        17114395.118386850     
  -2263231125.4553781       -19703539.226777315        637887766.73315668     
  -2120933222.0850523       -24140116.401485205        625517630.94666004     
  -1978052398.1081734       -26633624.887681007        616083028.55240548     
  -1834588653.5247526       -27184064.685401559        609583959.55039668     
  -1690541988.3347650       -25791435.794565916        606020423.94062984     
  -2468048448.6831675       -15451061.561709523        482542058.59449500     
  -2318048659.4019294       -17784944.252651691        472302729.71529555     
  -2167777139.2043185       -19213057.222335935        464567157.87907445     
  -2017233888.0903242       -19735400.470762849        459335343.08582473     
  -1866418906.0599592       -19351973.997937322        456607285.33555591     
  -2667585348.0246077       -9614456.7307467461        327297927.27914673     
  -2511117319.5446529       -10215738.951566935        318826350.66870672     
  -2354688749.8384895       -10948550.418371797        312426754.75197315     
  -2198299638.9061360       -11812891.131202936        308099139.52894455     
  -2041949986.7475853       -12808761.090041518        305843504.99962276     
  -2861841823.4796939       -2193724.7338626385        172155372.78710911     
  -2700139202.5132027       -1432500.4981997013        165088493.80688500     
  -2538787230.0107031       -1840104.4758270979        159661819.17109799     
  -2377785905.9721766       -3416536.6667014360        155875348.87974963     
  -2217135230.3976364       -6161797.0708717108        153729082.93283740     
  -3050817875.0484314        6811134.4289059639        17114395.118386850     
  -2885114308.3076143        8564771.1073560715        11089159.129829424     
  -2720072579.7209568        8112280.6052987576        6272351.1364589129     
  -2555692689.2884612        5453662.9227015972        2663971.1382354507     
  -2391974637.0101242        588918.05955386162        264019.13519538473     
  -1690541988.3347650       -25791435.794565916        606020423.94062984     
  -1550192006.5875072       -26428776.833227336        592521789.62613678     
  -1411032175.0490041       -31033285.234395325        577799658.57239854     
  -1273062493.7192631       -39604960.998108387        561854030.77941823     
  -1136282962.5982752       -52143804.124331832        544684906.24719644     
  -1866418906.0599592       -19351973.997937322        456607285.33555591     
  -1729004281.3546116       -22712204.799747705        442891949.73759919     
  -1591679112.8912411       -26370623.074810326        428770503.09967721     
  -1454443400.6698332       -30327228.823076665        414242945.42179537     
  -1317297144.6903837       -34582022.044551194        399309276.70395529     
  -2041949986.7475853       -12808761.090041518        305843504.99962276     
  -1905135331.3719306       -18191265.341370821        293195611.07945150     
  -1767309438.2714446       -20202977.176609397        280958991.81860906     
  -1628472307.4461308       -18843896.595749974        269133647.21708715     
  -1488623938.8959928       -14114023.598817468        257719577.27488351     
  -2217135230.3976364       -6161797.0708717108        153729082.93283740     
  -2078585156.6394362       -12865958.458047390        143432773.65171760     
  -1937923151.1896119       -12530347.539807200        134365124.72920373     
  -1795149214.0481625       -5154964.3161501884        126526136.16529173     
  -1650263345.2151148        9260191.2128338814        119915807.95997231     
  -2391974637.0101242        588918.05955386162        264019.13519538473     
  -2249353757.1571240       -6736284.1497254372       -6396562.5456203083     
  -2103520251.6457403       -3352734.1643799543       -11011098.168553075     
  -1954474120.4759378        10739568.015693307       -13579587.733600831     
  -1802215363.6477175        35540622.390481234       -14102031.240768544     
  -1136282962.5982752       -52143804.124331832        544684906.24719644     
  -951442031.19464803       -40668166.319598138        562876685.59743035     
  -759083876.49689567       -4135117.5344586968        591998263.79735494     
  -559208498.50500762        57455342.231144667        632049640.84696770     
  -351815897.21900421        144103212.97712088        683030816.74626625     
  -1317297144.6903837       -34582022.044551194        399309276.70395529     
  -1117685521.3355112       -14729135.359804988        421178144.60987133     
  -914445055.12751007        17219894.168687046        441546073.11782324     
  -707575746.06637871        61265066.540966421        460413062.22781169     
  -497077594.15212369        117406381.75699076        477779111.93983471     
  -1488623938.8959928       -14114023.598817468        257719577.27488351     
  -1309758018.5831666        3461193.4679539204        278729089.88864481     
  -1131151635.8582015        20171285.241849601        285806924.85679346     
  -952804790.72112405        36016251.722795844        278953082.17932022     
  -774717483.17190695        50996092.910851598        258167561.85623372     
  -1650263345.2151148        9260191.2128338814        119915807.95997231     
  -1527659522.9376194        13902820.163671911        135529521.43375120     
  -1409203618.6889942        4719055.6849385500        124780819.01425403     
  -1294895632.4692495       -18291102.223392010        87669700.701492473     
  -1184735564.2783790       -55127653.561309278        24196166.495464951     
  -1802215363.6477175        35540622.390481234       -14102031.240768544     
  -1771390034.3988483        16595744.727370262       -8420560.7548058461     
  -1748601003.6198595       -29136794.501964331       -41532244.409779064     
  -1733848271.3107495       -101656995.29758316       -113437082.20566465     
  -1727131837.4715068       -200964857.65942687       -224135074.14247814     
  -351815897.21900421        144103212.97712088        683030816.74626625     
  -277799680.20262593        285229925.03538030        786359417.64884508     
  -148998429.38600746        608973416.42777348        905498314.84443069     
   34587855.230853200        1115333687.1543241        1040447508.3330147     
   272959173.64797288        1804310737.2150383        1191206998.1146219     
  -497077594.15212369        117406381.75699076        477779111.93983471     
  -388253570.96607864        223057607.37111241        597061007.28930509     
  -230303127.54532269        492463567.10093969        735494492.57876348     
  -23226263.889847517        925624260.94649363        893079567.80822074     
   232977020.00033587        1522539688.9077692        1069816232.9776828     
  -774717483.17190695        50996092.910851598        258167561.85623372     
  -621539100.53908265        124035798.06396908        386801035.82613808     
  -424892911.23707891        341968192.11436784        537927393.38301980     
  -184778915.26589304        704793275.06203341        711546634.52689171     
   98802887.374498725        1212511046.9070270        907658759.25776696     
  -1184735564.2783790       -55127653.561309278        24196166.495464951     
  -977656268.92164993       -11835502.886031568        155579503.25934047     
  -732767780.46127915        157487291.46805894        312797017.25720674     
  -450070098.89724374        452840729.50102806        495848708.48903221     
  -129563224.22956866        874224811.21279550        704734576.95485651     
  -1727131837.4715068       -200964857.65942687       -224135074.14247814     
  -1456605076.1137691       -184556295.47889769       -96603590.411067709     
  -1153927735.2179096       -60979134.837952375        60103364.201306321     
  -819099814.78392804        169766624.26337284        245985789.69465464     
  -452121314.81182051        507680981.82516211        461043686.06897455     
 </DataArray>
 <DataArray  type="Float64" Name="VM" NumberOfComponents="1" format="ascii">
   6114472199.1659317     
   5862886351.1995249     
   5619601374.1439695     
   5383957076.6716394     
   5155563924.3713675     
   5766870053.8035936     
   5532733271.3696127     
   5303297233.5748005     
   5078404475.1607847     
   4858039881.9319019     
   5425813362.6756201     
   5208861099.9535446     
   4994276870.7584715     
   4782174421.5028582     
   4572740614.1050692     
   5090249508.3326540     
   4891327871.3701162     
   4693789241.7713470     
   4497766558.4716463     
   4303480735.5913162     
   4760151291.0131702     
   4581127741.8280830     
   4403988911.0216818     
   4228609431.8158989     
   4055079526.8635468     
   5155563924.3713675     
   5001966834.6911116     
   4849004520.9322090     
   4696677235.0115414     
   4544995548.7595873     
   4858039881.9319019     
   4711822611.8256826     
   4566236365.0636625     
   4421306550.1952028     
   4277076693.0243979     
   4572740614.1050692     
   4435092182.7710857     
   4298314653.6270123     
   4162461917.4386697     
   4027618759.3859634     
   4303480735.5913162     
   4175619295.1889648     
   4049148008.6123195     
   3924153058.6561728     
   3800769446.1442776     
   4055079526.8635468     
   3938181563.4368262     
   3823506903.6174903     
   3711174960.7696433     
   3601375997.3982368     
   4544995548.7595873     
   4346444036.0190325     
   4147760662.1083837     
   3948946172.9332604     
   3750043701.9721394     
   4277076693.0243979     
   4089617561.3532157     
   3902572319.0150590     
   3716009551.0052419     
   3530061722.3436737     
   4027618759.3859634     
   3852259778.2651639     
   3678040317.8393059     
   3505118069.2103848     
   3333739740.0909667     
   3800769446.1442776     
   3638576168.2970018     
   3478440789.8411441     
   3320626519.9711466     
   3165510842.1463814     
   3601375997.3982368     
   3453407868.3865476     
   3308602412.9497633     
   3167332664.8454852     
   3030105474.2115650     
   3750043701.9721394     
   3575526939.3755641     
   3401377964.4327316     
   3227592424.9473715     
   3054218909.2493720     
   3530061722.3436737     
   3365802194.4836588     
   3202398828.7623224     
   3039913996.5572138     
   2878471497.6983185     
   3333739740.0909667     
   3179551486.5547771     
   3026738395.3917651     
   2875435893.8702846     
   2725849315.3233113     
   3165510842.1463814     
   3021373259.8215890     
   2879154391.9414635     
   2739065316.3856835     
   2601393866.9204335     
   3030105474.2115650     
   2896160718.2903628     
   2764686399.3876114     
   2635964919.0760355     
   2510358408.5635347     
   3054218909.2493720     
   2889002158.5795531     
   2723675245.5674386     
   2558234100.2439904     
   2392676208.9353848     
   2878471497.6983185     
   2716170184.9917598     
   2554055334.6751313     
   2392156141.7918301     
   2230518369.1892462     
   2725849315.3233113     
   2568887309.4779582     
   2412808939.1712298     
   2257752389.1432443     
   2103912862.4375026     
   2601393866.9204335     
   2452366239.8252163     
   2305368193.5538273     
   2160721436.7358837     
   2018863715.6414251     
   2510358408.5635347     
   2371807920.9025984     
   2236848506.2387319     
   2106020170.4565213     
   1980030733.6330385     
   2392676208.9353848     
   2246567715.7643461     
   2102557077.0738111     
   1960650704.0909104     
   1821010531.6533208     
   2230518369.1892462     
   2087538872.7026222     
   1946158243.3530197     
   1806379559.4230087     
   1668278060.1247137     
   2103912862.4375026     
   1963382916.5034707     
   1823801999.6710331     
   1685201015.5985670     
   1547639014.3700242     
   2018863715.6414251     
   1881706729.4476476     
   1744912514.0210581     
   1608609339.4027650     
   1472973564.2298393     
   1980030733.6330385     
   1848861715.1680784     
   1717814915.9947996     
   1587238912.0955961     
   1457636471.3375912     
   1821010531.6533208     
   1780181021.8572125     
   1735891809.9821739     
   1696759577.9741924     
   1681235405.1890588     
   1668278060.1247137     
   1552767019.3799498     
   1428168792.1737030     
   1294845643.1939247     
   1158909999.2624629     
   1547639014.3700242     
   1397723303.6997969     
   1244249800.4776614     
   1084955287.9826982     
   917816322.84164906     
   1472973564.2298393     
   1328748732.1343787     
   1198975864.7018776     
   1088141594.5859618     
   1002155917.2381051     
   1457636471.3375912     
   1348696117.4824622     
   1274718333.3721564     
   1243834976.1813865     
   1263083365.2166243     
   1681235405.1890588     
   1383741108.0754638     
   1129487082.5294445     
   1010146620.1676956     
   1152911667.4146304     
   1158909999.2624629     
   1008480977.8636228     
   985270845.11062074     
   1161504452.1994193     
   1544059223.1390643     
   917816322.84164906     
   963203532.20699275     
   1144985461.0894463     
   1476510114.9819789     
   1957455754.8479998     
   1002155917.2381051     
   1164798088.5223649     
   1425473897.0649281     
   1808773121.2949858     
   2334786920.9434075     
   1263083365.2166243     
   1446798136.0487695     
   1715732304.6607857     
   2110488553.3024559     
   2663534353.4275150     
   4760151291.0131702     
   4581127741.8280830     
   4403988911.0216818     
   4228609431.8158989     
   4055079526.8635468     
   4418197854.9562597     
   4258204827.3208365     
   4101251886.5674820     
   3947660231.5860977     
   3797926055.9602780     
   4112927380.0264654     
   3969920904.4781771     
   3831603575.7530675     
   3698546959.9882612     
   3571467076.0822115     
   3849192162.6501899     
   3720896686.2223043     
   3599354127.8284364     
   3485133955.2592278     
   3378938527.6140924     
   3632537161.0755529     
   3516280392.6964984     
   3409144338.9855909     
   3311397705.4117231     
   3223465119.6139350     
   4055079526.8635468     
   3938181563.4368262     
   3823506903.6174903     
   3711174960.7696433     
   3601375997.3982368     
   3797926055.9602780     
   3694684500.0357461     
   3594100056.6580248     
   3496353343.5263290     
   3401684896.2448215     
   3571467076.0822115     
   3481392158.6405430     
   3394364918.9822640     
   3310599173.7995696     
   3230354922.2842979     
   3378938527.6140924     
   3301635091.7995839     
   3227680714.3871922     
   3157289504.5674391     
   3090706733.0382376     
   3223465119.6139350     
   3158590773.2813597     
   3097226368.1137166     
   3039551399.8826561     
   2985762718.7040591     
   3601375997.3982368     
   3453407868.3865476     
   3308602412.9497633     
   3167332664.8454852     
   3030105474.2115650     
   3401684896.2448215     
   3269436702.1375642     
   3141163940.2926083     
   3017332733.6063480     
   2898540642.2503514     
   3230354922.2842979     
   3114211093.9276505     
   3002860714.0201216     
   2896834056.2273188     
   2796778591.1968827     
   3090706733.0382376     
   2990965822.0874548     
   2896776147.3727622     
   2808690125.3396540     
   2727352046.9302845     
   2985762718.7040591     
   2902512871.0913458     
   2825434388.3540373     
   2755053084.2600837     
   2691954856.1590190     
   3030105474.2115650     
   2896160718.2903628     
   2764686399.3876114     
   2635964919.0760355     
   2510358408.5635347     
   2898540642.2503514     
   2776396419.3438516     
   2657765278.4641800     
   2543066331.8364067     
   2432819269.9189296     
   2796778591.1968827     
   2688388639.3567882     
   2584714811.4701967     
   2486295604.3639927     
   2393775116.4948325     
   2727352046.9302845     
   2634337921.0756764     
   2547295774.1295013     
   2466833845.5412207     
   2393651143.3278689     
   2691954856.1590190     
   2615370293.6896658     
   2545941995.7246819     
   2484279551.4429760     
   2431054554.9792018     
   2510358408.5635347     
   2371807920.9025984     
   2236848506.2387319     
   2106020170.4565213     
   1980030733.6330385     
   2432819269.9189296     
   2309359623.9063368     
   2190939456.5424852     
   2078288163.5149894     
   1972307037.4120727     
   2393775116.4948325     
   2287156259.0118227     
   2187001777.9978452     
   2094129131.2739477     
   2009487192.5300186     
   2393651143.3278689     
   2304817492.7849655     
   2223633311.3701000     
   2150878788.0069852     
   2087401607.9661264     
   2431054554.9792018     
   2359983613.1447887     
   2297368895.4522266     
   2243856760.9502110     
   2200103643.0101938     
   1980030733.6330385     
   1848861715.1680784     
   1717814915.9947996     
   1587238912.0955961     
   1457636471.3375912     
   1972307037.4120727     
   1855832655.6298838     
   1743769219.0991726     
   1637036390.5614200     
   1536762595.5818264     
   2009487192.5300186     
   1912850962.3293154     
   1824992468.2245886     
   1747111668.8055372     
   1680501416.4912081     
   2087401607.9661264     
   2012228573.8742239     
   1949391118.9387314     
   1899972446.6766613     
   1865005869.7920768     
   2200103643.0101938     
   2145037142.9947383     
   2104872653.1615732     
   2080386389.1534488     
   2072261350.6398799     
   1457636471.3375912     
   1348696117.4824622     
   1274718333.3721564     
   1243834976.1813865     
   1263083365.2166243     
   1536762595.5818264     
   1476024578.9625762     
   1447968851.3094370     
   1456560836.8303273     
   1505087693.9166021     
   1680501416.4912081     
   1652163785.5176516     
   1651533949.9224787     
   1680976993.6215272     
   1743096870.6320181     
   1865005869.7920768     
   1854651780.2486219     
   1867247405.6970420     
   1904998817.3750770     
   1970938923.2775328     
   2072261350.6398799     
   2068874701.8060882     
   2084690018.4408293     
   2122339029.8762352     
   2185643889.6562834     
   1263083365.2166243     
   1446798136.0487695     
   1715732304.6607857     
   2110488553.3024559     
   2663534353.4275150     
   1505087693.9166021     
   1613394233.2726436     
   1788899403.0305424     
   2066367975.1810892     
   2476023818.7042727     
   1743096870.6320181     
   1787813638.2250209     
   1884678680.5538218     
   2060606031.9905870     
   2340830252.0200520     
   1970938923.2775328     
   1969013572.1439838     
   2003634660.3656778     
   2093470410.3326790     
   2257171331.8410692     
   2185643889.6562834     
   2156277805.1225939     
   2146507487.3289380     
   2166839969.3365889     
   2228324652.6636353     
   3632537161.0755529     
   3516280392.6964984     
   3409144338.9855909     
   3311397705.4117231     
   3223465119.6139350     
   3441813049.7133784     
   3340702612.1628008     
   3247683278.3803720     
   3163350089.9461951     
   3088396490.7468553     
   3266515421.0213284     
   3181121823.5764651     
   3104387924.1150703     
   3036870873.8978815     
   2979273258.0544734     
   3111682422.6889572     
   3042629031.9759917     
   2984448826.2784700     
   2937221968.5364695     
   2901352108.2532139     
   2984469438.0258412     
   2931848185.8288517     
   2894005681.5760674     
   2870028119.0196390     
   2859662861.9664426     
   3223465119.6139350     
   3158590773.2813597     
   3097226368.1137166     
   3039551399.8826561     
   2985762718.7040591     
   3088396490.7468553     
   3029667244.7749419     
   2975321918.2643709     
   2925562315.3132477     
   2880609510.1144423     
   2979273258.0544734     
   2926717521.5034018     
   2879555430.6605039     
   2837987660.1861434     
   2802233762.4039612     
   2901352108.2532139     
   2854392618.2927690     
   2813947754.0260043     
   2780191567.5343313     
   2753314574.1656156     
   2859662861.9664426     
   2817001469.4151368     
   2782059194.9302230     
   2754962298.3333154     
   2735849905.7720432     
   2985762718.7040591     
   2902512871.0913458     
   2825434388.3540373     
   2755053084.2600837     
   2691954856.1590190     
   2880609510.1144423     
   2810758759.0058112     
   2748001665.2426639     
   2692842782.8820658     
   2645830673.9936409     
   2802233762.4039612     
   2745728644.5971875     
   2697191983.6943140     
   2657067600.6723452     
   2625825929.3069181     
   2753314574.1656156     
   2709468123.2420754     
   2674386561.2614651     
   2648422228.9701872     
   2631940140.3081231     
   2735849905.7720432     
   2703272512.7215109     
   2680175408.9143233     
   2666804886.0532508     
   2663412285.9166203     
   2691954856.1590190     
   2615370293.6896658     
   2545941995.7246819     
   2484279551.4429760     
   2431054554.9792018     
   2645830673.9936409     
   2584306380.1969314     
   2530598858.9650741     
   2485219800.4412270     
   2448709834.9115019     
   2625825929.3069181     
   2578281889.2678852     
   2539010936.9174957     
   2508403539.5147605     
   2486855786.7586226     
   2631940140.3081231     
   2596757643.4786239     
   2570119570.1978946     
   2552293839.2899637     
   2543541983.3164010     
   2663412285.9166203     
   2638527236.4823813     
   2622321335.7028522     
   2614956048.4889607     
   2616583532.7757282     
   2431054554.9792018     
   2359983613.1447887     
   2297368895.4522266     
   2243856760.9502110     
   2200103643.0101938     
   2448709834.9115019     
   2392430883.5308318     
   2345467645.1983833     
   2308354488.8431106     
   2281606414.3413858     
   2486855786.7586226     
   2444511633.3674426     
   2412131175.6698761     
   2390115377.4958696     
   2378831507.0319490     
   2543541983.3164010     
   2513732350.7439170     
   2494385148.2121620     
   2485773250.9785604     
   2488135183.9641256     
   2616583532.7757282     
   2597517877.5547776     
   2589351030.5045862     
   2592249120.9041076     
   2606351809.7331276     
   2200103643.0101938     
   2145037142.9947383     
   2104872653.1615732     
   2080386389.1534488     
   2072261350.6398799     
   2281606414.3413858     
   2241414676.2699580     
   2215100832.4269943     
   2203117733.2817354     
   2205853543.0838156     
   2378831507.0319490     
   2350505885.8106503     
   2335002907.6204262     
   2332571908.2450585     
   2343432228.9970016     
   2488135183.9641256     
   2468956368.8951511     
   2461632162.4983125     
   2466295923.0263596     
   2483080041.5350947     
   2606351809.7331276     
   2593966203.8947625     
   2592615901.8832226     
   2602376379.4824429     
   2623342577.3665757     
   2072261350.6398799     
   2068874701.8060882     
   2084690018.4408293     
   2122339029.8762352     
   2185643889.6562834     
   2205853543.0838156     
   2191537363.5897212     
   2192198669.2596631     
   2209808011.2719965     
   2247291211.1776452     
   2343432228.9970016     
   2319030966.0153923     
   2306166197.1410408     
   2306244469.1631193     
   2321356237.2835445     
   2483080041.5350947     
   2450387811.4276609     
   2426276804.5445175     
   2411692411.2809243     
   2408010156.5022464     
   2623342577.3665757     
   2584832135.6404862     
   2552249094.7057309     
   2526173582.0222158     
   2507410589.3170938     
   2185643889.6562834     
   2156277805.1225939     
   2146507487.3289380     
   2166839969.3365889     
   2228324652.6636353     
   2247291211.1776452     
   2182604383.2777905     
   2134352442.5313640     
   2112191767.8499894     
   2127042109.7848265     
   2321356237.2835445     
   2224669202.4079614     
   2141305895.6365366     
   2079627214.5939670     
   2049798322.5219116     
   2408010156.5022464     
   2282766206.2820568     
   2168014793.7533231     
   2070496882.3072855     
   1998982649.4540811     
   2507410589.3170938     
   2357104556.4856563     
   2214949652.1689215     
   2085931377.5444057     
   1976935187.7544501     
   2984469438.0258412     
   2931848185.8288517     
   2894005681.5760674     
   2870028119.0196390     
   2859662861.9664426     
   2748415228.0232019     
   2731851152.2832060     
   2727441755.7555876     
   2735039153.8303642     
   2754694134.5996146     
   2592916085.1107597     
   2601612878.7666378     
   2619801559.4555502     
   2647543633.4718499     
   2684901782.3529062     
   2520339098.5973163     
   2543006928.4668431     
   2572617228.4771247     
   2608832066.4162736     
   2651466595.1173859     
   2526984521.7870255     
   2553079085.7947702     
   2583769284.7438421     
   2617707796.8785529     
   2654206260.4405837     
   2859662861.9664426     
   2817001469.4151368     
   2782059194.9302230     
   2754962298.3333154     
   2735849905.7720432     
   2754694134.5996146     
   2721911300.3978457     
   2696635946.5695291     
   2678944415.3745294     
   2668919490.1145720     
   2684901782.3529062     
   2660473707.4246449     
   2643286065.2742662     
   2633373744.2797318     
   2630775800.3478794     
   2651466595.1173859     
   2633698205.1572170     
   2622870104.3576918     
   2618986668.4288678     
   2622057498.4050779     
   2654206260.4405837     
   2641326036.6715970     
   2635082095.3950572     
   2635459060.0837026     
   2642450132.1495972     
   2735849905.7720432     
   2703272512.7215109     
   2680175408.9143233     
   2666804886.0532508     
   2663412285.9166203     
   2668919490.1145720     
   2647355544.9401278     
   2635254852.2906799     
   2632758581.2970014     
   2640006821.3203111     
   2630775800.3478794     
   2617561823.4205317     
   2613717010.5305805     
   2619302915.5082722     
   2634379078.4246445     
   2622057498.4050779     
   2614219199.4595318     
   2615622850.9946790     
   2626282333.2822366     
   2646210716.9558935     
   2642450132.1495972     
   2636876044.4454999     
   2640419354.8318906     
   2653079389.0911655     
   2674855804.5288396     
   2663412285.9166203     
   2638527236.4823813     
   2622321335.7028522     
   2614956048.4889607     
   2616583532.7757282     
   2640006821.3203111     
   2623120336.3077831     
   2614949758.0537200     
   2615587671.0463457     
   2625119397.1455550     
   2634379078.4246445     
   2623636539.2583566     
   2621655294.0861063     
   2628477005.2421498     
   2644139364.2515283     
   2646210716.9558935     
   2639580138.6988063     
   2641798768.8528771     
   2652877244.0698876     
   2672825060.5858097     
   2674855804.5288396     
   2670207304.2007532     
   2674564953.6192980     
   2687928734.2951441     
   2710298634.1249166     
   2616583532.7757282     
   2597517877.5547776     
   2589351030.5045862     
   2592249120.9041076     
   2606351809.7331276     
   2625119397.1455550     
   2614054429.2180490     
   2613449620.6857667     
   2623390837.4782858     
   2643948301.1618795     
   2644139364.2515283     
   2639158025.1061931     
   2644285988.3481379     
   2659558285.8880148     
   2685002917.3794289     
   2672825060.5858097     
   2672037871.9634752     
   2681123759.5133138     
   2700090760.7741895     
   2728945202.9418654     
   2710298634.1249166     
   2711884548.2645640     
   2723237239.0718489     
   2744356707.8350945     
   2775242955.0550284     
   2606351809.7331276     
   2593966203.8947625     
   2592615901.8832226     
   2602376379.4824429     
   2623342577.3665757     
   2643948301.1618795     
   2633100681.9890885     
   2632469533.6642885     
   2642092465.4016390     
   2662019512.9327493     
   2685002917.3794289     
   2675425519.8487835     
   2675424968.0517130     
   2685015991.8470592     
   2704219364.9023123     
   2728945202.9418654     
   2720520347.8877630     
   2721192532.0590968     
   2730964961.1427565     
   2749842460.2321486     
   2775242955.0550284     
   2767988564.3156862     
   2769494338.5288444     
   2779760277.0861368     
   2798786379.4843292     
   2623342577.3665757     
   2584832135.6404862     
   2552249094.7057309     
   2526173582.0222158     
   2507410589.3170938     
   2662019512.9327493     
   2616625565.0457373     
   2576921144.0909896     
   2543236332.9268727     
   2516031617.2476659     
   2704219364.9023123     
   2654020051.2467680     
   2609415730.8607216     
   2570553449.6819568     
   2537638973.5336318     
   2749842460.2321486     
   2696922379.6010947     
   2649645521.2249522     
   2608048420.9245887     
   2572182254.4595051     
   2798786379.4843292     
   2745230624.3380575     
   2697508560.6935267     
   2655620188.5120931     
   2619565507.8404779     
   2507410589.3170938     
   2357104556.4856563     
   2214949652.1689215     
   2085931377.5444057     
   1976935187.7544501     
   2516031617.2476659     
   2348170079.6601472     
   2183854160.6646357     
   2026186147.9851596     
   1879735434.8851199     
   2537638973.5336318     
   2357320742.5303016     
   2176738078.6532621     
   1997362901.2413380     
   1821474063.0516684     
   2572182254.4595051     
   2384660432.3837442     
   2194068031.2557025     
   2000782882.4964054     
   1805408197.8602931     
   2619565507.8404779     
   2430158340.3501744     
   2235986520.8473759     
   2037050049.6230299     
   1833348927.6040006     
   2526984521.7870255     
   2553079085.7947702     
   2583769284.7438421     
   2617707796.8785529     
   2654206260.4405837     
   2584366072.7595897     
   2587846130.3868971     
   2597506373.5741954     
   2612952225.4609241     
   2634006544.4701662     
   2671900239.8003988     
   2653746230.0760040     
   2644644370.6579418     
   2644623717.9357824     
   2653740152.5235701     
   2794182500.0851326     
   2754441661.4048963     
   2727535306.9489861     
   2713541501.3150177     
   2712578152.9499841     
   2955023785.0471706     
   2892542673.7139425     
   2847249955.4062929     
   2819059656.1546369     
   2808104772.3118548     
   2654206260.4405837     
   2641326036.6715970     
   2635082095.3950572     
   2635459060.0837026     
   2642450132.1495972     
   2634006544.4701662     
   2620954697.1050086     
   2614482515.5833368     
   2614591654.5414810     
   2621285500.2893481     
   2653740152.5235701     
   2637615106.8843994     
   2627903023.1170931     
   2624639087.7208362     
   2627858911.2366285     
   2712578152.9499841     
   2690740834.5158663     
   2675029561.6954327     
   2665523666.9900179     
   2662307841.9790850     
   2808104772.3118548     
   2778358694.9418116     
   2754326943.2494907     
   2736134130.1845050     
   2723921481.4327116     
   2642450132.1495972     
   2636876044.4454999     
   2640419354.8318906     
   2653079389.0911655     
   2674855804.5288396     
   2621285500.2893481     
   2613455874.3786416     
   2614713219.6603141     
   2625073640.8335876     
   2644552739.3136034     
   2627858911.2366285     
   2615030307.8778410     
   2611291011.3783402     
   2616702145.9156561     
   2631322447.5445724     
   2662307841.9790850     
   2641909556.9207106     
   2630603676.0691719     
   2628522512.9305558     
   2635794916.9202299     
   2723921481.4327116     
   2693695606.6915464     
   2672527852.4402490     
   2660642225.0896444     
   2658261403.7017856     
   2674855804.5288396     
   2670207304.2007532     
   2674564953.6192980     
   2687928734.2951441     
   2710298634.1249166     
   2644552739.3136034     
   2638136805.8054028     
   2640623080.9819837     
   2652022159.3552194     
   2672343581.7383728     
   2631322447.5445724     
   2620860955.4226241     
   2619261563.5991936     
   2626568031.9001260     
   2642820329.5867705     
   2635794916.9202299     
   2619089546.9962683     
   2611243984.8025708     
   2612357790.0630479     
   2622523570.9986491     
   2658261403.7017856     
   2633280608.1354065     
   2617159931.0755386     
   2610075811.0334053     
   2612196050.6206470     
   2710298634.1249166     
   2711884548.2645640     
   2723237239.0718489     
   2744356707.8350945     
   2775242955.0550284     
   2672343581.7383728     
   2671857778.6019416     
   2681148798.9831333     
   2700224347.2044630     
   2729090291.9943156     
   2642820329.5867705     
   2638539442.0502872     
   2644177518.3231974     
   2659767044.6862354     
   2685333396.4515114     
   2622523570.9986491     
   2612682870.1033506     
   2613018990.7024298     
   2623610024.9920402     
   2644518631.9419017     
   2612196050.6206470     
   2595026374.0672836     
   2588380747.9847136     
   2592408048.3536305     
   2607231335.3151102     
   2775242955.0550284     
   2767988564.3156862     
   2769494338.5288444     
   2779760277.0861368     
   2798786379.4843292     
   2729090291.9943156     
   2720587903.2978730     
   2721207304.1205688     
   2730951840.5850263     
   2749826354.6583462     
   2685333396.4515114     
   2675583997.3491135     
   2675461307.3771505     
   2684980582.5391822     
   2704162701.7880707     
   2644518631.9419017     
   2633381894.2676873     
   2632537749.2557220     
   2642025203.7936444     
   2661894739.1079326     
   2607231335.3151102     
   2594410922.1733484     
   2592730070.2317047     
   2602267330.0313816     
   2623118925.5639672     
   2798786379.4843292     
   2745230624.3380575     
   2697508560.6935267     
   2655620188.5120931     
   2619565507.8404779     
   2749826354.6583462     
   2696923178.7978473     
   2649652452.5941501     
   2608050752.2783251     
   2572169276.8664680     
   2704162701.7880707     
   2654008966.5632687     
   2609428521.3283424     
   2570568706.1763854     
   2537635833.8038912     
   2661894739.1079326     
   2616588101.4420805     
   2576937982.5133882     
   2543275175.5602751     
   2516061693.0561099     
   2623118925.5639672     
   2584751907.7167902     
   2552267392.7286630     
   2526246734.5069871     
   2507497810.3705683     
   2619565507.8404779     
   2430158340.3501744     
   2235986520.8473759     
   2037050049.6230299     
   1833348927.6040006     
   2572169276.8664680     
   2384654844.5118232     
   2194076477.7646756     
   2000813150.2179193     
   1805469994.5820920     
   2537635833.8038912     
   2357321041.8426142     
   2176754414.4853277     
   1997408532.8240962     
   1821562822.5758991     
   2516061693.0561099     
   2348188091.7837672     
   2183877863.0420389     
   2026231890.3461151     
   1879815938.5658977     
   2507497810.3705683     
   2357152303.0923133     
   2214980097.8390675     
   2085962050.1852624     
   1976974246.3634269     
   2955023785.0471706     
   2892542673.7139425     
   2847249955.4062929     
   2819059656.1546369     
   2808104772.3118548     
   3050417609.4523368     
   2985124705.8314538     
   2933244384.3232594     
   2895257742.8150606     
   2871746098.5366726     
   3204179841.8846154     
   3130368723.4597306     
   3066402277.8802371     
   3012991154.1513400     
   2970926053.3084750     
   3401513250.6158848     
   3316528503.0847421     
   3237994747.3219829     
   3166514117.2035704     
   3102821302.9584036     
   3629211842.9574265     
   3532786151.9910383     
   3439597051.8331871     
   3349865378.2464437     
   3264041448.2281804     
   2808104772.3118548     
   2778358694.9418116     
   2754326943.2494907     
   2736134130.1845050     
   2723921481.4327116     
   2871746098.5366726     
   2831843224.8961349     
   2797473843.5004621     
   2768808206.1145077     
   2746035245.9926186     
   2970926053.3084750     
   2920226842.4596200     
   2874840222.2613683     
   2834971324.5379915     
   2800849210.5153327     
   3102821302.9584036     
   3040962825.3454947     
   2984168314.8100028     
   2932664236.3210049     
   2886708210.5080972     
   3264041448.2281804     
   3190866717.9489894     
   3122497604.4498138     
   3059168256.5713038     
   3001151916.1339102     
   2723921481.4327116     
   2693695606.6915464     
   2672527852.4402490     
   2660642225.0896444     
   2658261403.7017856     
   2746035245.9926186     
   2703922386.5913639     
   2670443216.5013490     
   2645933457.1095266     
   2630737640.7179627     
   2800849210.5153327     
   2745115652.2216959     
   2697436608.4885650     
   2658253705.6921535     
   2628036050.0093160     
   2886708210.5080972     
   2816276442.6417460     
   2753161138.6168270     
   2697884500.2374430     
   2651021103.4801812     
   3001151916.1339102     
   2915563399.3069506     
   2836423543.7916169     
   2764295851.2635913     
   2699821987.7843990     
   2658261403.7017856     
   2633280608.1354065     
   2617159931.0755386     
   2610075811.0334053     
   2612196050.6206470     
   2630737640.7179627     
   2594688682.2128525     
   2567282365.9974322     
   2548793344.3249846     
   2539490548.0144615     
   2628036050.0093160     
   2579266546.4004016     
   2538808239.8541212     
   2507043499.0558028     
   2484359708.3875885     
   2651021103.4801812     
   2588323434.3957605     
   2533451668.2465506     
   2486888872.9376955     
   2449142847.8633194     
   2699821987.7843990     
   2622501737.6100163     
   2552358170.9455147     
   2489949195.0755205     
   2435883806.6466565     
   2612196050.6206470     
   2595026374.0672836     
   2588380747.9847136     
   2592408048.3536305     
   2607231335.3151102     
   2539490548.0144615     
   2511225697.4728827     
   2493252389.6991210     
   2485833078.9174471     
   2489196313.1157265     
   2484359708.3875885     
   2442889836.5605292     
   2411385316.1638126     
   2390253106.5201311     
   2379867605.3709269     
   2449142847.8633194     
   2392719112.7755280     
   2345744624.1056409     
   2308786552.3194904     
   2282397093.6015596     
   2435883806.6466565     
   2363295750.3401670     
   2299376019.9829350     
   2244838361.9516826     
   2200418804.2385674     
   2607231335.3151102     
   2594410922.1733484     
   2592730070.2317047     
   2602267330.0313816     
   2623118925.5639672     
   2489196313.1157265     
   2469597375.9312983     
   2461919019.1231952     
   2466297058.0284514     
   2482865933.7072558     
   2379867605.3709269     
   2351201824.5004501     
   2335390222.6222334     
   2332682282.4802666     
   2343298700.5775380     
   2282397093.6015596     
   2242016383.3368483     
   2215515112.2096848     
   2203341393.8499503     
   2205881633.0540376     
   2200418804.2385674     
   2145389308.9659228     
   2105239997.7645991     
   2080733926.0812373     
   2072545389.3380120     
   2623118925.5639672     
   2584751907.7167902     
   2552267392.7286630     
   2526246734.5069871     
   2507497810.3705683     
   2482865933.7072558     
   2450284494.6763854     
   2426262722.9316769     
   2411746244.5784373     
   2408111262.7304630     
   2343298700.5775380     
   2318948830.1613655     
   2306137027.5968380     
   2306269354.3394527     
   2321433841.1428185     
   2205881633.0540376     
   2191526945.9507928     
   2192174621.5750289     
   2209794727.6642399     
   2247306986.2491465     
   2072545389.3380120     
   2068994558.0648239     
   2084694751.3277919     
   2122278796.1577866     
   2185559058.9711614     
   2507497810.3705683     
   2357152303.0923133     
   2214980097.8390675     
   2085962050.1852624     
   1976974246.3634269     
   2408111262.7304630     
   2282825770.2848463     
   2168046695.5058951     
   2070513459.2395656     
   1998992764.0167048     
   2321433841.1428185     
   2224718686.3365254     
   2141332885.0945232     
   2079640218.3645275     
   2049809733.5262682     
   2247306986.2491465     
   2182621281.9226313     
   2134367823.1822679     
   2112211132.6060634     
   2127082548.0726883     
   2185559058.9711614     
   2156239328.0516691     
   2146504433.4012752     
   2166875115.2487082     
   2228419576.3167214     
   3629211842.9574265     
   3532786151.9910383     
   3439597051.8331871     
   3349865378.2464437     
   3264041448.2281804     
   3875723012.5120158     
   3754892708.7374024     
   3637592902.0896716     
   3524221497.1573176     
   3415329208.7218404     
   4149317360.7350760     
   4005172883.5353007     
   3865175727.8218942     
   3729773987.6473231     
   3599549700.6015816     
   4449168197.5768614     
   4281954486.9279313     
   4119710677.9526601     
   3962847881.3655515     
   3811940324.2853146     
   4774452578.4500380     
   4583632535.3168793     
   4398712801.1916456     
   4220011382.8984675     
   4048079150.8906488     
   3264041448.2281804     
   3190866717.9489894     
   3122497604.4498138     
   3059168256.5713038     
   3001151916.1339102     
   3415329208.7218404     
   3331209081.3878350     
   3251061466.2408624     
   3175120440.8811922     
   3103665103.1542211     
   3599549700.6015816     
   3504625128.5466981     
   3412849863.7846498     
   3324437510.2125826     
   3239648758.1801424     
   3811940324.2853146     
   3706626589.4226213     
   3603686543.9373522     
   3503299844.7021360     
   3405691543.7265697     
   4048079150.8906488     
   3932955187.8228693     
   3819501418.7048402     
   3707857362.7190700     
   3598203545.1112323     
   3001151916.1339102     
   2915563399.3069506     
   2836423543.7916169     
   2764295851.2635913     
   2699821987.7843990     
   3103665103.1542211     
   3001606365.9432659     
   2905191355.8271565     
   2814990284.2114081     
   2731676779.0209322     
   3239648758.1801424     
   3121581656.8130674     
   3008292482.8751955     
   2900313576.5510716     
   2798297037.7452149     
   3405691543.7265697     
   3272314894.1383924     
   3142861582.4256349     
   3017793031.9242234     
   2897695286.6978879     
   3598203545.1112323     
   3450308677.3363204     
   3305547652.0042462     
   3164293352.7458506     
   3027037988.2456422     
   2699821987.7843990     
   2622501737.6100163     
   2552358170.9455147     
   2489949195.0755205     
   2435883806.6466565     
   2731676779.0209322     
   2639084490.7437229     
   2552504695.9772377     
   2472524423.8061867     
   2399813866.5947256     
   2798297037.7452149     
   2690918271.5185423     
   2588263885.4450421     
   2490879420.2300229     
   2399414884.8066616     
   2897695286.6978879     
   2776682153.3807139     
   2659101702.5018849     
   2545399277.6131082     
   2436126937.0467491     
   3027037988.2456422     
   2893991208.0158877     
   2763197661.4222698     
   2634972906.4997635     
   2509723511.1206665     
   2435883806.6466565     
   2363295750.3401670     
   2299376019.9829350     
   2244838361.9516826     
   2200418804.2385674     
   2399813866.5947256     
   2309201218.2619753     
   2226305350.3626547     
   2151940849.1987991     
   2087000098.2786374     
   2399414884.8066616     
   2291187632.8646264     
   2189423033.8323908     
   2094938002.8705664     
   2008683902.1024945     
   2436126937.0467491     
   2311611798.8098764     
   2192148376.7704287     
   2078440155.6131852     
   1971355169.4337807     
   2509723511.1206665     
   2370982459.3991442     
   2235932205.6510739     
   2105079745.6651099     
   1979085185.1379702     
   2200418804.2385674     
   2145389308.9659228     
   2105239997.7645991     
   2080733926.0812373     
   2072545389.3380120     
   2087000098.2786374     
   2012047589.4991918     
   1949415679.7905369     
   1900179091.2759640     
   1865362645.1531639     
   2008683902.1024945     
   1912364910.5530338     
   1824802856.8533399     
   1747194701.5792782     
   1680828858.0404260     
   1971355169.4337807     
   1855230418.8851142     
   1743474033.9351149     
   1637006958.6609557     
   1536959935.6269195     
   1979085185.1379702     
   1848261418.8710504     
   1717481655.2708499     
   1587097013.7794673     
   1457618870.7781885     
   2072545389.3380120     
   2068994558.0648239     
   2084694751.3277919     
   2122278796.1577866     
   2185559058.9711614     
   1865362645.1531639     
   1854823247.8022971     
   1867266602.0268836     
   1904902715.9975157     
   1970762973.8818517     
   1680828858.0404260     
   1652315090.2109604     
   1651530843.4594131     
   1680846205.5163901     
   1742869887.0130494     
   1536959935.6269195     
   1476081725.5254376     
   1447903533.5154803     
   1456393938.6038558     
   1504848037.5134246     
   1457618870.7781885     
   1348589235.1917100     
   1274547905.2291439     
   1243625756.5263095     
   1262866284.5159988     
   2185559058.9711614     
   2156239328.0516691     
   2146504433.4012752     
   2166875115.2487082     
   2228419576.3167214     
   1970762973.8818517     
   1968921031.0641067     
   2003615241.0678217     
   2093519029.6522236     
   2257291757.6732264     
   1742869887.0130494     
   1787688137.2454355     
   1884646062.8599751     
   2060653837.2596724     
   2340942840.3126912     
   1504848037.5134246     
   1613256479.7635965     
   1788856688.5979791     
   2066401089.6273592     
   2476098742.0152950     
   1262866284.5159988     
   1446668225.8176923     
   1715682613.7194176     
   2110493213.9465597     
   2663543338.5145855     
   4774452578.4500380     
   4583632535.3168793     
   4398712801.1916456     
   4220011382.8984675     
   4048079150.8906488     
   5074988266.0510645     
   4875116323.3746777     
   4677474692.1330271     
   4482352890.2963848     
   4290153392.0225568     
   5388509402.2657814     
   5182378444.1293192     
   4975580252.7443666     
   4768163285.7663698     
   4560246750.8221006     
   5706247966.4124069     
   5498052503.2231197     
   5286936485.8147955     
   5072594049.7470875     
   4854834246.8567877     
   6021622374.5402842     
   5816496191.4485350     
   5606743910.5846949     
   5391668948.3054247     
   5170825457.7468996     
   4048079150.8906488     
   3932955187.8228693     
   3819501418.7048402     
   3707857362.7190700     
   3598203545.1112323     
   4290153392.0225568     
   4163928593.3205800     
   4039268377.3259735     
   3916266580.1718917     
   3795057772.7424932     
   4560246750.8221006     
   4422934591.7145700     
   4287083082.8386288     
   4152738776.1861453     
   4019990773.3397818     
   4854834246.8567877     
   4706175981.3725519     
   4558871236.1761274     
   4412920035.6961689     
   4268368819.1522565     
   5170825457.7468996     
   5010332262.5316696     
   4851077830.6474819     
   4693017877.5495567     
   4536160287.8122082     
   3598203545.1112323     
   3450308677.3363204     
   3305547652.0042462     
   3164293352.7458506     
   3027037988.2456422     
   3795057772.7424932     
   3633717205.9428968     
   3474396339.2386398     
   3317359220.2286921     
   3162974830.9890924     
   4019990773.3397818     
   3846132972.6761532     
   3673317880.7483573     
   3501699197.9247699     
   3331514720.4498763     
   4268368819.1522565     
   4082956213.9332614     
   3897766419.1433902     
   3712854440.4437070     
   3528337512.7257957     
   4536160287.8122082     
   4340126581.3571806     
   4143652902.3674502     
   3946713949.1394639     
   3749327477.1015620     
   3027037988.2456422     
   2893991208.0158877     
   2763197661.4222698     
   2634972906.4997635     
   2509723511.1206665     
   3162974830.9890924     
   3018921959.8501759     
   2876655062.1472058     
   2736395014.3081493     
   2598443462.3002148     
   3331514720.4498763     
   3177051038.1605892     
   3023957200.6831369     
   2872362817.1119614     
   2722467344.6110086     
   3528337512.7257957     
   3363741311.1507144     
   3200150949.9803433     
   3037615159.6596713     
   2876243689.0833197     
   3749327477.1015620     
   3574567237.6038818     
   3400491718.4137974     
   3227081560.0943718     
   3054372985.8177280     
   2509723511.1206665     
   2370982459.3991442     
   2235932205.6510739     
   2105079745.6651099     
   1979085185.1379702     
   2598443462.3002148     
   2449826347.0916286     
   2303355199.0831561     
   2159346660.1938672     
   2018228376.7504752     
   2722467344.6110086     
   2566147376.9969640     
   2410752990.6918254     
   2256428109.1670065     
   2103375789.4994478     
   2876243689.0833197     
   2714525455.1423497     
   2552890134.9270511     
   2391368869.0360069     
   2230014114.9919310     
   3054372985.8177280     
   2889470051.6401410     
   2724159442.3319378     
   2558428041.0458741     
   2392269194.1134548     
   1979085185.1379702     
   1848261418.8710504     
   1717481655.2708499     
   1587097013.7794673     
   1457618870.7781885     
   2018228376.7504752     
   1881266059.6733234     
   1744619348.5166183     
   1608417782.2422140     
   1472839631.5100732     
   2103375789.4994478     
   1962932940.7091084     
   1823430767.5083008     
   1684900336.8093894     
   1547400434.6791620     
   2230014114.9919310     
   2087021245.1444454     
   1945657282.0429561     
   1805923568.0429575     
   1667895685.2351952     
   2392269194.1134548     
   2246020517.3454566     
   2101932415.3134921     
   1960007104.3983901     
   1820409791.8789744     
   1457618870.7781885     
   1348589235.1917100     
   1274547905.2291439     
   1243625756.5263095     
   1262866284.5159988     
   1472839631.5100732     
   1328588882.6830807     
   1198808464.5730615     
   1087983034.5989614     
   1002022511.8655038     
   1547400434.6791620     
   1397526776.0054195     
   1244099867.8723361     
   1084847944.6293893     
   917740058.49165082     
   1667895685.2351952     
   1552507789.2202044     
   1428018899.4345727     
   1294782655.2320020     
   1158914184.5378857     
   1820409791.8789744     
   1779805699.2448297     
   1735707514.6818285     
   1696735124.2650845     
   1681364936.1539018     
   1262866284.5159988     
   1446668225.8176923     
   1715682613.7194176     
   2110493213.9465597     
   2663543338.5145855     
   1002022511.8655038     
   1164707681.5420167     
   1425423530.4026272     
   1808754231.0784423     
   2334782421.0451198     
   917740058.49165082     
   963137557.67914283     
   1144933942.5447192     
   1476483519.8104324     
   1957467426.7505114     
   1158914184.5378857     
   1008462072.2671067     
   985230126.46336532     
   1161479968.5135984     
   1544109939.9726195     
   1681364936.1539018     
   1383810138.0532324     
   1129486343.9619613     
   1010112889.7200433     
   1152983476.4705346     
 </DataArray>
 <DataArray  type="Float64" Name="strain" NumberOfComponents="3" format="ascii">
  0.10057486585239594       -3.5166889310690785E-002  -7.5528784752603162E-003
   9.6834230627616646E-002  -3.2442790760204843E-002  -5.9908981515471860E-003
   9.3093595402837459E-002  -3.0181072422658661E-002  -4.4395456057749194E-003
   8.9352960178058327E-002  -2.8381734298052130E-002  -2.8988208379428504E-003
   8.5612324953279084E-002  -2.7044776386385694E-002  -1.3687238480520891E-003
   9.5504393665866494E-002  -3.1139218077491759E-002   3.8450947219786924E-003
   9.1793248994288812E-002  -2.9161275847863655E-002   4.5236133584207194E-003
   8.8082104322711074E-002  -2.7474478229339128E-002   5.2717408792064546E-003
   8.4370959651133309E-002  -2.6078825221917984E-002   6.0894772843357592E-003
   8.0659814979555544E-002  -2.4974316825600418E-002   6.9768225738086054E-003
   8.9887103872945517E-002  -2.7111546844292733E-002   1.4411293797441438E-002
   8.6285686416853691E-002  -2.5879760935522633E-002   1.4377586348448768E-002
   8.2684268960761725E-002  -2.4767884036019761E-002   1.4493724446084183E-002
   7.9082851504669774E-002  -2.3775916145783893E-002   1.4759708090347490E-002
   7.5481434048577850E-002  -2.2903857264815142E-002   1.5175537281238771E-002
   8.3722996473633113E-002  -2.3083875611093652E-002   2.4145718751127976E-002
   8.0311542895311325E-002  -2.2598246023181709E-002   2.3571020818537125E-002
   7.6900089316989578E-002  -2.2061289842700310E-002   2.3226405094858585E-002
   7.3488635738667776E-002  -2.1473007069649774E-002   2.3111871580092341E-002
   7.0077182160346002E-002  -2.0833397704029977E-002   2.3227420274238589E-002
   7.7012071467929044E-002  -1.9056204377894626E-002   3.3048369583038417E-002
   7.3870818429661700E-002  -1.9316731110840590E-002   3.2103916768685625E-002
   7.0729565391394550E-002  -1.9354695649380901E-002   3.1469782825529508E-002
   6.7588312353127275E-002  -1.9170097993515666E-002   3.1145967753570106E-002
   6.4447059314860000E-002  -1.8762938143244590E-002   3.1132471552807406E-002
   8.5612324953279084E-002  -2.7044776386385694E-002  -1.3687238480520891E-003
   8.3132330495817031E-002  -2.5960617773081784E-002  -1.1859426946510543E-003
   8.0652336038355088E-002  -2.4919677543562446E-002  -9.2575839858255460E-004
   7.8172341580893118E-002  -2.3921955697828609E-002  -5.8817095984708967E-004
   7.5692347123431092E-002  -2.2967452235879593E-002  -1.7318037844393785E-004
   8.0659814979555544E-002  -2.4974316825600418E-002   6.9768225738086054E-003
   7.8273496533220410E-002  -2.4027525564198016E-002   6.9162516171595301E-003
   7.5887178086885332E-002  -2.3105023961522100E-002   6.9656295400966350E-003
   7.3500859640550253E-002  -2.2206812017572925E-002   7.1249563426201978E-003
   7.1114541194215175E-002  -2.1332889732350702E-002   7.3942320247302185E-003
   7.5481434048577850E-002  -2.2903857264815142E-002   1.5175537281238771E-002
   7.3221337350288823E-002  -2.2094433355314247E-002   1.4890542939597337E-002
   7.0961240651999866E-002  -2.1290370379481643E-002   1.4748043214461673E-002
   6.8701143953710880E-002  -2.0491668337317685E-002   1.4748038105831460E-002
   6.6441047255421853E-002  -1.9698327228821921E-002   1.4890527613707016E-002
   7.0077182160346002E-002  -2.0833397704029977E-002   2.3227420274238589E-002
   6.7975852947022269E-002  -2.0161341146430367E-002   2.2736931272662946E-002
   6.5874523733698509E-002  -1.9475716797441131E-002   2.2421482624512656E-002
   6.3773194520374776E-002  -1.8776524657062001E-002   2.2281074329786908E-002
   6.1671865307051016E-002  -1.8063764725292975E-002   2.2315706388486040E-002
   6.4447059314860000E-002  -1.8762938143244590E-002   3.1132471552807406E-002
   6.2537043323420721E-002  -1.8228248937546765E-002   3.0455416616356340E-002
   6.0627027331981415E-002  -1.7661063215400813E-002   2.9985947770249460E-002
   5.8717011340542108E-002  -1.7061380976806421E-002   2.9724065014486573E-002
   5.6806995349102829E-002  -1.6429202221764194E-002   2.9669768349067760E-002
   7.5692347123431092E-002  -2.2967452235879593E-002  -1.7318037844393785E-004
   7.2369584138612275E-002  -2.2030137809160188E-002  -3.3561095775969108E-004
   6.9046821153793458E-002  -2.1083983069115741E-002  -3.1670320890742065E-004
   6.5724058168974697E-002  -2.0128988015746169E-002  -1.1645713188682127E-004
   6.2401295184155825E-002  -1.9165152649050832E-002   2.6512727330241237E-004
   7.1114541194215175E-002  -2.1332889732350702E-002   7.3942320247302185E-003
   6.7977664265921223E-002  -2.0465855141788891E-002   7.1503384555588467E-003
   6.4840787337627326E-002  -1.9588306281821594E-002   7.0968786712689302E-003
   6.1703910409333373E-002  -1.8700243152448830E-002   7.2338526718602192E-003
   5.8567033481039366E-002  -1.7801665753670814E-002   7.5612604573326303E-003
   6.6441047255421853E-002  -1.9698327228821921E-002   1.4890527613707016E-002
   6.3499151840365864E-002  -1.8901572474417538E-002   1.4566845010760249E-002
   6.0557256425309791E-002  -1.8092629494527557E-002   1.4442691649408035E-002
   5.7615361010253732E-002  -1.7271498289151935E-002   1.4518067529650111E-002
   5.4673465595197729E-002  -1.6438178858290353E-002   1.4792972651487046E-002
   6.1671865307051016E-002  -1.8063764725292975E-002   2.2315706388486040E-002
   5.8934046861946025E-002  -1.7337289807045991E-002   2.1913908707844217E-002
   5.6196228416841007E-002  -1.6596952707233464E-002   2.1720735725509990E-002
   5.3458409971735975E-002  -1.5842753425854596E-002   2.1736187441483389E-002
   5.0720591526631005E-002  -1.5074691962910003E-002   2.1960263855764148E-002
   5.6806995349102829E-002  -1.6429202221764194E-002   2.9669768349067760E-002
   5.4282349330661894E-002  -1.5773007139674750E-002   2.9191529546811201E-002
   5.1757703312220932E-002  -1.5101275919939178E-002   2.8931010899575005E-002
   4.9233057293780025E-002  -1.4414008562557402E-002   2.8888212407359518E-002
   4.6708411275339035E-002  -1.3711205067529597E-002   2.9063134070164531E-002
   6.2401295184155825E-002  -1.9165152649050832E-002   2.6512727330241237E-004
   5.9512887300228190E-002  -1.8209888342743508E-002   7.0538410549048081E-005
   5.6624479416300555E-002  -1.7280606470536808E-002   5.7605248424574818E-005
   5.3736071532372892E-002  -1.6377307032430330E-002   2.2632778692921462E-004
   5.0847663648445285E-002  -1.5499990028424726E-002   5.7670602606263444E-004
   5.8567033481039366E-002  -1.7801665753670814E-002   7.5612604573326303E-003
   5.5853314786903863E-002  -1.6907524635184745E-002   7.2777142689720020E-003
   5.3139596092768415E-002  -1.6032770346689207E-002   7.1618907595669690E-003
   5.0425877398632940E-002  -1.5177402888184324E-002   7.2137899291164487E-003
   4.7712158704497465E-002  -1.4341422259669612E-002   7.4334117776215791E-003
   5.4673465595197729E-002  -1.6438178858290353E-002   1.4792972651487046E-002
   5.2120503069180868E-002  -1.5605160927626205E-002   1.4427064741628970E-002
   4.9567540543163965E-002  -1.4784934222842078E-002   1.4214946489052555E-002
   4.7014578017147056E-002  -1.3977498743938215E-002   1.4156617893758286E-002
   4.4461615491130174E-002  -1.3182854490914497E-002   1.4252078955745484E-002
   5.0720591526631005E-002  -1.5074691962910003E-002   2.1960263855764148E-002
   4.8314452147059074E-002  -1.4302797220067331E-002   2.1518589828519050E-002
   4.5908312767487136E-002  -1.3537098098994713E-002   2.1216772436882303E-002
   4.3502173387915212E-002  -1.2777594599692157E-002   2.1054811680853543E-002
   4.1096034008343316E-002  -1.2024286722159383E-002   2.1032707560432809E-002
   4.6708411275339035E-002  -1.3711205067529597E-002   2.9063134070164531E-002
   4.4435162020538516E-002  -1.3000433512508569E-002   2.8552289529642561E-002
   4.2161912765737969E-002  -1.2289261975147445E-002   2.8167368603055271E-002
   3.9888663510937422E-002  -1.1577690455446040E-002   2.7908371290402648E-002
   3.7615414256136903E-002  -1.0865718953404380E-002   2.7775297591684511E-002
   5.0847663648445285E-002  -1.5499990028424726E-002   5.7670602606263444E-004
   4.8105212811686004E-002  -1.4630727888712780E-002   3.8350438475753812E-004
   4.5362761974926835E-002  -1.3751593043489441E-002   2.2402690972633810E-004
   4.2620311138167555E-002  -1.2862585492751863E-002   9.8273600968701302E-005
   3.9877860301408385E-002  -1.1963705236503586E-002   6.2444584847387574E-006
   4.7712158704497465E-002  -1.4341422259669612E-002   7.4334117776215791E-003
   4.5016964328041087E-002  -1.3511776921715013E-002   7.1469986381180739E-003
   4.2321769951584737E-002  -1.2675415334890749E-002   6.9213742529458111E-003
   3.9626575575128262E-002  -1.1832337499196946E-002   6.7565386221057067E-003
   3.6931381198672009E-002  -1.0982543414632673E-002   6.6524917455980104E-003
   4.4461615491130174E-002  -1.3182854490914497E-002   1.4252078955745484E-002
   4.1840742163035044E-002  -1.2392825954717024E-002   1.3869297861399815E-002
   3.9219868834939914E-002  -1.1599237626292752E-002   1.3574370109444067E-002
   3.6598995506844811E-002  -1.0802089505640926E-002   1.3367295699879281E-002
   3.3978122178749653E-002  -1.0001381592761760E-002   1.3248074632704832E-002
   4.1096034008343316E-002  -1.2024286722159383E-002   2.1032707560432809E-002
   3.8576546316667903E-002  -1.1273874987719368E-002   2.0550402054602734E-002
   3.6057058624992464E-002  -1.0523059917694852E-002   2.0183014479221655E-002
   3.3537570933317065E-002  -9.7718415120850131E-003   1.9930544834289191E-002
   3.1018083241641674E-002  -9.0202197708910692E-003   1.9792993119805827E-002
   3.7615414256136903E-002  -1.0865718953404380E-002   2.7775297591684511E-002
   3.5224376788939638E-002  -1.0154924020721545E-002   2.7190311217727470E-002
   3.2833339321742372E-002  -9.4468822090965632E-003   2.6747307362277928E-002
   3.0442301854545134E-002  -8.7415935185292809E-003   2.6446286025335580E-002
   2.8051264387347841E-002  -8.0390579490201564E-003   2.6287247206900455E-002
   3.9877860301408385E-002  -1.1963705236503586E-002   6.2444584847387574E-006
   3.7464308852686923E-002  -1.1138760581491214E-002  -2.7834370556445442E-004
   3.5050757403965460E-002  -1.0471559834466515E-002  -4.7573460625371933E-004
   3.2637205955244025E-002  -9.9621029954262835E-003  -5.8592824358338902E-004
   3.0223654506522535E-002  -9.6103900643738083E-003  -6.0892461755246430E-004
   3.6931381198672009E-002  -1.0982543414632673E-002   6.6524917455980104E-003
   3.4587543117581998E-002  -1.0181817959279305E-002   6.2123410609958851E-003
   3.2243705036492099E-002  -9.4859460112168836E-003   5.8244198482968468E-003
   2.9899866955402199E-002  -8.8949275704452435E-003   5.4887281075004235E-003
   2.7556028874312299E-002  -8.4087626369644397E-003   5.2052658386068096E-003
   3.3978122178749653E-002  -1.0001381592761760E-002   1.3248074632704832E-002
   3.1669029673834281E-002  -9.2248753370666181E-003   1.2705251828245223E-002
   2.9359937168918895E-002  -8.5003321879676685E-003   1.2179690704231499E-002
   2.7050844664003516E-002  -7.8277521454630863E-003   1.1671391260663619E-002
   2.4741752159088165E-002  -7.2071352095547381E-003   1.1180353497542150E-002
   3.1018083241641674E-002  -9.0202197708910692E-003   1.9792993119805827E-002
   2.8708768521443738E-002  -8.2679327148544313E-003   1.9200388596183920E-002
   2.6399453801245896E-002  -7.5147183647182453E-003   1.8590077961551120E-002
   2.4090139081048005E-002  -6.7605767204817098E-003   1.7962061215907699E-002
   2.1780824360850173E-002  -6.0055077821453140E-003   1.7316338359252767E-002
   2.8051264387347841E-002  -8.0390579490201564E-003   2.6287247206900455E-002
   2.5706759660410472E-002  -7.3109900926422999E-003   2.5697751364812116E-002
   2.3362254933473048E-002  -6.5291045414685722E-003   2.5055581620255396E-002
   2.1017750206535679E-002  -5.6934012955002153E-003   2.4360737973231239E-002
   1.8673245479598255E-002  -4.8038803547358899E-003   2.3613220423738812E-002
   3.0223654506522535E-002  -9.6103900643738083E-003  -6.0892461755246430E-004
   2.9612391782174674E-002  -9.1354495130440139E-003  -3.6547355054405983E-004
   2.9001129057826758E-002  -8.2563098131747670E-003  -1.8014765060575533E-003
   2.8389866333478841E-002  -6.9729709647666366E-003  -4.9169334840931112E-003
   2.7778603609130981E-002  -5.2854329678182488E-003  -9.7118444846517882E-003
   2.7556028874312299E-002  -8.4087626369644397E-003   5.2052658386068096E-003
   2.5534511431654361E-002  -7.8706894497735380E-003   5.8776997084390992E-003
   2.3512993988996367E-002  -7.1239462478727145E-003   5.4090781641732977E-003
   2.1491476546338456E-002  -6.1685330312618025E-003   3.7994012058094606E-003
   1.9469959103680545E-002  -5.0044497999399695E-003   1.0486688333479766E-003
   2.4741752159088165E-002  -7.2071352095547381E-003   1.1180353497542150E-002
   2.1848378606544649E-002  -6.6059293865031732E-003   1.2086241036368406E-002
   1.8955005054001134E-002  -5.9915826825706342E-003   1.2389471769520988E-002
   1.6061631501457618E-002  -5.3640950977565174E-003   1.2090045697000215E-002
   1.3168257948914130E-002  -4.7234666320619123E-003   1.1187962818806407E-002
   2.1780824360850173E-002  -6.0055077821453140E-003   1.7316338359252767E-002
   1.8553993306845526E-002  -5.3411693232329749E-003   1.8260150433243610E-002
   1.5327162252841010E-002  -4.8592191172685678E-003   1.9139704309986051E-002
   1.2100331198836363E-002  -4.5596571642523460E-003   1.9954999989479413E-002
   8.8735001448317294E-003  -4.4424834641837441E-003   2.0706037471723948E-002
   1.8673245479598255E-002  -4.8038803547358899E-003   2.3613220423738812E-002
   1.5651355532557087E-002  -4.0764092599628876E-003   2.4399427899065573E-002
   1.2629465585515864E-002  -3.7268555519665847E-003   2.5659775785568051E-002
   9.6075756384746552E-003  -3.7552192307474738E-003   2.7394264083246495E-002
   6.5856856914334738E-003  -4.1615002963056869E-003   2.9602892792100266E-002
   2.7778603609130981E-002  -5.2854329678182488E-003  -9.7118444846517882E-003
   2.3352773237320545E-002  -4.2079272238300103E-003  -4.1849284405861553E-003
   1.8926942865510110E-002  -4.7546851342991081E-003   2.6052639481850548E-003
   1.4501112493699758E-002  -6.9257066992277350E-003   1.0658732681663396E-002
   1.0075282121889240E-002  -1.0720991918614864E-002   1.9975477759848204E-002
   1.9469959103680545E-002  -5.0044497999399695E-003   1.0486688333479766E-003
   1.6235159108391739E-002  -4.6914466173256786E-003   6.7427353766210674E-003
   1.3000359113103044E-002  -6.2892735468345062E-003   1.3555586328231284E-002
   9.7655591178142098E-003  -9.7979305884686174E-003   2.1487221688178793E-002
   6.5307591225256534E-003  -1.5217417742226846E-002   3.0537641456462428E-002
   1.3168257948914130E-002  -4.7234666320619123E-003   1.1187962818806407E-002
   1.0979996393777530E-002  -5.1749660108212359E-003   1.6762613403622006E-002
   8.7917348386409577E-003  -7.8238619593699599E-003   2.3311556460404337E-002
   6.6034732835044060E-003  -1.2670154477710069E-002   3.0834791989154953E-002
   4.4152117283677295E-003  -1.9713843565839273E-002   3.9332319989872744E-002
   8.8735001448317294E-003  -4.4424834641837441E-003   2.0706037471723948E-002
   7.5872850934778982E-003  -5.6584854043168487E-003   2.5874705640415691E-002
   6.3010700421239595E-003  -9.3584503719060519E-003   3.1873174344705560E-002
   5.0148549907700606E-003  -1.5542378366951014E-002   3.8701443584593452E-002
   3.7286399394160924E-003  -2.4210269389451700E-002   4.6359513360078708E-002
   6.5856856914334738E-003  -4.1615002963056869E-003   2.9602892792100266E-002
   6.0570252074927944E-003  -6.1420047978131276E-003   3.4079012087002702E-002
   5.5283647235520872E-003  -1.0893038784441728E-002   3.9240439981133635E-002
   4.9997042396113661E-003  -1.8414602256191855E-002   4.5087176474492868E-002
   4.4710437556707561E-003  -2.8706695213063682E-002   5.1619221567080764E-002
   7.7012071467929044E-002  -1.9056204377894626E-002   3.3048369583038417E-002
   7.3870818429661700E-002  -1.9316731110840590E-002   3.2103916768685625E-002
   7.0729565391394550E-002  -1.9354695649380901E-002   3.1469782825529508E-002
   6.7588312353127275E-002  -1.9170097993515666E-002   3.1145967753570106E-002
   6.4447059314860000E-002  -1.8762938143244590E-002   3.1132471552807406E-002
   7.0189335596558600E-002  -1.8904831324668470E-002   3.5452478999930148E-002
   6.7342212848249872E-002  -1.8738018242646121E-002   3.4982228953649108E-002
   6.4495090099941199E-002  -1.8459376406526978E-002   3.4789920616088571E-002
   6.1647967351632527E-002  -1.8068905816311202E-002   3.4875553987248342E-002
   5.8800844603323826E-002  -1.7566606471998841E-002   3.5239129067128755E-002
   6.3689795600246860E-002  -1.8753458271442341E-002   3.8339294951944589E-002
   6.1104425979420451E-002  -1.8159305374451554E-002   3.8232514233426468E-002
   5.8519056358594161E-002  -1.7564057163673062E-002   3.8371298061152533E-002
   5.5933686737767843E-002  -1.6967713639106825E-002   3.8755646435122776E-002
   5.3348317116941490E-002  -1.6370274800752926E-002   3.9385559355337385E-002
   5.7513451478993921E-002  -1.8602085218216199E-002   4.1708817439082058E-002
   5.5157457823173689E-002  -1.7580592506257049E-002   4.1854772608017822E-002
   5.2801464167353436E-002  -1.6668737920819032E-002   4.2213915160721628E-002
   5.0445470511533162E-002  -1.5866521461902403E-002   4.2786245097193205E-002
   4.8089476855712916E-002  -1.5173943129507012E-002   4.3571762417432831E-002
   5.1660303232799687E-002  -1.8450712164990057E-002   4.5561046461342514E-002
   4.9501308379509362E-002  -1.7001879638062461E-002   4.5849004077423094E-002
   4.7342313526218927E-002  -1.5773418677965195E-002   4.6317771914795303E-002
   4.5183318672928560E-002  -1.4765329284698016E-002   4.6967349973459499E-002
   4.3024323819638166E-002  -1.3977611458261208E-002   4.7797738253415212E-002
   6.4447059314860000E-002  -1.8762938143244590E-002   3.1132471552807406E-002
   6.2537043323420721E-002  -1.8228248937546765E-002   3.0455416616356340E-002
   6.0627027331981415E-002  -1.7661063215400813E-002   2.9985947770249460E-002
   5.8717011340542108E-002  -1.7061380976806421E-002   2.9724065014486573E-002
   5.6806995349102829E-002  -1.6429202221764194E-002   2.9669768349067760E-002
   5.8800844603323826E-002  -1.7566606471998841E-002   3.5239129067128755E-002
   5.7084059164343059E-002  -1.6999844274227724E-002   3.4766202552580408E-002
   5.5367273725362251E-002  -1.6415985123636491E-002   3.4472151052604982E-002
   5.3650488286381443E-002  -1.5815029020224712E-002   3.4356974567202589E-002
   5.1933702847400676E-002  -1.5196975963992887E-002   3.4420673096373061E-002
   5.3348317116941490E-002  -1.6370274800752926E-002   3.9385559355337385E-002
   5.1796051154648144E-002  -1.5771439610908794E-002   3.9101361699063773E-002
   5.0243785192354770E-002  -1.5170907031872280E-002   3.8967327981591915E-002
   4.8691519230061410E-002  -1.4568677063643117E-002   3.8983458202922115E-002
   4.7139253267768050E-002  -1.3964749706221441E-002   3.9149752363054097E-002
   4.8089476855712916E-002  -1.5173943129507012E-002   4.3571762417432831E-002
   4.6673019294335941E-002  -1.4543034947589920E-002   4.3460894055806103E-002
   4.5256561732958986E-002  -1.3925828940108152E-002   4.3471478557210175E-002
   4.3840104171581996E-002  -1.3322325107061437E-002   4.3603515921645158E-002
   4.2423646610205042E-002  -1.2732523448450064E-002   4.3857006149111026E-002
   4.3024323819638166E-002  -1.3977611458261208E-002   4.7797738253415212E-002
   4.1714963583406525E-002  -1.3314630284270851E-002   4.7844799622807743E-002
   4.0405603347174870E-002  -1.2680750848343789E-002   4.7984602779459790E-002
   3.9096243110943216E-002  -1.2075973150479657E-002   4.8217147723371781E-002
   3.7786882874711547E-002  -1.1500297190678688E-002   4.8542434454543537E-002
   5.6806995349102829E-002  -1.6429202221764194E-002   2.9669768349067760E-002
   5.4282349330661894E-002  -1.5773007139674750E-002   2.9191529546811201E-002
   5.1757703312220932E-002  -1.5101275919939178E-002   2.8931010899575005E-002
   4.9233057293780025E-002  -1.4414008562557402E-002   2.8888212407359518E-002
   4.6708411275339035E-002  -1.3711205067529597E-002   2.9063134070164531E-002
   5.1933702847400676E-002  -1.5196975963992887E-002   3.4420673096373061E-002
   4.9621038669209278E-002  -1.4564398754445235E-002   3.4029282647143277E-002
   4.7308374491017796E-002  -1.3919870191087091E-002   3.3844135723391858E-002
   4.4995710312826384E-002  -1.3263390273918207E-002   3.3865232325119073E-002
   4.2683046134635000E-002  -1.2594959002938499E-002   3.4092572452324443E-002
   4.7139253267768050E-002  -1.3964749706221441E-002   3.9149752363054097E-002
   4.5027094300283968E-002  -1.3355790369215845E-002   3.8841625483015840E-002
   4.2914935332799928E-002  -1.2738464462234936E-002   3.8728265498913769E-002
   4.0802776365315888E-002  -1.2112771985278898E-002   3.8809672410747974E-002
   3.8690617397831806E-002  -1.1478712938347541E-002   3.9085846218518697E-002
   4.2423646610205042E-002  -1.2732523448450064E-002   4.3857006149111026E-002
   4.0500516223886202E-002  -1.2147181983986337E-002   4.3628558054428779E-002
   3.8577385837567361E-002  -1.1557058733382870E-002   4.3583400226140476E-002
   3.6654255451248494E-002  -1.0962153696639535E-002   4.3721532664246353E-002
   3.4731125064929688E-002  -1.0362466873756512E-002   4.4042955368746500E-002
   3.7786882874711547E-002  -1.1500297190678688E-002   4.8542434454543537E-002
   3.6041304440015770E-002  -1.0938573598756940E-002   4.8390080361381760E-002
   3.4295726005319993E-002  -1.0375653004530749E-002   4.8409539905072158E-002
   3.2550147570624188E-002  -9.8115354080004075E-003   4.8600813085614397E-002
   3.0804569135928411E-002  -9.2462208091654841E-003   4.8963899903008534E-002
   4.6708411275339035E-002  -1.3711205067529597E-002   2.9063134070164531E-002
   4.4435162020538516E-002  -1.3000433512508569E-002   2.8552289529642561E-002
   4.2161912765737969E-002  -1.2289261975147445E-002   2.8167368603055271E-002
   3.9888663510937422E-002  -1.1577690455446040E-002   2.7908371290402648E-002
   3.7615414256136903E-002  -1.0865718953404380E-002   2.7775297591684511E-002
   4.2683046134635000E-002  -1.2594959002938499E-002   3.4092572452324443E-002
   4.0543237644820290E-002  -1.1917314529422129E-002   3.3625618983556510E-002
   3.8403429155005553E-002  -1.1233195004642524E-002   3.3299623430825126E-002
   3.6263620665190774E-002  -1.0542600428600012E-002   3.3114585794131332E-002
   3.4123812175376134E-002  -9.8455308012944109E-003   3.3070506073474337E-002
   3.8690617397831806E-002  -1.1478712938347541E-002   3.9085846218518697E-002
   3.6699283975105350E-002  -1.0834195546335523E-002   3.8668858890426969E-002
   3.4707950552378880E-002  -1.0177128034137777E-002   3.8407863780474859E-002
   3.2716617129652396E-002  -9.5075104017540973E-003   3.8302860888662194E-002
   3.0725283706925899E-002  -8.8253426491846088E-003   3.8353850214988827E-002
   3.4731125064929688E-002  -1.0362466873756512E-002   4.4042955368746500E-002
   3.2903301011393916E-002  -9.7510765632491114E-003   4.3682009250254408E-002
   3.1075476957858023E-002  -9.1210610636330534E-003   4.3492089652004302E-002
   2.9247652904322172E-002  -8.4724203749082377E-003   4.3473196573995725E-002
   2.7419828850786407E-002  -7.8051544970748343E-003   4.3625330016229300E-002
   3.0804569135928411E-002  -9.2462208091654841E-003   4.8963899903008534E-002
   2.9155288753685671E-002  -8.6679575801624220E-003   4.8665070063038773E-002
   2.7506008371442958E-002  -8.0649940931281916E-003   4.8552301045413249E-002
   2.5856727989200190E-002  -7.4373303480621752E-003   4.8625592850131905E-002
   2.4207447606957477E-002  -6.7849663449648379E-003   4.8884945477195019E-002
   3.7615414256136903E-002  -1.0865718953404380E-002   2.7775297591684511E-002
   3.5224376788939638E-002  -1.0154924020721545E-002   2.7190311217727470E-002
   3.2833339321742372E-002  -9.4468822090965632E-003   2.6747307362277928E-002
   3.0442301854545134E-002  -8.7415935185292809E-003   2.6446286025335580E-002
   2.8051264387347841E-002  -8.0390579490201564E-003   2.6287247206900455E-002
   3.4123812175376134E-002  -9.8455308012944109E-003   3.3070506073474337E-002
   3.1876698246166041E-002  -9.1480508516804671E-003   3.2576330567455569E-002
   2.9629584316955962E-002  -8.4562253087131362E-003   3.2228019618904008E-002
   2.7382470387745876E-002  -7.7700541723916515E-003   3.2025573227819251E-002
   2.5135356458535818E-002  -7.0895374427165647E-003   3.1968991394201784E-002
   3.0725283706925899E-002  -8.8253426491846088E-003   3.8353850214988827E-002
   2.8625975354662755E-002  -8.1411776826394722E-003   3.7947584291320183E-002
   2.6526667002399626E-002  -7.4655684083292650E-003   3.7691064964078327E-002
   2.4427358650136476E-002  -6.7985148262540221E-003   3.7584292233263192E-002
   2.2328050297873367E-002  -6.1400169364133061E-003   3.7627266098874929E-002
   2.7419828850786407E-002  -7.8051544970748343E-003   4.3625330016229300E-002
   2.5472208114429892E-002  -7.1343045135985467E-003   4.3304072389322212E-002
   2.3524587378073291E-002  -6.4749115079456160E-003   4.3136443397801219E-002
   2.1576966641716759E-002  -5.8269754801161706E-003   4.3122443041666736E-002
   1.9629345905360231E-002  -5.1904964301099366E-003   4.3262071320918867E-002
   2.4207447606957477E-002  -6.7849663449648379E-003   4.8884945477195019E-002
   2.2415396525467285E-002  -6.1274313445574546E-003   4.8645794861460478E-002
   2.0623345443977065E-002  -5.4842546075619947E-003   4.8564154920072433E-002
   1.8831294362486858E-002  -4.8554361339785482E-003   4.8640025653030411E-002
   1.7039243280996652E-002  -4.2409759238064559E-003   4.8873407060334384E-002
   2.8051264387347841E-002  -8.0390579490201564E-003   2.6287247206900455E-002
   2.5706759660410472E-002  -7.3109900926422999E-003   2.5697751364812116E-002
   2.3362254933473048E-002  -6.5291045414685722E-003   2.5055581620255396E-002
   2.1017750206535679E-002  -5.6934012955002153E-003   2.4360737973231239E-002
   1.8673245479598255E-002  -4.8038803547358899E-003   2.3613220423738812E-002
   2.5135356458535818E-002  -7.0895374427165647E-003   3.1968991394201784E-002
   2.2776793946511303E-002  -6.4056938222102344E-003   3.1559776379196047E-002
   2.0418231434486817E-002  -5.7095420133953245E-003   3.1175119696483816E-002
   1.8059668922462309E-002  -5.0010820162709399E-003   3.0815021346065494E-002
   1.5701106410437815E-002  -4.2803138308379340E-003   3.0479481327941094E-002
   2.2328050297873367E-002  -6.1400169364133061E-003   3.7627266098874929E-002
   2.0032662235523468E-002  -5.5003975517789183E-003   3.7356822404464946E-002
   1.7737274173173681E-002  -4.8899794853217576E-003   3.7188169277110897E-002
   1.5441886110823880E-002  -4.3087627370423341E-003   3.7121306716812220E-002
   1.3146498048474009E-002  -3.7567473069400892E-003   3.7156234723569354E-002
   1.9629345905360231E-002  -5.1904964301099366E-003   4.3262071320918867E-002
   1.7474364527446939E-002  -4.5951012813475051E-003   4.3088889440618845E-002
   1.5319383149533617E-002  -4.0704169572485169E-003   4.3094730362136291E-002
   1.3164401771620296E-002  -3.6164434578135046E-003   4.3279594085471183E-002
   1.1009420393707000E-002  -3.2331807830420778E-003   4.3643480610623085E-002
   1.7039243280996652E-002  -4.2409759238064559E-003   4.8873407060334384E-002
   1.5101900822281661E-002  -3.6898050109155367E-003   4.8755977487657809E-002
   1.3164558363566642E-002  -3.2508544291749153E-003   4.8894802951560512E-002
   1.1227215904851637E-002  -2.9241241785847236E-003   4.9289883452042160E-002
   9.2898734461366317E-003  -2.7096142591442884E-003   4.9941218989103198E-002
   1.8673245479598255E-002  -4.8038803547358899E-003   2.3613220423738812E-002
   1.5651355532557087E-002  -4.0764092599628876E-003   2.4399427899065573E-002
   1.2629465585515864E-002  -3.7268555519665847E-003   2.5659775785568051E-002
   9.6075756384746552E-003  -3.7552192307474738E-003   2.7394264083246495E-002
   6.5856856914334738E-003  -4.1615002963056869E-003   2.9602892792100266E-002
   1.5701106410437815E-002  -4.2803138308379340E-003   3.0479481327941094E-002
   1.3134813716693144E-002  -3.7711323398535446E-003   3.1257976870594006E-002
   1.0568521022948446E-002  -3.6974324260755642E-003   3.2473526508663975E-002
   8.0022283292037547E-003  -4.0592140895037432E-003   3.4126130242151803E-002
   5.4359356354590771E-003  -4.8564773301381647E-003   3.6215788071056521E-002
   1.3146498048474009E-002  -3.7567473069400892E-003   3.7156234723569354E-002
   1.0998716292267632E-002  -3.4658554197444791E-003   3.7869454143118764E-002
   8.8509345360612210E-003  -3.6680093001844466E-003   3.8982641342327276E-002
   6.7031527798548270E-003  -4.3632089482597940E-003   4.0495796321195064E-002
   4.5553710236483774E-003  -5.5514543639705871E-003   4.2408919079722079E-002
   1.1009420393707000E-002  -3.2331807830420778E-003   4.3643480610623085E-002
   9.2430632592806379E-003  -3.1605784996352193E-003   4.4233859716640400E-002
   7.4767061248542776E-003  -3.6385861742934886E-003   4.5187120286558149E-002
   5.7103489904279285E-003  -4.6672038070158430E-003   4.6503262320377027E-002
   3.9439918560015517E-003  -6.2464313978030372E-003   4.8182285818096672E-002
   9.2898734461366317E-003  -2.7096142591442884E-003   4.9941218989103198E-002
   7.8678546177320952E-003  -2.8553015795261261E-003   5.0351193591158361E-002
   6.4458357893275309E-003  -3.6091630484023363E-003   5.1086963341356040E-002
   5.0238169609229666E-003  -4.9711986657718990E-003   5.2148528239696595E-002
   3.6017981325184301E-003  -6.9414084316355984E-003   5.3535888286179723E-002
   6.5856856914334738E-003  -4.1615002963056869E-003   2.9602892792100266E-002
   6.0570252074927944E-003  -6.1420047978131276E-003   3.4079012087002702E-002
   5.5283647235520872E-003  -1.0893038784441728E-002   3.9240439981133635E-002
   4.9997042396113661E-003  -1.8414602256191855E-002   4.5087176474492868E-002
   4.4710437556707561E-003  -2.8706695213063682E-002   5.1619221567080764E-002
   5.4359356354590771E-003  -4.8564773301381647E-003   3.6215788071056521E-002
   5.4887897232250293E-003  -6.9898432440073099E-003   3.8353672155408858E-002
   5.5416438109908983E-003  -1.1359932927139132E-002   4.0969276783945463E-002
   5.5944978987568714E-003  -1.7966746379534194E-002   4.4062601956667391E-002
   5.6473519865227195E-003  -2.6810283601192086E-002   4.7633647673573254E-002
   4.5553710236483774E-003  -5.5514543639705871E-003   4.2408919079722079E-002
   4.9821516280772055E-003  -7.8376816902016033E-003   4.2742373669382411E-002
   5.4089322325060543E-003  -1.1826827069836968E-002   4.3345960748183684E-002
   5.8357128369348164E-003  -1.7518890502876420E-002   4.4219680316125824E-002
   6.2624934413636202E-003  -2.4913871989320491E-002   4.5363532373209559E-002
   3.9439918560015517E-003  -6.2464313978030372E-003   4.8182285818096672E-002
   4.5371109220494789E-003  -8.6855201363956192E-003   4.7245116628923937E-002
   5.1302299880973210E-003  -1.2293721212534255E-002   4.6370491873847869E-002
   5.7233490541452733E-003  -1.7071034626218479E-002   4.5558411552869688E-002
   6.3164681201931458E-003  -2.3017460377449006E-002   4.4808875665988235E-002
   3.6017981325184301E-003  -6.9414084316355984E-003   5.3535888286179723E-002
   4.1536676051417143E-003  -9.5333585825904121E-003   5.1861901034032432E-002
   4.7055370777649708E-003  -1.2760615355232235E-002   5.0042870160937947E-002
   5.2574065503882272E-003  -1.6623178749560825E-002   4.8078795666897184E-002
   5.8092760230115115E-003  -2.1121048765577299E-002   4.5969677551910504E-002
   5.1660303232799687E-002  -1.8450712164990057E-002   4.5561046461342514E-002
   4.9501308379509362E-002  -1.7001879638062461E-002   4.5849004077423094E-002
   4.7342313526218927E-002  -1.5773418677965195E-002   4.6317771914795303E-002
   4.5183318672928560E-002  -1.4765329284698016E-002   4.6967349973459499E-002
   4.3024323819638166E-002  -1.3977611458261208E-002   4.7797738253415212E-002
   4.5765082894685893E-002  -1.4873550070655495E-002   5.1386941116449425E-002
   4.3817070063196240E-002  -1.4077167348353431E-002   5.1156078291805990E-002
   4.1869057231706530E-002  -1.3343717423890955E-002   5.1166369289472602E-002
   3.9921044400216876E-002  -1.2673200297267581E-002   5.1417814109448567E-002
   3.7973031568727195E-002  -1.2065615968483934E-002   5.1910412751734275E-002
   3.9462522497674235E-002  -1.1296387976320904E-002   5.6481666582435391E-002
   3.7785835289003110E-002  -1.1152455058644442E-002   5.5889422086059043E-002
   3.6109148080332040E-002  -1.0914016169816618E-002   5.5598675013010385E-002
   3.4432460871660943E-002  -1.0581071309837337E-002   5.5609425363289215E-002
   3.2755773662989859E-002  -1.0153620478706632E-002   5.5921673136895597E-002
   3.2752622041764559E-002  -7.7192258819863413E-003   6.0845222859300128E-002
   3.1407604056929973E-002  -8.2277427689354601E-003   6.0049035460181727E-002
   3.0062586072095377E-002  -8.4843149157423289E-003   5.9614689085408804E-002
   2.8717568087260781E-002  -8.4889423224069425E-003   5.9542183734981220E-002
   2.7372550102426191E-002  -8.2416249889293441E-003   5.9831519408899261E-002
   2.5635381526956935E-002  -4.1420637876517508E-003   6.4477609947044101E-002
   2.4682376366976760E-002  -5.3030304792263949E-003   6.3634918414174291E-002
   2.3729371206996572E-002  -6.0546136616680957E-003   6.3214411506668011E-002
   2.2776366047016390E-002  -6.3968133349766726E-003   6.3216089224524957E-002
   2.1823360887036208E-002  -6.3296294991521118E-003   6.3639951567745323E-002
   4.3024323819638166E-002  -1.3977611458261208E-002   4.7797738253415212E-002
   4.1714963583406525E-002  -1.3314630284270851E-002   4.7844799622807743E-002
   4.0405603347174870E-002  -1.2680750848343789E-002   4.7984602779459790E-002
   3.9096243110943216E-002  -1.2075973150479657E-002   4.8217147723371781E-002
   3.7786882874711547E-002  -1.1500297190678688E-002   4.8542434454543537E-002
   3.7973031568727195E-002  -1.2065615968483934E-002   5.1910412751734275E-002
   3.6770503693661222E-002  -1.1502091076142723E-002   5.1778455133651868E-002
   3.5567975818595263E-002  -1.0963752258847187E-002   5.1767420450640964E-002
   3.4365447943529311E-002  -1.0450599516597790E-002   5.1877308702701790E-002
   3.3162920068463331E-002  -9.9626328493938598E-003   5.2108119889834104E-002
   3.2755773662989859E-002  -1.0153620478706632E-002   5.5921673136895597E-002
   3.1688259296901389E-002  -9.6895518680144704E-003   5.5614612194355664E-002
   3.0620744930812939E-002  -9.2467536693508143E-003   5.5456655334699019E-002
   2.9553230564724486E-002  -8.8252258827157589E-003   5.5447802557925766E-002
   2.8485716198636046E-002  -8.4249685081090875E-003   5.5588053864035952E-002
   2.7372550102426191E-002  -8.2416249889293441E-003   5.9831519408899261E-002
   2.6468230393127037E-002  -7.8770126598863358E-003   5.9353270804919013E-002
   2.5563910683827920E-002  -7.5297550798544659E-003   5.9052307431633901E-002
   2.4659590974528783E-002  -7.1998522488338100E-003   5.8928629289044090E-002
   2.3755271265229645E-002  -6.8873041668242874E-003   5.8982236377149319E-002
   2.1823360887036208E-002  -6.3296294991521118E-003   6.3639951567745323E-002
   2.1110416982338190E-002  -6.0644734517580623E-003   6.2994430965342019E-002
   2.0397473077640171E-002  -5.8127564903577983E-003   6.2554376741445678E-002
   1.9684529172942160E-002  -5.5744786149516841E-003   6.2319788896056341E-002
   1.8971585268244148E-002  -5.3496398255394872E-003   6.2290667429174218E-002
   3.7786882874711547E-002  -1.1500297190678688E-002   4.8542434454543537E-002
   3.6041304440015770E-002  -1.0938573598756940E-002   4.8390080361381760E-002
   3.4295726005319993E-002  -1.0375653004530749E-002   4.8409539905072158E-002
   3.2550147570624188E-002  -9.8115354080004075E-003   4.8600813085614397E-002
   3.0804569135928411E-002  -9.2462208091654841E-003   4.8963899903008534E-002
   3.3162920068463331E-002  -9.9626328493938598E-003   5.2108119889834104E-002
   3.1597524228943491E-002  -9.4837615803254061E-003   5.1914989831956998E-002
   3.0032128389423624E-002  -8.9978950324819812E-003   5.1910411327579620E-002
   2.8466732549903749E-002  -8.5050332058635540E-003   5.2094384376702177E-002
   2.6901336710383889E-002  -8.0051761004701349E-003   5.2466908979324767E-002
   2.8485716198636046E-002  -8.4249685081090875E-003   5.5588053864035952E-002
   2.7117240870940022E-002  -8.0289495618938722E-003   5.5359946117913963E-002
   2.5748765543243977E-002  -7.6201370604331020E-003   5.5337127841939823E-002
   2.4380290215547946E-002  -7.1985310037267006E-003   5.5519599036113490E-002
   2.3011814887851909E-002  -6.7641313917747858E-003   5.5907359700434783E-002
   2.3755271265229645E-002  -6.8873041668242874E-003   5.8982236377149319E-002
   2.2600454366005343E-002  -6.5741375434623939E-003   5.8724949219253322E-002
   2.1445637466781051E-002  -6.2423790883843339E-003   5.8689689448152581E-002
   2.0290820567556739E-002  -5.8920288015897916E-003   5.8876457063847754E-002
   1.9136003668332457E-002  -5.5230866830793257E-003   5.9285252066338619E-002
   1.8971585268244148E-002  -5.3496398255394872E-003   6.2290667429174218E-002
   1.8047164714139488E-002  -5.1193255250308045E-003   6.2009999135974270E-002
   1.7122744160034835E-002  -4.8646211163354547E-003   6.1968096146218093E-002
   1.6198323605930192E-002  -4.5855265994531047E-003   6.2164958459905495E-002
   1.5273903051825549E-002  -4.2820419743840876E-003   6.2600586077036335E-002
   3.0804569135928411E-002  -9.2462208091654841E-003   4.8963899903008534E-002
   2.9155288753685671E-002  -8.6679575801624220E-003   4.8665070063038773E-002
   2.7506008371442958E-002  -8.0649940931281916E-003   4.8552301045413249E-002
   2.5856727989200190E-002  -7.4373303480621752E-003   4.8625592850131905E-002
   2.4207447606957477E-002  -6.7849663449648379E-003   4.8884945477195019E-002
   2.6901336710383889E-002  -8.0051761004701349E-003   5.2466908979324767E-002
   2.5440542279421927E-002  -7.4931106595128028E-003   5.2205275696496134E-002
   2.3979747848459965E-002  -6.9636238262025807E-003   5.2134553493884683E-002
   2.2518953417497996E-002  -6.4167156005393994E-003   5.2254742371490484E-002
   2.1058158986536013E-002  -5.8523859825236890E-003   5.2565842329313384E-002
   2.3011814887851909E-002  -6.7641313917747858E-003   5.5907359700434783E-002
   2.1744356666043622E-002  -6.3182637388628782E-003   5.5675644109068612E-002
   2.0476898444235343E-002  -5.8622535592769837E-003   5.5639689855792610E-002
   1.9209440222427050E-002  -5.3961008530166825E-003   5.5799496940606631E-002
   1.7941982000618806E-002  -4.9198056200825402E-003   5.6155065363510892E-002
   1.9136003668332457E-002  -5.5230866830793257E-003   5.9285252066338619E-002
   1.8066731913550807E-002  -5.1434168182128842E-003   5.9076175300756220E-002
   1.6997460158769143E-002  -4.7608832923513242E-003   5.9067710131136916E-002
   1.5928188403987499E-002  -4.3754861054938806E-003   5.9259856557480693E-002
   1.4858916649205856E-002  -3.9872252576413914E-003   5.9652614579787495E-002
   1.5273903051825549E-002  -4.2820419743840876E-003   6.2600586077036335E-002
   1.4407668021943418E-002  -3.9685698975631678E-003   6.2406869271559029E-002
   1.3541432992061328E-002  -3.6595130254256647E-003   6.2418614319917742E-002
   1.2675197962179217E-002  -3.3548713579710232E-003   6.2635821222112448E-002
   1.1808962932297107E-002  -3.0546448952002425E-003   6.3058489978143006E-002
   2.4207447606957477E-002  -6.7849663449648379E-003   4.8884945477195019E-002
   2.2415396525467285E-002  -6.1274313445574546E-003   4.8645794861460478E-002
   2.0623345443977065E-002  -5.4842546075619947E-003   4.8564154920072433E-002
   1.8831294362486858E-002  -4.8554361339785482E-003   4.8640025653030411E-002
   1.7039243280996652E-002  -4.2409759238064559E-003   4.8873407060334384E-002
   2.1058158986536013E-002  -5.8523859825236890E-003   5.2565842329313384E-002
   1.9435008369132534E-002  -5.2854154650398555E-003   5.2357944209409535E-002
   1.7811857751729041E-002  -4.7305845409731095E-003   5.2330336343332812E-002
   1.6188707134325582E-002  -4.1878932103232083E-003   5.2483018731083256E-002
   1.4565556516922068E-002  -3.6573414730900478E-003   5.2815991372661297E-002
   1.7941982000618806E-002  -4.9198056200825402E-003   5.6155065363510892E-002
   1.6510511426783121E-002  -4.4433995855223396E-003   5.5980638409432210E-002
   1.5079040852947458E-002  -3.9769144743839885E-003   5.6009281288661936E-002
   1.3647570279111804E-002  -3.5203502866678650E-003   5.6240994001199980E-002
   1.2216099705276109E-002  -3.0737070223737506E-003   5.6675776547046308E-002
   1.4858916649205856E-002  -3.9872252576413914E-003   5.9652614579787495E-002
   1.3641905698419079E-002  -3.6013837060045600E-003   5.9513877461529051E-002
   1.2424894747632283E-002  -3.2232444077949299E-003   5.9600989756059986E-002
   1.1207883796845518E-002  -2.8528073630126900E-003   5.9913951463380299E-002
   9.9908728460587383E-003  -2.4900725716574534E-003   6.0452762583490159E-002
   1.1808962932297107E-002  -3.0546448952002425E-003   6.3058489978143006E-002
   1.0829191184040327E-002  -2.7593678264871135E-003   6.2957661365699746E-002
   9.8494194357835463E-003  -2.4695743412061488E-003   6.3105461745526725E-002
   8.8696476875267660E-003  -2.1852644393573900E-003   6.3501891117624387E-002
   7.8898759392699858E-003  -1.9064381209410453E-003   6.4146949481992621E-002
   1.7039243280996652E-002  -4.2409759238064559E-003   4.8873407060334384E-002
   1.5101900822281661E-002  -3.6898050109155367E-003   4.8755977487657809E-002
   1.3164558363566642E-002  -3.2508544291749153E-003   4.8894802951560512E-002
   1.1227215904851637E-002  -2.9241241785847236E-003   4.9289883452042160E-002
   9.2898734461366317E-003  -2.7096142591442884E-003   4.9941218989103198E-002
   1.4565556516922068E-002  -3.6573414730900478E-003   5.2815991372661297E-002
   1.2883198842358529E-002  -3.1891132254324717E-003   5.2709157641543603E-002
   1.1200841167795003E-002  -2.8333923635089076E-003   5.2856038442149034E-002
   9.5184834932314638E-003  -2.5901788873191958E-003   5.3256633774478562E-002
   7.8361258186679383E-003  -2.4594727968634267E-003   5.3910943638531605E-002
   1.2216099705276109E-002  -3.0737070223737506E-003   5.6675776547046308E-002
   1.0786186310008543E-002  -2.6884214399495177E-003   5.6579251602903530E-002
   9.3562729147409554E-003  -2.4159302978428027E-003   5.6733900685628905E-002
   7.9263595194733645E-003  -2.2562335960540046E-003   5.7139723795222482E-002
   6.4964461242057736E-003  -2.2093313345825649E-003   5.7796720931684281E-002
   9.9908728460587383E-003  -2.4900725716574534E-003   6.0452762583490159E-002
   8.8108632252316028E-003  -2.1877296544665636E-003   6.0366259371738805E-002
   7.6308536044044830E-003  -1.9984682321766908E-003   6.0528389681999917E-002
   6.4508439835773640E-003  -1.9222883047883121E-003   6.0939153514273842E-002
   5.2708343627502277E-003  -1.9591898723016477E-003   6.1598550868560385E-002
   7.8898759392699858E-003  -1.9064381209410453E-003   6.4146949481992621E-002
   6.9572295880277885E-003  -1.6870378689835541E-003   6.4070180948048838E-002
   6.0245832367855912E-003  -1.5810061665106900E-003   6.4239505431261945E-002
   5.0919368855434077E-003  -1.5883430135233412E-003   6.4654922931632330E-002
   4.1592905343012243E-003  -1.7090484100208414E-003   6.5316433449160050E-002
   9.2898734461366317E-003  -2.7096142591442884E-003   4.9941218989103198E-002
   7.8678546177320952E-003  -2.8553015795261261E-003   5.0351193591158361E-002
   6.4458357893275309E-003  -3.6091630484023363E-003   5.1086963341356040E-002
   5.0238169609229666E-003  -4.9711986657718990E-003   5.2148528239696595E-002
   3.6017981325184301E-003  -6.9414084316355984E-003   5.3535888286179723E-002
   7.8361258186679383E-003  -2.4594727968634267E-003   5.3910943638531605E-002
   6.7141544792641839E-003  -2.6420795635570538E-003   5.3848092275922743E-002
   5.5921831398604849E-003  -3.3388046588152254E-003   5.4059540743171958E-002
   4.4702118004567651E-003  -4.5496480826375876E-003   5.4545289040280678E-002
   3.3482404610530592E-003  -6.2746098350251467E-003   5.5305337167247726E-002
   6.4964461242057736E-003  -2.2093313345825649E-003   5.7796720931684281E-002
   5.6230269555191809E-003  -2.4288575475876206E-003   5.7355099424339556E-002
   4.7496077868325950E-003  -3.0684462692282116E-003   5.7136282428570231E-002
   3.8761886181460162E-003  -4.1280974995038279E-003   5.7140269944376064E-002
   3.0027694494594165E-003  -5.6078112384150836E-003   5.7367061971757366E-002
   5.2708343627502277E-003  -1.9591898723016477E-003   6.1598550868560385E-002
   4.5944720464970133E-003  -2.2156355316184789E-003   6.0872215036409681E-002
   3.9181097302438527E-003  -2.7980878796410383E-003   6.0317188397550639E-002
   3.2417474139906644E-003  -3.7065469163699034E-003   5.9933470951983397E-002
   2.5653850977374777E-003  -4.9410126418044931E-003   5.9721062699707193E-002
   4.1592905343012243E-003  -1.7090484100208414E-003   6.5316433449160050E-002
   3.6284897521977472E-003  -2.0024135156491152E-003   6.4399439112132861E-002
   3.0976889700942700E-003  -2.5277294900541980E-003   6.3602258650113541E-002
   2.5668881879907929E-003  -3.2849963332360066E-003   6.2924892063102089E-002
   2.0360874058873157E-003  -4.2742140451945687E-003   6.2367339351098616E-002
   3.6017981325184301E-003  -6.9414084316355984E-003   5.3535888286179723E-002
   4.1536676051417143E-003  -9.5333585825904121E-003   5.1861901034032432E-002
   4.7055370777649708E-003  -1.2760615355232235E-002   5.0042870160937947E-002
   5.2574065503882272E-003  -1.6623178749560825E-002   4.8078795666897184E-002
   5.8092760230115115E-003  -2.1121048765577299E-002   4.5969677551910504E-002
   3.3482404610530592E-003  -6.2746098350251467E-003   5.5305337167247726E-002
   3.7724541046562643E-003  -8.5440190006736416E-003   5.2951782807076297E-002
   4.1966677482595527E-003  -1.1388204664278562E-002   5.0487960409811738E-002
   4.6208813918627509E-003  -1.4807166825840150E-002   4.7913869975452911E-002
   5.0450950354660185E-003  -1.8800905485358843E-002   4.5229511504001119E-002
   3.0027694494594165E-003  -5.6078112384150836E-003   5.7367061971757366E-002
   3.3341028478955717E-003  -7.5546794187570376E-003   5.4394470627292385E-002
   3.6654362463316922E-003  -1.0015793973325429E-002   5.1346386829586518E-002
   3.9967696447678128E-003  -1.2991154902119693E-002   4.8222810578640592E-002
   4.3281030432039957E-003  -1.6480762205140831E-002   4.5023741874453349E-002
   2.5653850977374777E-003  -4.9410126418044931E-003   5.9721062699707193E-002
   2.8386138348594787E-003  -6.5653398368402394E-003   5.6189964494679508E-002
   3.1118425719814918E-003  -8.6433832823720261E-003   5.2618149420264076E-002
   3.3850713091034979E-003  -1.1175142978399348E-002   4.9005617476460706E-002
   3.6583000462255336E-003  -1.4160618924922486E-002   4.5352368663270387E-002
   2.0360874058873157E-003  -4.2742140451945687E-003   6.2367339351098616E-002
   2.2859870655481118E-003  -5.5760002549238852E-003   5.8338264409238283E-002
   2.5358867252089079E-003  -7.2709725914190115E-003   5.4303248181842956E-002
   2.7857863848696901E-003  -9.3591310546787126E-003   5.0262290668913523E-002
   3.0356860445305278E-003  -1.1840475644704362E-002   4.6215391870449096E-002
   2.5635381526956935E-002  -4.1420637876517508E-003   6.4477609947044101E-002
   2.4682376366976760E-002  -5.3030304792263949E-003   6.3634918414174291E-002
   2.3729371206996572E-002  -6.0546136616680957E-003   6.3214411506668011E-002
   2.2776366047016390E-002  -6.3968133349766726E-003   6.3216089224524957E-002
   2.1823360887036208E-002  -6.3296294991521118E-003   6.3639951567745323E-002
   1.8528660718053022E-002  -3.6845868393511894E-003   6.3098008959076080E-002
   1.7952923877269517E-002  -4.2509544182041947E-003   6.2947898924588047E-002
   1.7377187036485983E-002  -4.6084688385040623E-003   6.3130140903130155E-002
   1.6801450195702471E-002  -4.7571301002508580E-003   6.3644734894702085E-002
   1.6225713354918944E-002  -4.6969382034444673E-003   6.4491680899304155E-002
   1.1850319379854486E-002  -3.2271098910506280E-003   6.2413272259119690E-002
   1.1562018245934232E-002  -3.1988783571819529E-003   6.2755213372433574E-002
   1.1273717112013974E-002  -3.1623240153401400E-003   6.3339673886443987E-002
   1.0985415978093721E-002  -3.1174468655250157E-003   6.4166653801151108E-002
   1.0697114844173461E-002  -3.0642469077367951E-003   6.5236153116554688E-002
   5.6003575123612873E-003  -2.7696329427500388E-003   6.2423399847175001E-002
   5.5096594729709073E-003  -2.1468022961597735E-003   6.3056861757710803E-002
   5.4189614335805282E-003  -1.7161791921761621E-003   6.3843010456609811E-002
   5.3282633941901490E-003  -1.4777636307992427E-003   6.4781845943871874E-002
   5.2375653547997759E-003  -1.4315556120290812E-003   6.5873368219497297E-002
  -2.2122488442653104E-004  -2.3121559944495051E-003   6.3128391723241861E-002
  -2.0415244162043378E-004  -1.0947262351374554E-003   6.3852844080419691E-002
  -1.8707999881433998E-004  -2.7003436901222588E-004   6.4640150613627295E-002
  -1.7000755600824966E-004   1.6191960392664476E-004   6.5490311322864578E-002
  -1.5293511320215239E-004   2.0113568367852164E-004   6.6403326208131719E-002
   2.1823360887036208E-002  -6.3296294991521118E-003   6.3639951567745323E-002
   2.1110416982338190E-002  -6.0644734517580623E-003   6.2994430965342019E-002
   2.0397473077640171E-002  -5.8127564903577983E-003   6.2554376741445678E-002
   1.9684529172942160E-002  -5.5744786149516841E-003   6.2319788896056341E-002
   1.8971585268244148E-002  -5.3496398255394872E-003   6.2290667429174218E-002
   1.6225713354918944E-002  -4.6969382034444673E-003   6.4491680899304155E-002
   1.5713242494405234E-002  -4.5314474506111535E-003   6.3904368717703136E-002
   1.5200771633891531E-002  -4.3642121442773740E-003   6.3512536245963661E-002
   1.4688300773377811E-002  -4.1952322844431081E-003   6.3316183484085770E-002
   1.4175829912864119E-002  -4.0245078711083071E-003   6.3315310432069616E-002
   1.0697114844173461E-002  -3.0642469077367951E-003   6.5236153116554688E-002
   1.0375130359198625E-002  -2.9984214494643696E-003   6.4722232995250484E-002
   1.0053145874223773E-002  -2.9156677981969428E-003   6.4393805915162500E-002
   9.7311613892489286E-003  -2.8159859539345303E-003   6.4250871876290611E-002
   9.4091769042740810E-003  -2.6993759166771270E-003   6.4293430878634816E-002
   5.2375653547997759E-003  -1.4315556120290812E-003   6.5873368219497297E-002
   5.0960805767183400E-003  -1.4653954483175233E-003   6.5448023797984450E-002
   4.9545957986369075E-003  -1.4671234521164596E-003   6.5198185749042223E-002
   4.8131110205554785E-003  -1.4367396234260645E-003   6.5123854072670642E-002
   4.6716262424740468E-003  -1.3742439622459468E-003   6.5225028768869875E-002
  -1.5293511320215239E-004   2.0113568367852164E-004   6.6403326208131719E-002
  -1.2390685303561438E-004   6.7630552829323065E-005   6.6081741125904619E-002
  -9.4878592869067704E-005  -1.8579106035948589E-005   6.5925675747602747E-002
  -6.5850332702522760E-005  -5.7493292917425165E-005   6.5935130073226239E-002
  -3.6822072535983019E-005  -4.9112007814766656E-005   6.6110104102774847E-002
   1.8971585268244148E-002  -5.3496398255394872E-003   6.2290667429174218E-002
   1.8047164714139488E-002  -5.1193255250308045E-003   6.2009999135974270E-002
   1.7122744160034835E-002  -4.8646211163354547E-003   6.1968096146218093E-002
   1.6198323605930192E-002  -4.5855265994531047E-003   6.2164958459905495E-002
   1.5273903051825549E-002  -4.2820419743840876E-003   6.2600586077036335E-002
   1.4175829912864119E-002  -4.0245078711083071E-003   6.3315310432069616E-002
   1.3488838426555544E-002  -3.8449266293070217E-003   6.3082587855822131E-002
   1.2801846940246983E-002  -3.6493762840728028E-003   6.3085958111722990E-002
   1.2114855453938408E-002  -3.4378568354059835E-003   6.3325421199772594E-002
   1.1427863967629848E-002  -3.2103682833063973E-003   6.3800977119970848E-002
   9.4091769042740810E-003  -2.6993759166771270E-003   6.4293430878634816E-002
   8.9569420144665866E-003  -2.5705277335829613E-003   6.4100233014585395E-002
   8.5047071246590975E-003  -2.4341314518101509E-003   6.4140455511389485E-002
   8.0524722348516119E-003  -2.2901870713588068E-003   6.4414098369047240E-002
   7.6002373450441210E-003  -2.1386945922288181E-003   6.4921161587558451E-002
   4.6716262424740468E-003  -1.3742439622459468E-003   6.5225028768869875E-002
   4.4514754778726172E-003  -1.2961288378590674E-003   6.5062934612264561E-002
   4.2313247132711954E-003  -1.2188866195474435E-003   6.5131588345217623E-002
   4.0111739486697684E-003  -1.1425173073116024E-003   6.5430989967729433E-002
   3.7910231840683432E-003  -1.0670209011512388E-003   6.5961139479799619E-002
  -3.6822072535983019E-005  -4.9112007814766656E-005   6.6110104102774847E-002
  -2.7561183226349623E-005  -2.1729942135118030E-005   6.5970692648859297E-002
  -1.8300293916723165E-005  -3.6417872849026089E-006   6.6059356613207387E-002
  -9.0394046070932377E-006   5.1524567354771511E-006   6.6376095995819034E-002
   2.2148470253668950E-007   4.6527899263404393E-006   6.6920910796694266E-002
   1.5273903051825549E-002  -4.2820419743840876E-003   6.2600586077036335E-002
   1.4407668021943418E-002  -3.9685698975631678E-003   6.2406869271559029E-002
   1.3541432992061328E-002  -3.6595130254256647E-003   6.2418614319917742E-002
   1.2675197962179217E-002  -3.3548713579710232E-003   6.2635821222112448E-002
   1.1808962932297107E-002  -3.0546448952002425E-003   6.3058489978143006E-002
   1.1427863967629848E-002  -3.2103682833063973E-003   6.3800977119970848E-002
   1.0769572960753697E-002  -2.9763839959172089E-003   6.3624458526505001E-002
   1.0111281953877546E-002  -2.7453773413817495E-003   6.3658366125214916E-002
   9.4529909470014092E-003  -2.5173483196993668E-003   6.3902699916100938E-002
   8.7946999401252446E-003  -2.2922969308703522E-003   6.4357459899162750E-002
   7.6002373450441210E-003  -2.1386945922288181E-003   6.4921161587558451E-002
   7.1548546995138067E-003  -1.9841980942713333E-003   6.4763278777934086E-002
   6.7094720539834958E-003  -1.8312416573375567E-003   6.4820786498825375E-002
   6.2640894084531832E-003  -1.6798252814273218E-003   6.5093684750232458E-002
   5.8187067629228706E-003  -1.5299489665406840E-003   6.5581973532155308E-002
   3.7910231840683432E-003  -1.0670209011512388E-003   6.5961139479799619E-002
   3.5635132382237471E-003  -9.9201219262558260E-004   6.5823330025846311E-002
   3.3360032923791432E-003  -9.1710597329344723E-004   6.5905875440748704E-002
   3.1084933465345440E-003  -8.4230224315536006E-004   6.6208775724506688E-002
   2.8809834006899362E-003  -7.6760100221096028E-004   6.6732030877120402E-002
   2.2148470253668950E-007   4.6527899263404393E-006   6.6920910796694266E-002
  -4.4514231164749507E-006   1.7370902039015590E-007   6.6804612270241870E-002
  -9.1243309354900604E-006  -2.9702892495042654E-006   6.6913632950985180E-002
  -1.3797238754503435E-005  -4.7792048834122136E-006   6.7247972838924086E-002
  -1.8470146573516810E-005  -5.2530378811255218E-006   6.7807631934058366E-002
   1.1808962932297107E-002  -3.0546448952002425E-003   6.3058489978143006E-002
   1.0829191184040327E-002  -2.7593678264871135E-003   6.2957661365699746E-002
   9.8494194357835463E-003  -2.4695743412061488E-003   6.3105461745526725E-002
   8.8696476875267660E-003  -2.1852644393573900E-003   6.3501891117624387E-002
   7.8898759392699858E-003  -1.9064381209410453E-003   6.4146949481992621E-002
   8.7946999401252446E-003  -2.2922969308703522E-003   6.4357459899162750E-002
   8.0630221893343429E-003  -2.0707571484921417E-003   6.4289601525144180E-002
   7.3313444385434204E-003  -1.8532629461614630E-003   6.4469302153786906E-002
   6.5996666877525083E-003  -1.6398143238781256E-003   6.4896561785090789E-002
   5.8679889369615962E-003  -1.4304112816424519E-003   6.5571380419055803E-002
   5.8187067629228706E-003  -1.5299489665406840E-003   6.5581973532155308E-002
   5.3340530199885022E-003  -1.3821464704972253E-003   6.5548523399946393E-002
   4.8493992770541339E-003  -1.2369515511167772E-003   6.5761562280789443E-002
   4.3647455341197586E-003  -1.0943642083989166E-003   6.6221090174684402E-002
   3.8800917911853972E-003  -9.5438444234385855E-004   6.6927107081631160E-002
   2.8809834006899362E-003  -7.6760100221096028E-004   6.6732030877120402E-002
   2.6422836760028002E-003  -6.9353579250233666E-004   6.6734426990105816E-002
   2.4035839513156590E-003  -6.2064015607198042E-004   6.6982242126534003E-002
   2.1648842266285230E-003  -5.4891409291956891E-004   6.7475476286404726E-002
   1.9261845019413817E-003  -4.7835760304509867E-004   6.8214129469718041E-002
  -1.8470146573516810E-005  -5.2530378811255218E-006   6.7807631934058366E-002
  -1.2285842622750121E-005  -4.9251145073370139E-006   6.7847312295623019E-002
  -6.1015386719799614E-006  -4.3287610274889143E-006   6.8131341691020919E-002
   8.2765278791932517E-008  -3.4639774405195722E-006   6.8659720120252149E-002
   6.2670692295568875E-006  -2.3307637466718489E-006   6.9432447583316459E-002
   7.8898759392699858E-003  -1.9064381209410453E-003   6.4146949481992621E-002
   6.9572295880277885E-003  -1.6870378689835541E-003   6.4070180948048838E-002
   6.0245832367855912E-003  -1.5810061665106900E-003   6.4239505431261945E-002
   5.0919368855434077E-003  -1.5883430135233412E-003   6.4654922931632330E-002
   4.1592905343012243E-003  -1.7090484100208414E-003   6.5316433449160050E-002
   5.8679889369615962E-003  -1.4304112816424519E-003   6.5571380419055803E-002
   5.1780697407122350E-003  -1.2655744867587360E-003   6.5426008147408954E-002
   4.4881505444629016E-003  -1.1858246065321043E-003   6.5519997168590610E-002
   3.7982313482135578E-003  -1.1911616409621545E-003   6.5853347482600591E-002
   3.1083121519642209E-003  -1.2815855900493167E-003   6.6426059089439105E-002
   3.8800917911853972E-003  -9.5438444234385855E-004   6.6927107081631160E-002
   3.4261680256001958E-003  -8.4411110453455618E-004   6.6741412707109288E-002
   2.9722442600150015E-003  -7.9064304655362960E-004   6.6788347901087147E-002
   2.5183204944298106E-003  -7.9398026840152292E-004   6.7067912663564905E-002
   2.0643967288446058E-003  -8.5412277007768100E-004   6.7580106994542422E-002
   1.9261845019413817E-003  -4.7835760304509867E-004   6.8214129469718041E-002
   1.7015244426916371E-003  -4.2264772230977965E-004   6.8016394627149354E-002
   1.4768643834418976E-003  -3.9546148657504387E-004   6.8044557628752042E-002
   1.2522043241921634E-003  -3.9679889584044725E-004   6.8298618474525910E-002
   1.0275442649424274E-003  -4.2665995010604529E-004   6.8778577164470514E-002
   6.2670692295568875E-006  -2.3307637466718489E-006   6.9432447583316459E-002
   4.1389919865700286E-006  -1.1843400856137443E-006   6.9250953907529555E-002
   2.0109147435866392E-006  -2.7992659659692443E-007   6.9288626351585281E-002
  -1.1716249939675016E-007   3.8247672028840496E-007   6.9545464915483468E-002
  -2.2452397423836090E-006   8.0286986547939421E-007   7.0021469599223840E-002
   4.1592905343012243E-003  -1.7090484100208414E-003   6.5316433449160050E-002
   3.6284897521977472E-003  -2.0024135156491152E-003   6.4399439112132861E-002
   3.0976889700942700E-003  -2.5277294900541980E-003   6.3602258650113541E-002
   2.5668881879907929E-003  -3.2849963332360066E-003   6.2924892063102089E-002
   2.0360874058873157E-003  -4.2742140451945687E-003   6.2367339351098616E-002
   3.1083121519642209E-003  -1.2815855900493167E-003   6.6426059089439105E-002
   2.7005922938205806E-003  -1.5015538977948828E-003   6.5316418424862688E-002
   2.2928724356769542E-003  -1.8955240082004499E-003   6.4333125733198271E-002
   1.8851525775333243E-003  -2.4634959212666216E-003   6.3476181014445743E-002
   1.4774327193896875E-003  -3.2054696369931968E-003   6.2745584268605104E-002
   2.0643967288446058E-003  -8.5412277007768100E-004   6.7580106994542422E-002
   1.7862918925648091E-003  -1.0006942799403173E-003   6.6335769068533362E-002
   1.5081870562850125E-003  -1.2633185263467017E-003   6.5224313213340185E-002
   1.2300822200052089E-003  -1.6419955092973476E-003   6.4245739428962820E-002
   9.5197738372541918E-004  -2.1367252287916028E-003   6.3400047715401586E-002
   1.0275442649424274E-003  -4.2665995010604529E-004   6.8778577164470514E-002
   8.8558854843044221E-004  -4.9983466208591842E-004   6.7457491043145273E-002
   7.4363283191846569E-004  -6.3111304449300909E-004   6.6275821090539921E-002
   6.0167711540649177E-004  -8.2049509732790710E-004   6.5233567306654000E-002
   4.5972139889451785E-004  -1.0679808205902308E-003   6.4330729691488578E-002
  -2.2452397423836090E-006   8.0286986547939421E-007   7.0021469599223840E-002
  -1.5177385825557166E-006   1.0249557685915178E-006   6.8681584348698310E-002
  -7.9023742270353803E-007   1.0924373608778293E-006   6.7487649364796898E-002
  -6.2736262861767811E-008   1.0053146414987224E-006   6.6439664647519131E-002
   6.6476489697653296E-007   7.6358761125217001E-007   6.5537630196865204E-002
   2.0360874058873157E-003  -4.2742140451945687E-003   6.2367339351098616E-002
   2.2859870655481118E-003  -5.5760002549238852E-003   5.8338264409238283E-002
   2.5358867252089079E-003  -7.2709725914190115E-003   5.4303248181842956E-002
   2.7857863848696901E-003  -9.3591310546787126E-003   5.0262290668913523E-002
   3.0356860445305278E-003  -1.1840475644704362E-002   4.6215391870449096E-002
   1.4774327193896875E-003  -3.2054696369931968E-003   6.2745584268605104E-002
   1.7072331899472826E-003  -4.1818518023936102E-003   5.8391550162283146E-002
   1.9370336605048846E-003  -5.4530490644821850E-003   5.4003258963289447E-002
   2.1668341310625006E-003  -7.0190614232583104E-003   4.9580710671624062E-002
   2.3966346016200679E-003  -8.8798888787224861E-003   4.5123905287286714E-002
   9.5197738372541918E-004  -2.1367252287916028E-003   6.3400047715401586E-002
   1.1333628580428926E-003  -2.7877033498632242E-003   5.8819425474695236E-002
   1.3147483323603729E-003  -3.6351255375452751E-003   5.4176230334180564E-002
   1.4961338066778566E-003  -4.6789917918378041E-003   4.9470462293857043E-002
   1.6775192809953265E-003  -5.9193021127406098E-003   4.4702121353725088E-002
   4.5972139889451785E-004  -1.0679808205902308E-003   6.4330729691488578E-002
   5.6437606983494176E-004  -1.3935548973331158E-003   5.9621890346475290E-002
   6.6903074077537955E-004  -1.8172020106085179E-003   5.4822162294516676E-002
   7.7368541171582341E-004  -2.3389221604173498E-003   4.9931545535612423E-002
   8.7834008265622737E-004  -2.9587153467588445E-003   4.4950040069763053E-002
   6.6476489697653296E-007   7.6358761125217001E-007   6.5537630196865204E-002
   2.7282532343714250E-007   5.9355519721471239E-007   6.0798944777622710E-002
  -1.1911425009877852E-007   7.2151632832251344E-007   5.5941054844297955E-002
  -5.1105382364510787E-007   1.1474710031808555E-006   5.0963960396890745E-002
  -9.0299339718102889E-007   1.8714192231428228E-006   4.5867661435400997E-002
  -2.2122488442653104E-004  -2.3121559944495051E-003   6.3128391723241861E-002
  -2.0415244162043378E-004  -1.0947262351374554E-003   6.3852844080419691E-002
  -1.8707999881433998E-004  -2.7003436901222588E-004   6.4640150613627295E-002
  -1.7000755600824966E-004   1.6191960392664476E-004   6.5490311322864578E-002
  -1.5293511320215239E-004   2.0113568367852164E-004   6.6403326208131719E-002
  -6.0052788733796283E-003   4.8089323880501356E-004   6.4057552245078281E-002
  -5.8815695989302454E-003   1.1390769313688875E-003   6.4161097046195742E-002
  -5.7578603244808554E-003   1.5672634038434025E-003   6.4415061334569909E-002
  -5.6341510500314681E-003   1.7654526562286867E-003   6.4819445110200824E-002
  -5.5104417755820895E-003   1.7336446885244661E-003   6.5374248373088639E-002
  -1.2142655517368641E-002   3.2739424720594490E-003   6.4346096363617947E-002
  -1.1824744100048945E-002   3.3728800978752999E-003   6.3991474281772306E-002
  -1.1506832682729244E-002   3.4045611766989961E-003   6.3874836998410400E-002
  -1.1188921265409543E-002   3.3689857085307268E-003   6.3996184513532298E-002
  -1.0871009848089841E-002   3.2661536933702995E-003   6.4355516827138082E-002
  -1.8633354816393582E-002   6.0669917053139538E-003   6.3994024078860887E-002
  -1.8033675944976537E-002   5.6066832643816913E-003   6.3343975787149384E-002
  -1.7433997073559488E-002   5.2418589495546071E-003   6.3019477605148699E-002
  -1.6834318202142429E-002   4.9725187608327956E-003   6.3020529532858915E-002
  -1.6234639330725390E-002   4.7986626982162439E-003   6.3347131570279935E-002
  -2.5477376770454439E-002   8.8600409385684031E-003   6.3001335390807323E-002
  -2.4508365133712982E-002   7.8404864308880551E-003   6.2218601562327169E-002
  -2.3539353496971591E-002   7.0791567224101903E-003   6.1848983154784987E-002
  -2.2570341860230186E-002   6.5760518131348852E-003   6.1892480168180664E-002
  -2.1601330223488754E-002   6.3311717030620218E-003   6.2349092602514145E-002
  -1.5293511320215239E-004   2.0113568367852164E-004   6.6403326208131719E-002
  -1.2390685303561438E-004   6.7630552829323065E-005   6.6081741125904619E-002
  -9.4878592869067704E-005  -1.8579106035948589E-005   6.5925675747602747E-002
  -6.5850332702522760E-005  -5.7493292917425165E-005   6.5935130073226239E-002
  -3.6822072535983019E-005  -4.9112007814766656E-005   6.6110104102774847E-002
  -5.5104417755820895E-003   1.7336446885244661E-003   6.5374248373088639E-002
  -5.3169206979216746E-003   1.5992879844259345E-003   6.5084672603944738E-002
  -5.1233996202612580E-003   1.4898310276283619E-003   6.4958562765863370E-002
  -4.9298785426008405E-003   1.4052738181314552E-003   6.4995918858844468E-002
  -4.7363574649404265E-003   1.3456163559352197E-003   6.5196740882888016E-002
  -1.0871009848089841E-002   3.2661536933702995E-003   6.4355516827138082E-002
  -1.0515049725798300E-002   3.1309454160227124E-003   6.4075554646394195E-002
  -1.0159089603506772E-002   2.9982411612926169E-003   6.3957004623850011E-002
  -9.8031294812152333E-003   2.8680409291801691E-003   6.3999866759505475E-002
  -9.4471693589236964E-003   2.7403447196852615E-003   6.4204141053360891E-002
  -1.6234639330725390E-002   4.7986626982162439E-003   6.3347131570279935E-002
  -1.5718293936665503E-002   4.6626028476194348E-003   6.3054387253252756E-002
  -1.5201948542605594E-002   4.5066512949569551E-003   6.2921001321562656E-002
  -1.4685603148545693E-002   4.3308080402289662E-003   6.2946973775209553E-002
  -1.4169257754485808E-002   4.1350730834353311E-003   6.3132304614193252E-002
  -2.1601330223488754E-002   6.3311717030620218E-003   6.2349092602514145E-002
  -2.0926653330523251E-002   6.1942602792161017E-003   6.2021170424520655E-002
  -2.0251976437557745E-002   6.0150614286213488E-003   6.1850552859001345E-002
  -1.9577299544592246E-002   5.7935751512777772E-003   6.1837239905956298E-002
  -1.8902622651626740E-002   5.5298014471853452E-003   6.1981231565385486E-002
  -3.6822072535983019E-005  -4.9112007814766656E-005   6.6110104102774847E-002
  -2.7561183226349623E-005  -2.1729942135118030E-005   6.5970692648859297E-002
  -1.8300293916723165E-005  -3.6417872849026089E-006   6.6059356613207387E-002
  -9.0394046070932377E-006   5.1524567354771511E-006   6.6376095995819034E-002
   2.2148470253668950E-007   4.6527899263404393E-006   6.6920910796694266E-002
  -4.7363574649404265E-003   1.3456163559352197E-003   6.5196740882888016E-002
  -4.4995600493922226E-003   1.2943668070519998E-003   6.5036825119616476E-002
  -4.2627626338440153E-003   1.2350333374943762E-003   6.5103906990558652E-002
  -4.0259652182958105E-003   1.1676159472616583E-003   6.5397986495714322E-002
  -3.7891678027476110E-003   1.0921146363545575E-003   6.5919063635083763E-002
  -9.4471693589236964E-003   2.7403447196852615E-003   6.4204141053360891E-002
  -8.9839132011868619E-003   2.6104635562391731E-003   6.4024930970888336E-002
  -8.5206570434500292E-003   2.4737084622734884E-003   6.4071640738579461E-002
  -8.0574008857132052E-003   2.3300794377879505E-003   6.4344270356434224E-002
  -7.5941447279763673E-003   2.1795764827826081E-003   6.4842819824452641E-002
  -1.4169257754485808E-002   4.1350730834353311E-003   6.3132304614193252E-002
  -1.3480620638610299E-002   3.9265603054264853E-003   6.2935010202674627E-002
  -1.2791983522734788E-002   3.7123835870526839E-003   6.2962557857269702E-002
  -1.2103346406859275E-002   3.4925429283141872E-003   6.3214947577978534E-002
  -1.1414709290983760E-002   3.2670383292108529E-003   6.3692179364800955E-002
  -1.8902622651626740E-002   5.5298014471853452E-003   6.1981231565385486E-002
  -1.7989682361662485E-002   5.2426570546134366E-003   6.1767062814975571E-002
  -1.7076742071698254E-002   4.9510587118319210E-003   6.1776658346629543E-002
  -1.6163801781734009E-002   4.6550064188404343E-003   6.2010018160347249E-002
  -1.5250861491769768E-002   4.3545001756388757E-003   6.2467142256128705E-002
   2.2148470253668950E-007   4.6527899263404393E-006   6.6920910796694266E-002
  -4.4514231164749507E-006   1.7370902039015590E-007   6.6804612270241870E-002
  -9.1243309354900604E-006  -2.9702892495042654E-006   6.6913632950985180E-002
  -1.3797238754503435E-005  -4.7792048834122136E-006   6.7247972838924086E-002
  -1.8470146573516810E-005  -5.2530378811255218E-006   6.7807631934058366E-002
  -3.7891678027476110E-003   1.0921146363545575E-003   6.5919063635083763E-002
  -3.5702806131017503E-003   1.0123140008233000E-003   6.5785828538153790E-002
  -3.3513934234558861E-003   9.3199863671951377E-004   6.5874394428958039E-002
  -3.1325062338100167E-003   8.5116854404245282E-004   6.6184761307496509E-002
  -2.9136190441641611E-003   7.6982372279277289E-004   6.6716929173769368E-002
  -7.5941447279763673E-003   2.1795764827826081E-003   6.4842819824452641E-002
  -7.1552156603269306E-003   2.0244542926264875E-003   6.4690798345836090E-002
  -6.7162865926774897E-003   1.8669675626885318E-003   6.4757059635492317E-002
  -6.2773575250280652E-003   1.7071162929684844E-003   6.5041603693421629E-002
  -5.8384284573786260E-003   1.5449004834666713E-003   6.5544430519623748E-002
  -1.1414709290983760E-002   3.2670383292108529E-003   6.3692179364800955E-002
  -1.0759256564792055E-002   3.0365945844295361E-003   6.3519521693288589E-002
  -1.0103803838600338E-002   2.8019364886574388E-003   6.3561628570588113E-002
  -9.4483511124086091E-003   2.5630640418944882E-003   6.3818499996699168E-002
  -8.7928983862169165E-003   2.3199772441405142E-003   6.4290135971621781E-002
  -1.5250861491769768E-002   4.3545001756388757E-003   6.2467142256128705E-002
  -1.4382403326497071E-002   4.0487348762326958E-003   6.2271998580511800E-002
  -1.3513945161224394E-002   3.7369054146265401E-003   6.2288101234245274E-002
  -1.2645486995951711E-002   3.4190117908203185E-003   6.2515450217329099E-002
  -1.1777028830679021E-002   3.0950540048144681E-003   6.2954045529763136E-002
  -1.8470146573516810E-005  -5.2530378811255218E-006   6.7807631934058366E-002
  -1.2285842622750121E-005  -4.9251145073370139E-006   6.7847312295623019E-002
  -6.1015386719799614E-006  -4.3287610274889143E-006   6.8131341691020919E-002
   8.2765278791932517E-008  -3.4639774405195722E-006   6.8659720120252149E-002
   6.2670692295568875E-006  -2.3307637466718489E-006   6.9432447583316459E-002
  -2.9136190441641611E-003   7.6982372279277289E-004   6.6716929173769368E-002
  -2.6638719125481984E-003   6.9008279523308236E-004   6.6728158286572137E-002
  -2.4141247809322478E-003   6.1406438362687776E-004   6.6982164020871815E-002
  -2.1643776493162929E-003   5.4176848797329868E-004   6.7478946376668819E-002
  -1.9146305177003345E-003   4.7319510827292799E-004   6.8218505353962788E-002
  -5.8384284573786260E-003   1.5449004834666713E-003   6.5544430519623748E-002
  -5.3466909104335899E-003   1.3850907049738348E-003   6.5530662469510975E-002
  -4.8549533634885825E-003   1.2324575282804534E-003   6.5758098628559233E-002
  -4.3632158165435742E-003   1.0870009533867249E-003   6.6226738996768314E-002
  -3.8714782695985529E-003   9.4872098029263885E-004   6.6936583574138758E-002
  -8.7928983862169165E-003   2.3199772441405142E-003   6.4290135971621781E-002
  -8.0607428362789568E-003   2.0800986147143097E-003   6.4254824844439909E-002
  -7.3285872863409979E-003   1.8508506729342580E-003   6.4459145514082911E-002
  -6.5964317364030408E-003   1.6322334188002361E-003   6.4903097980550870E-002
  -5.8642761864650785E-003   1.4242468523124607E-003   6.5586682243843591E-002
  -1.1777028830679021E-002   3.0950540048144681E-003   6.2954045529763136E-002
  -1.0806027690084249E-002   2.7751065244550066E-003   6.2900645411358869E-002
  -9.8350265494894923E-003   2.4692438175883680E-003   6.3085304677443166E-002
  -8.8640254088947178E-003   2.1774658842137959E-003   6.3508023328016222E-002
  -7.8930242682999641E-003   1.8997727243318385E-003   6.4168801363078121E-002
   6.2670692295568875E-006  -2.3307637466718489E-006   6.9432447583316459E-002
   4.1389919865700286E-006  -1.1843400856137443E-006   6.9250953907529555E-002
   2.0109147435866392E-006  -2.7992659659692443E-007   6.9288626351585281E-002
  -1.1716249939675016E-007   3.8247672028840496E-007   6.9545464915483468E-002
  -2.2452397423836090E-006   8.0286986547939421E-007   7.0021469599223840E-002
  -1.9146305177003345E-003   4.7319510827292799E-004   6.8218505353962788E-002
  -1.6938836853294149E-003   4.2034457064765718E-004   6.8018510881991512E-002
  -1.4731368529584832E-003   3.9521720121912796E-004   6.8045100109405759E-002
  -1.2523900205875654E-003   3.9781299998702807E-004   6.8298273036205129E-002
  -1.0316431882166320E-003   4.2813196695190570E-004   6.8778029662390106E-002
  -3.8714782695985529E-003   9.4872098029263885E-004   6.6936583574138758E-002
  -3.4204389480707075E-003   8.4187348138106688E-004   6.6746053484351447E-002
  -2.9693996265428759E-003   7.9071432903475569E-004   6.6789524673492764E-002
  -2.5183603050150452E-003   7.9524352325399325E-004   6.7066997141562418E-002
  -2.0673209834872128E-003   8.5546106403844302E-004   6.7578470888560588E-002
  -5.8642761864650785E-003   1.4242468523124607E-003   6.5586682243843591E-002
  -5.1755267962373336E-003   1.2634023921144627E-003   6.5433581714609362E-002
  -4.4867774060095827E-003   1.1862114568507096E-003   6.5521900043846601E-002
  -3.7980280157818309E-003   1.1926740465208457E-003   6.5851637231555016E-002
  -3.1092786255540860E-003   1.2827901611250359E-003   6.6422793277735204E-002
  -7.8930242682999641E-003   1.8997727243318385E-003   6.4168801363078121E-002
  -6.9591472298292864E-003   1.6849313028477475E-003   6.4081095572765312E-002
  -6.0252701913586122E-003   1.5817085846660250E-003   6.4242226220466991E-002
  -5.0913931528879346E-003   1.5901045697876218E-003   6.4652193306183187E-002
  -4.1575161144172604E-003   1.7101192582115177E-003   6.5310996829913592E-002
  -2.2452397423836090E-006   8.0286986547939421E-007   7.0021469599223840E-002
  -1.5177385825557166E-006   1.0249557685915178E-006   6.8681584348698310E-002
  -7.9023742270353803E-007   1.0924373608778293E-006   6.7487649364796898E-002
  -6.2736262861767811E-008   1.0053146414987224E-006   6.6439664647519131E-002
   6.6476489697653296E-007   7.6358761125217001E-007   6.5537630196865204E-002
  -1.0316431882166320E-003   4.2813196695190570E-004   6.8778029662390106E-002
  -8.8837372628657735E-004   5.0134781207927803E-004   6.7457414251123671E-002
  -7.4510426435651748E-004   6.3263424533566148E-004   6.6275932494773870E-002
  -6.0183480242645762E-004   8.2199126672047318E-004   6.5233584393340538E-002
  -4.5856534049640296E-004   1.0694188762344625E-003   6.4330369946824062E-002
  -2.0673209834872128E-003   8.5546106403844302E-004   6.7578470888560588E-002
  -1.7883261724941073E-003   1.0016706683899090E-003   6.6335350508993002E-002
  -1.5093313615010132E-003   1.2641760533104590E-003   6.5224547172634803E-002
  -1.2303365505079130E-003   1.6429772187996732E-003   6.4246060879486255E-002
  -9.5134173951482749E-004   2.1380741648579504E-003   6.3399891629547095E-002
  -3.1092786255540860E-003   1.2827901611250359E-003   6.6422793277735204E-002
  -2.7013750772051279E-003   1.5019935247006233E-003   6.5315393122306595E-002
  -2.2934715288561829E-003   1.8957178612851386E-003   6.4333493398380459E-002
  -1.8855679805072350E-003   2.4639631708786493E-003   6.3477094105956283E-002
  -1.4776644321582801E-003   3.2067294534811885E-003   6.2746195245034775E-002
  -4.1575161144172604E-003   1.7101192582115177E-003   6.5310996829913592E-002
  -3.6275204404196681E-003   2.0023163810112266E-003   6.4397542091064297E-002
  -3.0975247664220343E-003   2.5272596692599847E-003   6.3602771172010075E-002
  -2.5675290924244143E-003   3.2849491229577227E-003   6.2926684072750705E-002
  -2.0375334184268082E-003   4.2753847421047597E-003   6.2369280793286630E-002
   6.6476489697653296E-007   7.6358761125217001E-007   6.5537630196865204E-002
   2.7282532343714250E-007   5.9355519721471239E-007   6.0798944777622710E-002
  -1.1911425009877852E-007   7.2151632832251344E-007   5.5941054844297955E-002
  -5.1105382364510787E-007   1.1474710031808555E-006   5.0963960396890745E-002
  -9.0299339718102889E-007   1.8714192231428228E-006   4.5867661435400997E-002
  -4.5856534049640296E-004   1.0694188762344625E-003   6.4330369946824062E-002
  -5.6393901234491617E-004   1.3950562343741923E-003   5.9621684467097757E-002
  -6.6931268419343631E-004   1.8190425016366696E-003   5.4822240036904002E-002
  -7.7468635604196947E-004   2.3413776780217832E-003   4.9932036656242323E-002
  -8.8006002789048354E-004   2.9620617635295332E-003   4.4951074325113805E-002
  -9.5134173951482749E-004   2.1380741648579504E-003   6.3399891629547095E-002
  -1.1332515800234061E-003   2.7895189135510590E-003   5.8819257004915027E-002
  -1.3151614205319942E-003   3.6373634869452526E-003   5.4176308993430219E-002
  -1.4970712610406006E-003   4.6816078850400560E-003   4.9471047595092930E-002
  -1.6789811015491887E-003   5.9222521078361456E-003   4.4703472809903055E-002
  -1.4776644321582801E-003   3.2067294534811885E-003   6.2746195245034775E-002
  -1.7076648777120292E-003   4.1839815927277590E-003   5.8391662391075239E-002
  -1.9376653232657858E-003   5.4556844722538286E-003   5.4003261713877593E-002
  -2.1676657688195254E-003   7.0218380920586045E-003   4.9580993213442441E-002
  -2.3976662143732775E-003   8.8824424521426470E-003   4.5124856889769943E-002
  -2.0375334184268082E-003   4.2753847421047597E-003   6.2369280793286630E-002
  -2.2871789054108096E-003   5.5784442719049032E-003   5.8338900625577561E-002
  -2.5368243923947868E-003   7.2740054575620439E-003   5.4303098198245914E-002
  -2.7864698793787657E-003   9.3620682990768408E-003   5.0261873511290939E-002
  -3.0361153663627655E-003   1.1842632796449148E-002   4.6215226564713774E-002
  -2.5477376770454439E-002   8.8600409385684031E-003   6.3001335390807323E-002
  -2.4508365133712982E-002   7.8404864308880551E-003   6.2218601562327169E-002
  -2.3539353496971591E-002   7.0791567224101903E-003   6.1848983154784987E-002
  -2.2570341860230186E-002   6.5760518131348852E-003   6.1892480168180664E-002
  -2.1601330223488754E-002   6.3311717030620218E-003   6.2349092602514145E-002
  -3.2376384396600642E-002   1.0060268766721059E-002   5.8744021139465169E-002
  -3.1024921287937175E-002   9.3577495835162061E-003   5.8370541693913730E-002
  -2.9673458179273703E-002   8.7901396432675249E-003   5.8348849771268710E-002
  -2.8321995070610229E-002   8.3574389459753623E-003   5.8678945371529824E-002
  -2.6970531961946754E-002   8.0596474916393990E-003   5.9360828494697176E-002
  -3.9032040711881578E-002   1.1260496594873715E-002   5.4865399990721347E-002
  -3.7359454029327790E-002   1.0875012736144232E-002   5.4777859371852700E-002
  -3.5686867346773926E-002   1.0501122564124929E-002   5.4980778377858613E-002
  -3.4014280664220055E-002   1.0138826078815815E-002   5.5474157008739013E-002
  -3.2341693981666246E-002   9.7881232802168039E-003   5.6257995264494043E-002
  -4.5444345716297428E-002   1.2460724423026398E-002   5.1365471944576184E-002
  -4.3511963357884868E-002   1.2392275888772321E-002   5.1440554596144009E-002
  -4.1579580999472274E-002   1.2212105484982354E-002   5.1744768974554670E-002
  -3.9647198641059735E-002   1.1920213211656224E-002   5.2278115079808216E-002
  -3.7714816282647168E-002   1.1516599068794167E-002   5.3040592911904605E-002
  -5.1613299409847990E-002   1.3660952251179026E-002   4.8244237001029699E-002
  -4.9482449273608342E-002   1.3909539041400409E-002   4.8358627366787643E-002
  -4.7351599137368777E-002   1.3923088405839640E-002   4.8640821561356962E-002
  -4.5220749001129198E-002   1.3701600344496766E-002   4.9090819584737433E-002
  -4.3089898864889592E-002   1.3245074857371530E-002   4.9708621436929057E-002
  -2.1601330223488754E-002   6.3311717030620218E-003   6.2349092602514145E-002
  -2.0926653330523251E-002   6.1942602792161017E-003   6.2021170424520655E-002
  -2.0251976437557745E-002   6.0150614286213488E-003   6.1850552859001345E-002
  -1.9577299544592246E-002   5.7935751512777772E-003   6.1837239905956298E-002
  -1.8902622651626740E-002   5.5298014471853452E-003   6.1981231565385486E-002
  -2.6970531961946754E-002   8.0596474916393990E-003   5.9360828494697176E-002
  -2.6137913272670996E-002   7.8163387452926808E-003   5.8997467592414796E-002
  -2.5305294583395227E-002   7.5470861719678511E-003   5.8792685670278649E-002
  -2.4472675894119476E-002   7.2518897716650869E-003   5.8746482728288918E-002
  -2.3640057204843690E-002   6.9307495443842182E-003   5.8858858766445338E-002
  -3.2341693981666246E-002   9.7881232802168039E-003   5.6257995264494043E-002
  -3.1349859128408153E-002   9.4384172113691767E-003   5.5875539237693575E-002
  -3.0358024275150046E-002   9.0791109153144645E-003   5.5652936558711438E-002
  -2.9366189421891935E-002   8.7102043920523967E-003   5.5590187227547744E-002
  -2.8374354568633846E-002   8.3316976415831190E-003   5.5687291244202228E-002
  -3.7714816282647168E-002   1.1516599068794167E-002   5.3040592911904605E-002
  -3.6562490897734674E-002   1.1060495677445770E-002   5.2655385360356854E-002
  -3.5410165512822202E-002   1.0611135658661106E-002   5.2431305524299456E-002
  -3.4257840127909722E-002   1.0168519012439623E-002   5.2368353403732651E-002
  -3.3105514742997208E-002   9.7326457387820337E-003   5.2466528998656031E-002
  -4.3089898864889592E-002   1.3245074857371530E-002   4.9708621436929057E-002
  -4.1775808580650650E-002   1.2682574143522279E-002   4.9337005960404801E-002
  -4.0461718296411694E-002   1.2143160402007538E-002   4.9127792567042999E-002
  -3.9147628012172739E-002   1.1626833632827006E-002   4.9080981256843834E-002
  -3.7833537727933797E-002   1.1133593835980893E-002   4.9196572029806984E-002
  -1.8902622651626740E-002   5.5298014471853452E-003   6.1981231565385486E-002
  -1.7989682361662485E-002   5.2426570546134366E-003   6.1767062814975571E-002
  -1.7076742071698254E-002   4.9510587118319210E-003   6.1776658346629543E-002
  -1.6163801781734009E-002   4.6550064188404343E-003   6.2010018160347249E-002
  -1.5250861491769768E-002   4.3545001756388757E-003   6.2467142256128705E-002
  -2.3640057204843690E-002   6.9307495443842182E-003   5.8858858766445338E-002
  -2.2506954392314503E-002   6.5918959472336947E-003   5.8637257014477917E-002
  -2.1373851579785299E-002   6.2435594373219383E-003   5.8632216025576625E-002
  -2.0240748767256123E-002   5.8857400146487895E-003   5.8843735799741538E-002
  -1.9107645954726908E-002   5.5184376792143386E-003   5.9271816336972538E-002
  -2.8374354568633846E-002   8.3316976415831190E-003   5.5687291244202228E-002
  -2.7028292752537326E-002   7.9411348398538556E-003   5.5453227528125829E-002
  -2.5682230936440776E-002   7.5360601628119625E-003   5.5428521056117987E-002
  -2.4336169120344236E-002   7.1164736104573131E-003   5.5613171828178612E-002
  -2.2990107304247703E-002   6.6823751827900235E-003   5.6007179844307781E-002
  -3.3105514742997208E-002   9.7326457387820337E-003   5.2466528998656031E-002
  -3.1553697442330955E-002   9.2903737324740096E-003   5.2214974355919298E-002
  -3.0001880141664671E-002   8.8285608883019277E-003   5.2165573438253447E-002
  -2.8450062840998411E-002   8.3472072062658088E-003   5.2318326245658402E-002
  -2.6898245540332138E-002   7.8463126863656529E-003   5.2673232778134453E-002
  -3.7833537727933797E-002   1.1133593835980893E-002   4.9196572029806984E-002
  -3.6083168461695417E-002   1.0639612625094247E-002   4.8922497497858208E-002
  -3.4332799195457023E-002   1.0121061613791976E-002   4.8843373171983090E-002
  -3.2582429929218636E-002   9.5779408020742127E-003   4.8959199052181074E-002
  -3.0832060662980248E-002   9.0102501899411713E-003   4.9269975138452438E-002
  -1.5250861491769768E-002   4.3545001756388757E-003   6.2467142256128705E-002
  -1.4382403326497071E-002   4.0487348762326958E-003   6.2271998580511800E-002
  -1.3513945161224394E-002   3.7369054146265401E-003   6.2288101234245274E-002
  -1.2645486995951711E-002   3.4190117908203185E-003   6.2515450217329099E-002
  -1.1777028830679021E-002   3.0950540048144681E-003   6.2954045529763136E-002
  -1.9107645954726908E-002   5.5184376792143386E-003   5.9271816336972538E-002
  -1.8031773667283018E-002   5.1439545648092888E-003   5.9041692163922715E-002
  -1.6955901379839131E-002   4.7645928052235942E-003   5.9015149905865094E-002
  -1.5880029092395248E-002   4.3803524004574282E-003   5.9192189562799619E-002
  -1.4804156804951351E-002   3.9912333505109920E-003   5.9572811134725900E-002
  -2.2990107304247703E-002   6.6823751827900235E-003   5.6007179844307781E-002
  -2.1714485308990849E-002   6.2391742533859929E-003   5.5743260690844426E-002
  -2.0438863313734013E-002   5.7922801958207731E-003   5.5675259038015137E-002
  -1.9163241318477159E-002   5.3416930100946523E-003   5.5803174885819519E-002
  -1.7887619323220319E-002   4.8874126962075159E-003   5.6127008234257952E-002
  -2.6898245540332138E-002   7.8463126863656529E-003   5.2673232778134453E-002
  -2.5430538251620553E-002   7.3343939419626969E-003   5.2376704161277036E-002
  -2.3962830962909003E-002   6.8199675864179451E-003   5.2268428630695390E-002
  -2.2495123674197429E-002   6.3030336197318192E-003   5.2348406186389349E-002
  -2.1027416385485869E-002   5.7835920419039288E-003   5.2616636828358744E-002
  -3.0832060662980248E-002   9.0102501899411713E-003   4.9269975138452438E-002
  -2.9179932495172201E-002   8.4296136305392899E-003   4.8942022575220401E-002
  -2.7527804327364139E-002   7.8476549770152282E-003   4.8794658683905812E-002
  -2.5875676159556077E-002   7.2643742293690139E-003   4.8827883464508504E-002
  -2.4223547991748029E-002   6.6797713876005638E-003   4.9041696917028643E-002
  -1.1777028830679021E-002   3.0950540048144681E-003   6.2954045529763136E-002
  -1.0806027690084249E-002   2.7751065244550066E-003   6.2900645411358869E-002
  -9.8350265494894923E-003   2.4692438175883680E-003   6.3085304677443166E-002
  -8.8640254088947178E-003   2.1774658842137959E-003   6.3508023328016222E-002
  -7.8930242682999641E-003   1.8997727243318385E-003   6.4168801363078121E-002
  -1.4804156804951351E-002   3.9912333505109920E-003   5.9572811134725900E-002
  -1.3603219896518137E-002   3.6037581751229841E-003   5.9466078439569803E-002
  -1.2402282988084904E-002   3.2244493940327967E-003   5.9581157895601700E-002
  -1.1201346079651685E-002   2.8533070072405201E-003   5.9918049502821868E-002
  -1.0000409171218458E-002   2.4903310147450508E-003   6.0476753261230032E-002
  -1.7887619323220319E-002   4.8874126962075159E-003   5.6127008234257952E-002
  -1.6472993880249191E-002   4.4324098257910727E-003   5.5961024583154911E-002
  -1.5058368437278107E-002   3.9796549704775724E-003   5.6000605849939503E-002
  -1.3643742994307009E-002   3.5291481302666371E-003   5.6245752034611803E-002
  -1.2229117551335891E-002   3.0808893051583186E-003   5.6696463137171360E-002
  -2.1027416385485869E-002   5.7835920419039288E-003   5.2616636828358744E-002
  -1.9415349641277460E-002   5.2610614764591057E-003   5.2385483842114104E-002
  -1.7803282897069103E-002   4.7348605469221192E-003   5.2343648540456506E-002
  -1.6191216152860698E-002   4.2049892532929466E-003   5.2491130923385865E-002
  -1.4579149408652337E-002   3.6714475955714476E-003   5.2827930990902057E-002
  -2.4223547991748029E-002   6.6797713876005638E-003   4.9041696917028643E-002
  -2.2430287179602951E-002   6.0897131271271943E-003   4.8739456216447430E-002
  -2.0637026367457859E-002   5.4900661233668324E-003   4.8610285967152556E-002
  -1.8843765555312753E-002   4.8808303763194366E-003   4.8654186169144076E-002
  -1.7050504743167688E-002   4.2620058859846877E-003   4.8871156822422046E-002
  -7.8930242682999641E-003   1.8997727243318385E-003   6.4168801363078121E-002
  -6.9591472298292864E-003   1.6849313028477475E-003   6.4081095572765312E-002
  -6.0252701913586122E-003   1.5817085846660250E-003   6.4242226220466991E-002
  -5.0913931528879346E-003   1.5901045697876218E-003   6.4652193306183187E-002
  -4.1575161144172604E-003   1.7101192582115177E-003   6.5310996829913592E-002
  -1.0000409171218458E-002   2.4903310147450508E-003   6.0476753261230032E-002
  -8.8170240139471834E-003   2.1879880766595972E-003   6.0380754883416987E-002
  -7.6336388566758812E-003   1.9987448530967011E-003   6.0534936305190579E-002
  -6.4502536994045945E-003   1.9226013440552525E-003   6.0939297526551001E-002
  -5.2668685421333010E-003   1.9595575495356954E-003   6.1593838547498114E-002
  -1.2229117551335891E-002   3.0808893051583186E-003   5.6696463137171360E-002
  -1.0794880913691633E-002   2.6910448504718909E-003   5.6593653183077186E-002
  -9.3606442760473547E-003   2.4157811215266972E-003   5.6742366390141866E-002
  -7.9264076384031081E-003   2.2550981183228798E-003   5.7142602758365808E-002
  -6.4921710007588181E-003   2.2089958408600396E-003   5.7794362287749090E-002
  -1.4579149408652337E-002   3.6714475955714476E-003   5.2827930990902057E-002
  -1.2892717929062686E-002   3.1941016242839626E-003   5.2719790471745909E-002
  -1.1206286449473021E-002   2.8328173899570333E-003   5.2864516475321033E-002
  -9.5198549698833762E-003   2.5875948925905643E-003   5.3262109001627748E-002
  -7.8334234902937040E-003   2.4584341321843561E-003   5.3912568050666299E-002
  -1.7050504743167688E-002   4.2620058859846877E-003   4.8871156822422046E-002
  -1.5110535060060284E-002   3.6971583980959788E-003   4.8759166749423044E-002
  -1.3170565376952881E-002   3.2498536583873139E-003   4.8901386560727900E-002
  -1.1230595693845470E-002   2.9200916668581794E-003   4.9297816256336779E-002
  -9.2906260107380734E-003   2.7078724235086726E-003   4.9948455836249628E-002
  -4.1575161144172604E-003   1.7101192582115177E-003   6.5310996829913592E-002
  -3.6275204404196681E-003   2.0023163810112266E-003   6.4397542091064297E-002
  -3.0975247664220343E-003   2.5272596692599847E-003   6.3602771172010075E-002
  -2.5675290924244143E-003   3.2849491229577227E-003   6.2926684072750705E-002
  -2.0375334184268082E-003   4.2753847421047597E-003   6.2369280793286630E-002
  -5.2668685421333010E-003   1.9595575495356954E-003   6.1593838547498114E-002
  -4.5921279178834651E-003   2.2161410765923484E-003   6.0869945455236052E-002
  -3.9173872936336240E-003   2.7988795322784754E-003   6.0316858443683119E-002
  -3.2426466693837872E-003   3.7077729165944234E-003   5.9934577512839787E-002
  -2.5679060451339504E-003   4.9428212295401508E-003   5.9723102662705529E-002
  -6.4921710007588181E-003   2.2089958408600396E-003   5.7794362287749090E-002
  -5.6205631653424015E-003   2.4299657721732482E-003   5.7353439605254686E-002
  -4.7489553299260110E-003   3.0704993952967718E-003   5.7135445264384160E-002
  -3.8773474945095945E-003   4.1305967102309091E-003   5.7140379265137195E-002
  -3.0057396590932057E-003   5.6102577169757084E-003   5.7368241607513998E-002
  -7.8334234902937040E-003   2.4584341321843561E-003   5.3912568050666299E-002
  -6.7128261827964567E-003   2.6437904677542590E-003   5.3848024541120407E-002
  -5.5922288752991937E-003   3.3421192583152765E-003   5.4058531634112776E-002
  -4.4716315678019385E-003   4.5534205038677243E-003   5.4544089329643275E-002
  -3.3510342603046838E-003   6.2776942044112938E-003   5.5304697627711570E-002
  -9.2906260107380734E-003   2.7078724235086726E-003   4.9948455836249628E-002
  -7.8689169702456374E-003   2.8576151633353253E-003   5.0353700262833256E-002
  -6.4472079297531737E-003   3.6137391213335868E-003   5.1086117552869292E-002
  -5.0254988892607169E-003   4.9762442975041024E-003   5.2145707706357652E-002
  -3.6037898487682740E-003   6.9451306918466571E-003   5.3532470723298475E-002
  -2.0375334184268082E-003   4.2753847421047597E-003   6.2369280793286630E-002
  -2.2871789054108096E-003   5.5784442719049032E-003   5.8338900625577561E-002
  -2.5368243923947868E-003   7.2740054575620439E-003   5.4303098198245914E-002
  -2.7864698793787657E-003   9.3620682990768408E-003   5.0261873511290939E-002
  -3.0361153663627655E-003   1.1842632796449148E-002   4.6215226564713774E-002
  -2.5679060451339504E-003   4.9428212295401508E-003   5.9723102662705529E-002
  -2.8404761847831486E-003   6.5676770155244646E-003   5.6190739951353930E-002
  -3.1130463244324006E-003   8.6459928189544510E-003   5.2617950194294660E-002
  -3.3856164640816431E-003   1.1177768639831789E-002   4.9004733391527500E-002
  -3.6581866037308161E-003   1.4163004478155550E-002   4.5351089543053114E-002
  -3.0057396590932057E-003   5.6102577169757084E-003   5.7368241607513998E-002
  -3.3362392374925599E-003   7.5569097591436929E-003   5.4394854714108876E-002
  -3.6667388158919132E-003   1.0017980180346983E-002   5.1346035988911090E-002
  -3.9972383942912491E-003   1.2993468980586575E-002   4.8221785431920329E-002
  -4.3277379726905894E-003   1.6483376159861507E-002   4.5022103043137918E-002
  -3.3510342603046838E-003   6.2776942044112938E-003   5.5304697627711570E-002
  -3.7744680635390421E-003   8.5461425027626436E-003   5.2951244913842135E-002
  -4.1979018667734000E-003   1.1389967541739897E-002   5.0487355582095286E-002
  -4.6213356700078138E-003   1.4809169321341331E-002   4.7913029632470759E-002
  -5.0447694732420889E-003   1.8803747841567575E-002   4.5228267064969074E-002
  -3.6037898487682740E-003   6.9451306918466571E-003   5.3532470723298475E-002
  -4.1551626629225402E-003   9.5353752463822605E-003   5.1859910550553834E-002
  -4.7065354770767925E-003   1.2761954903131700E-002   5.0041908973846971E-002
  -5.2579082912310726E-003   1.6624869662096087E-002   4.8078465993177166E-002
  -5.8092811053853111E-003   2.1124119523273865E-002   4.5969581608546140E-002
  -5.1613299409847990E-002   1.3660952251179026E-002   4.8244237001029699E-002
  -4.9482449273608342E-002   1.3909539041400409E-002   4.8358627366787643E-002
  -4.7351599137368777E-002   1.3923088405839640E-002   4.8640821561356962E-002
  -4.5220749001129198E-002   1.3701600344496766E-002   4.9090819584737433E-002
  -4.3089898864889592E-002   1.3245074857371530E-002   4.9708621436929057E-002
  -5.7733284930559473E-002   1.6194440670633803E-002   4.4194546642036259E-002
  -5.5415062305984739E-002   1.6056237735116025E-002   4.3999572897206268E-002
  -5.3096839681410025E-002   1.5786036615530463E-002   4.4011540300235269E-002
  -5.0778617056835312E-002   1.5383837311877327E-002   4.4230448851123302E-002
  -4.8460394432260606E-002   1.4849639824156269E-002   4.4656298549870410E-002
  -6.3998685416457909E-002   1.8727929090088635E-002   3.9706546936446457E-002
  -6.1453952984500224E-002   1.8202936428831668E-002   3.9305248322742903E-002
  -5.8909220552542559E-002   1.7648984825221467E-002   3.9150028175946164E-002
  -5.6364488120584977E-002   1.7066074279258003E-002   3.9240886496056233E-002
  -5.3819755688627319E-002   1.6454204790941146E-002   3.9577823283073132E-002
  -7.0409500867543204E-002   2.1261417509543440E-002   3.4780237884260316E-002
  -6.7599121309154853E-002   2.0349635122547435E-002   3.4275653643397547E-002
  -6.4788741750766488E-002   1.9511933034912381E-002   3.4056285188489591E-002
  -6.1978362192378157E-002   1.8748311246638567E-002   3.4122132519536039E-002
  -5.9167982633989827E-002   1.8058769757726009E-002   3.4473195636537279E-002
  -7.6965731283815564E-002   2.3794905928998245E-002   2.9415619485477773E-002
  -7.3850567279948626E-002   2.2496333816262981E-002   2.8910788859170256E-002
  -7.0735403276081743E-002   2.1374881244603322E-002   2.8730311337865466E-002
  -6.7620239272214860E-002   2.0430548214019260E-002   2.8874186921562850E-002
  -6.4505075268347978E-002   1.9663334724510817E-002   2.9342415610262795E-002
  -4.3089898864889592E-002   1.3245074857371530E-002   4.9708621436929057E-002
  -4.1775808580650650E-002   1.2682574143522279E-002   4.9337005960404801E-002
  -4.0461718296411694E-002   1.2143160402007538E-002   4.9127792567042999E-002
  -3.9147628012172739E-002   1.1626833632827006E-002   4.9080981256843834E-002
  -3.7833537727933797E-002   1.1133593835980893E-002   4.9196572029806984E-002
  -4.8460394432260606E-002   1.4849639824156269E-002   4.4656298549870410E-002
  -4.6986768724078774E-002   1.4256669098878114E-002   4.4311720065774621E-002
  -4.5513143015896915E-002   1.3678150082553270E-002   4.4123810346402143E-002
  -4.4039517307715083E-002   1.3114082775181495E-002   4.4092569391752913E-002
  -4.2565891599533244E-002   1.2564467176763294E-002   4.4217997201827147E-002
  -5.3819755688627319E-002   1.6454204790941146E-002   3.9577823283073132E-002
  -5.2192327874941769E-002   1.5830764054233740E-002   3.9251646528024861E-002
  -5.0564900061256218E-002   1.5213139763098772E-002   3.9076405219260736E-002
  -4.8937472247570696E-002   1.4601331917536093E-002   3.9052099356780556E-002
  -4.7310044433885111E-002   1.3995340517545751E-002   3.9178728940584689E-002
  -5.9167982633989827E-002   1.8058769757726009E-002   3.4473195636537279E-002
  -5.7392486033239751E-002   1.7404859009589470E-002   3.4156785347155466E-002
  -5.5616989432489682E-002   1.6748129443644361E-002   3.3985577185618697E-002
  -5.3841492831739599E-002   1.6088581059890552E-002   3.3959571151926667E-002
  -5.2065996230989543E-002   1.5426213858328153E-002   3.4078767246079694E-002
  -6.4505075268347978E-002   1.9663334724510817E-002   2.9342415610262795E-002
  -6.2587243198972603E-002   1.8978953964945200E-002   2.9027136523166491E-002
  -6.0669411129597228E-002   1.8283119124189978E-002   2.8851326245476011E-002
  -5.8751579060221826E-002   1.7575830202245117E-002   2.8814984777191036E-002
  -5.6833746990846451E-002   1.6857087199110610E-002   2.8918112118312078E-002
  -3.7833537727933797E-002   1.1133593835980893E-002   4.9196572029806984E-002
  -3.6083168461695417E-002   1.0639612625094247E-002   4.8922497497858208E-002
  -3.4332799195457023E-002   1.0121061613791976E-002   4.8843373171983090E-002
  -3.2582429929218636E-002   9.5779408020742127E-003   4.8959199052181074E-002
  -3.0832060662980248E-002   9.0102501899411713E-003   4.9269975138452438E-002
  -4.2565891599533244E-002   1.2564467176763294E-002   4.4217997201827147E-002
  -4.0620403933738919E-002   1.2013471813796611E-002   4.3911401381375864E-002
  -3.8674916267944615E-002   1.1445265212779832E-002   4.3800092153963147E-002
  -3.6729428602150269E-002   1.0859847373712886E-002   4.3884069519588974E-002
  -3.4783940936355992E-002   1.0257218296595705E-002   4.4163333478253186E-002
  -4.7310044433885111E-002   1.3995340517545751E-002   3.9178728940584689E-002
  -4.5169101981569648E-002   1.3387331002499211E-002   3.8846970393996053E-002
  -4.3028159529254234E-002   1.2769468811767701E-002   3.8710834827411139E-002
  -4.0887217076938757E-002   1.2141753945351452E-002   3.8770322240830060E-002
  -3.8746274624623364E-002   1.1504186403250238E-002   3.9025432634252649E-002
  -5.2065996230989543E-002   1.5426213858328153E-002   3.4078767246079694E-002
  -4.9729262605187757E-002   1.4761190191201416E-002   3.3729204535719030E-002
  -4.7392528979385944E-002   1.4093672410755452E-002   3.3575601192327276E-002
  -4.5055795353584095E-002   1.3423660516989849E-002   3.3617957215904527E-002
  -4.2719061727782295E-002   1.2751154509904883E-002   3.3856272606450744E-002
  -5.6833746990846451E-002   1.6857087199110610E-002   2.8918112118312078E-002
  -5.4300885804593108E-002   1.6135049379904093E-002   2.8558103806544555E-002
  -5.1768024618339681E-002   1.5417876009743356E-002   2.8394391248711348E-002
  -4.9235163432086268E-002   1.4705567088628534E-002   2.8426974444812306E-002
  -4.6702302245832911E-002   1.3998122616559250E-002   2.8655853394847608E-002
  -3.0832060662980248E-002   9.0102501899411713E-003   4.9269975138452438E-002
  -2.9179932495172201E-002   8.4296136305392899E-003   4.8942022575220401E-002
  -2.7527804327364139E-002   7.8476549770152282E-003   4.8794658683905812E-002
  -2.5875676159556077E-002   7.2643742293690139E-003   4.8827883464508504E-002
  -2.4223547991748029E-002   6.6797713876005638E-003   4.9041696917028643E-002
  -3.4783940936355992E-002   1.0257218296595705E-002   4.4163333478253186E-002
  -3.2957749569092018E-002   9.6425142164149047E-003   4.3814271596568394E-002
  -3.1131558201828023E-002   9.0208713681567410E-003   4.3632747441877950E-002
  -2.9305366834564060E-002   8.3922897518209569E-003   4.3618761014182120E-002
  -2.7479175467300054E-002   7.7567693674079341E-003   4.3772312313480499E-002
  -3.8746274624623364E-002   1.1504186403250238E-002   3.9025432634252649E-002
  -3.6759071002826368E-002   1.0855414802290464E-002   3.8649644760159779E-002
  -3.4771867381029373E-002   1.0194087759298198E-002   3.8428343668138382E-002
  -3.2784663759232384E-002   9.5202052742731219E-003   3.8361529358188595E-002
  -3.0797460137435381E-002   8.8337673472155265E-003   3.8449201830310364E-002
  -4.2719061727782295E-002   1.2751154509904883E-002   3.3856272606450744E-002
  -4.0583896796375238E-002   1.2068315388166051E-002   3.3448142065994536E-002
  -3.8448731864968125E-002   1.1367304150439683E-002   3.3181447362687098E-002
  -3.6313566933561026E-002   1.0648120796725231E-002   3.3056188496528173E-002
  -3.4178402002153899E-002   9.9107653270229523E-003   3.3072365467517947E-002
  -4.6702302245832911E-002   1.3998122616559250E-002   2.8655853394847608E-002
  -4.4432226949738640E-002   1.3281215974041582E-002   2.8209763514072894E-002
  -4.2162151653644300E-002   1.2540520541581210E-002   2.7892058525523983E-002
  -3.9892076357550023E-002   1.1776036319177296E-002   2.7702738429200832E-002
  -3.7622001061455745E-002   1.0987763306830600E-002   2.7641803225103456E-002
  -2.4223547991748029E-002   6.6797713876005638E-003   4.9041696917028643E-002
  -2.2430287179602951E-002   6.0897131271271943E-003   4.8739456216447430E-002
  -2.0637026367457859E-002   5.4900661233668324E-003   4.8610285967152556E-002
  -1.8843765555312753E-002   4.8808303763194366E-003   4.8654186169144076E-002
  -1.7050504743167688E-002   4.2620058859846877E-003   4.8871156822422046E-002
  -2.7479175467300054E-002   7.7567693674079341E-003   4.3772312313480499E-002
  -2.5518577204404765E-002   7.1178675546124115E-003   4.3396975001792293E-002
  -2.3557978941509419E-002   6.4791416531284479E-003   4.3183242140318101E-002
  -2.1597380678614074E-002   5.8405916629564979E-003   4.3131113729057965E-002
  -1.9636782415718729E-002   5.2022175840961138E-003   4.3240589768012039E-002
  -3.0797460137435381E-002   8.8337673472155265E-003   3.8449201830310364E-002
  -2.8680990424862159E-002   8.1460219820971569E-003   3.8010532562114188E-002
  -2.6564520712288840E-002   7.4682171828897304E-003   3.7722001743059674E-002
  -2.4448050999715521E-002   6.8003529495932261E-003   3.7583609373147212E-002
  -2.2331581287142285E-002   6.1424292822078175E-003   3.7595355452376245E-002
  -3.4178402002153899E-002   9.9107653270229523E-003   3.3072365467517947E-002
  -3.1917526840975013E-002   9.1741764095819162E-003   3.2580128897412811E-002
  -2.9656651679796066E-002   8.4572927126510128E-003   3.2226564775377269E-002
  -2.7395776518617129E-002   7.7601142362303983E-003   3.2011673101411148E-002
  -2.5134901357438191E-002   7.0826409803195489E-003   3.1935453875514705E-002
  -3.7622001061455745E-002   1.0987763306830600E-002   2.7641803225103456E-002
  -3.5228186452743449E-002   1.0202330837067175E-002   2.7105764007688604E-002
  -3.2834371844031152E-002   9.4463682424128503E-003   2.6696931237270904E-002
  -3.0440557235318869E-002   8.7198755228670710E-003   2.6415304913850524E-002
  -2.8046742626606586E-002   8.0228526784310583E-003   2.6260885037427295E-002
  -1.7050504743167688E-002   4.2620058859846877E-003   4.8871156822422046E-002
  -1.5110535060060284E-002   3.6971583980959788E-003   4.8759166749423044E-002
  -1.3170565376952881E-002   3.2498536583873139E-003   4.8901386560727900E-002
  -1.1230595693845470E-002   2.9200916668581794E-003   4.9297816256336779E-002
  -9.2906260107380734E-003   2.7078724235086726E-003   4.9948455836249628E-002
  -1.9636782415718729E-002   5.2022175840961138E-003   4.3240589768012039E-002
  -1.7481006357849632E-002   4.6004889033346985E-003   4.3077003803130676E-002
  -1.5325230299980508E-002   4.0718751074582116E-003   4.3090820703469035E-002
  -1.3169454242111391E-002   3.6163761964672914E-003   4.3282040469026825E-002
  -1.1013678184242287E-002   3.2339921703613550E-003   4.3650663099803977E-002
  -2.2331581287142285E-002   6.1424292822078175E-003   3.7595355452376245E-002
  -2.0036805873595881E-002   5.5038194085732239E-003   3.7335745732318404E-002
  -1.7742030460049459E-002   4.8938965565295811E-003   3.7176731858395540E-002
  -1.5447255046503046E-002   4.3126607260764102E-003   3.7118313830607652E-002
  -1.3152479632956689E-002   3.7601119172139819E-003   3.7160491648954880E-002
  -2.5134901357438191E-002   7.0826409803195489E-003   3.1935453875514705E-002
  -2.2777933607299041E-002   6.4071499138119020E-003   3.1535392536985396E-002
  -2.0420965857159808E-002   5.7159180056007147E-003   3.1159120025506963E-002
  -1.8063998107020529E-002   5.0089452556856366E-003   3.0806636341079285E-002
  -1.5707030356881369E-002   4.2862316640666365E-003   3.0477941483701927E-002
  -2.8046742626606586E-002   8.0228526784310583E-003   2.6260885037427295E-002
  -2.5704389558958984E-002   7.3104804190504136E-003   2.5675944217132596E-002
  -2.3362036491311425E-002   6.5379394546717651E-003   2.5037985204803936E-002
  -2.1019683423663844E-002   5.7052297852945091E-003   2.4347008000441456E-002
  -1.8677330356016264E-002   4.8123514109191801E-003   2.3603012604045182E-002
  -9.2906260107380734E-003   2.7078724235086726E-003   4.9948455836249628E-002
  -7.8689169702456374E-003   2.8576151633353253E-003   5.0353700262833256E-002
  -6.4472079297531737E-003   3.6137391213335868E-003   5.1086117552869292E-002
  -5.0254988892607169E-003   4.9762442975041024E-003   5.2145707706357652E-002
  -3.6037898487682740E-003   6.9451306918466571E-003   5.3532470723298475E-002
  -1.1013678184242287E-002   3.2339921703613550E-003   4.3650663099803977E-002
  -9.2464898111265376E-003   3.1630632184961871E-003   4.4236552961232745E-002
  -7.4793014380107950E-003   3.6419295302279331E-003   4.5186228624455621E-002
  -5.7121130648950524E-003   4.6705911055559060E-003   4.6499690089472648E-002
  -3.9449246917793029E-003   6.2490479444800018E-003   4.8176937356284255E-002
  -1.3152479632956689E-002   3.7601119172139819E-003   3.7160491648954880E-002
  -1.1003198988875827E-002   3.4685112736575763E-003   3.7870440990652787E-002
  -8.8539183447949033E-003   3.6701199391220435E-003   3.8980789072486990E-002
  -6.7046377007140088E-003   4.3649379136074841E-003   4.0491535894457052E-002
  -4.5553570566331178E-003   5.5529651971135685E-003   4.2402681456563562E-002
  -1.5707030356881369E-002   4.2862316640666365E-003   3.0477941483701927E-002
  -1.3139044503493437E-002   3.7739593288186463E-003   3.1255364351093710E-002
  -1.0571058650105526E-002   3.6983103480161608E-003   3.2469798896963664E-002
  -8.0030727967176172E-003   4.0592847216589529E-003   3.4121245121311546E-002
  -5.4350869433296822E-003   4.8568824497471352E-003   3.6209703024137369E-002
  -1.8677330356016264E-002   4.8123514109191801E-003   2.3603012604045182E-002
  -1.5654026354979478E-002   4.0794073839799383E-003   2.4391323042555313E-002
  -1.2630722353942636E-002   3.7265007569101671E-003   2.5653258097885379E-002
  -9.6074183529058499E-003   3.7536315297107825E-003   2.7388817770035268E-002
  -6.5841143518690082E-003   4.1607997023803689E-003   2.9598002059004869E-002
  -3.6037898487682740E-003   6.9451306918466571E-003   5.3532470723298475E-002
  -4.1551626629225402E-003   9.5353752463822605E-003   5.1859910550553834E-002
  -4.7065354770767925E-003   1.2761954903131700E-002   5.0041908973846971E-002
  -5.2579082912310726E-003   1.6624869662096087E-002   4.8078465993177166E-002
  -5.8092811053853111E-003   2.1124119523273865E-002   4.5969581608546140E-002
  -3.9449246917793029E-003   6.2490479444800018E-003   4.8176937356284255E-002
  -4.5379196294801777E-003   8.6872390560207569E-003   4.7241903134037366E-002
  -5.1309145671810455E-003   1.2295103449196931E-002   4.6369066068660036E-002
  -5.7239095048819202E-003   1.7072641124009524E-002   4.5558426160151627E-002
  -6.3169044425827325E-003   2.3019852080458092E-002   4.4809983408512499E-002
  -4.5553570566331178E-003   5.5529651971135685E-003   4.2402681456563562E-002
  -4.9823355570491057E-003   7.8391028656591422E-003   4.2738511364236675E-002
  -5.4093140574650624E-003   1.1828251995262495E-002   4.3344176989610461E-002
  -5.8362925578810329E-003   1.7520412585923517E-002   4.4219678332685294E-002
  -6.2632710582970069E-003   2.4915584637642318E-002   4.5365015393460162E-002
  -5.4350869433296822E-003   4.8568824497471352E-003   3.6209703024137369E-002
  -5.4884104456293034E-003   6.9909666752975830E-003   3.8349735241152177E-002
  -5.5417339479287564E-003   1.1361400541327560E-002   4.0967241736699245E-002
  -5.5950574502284609E-003   1.7968184047837454E-002   4.4062222510778008E-002
  -5.6483809525279434E-003   2.6811317194826545E-002   4.7634677563389682E-002
  -6.5841143518690082E-003   4.1607997023803689E-003   2.9598002059004869E-002
  -6.0561442952206668E-003   6.1428304849361348E-003   3.4075574764783290E-002
  -5.5281742385723254E-003   1.0894549087392930E-002   3.9238260309925332E-002
  -5.0002041819240672E-003   1.8415955509751135E-002   4.5086058694430636E-002
  -4.4722341252756426E-003   2.8707049752010771E-002   5.1618969918300284E-002
  -7.6965731283815564E-002   2.3794905928998245E-002   2.9415619485477773E-002
  -7.3850567279948626E-002   2.2496333816262981E-002   2.8910788859170256E-002
  -7.0735403276081743E-002   2.1374881244603322E-002   2.8730311337865466E-002
  -6.7620239272214860E-002   2.0430548214019260E-002   2.8874186921562850E-002
  -6.4505075268347978E-002   1.9663334724510817E-002   2.9342415610262795E-002
  -8.3434220266958875E-002   2.4747863624357436E-002   2.1404329882218909E-002
  -8.0038070523785768E-002   2.3865065780509592E-002   2.1277331598970578E-002
  -7.6641920780612771E-002   2.3005752150206393E-002   2.1387951689331997E-002
  -7.3245771037439719E-002   2.2169922733447991E-002   2.1736190153303178E-002
  -6.9849621294266737E-002   2.1357577530234179E-002   2.2322046990884192E-002
  -8.9581811418656648E-002   2.5700821319716682E-002   1.3885632211612903E-002
  -8.5991410667570184E-002   2.5233797744756287E-002   1.3982830943892771E-002
  -8.2401009916483775E-002   2.4636623055809589E-002   1.4230913318389646E-002
  -7.8810609165397311E-002   2.3909297252876615E-002   1.4629879335103659E-002
  -7.5220208414310902E-002   2.3051820335957623E-002   1.5179728994034900E-002
  -9.5408504738909355E-002   2.6653779015075901E-002   6.8595264736599007E-003
  -9.1710587711302152E-002   2.6602529709002912E-002   7.0272868939369668E-003
  -8.8012670683694838E-002   2.6267493961412695E-002   7.2591962250384418E-003
  -8.4314753656087621E-002   2.5648671772305350E-002   7.5552544669642233E-003
  -8.0616836628480362E-002   2.4746063141681054E-002   7.9154616197146914E-003
 -0.10091430022771686        2.7606736710435120E-002   3.2601266835974307E-004
  -9.7195601654981423E-002   2.7971261673249592E-002   4.1069944910299139E-004
  -9.3476903082245988E-002   2.7898364867015912E-002   4.7280040927821787E-004
  -8.9758204509510608E-002   2.7388046291734108E-002   5.1231554888514497E-004
  -8.6039505936775229E-002   2.6440305947404430E-002   5.2924486792382819E-004
  -6.4505075268347978E-002   1.9663334724510817E-002   2.9342415610262795E-002
  -6.2587243198972603E-002   1.8978953964945200E-002   2.9027136523166491E-002
  -6.0669411129597228E-002   1.8283119124189978E-002   2.8851326245476011E-002
  -5.8751579060221826E-002   1.7575830202245117E-002   2.8814984777191036E-002
  -5.6833746990846451E-002   1.6857087199110610E-002   2.8918112118312078E-002
  -6.9849621294266737E-002   2.1357577530234179E-002   2.2322046990884192E-002
  -6.7784731701744358E-002   2.0563483508079100E-002   2.1989097557095411E-002
  -6.5719842109221882E-002   1.9782407634496769E-002   2.1810794360195021E-002
  -6.3654952516699503E-002   1.9014349909486923E-002   2.1787137400182677E-002
  -6.1590062924177097E-002   1.8259310333050061E-002   2.1918126677058725E-002
  -7.5220208414310902E-002   2.3051820335957623E-002   1.5179728994034900E-002
  -7.2993083871158868E-002   2.2148013051213000E-002   1.4853581443315909E-002
  -7.0765959328006847E-002   2.1281696144803283E-002   1.4697257556967699E-002
  -6.8538834784854868E-002   2.0452869616728899E-002   1.4710757334990575E-002
  -6.6311710241702848E-002   1.9661533466989456E-002   1.4894080777384286E-002
  -8.0616836628480362E-002   2.4746063141681054E-002   7.9154616197146914E-003
  -7.8212299707216146E-002   2.3732542594346706E-002   7.6205881818280172E-003
  -7.5807762785951999E-002   2.2780984655109963E-002   7.5107158357947228E-003
  -7.3403225864687865E-002   2.1891389323970847E-002   7.5858445816146675E-003
  -7.0998688943423649E-002   2.1063756600928935E-002   7.8459744192883561E-003
  -8.6039505936775229E-002   2.6440305947404430E-002   5.2924486792382819E-004
  -8.3442379209916318E-002   2.5317072137480634E-002   2.9011777263165950E-004
  -8.0845252483057350E-002   2.4280273165416533E-002   2.5116919667572679E-004
  -7.8248125756198439E-002   2.3329909031212723E-002   4.1239914005554434E-004
  -7.5650999029339472E-002   2.2465979734868413E-002   7.7380760277157012E-004
  -5.6833746990846451E-002   1.6857087199110610E-002   2.8918112118312078E-002
  -5.4300885804593108E-002   1.6135049379904093E-002   2.8558103806544555E-002
  -5.1768024618339681E-002   1.5417876009743356E-002   2.8394391248711348E-002
  -4.9235163432086268E-002   1.4705567088628534E-002   2.8426974444812306E-002
  -4.6702302245832911E-002   1.3998122616559250E-002   2.8655853394847608E-002
  -6.1590062924177097E-002   1.8259310333050061E-002   2.1918126677058725E-002
  -5.8862105364018688E-002   1.7507846353415762E-002   2.1591086348106331E-002
  -5.6134147803860168E-002   1.6750515418814310E-002   2.1457943013030015E-002
  -5.3406190243701746E-002   1.5987317529245391E-002   2.1518696671829714E-002
  -5.0678232683543240E-002   1.5218252684709443E-002   2.1773347324505310E-002
  -6.6311710241702848E-002   1.9661533466989456E-002   1.4894080777384286E-002
  -6.3391055067697516E-002   1.8880643326927585E-002   1.4589277027233949E-002
  -6.0470399893692142E-002   1.8083154827885160E-002   1.4475971510901332E-002
  -5.7549744719686817E-002   1.7269067969862308E-002   1.4554164228386731E-002
  -5.4629089545681499E-002   1.6438382752859443E-002   1.4823855179689746E-002
  -7.0998688943423649E-002   2.1063756600928935E-002   7.8459744192883561E-003
  -6.7887734915629577E-002   2.0253440300439275E-002   7.5526758439269093E-003
  -6.4776780887835561E-002   1.9415794236956229E-002   7.4484767423252368E-003
  -6.1665826860041531E-002   1.8550818410479415E-002   7.5333771144832145E-003
  -5.8554872832247494E-002   1.7658512821009539E-002   7.8073769604004896E-003
  -7.5650999029339472E-002   2.2465979734868413E-002   7.7380760277157012E-004
  -7.2352144907814941E-002   2.1626237273950966E-002   4.8128279818621111E-004
  -6.9053290786290467E-002   2.0748433646027159E-002   3.7545870730168462E-004
  -6.5754436664765964E-002   1.9832568851096265E-002   4.5633533011934374E-004
  -6.2455582543241461E-002   1.8878642889159414E-002   7.2391266663773823E-004
  -4.6702302245832911E-002   1.3998122616559250E-002   2.8655853394847608E-002
  -4.4432226949738640E-002   1.3281215974041582E-002   2.8209763514072894E-002
  -4.2162151653644300E-002   1.2540520541581210E-002   2.7892058525523983E-002
  -3.9892076357550023E-002   1.1776036319177296E-002   2.7702738429200832E-002
  -3.7622001061455745E-002   1.0987763306830600E-002   2.7641803225103456E-002
  -5.0678232683543240E-002   1.5218252684709443E-002   2.1773347324505310E-002
  -4.8272895888551881E-002   1.4443283434820403E-002   2.1344342303133257E-002
  -4.5867559093560412E-002   1.3662372329192402E-002   2.1057475387329688E-002
  -4.3462222298568991E-002   1.2875519367825904E-002   2.0912746577094674E-002
  -4.1056885503577584E-002   1.2082724550720680E-002   2.0910155872428116E-002
  -5.4629089545681499E-002   1.6438382752859443E-002   1.4823855179689746E-002
  -5.2074738038450197E-002   1.5605350895598863E-002   1.4429781951924583E-002
  -4.9520386531218916E-002   1.4784224116803822E-002   1.4191600043070580E-002
  -4.6966035023987614E-002   1.3975002416474347E-002   1.4109309453127886E-002
  -4.4411683516756395E-002   1.3177685794610594E-002   1.4182910182096359E-002
  -5.8554872832247494E-002   1.7658512821009539E-002   7.8073769604004896E-003
  -5.5837753399433650E-002   1.6767418356377337E-002   7.4660824604464160E-003
  -5.3120633966619875E-002   1.5906075904415461E-002   7.2944324927464981E-003
  -5.0403514533806100E-002   1.5074485465123317E-002   7.2924270573004610E-003
  -4.7686395100992249E-002   1.4272647038500758E-002   7.4600661541080610E-003
  -6.2455582543241461E-002   1.8878642889159414E-002   7.2391266663773823E-004
  -5.9561941971502330E-002   1.7929485817156476E-002   4.5324382869926794E-004
  -5.6668301399763255E-002   1.7027927692026712E-002   3.6597273635730065E-004
  -5.3774660828024151E-002   1.6173968513771633E-002   4.6209938961186414E-004
  -5.0881020256285048E-002   1.5367608282390588E-002   7.4162378846343024E-004
  -3.7622001061455745E-002   1.0987763306830600E-002   2.7641803225103456E-002
  -3.5228186452743449E-002   1.0202330837067175E-002   2.7105764007688604E-002
  -3.2834371844031152E-002   9.4463682424128503E-003   2.6696931237270904E-002
  -3.0440557235318869E-002   8.7198755228670710E-003   2.6415304913850524E-002
  -2.8046742626606586E-002   8.0228526784310583E-003   2.6260885037427295E-002
  -4.1056885503577584E-002   1.2082724550720680E-002   2.0910155872428116E-002
  -3.8545219602102235E-002   1.1293827559465452E-002   2.0466451620996140E-002
  -3.6033553700626969E-002   1.0518668075649329E-002   2.0131243508093227E-002
  -3.3521887799151592E-002   9.7572460992722404E-003   1.9904531533719072E-002
  -3.1010221897676299E-002   9.0095616303341730E-003   1.9786315697874091E-002
  -4.4411683516756395E-002   1.3177685794610594E-002   1.4182910182096359E-002
  -4.1800876630986375E-002   1.2385324281863813E-002   1.3815808528977291E-002
  -3.9190069745216299E-002   1.1590967908886252E-002   1.3538492705918836E-002
  -3.6579262859446252E-002   1.0794616675677299E-002   1.3350962712920932E-002
  -3.3968455973676211E-002   9.9962705822372322E-003   1.3253218549983653E-002
  -4.7686395100992249E-002   1.4272647038500758E-002   7.4600661541080610E-003
  -4.4995157539395716E-002   1.3476821004262687E-002   7.1538347316316836E-003
  -4.2303919977799247E-002   1.2663267742123063E-002   6.9186788307475794E-003
  -3.9612682416202763E-002   1.1831987252082524E-002   6.7545984514558177E-003
  -3.6921444854606245E-002   1.0982979534140319E-002   6.6615935937562876E-003
  -5.0881020256285048E-002   1.5367608282390588E-002   7.4162378846343024E-004
  -4.8128062327330356E-002   1.4568317726660673E-002   4.8053022895927500E-004
  -4.5375104398375776E-002   1.3735567575359764E-002   2.7180188257988624E-004
  -4.2622146469421196E-002   1.2869357828487332E-002   1.1543874932353620E-004
  -3.9869188540466505E-002   1.1969688486043184E-002   1.1440829191800006E-005
  -2.8046742626606586E-002   8.0228526784310583E-003   2.6260885037427295E-002
  -2.5704389558958984E-002   7.3104804190504136E-003   2.5675944217132596E-002
  -2.3362036491311425E-002   6.5379394546717651E-003   2.5037985204803936E-002
  -2.1019683423663844E-002   5.7052297852945091E-003   2.4347008000441456E-002
  -1.8677330356016264E-002   4.8123514109191801E-003   2.3603012604045182E-002
  -3.1010221897676299E-002   9.0095616303341730E-003   1.9786315697874091E-002
  -2.8703176998578120E-002   8.2664846601105957E-003   1.9191984488629299E-002
  -2.6396132099479969E-002   7.5188851798760337E-003   1.8580055134319345E-002
  -2.4089087200381838E-002   6.7667631896312225E-003   1.7950527634944466E-002
  -2.1782042301283638E-002   6.0101186893760650E-003   1.7303401990504730E-002
  -3.3968455973676211E-002   9.9962705822372322E-003   1.3253218549983653E-002
  -3.1661299196158656E-002   9.2224889011701394E-003   1.2705143146776232E-002
  -2.9354142418641028E-002   8.4998309050803994E-003   1.2174889645473058E-002
  -2.7046985641123428E-002   7.8282965939681544E-003   1.1662458046073777E-002
  -2.4739828863605789E-002   7.2078859678330054E-003   1.1167848348578285E-002
  -3.6921444854606245E-002   1.0982979534140319E-002   6.6615935937562876E-003
  -3.4578756151700370E-002   1.0178493142229725E-002   6.2154201915744292E-003
  -3.2236067448794495E-002   9.4807766302846055E-003   5.8224887382654945E-003
  -2.9893378745888627E-002   8.8898299983049770E-003   5.4827992338293084E-003
  -2.7550690042982752E-002   8.4056532462894740E-003   5.1963516782654665E-003
  -3.9869188540466505E-002   1.1969688486043184E-002   1.1440829191800006E-005
  -3.7455547865203442E-002   1.1134497383290198E-002  -2.7718437697688003E-004
  -3.5041907189940436E-002   1.0461722355489034E-002  -4.7714758730396656E-004
  -3.2628266514677429E-002   9.9513634026412445E-003  -5.8844880178936937E-004
  -3.0214625839414366E-002   9.6034205247466087E-003  -6.1108802043330357E-004
  -1.8677330356016264E-002   4.8123514109191801E-003   2.3603012604045182E-002
  -1.5654026354979478E-002   4.0794073839799383E-003   2.4391323042555313E-002
  -1.2630722353942636E-002   3.7265007569101671E-003   2.5653258097885379E-002
  -9.6074183529058499E-003   3.7536315297107825E-003   2.7388817770035268E-002
  -6.5841143518690082E-003   4.1607997023803689E-003   2.9598002059004869E-002
  -2.1782042301283638E-002   6.0101186893760650E-003   1.7303401990504730E-002
  -1.8554446345459497E-002   5.3429420173474740E-003   1.8251052933094425E-002
  -1.5326850389635271E-002   4.8592235117823346E-003   1.9133663168439008E-002
  -1.2099254433811144E-002   4.5589631726813337E-003   1.9951232696538507E-002
  -8.8716584779870156E-003   4.4421610000437983E-003   2.0703761517392838E-002
  -2.4739828863605789E-002   7.2078859678330054E-003   1.1167848348578285E-002
  -2.1846606277059213E-002   6.6064766507150652E-003   1.2078260561841275E-002
  -1.8953383690512610E-002   5.9919462666551682E-003   1.2384966743794384E-002
  -1.6060161103966047E-002   5.3642948156522180E-003   1.2087966894437210E-002
  -1.3166938517419374E-002   4.7235222977070612E-003   1.1187261013770128E-002
  -2.7550690042982752E-002   8.4056532462894740E-003   5.1963516782654665E-003
  -2.5530506149778684E-002   7.8700112840826286E-003   5.8729459287958849E-003
  -2.3510322256574595E-002   7.1246690215272801E-003   5.4071688239510085E-003
  -2.1490138363370530E-002   6.1696264586230468E-003   3.7990203637313404E-003
  -1.9469954470166438E-002   5.0048835953700743E-003   1.0485005481368145E-003
  -3.0214625839414366E-002   9.6034205247466087E-003  -6.1108802043330357E-004
  -2.9606145963617658E-002   9.1335459174504141E-003  -3.6489096604158666E-004
  -2.8997666087821172E-002   8.2573917763998916E-003  -1.7997305910904260E-003
  -2.8389186212024575E-002   6.9749581015940282E-003  -4.9156068955788015E-003
  -2.7780706336227978E-002   5.2862448930337536E-003  -9.7125198795073864E-003
  -6.5841143518690082E-003   4.1607997023803689E-003   2.9598002059004869E-002
  -6.0561442952206668E-003   6.1428304849361348E-003   3.4075574764783290E-002
  -5.5281742385723254E-003   1.0894549087392930E-002   3.9238260309925332E-002
  -5.0002041819240672E-003   1.8415955509751135E-002   4.5086058694430636E-002
  -4.4722341252756426E-003   2.8707049752010771E-002   5.1618969918300284E-002
  -8.8716584779870156E-003   4.4421610000437983E-003   2.0703761517392838E-002
  -7.5861808862902058E-003   5.6588946443489330E-003   2.5872643649203220E-002
  -6.3007032945934099E-003   9.3592417560756092E-003   3.1871428011746417E-002
  -5.0152257028965933E-003   1.5543202335224132E-002   3.8700114605022901E-002
  -3.7297481111999153E-003   2.4210776381794474E-002   4.6358703429032921E-002
  -1.3166938517419374E-002   4.7235222977070612E-003   1.1187261013770128E-002
  -1.0979163999304556E-002   5.1749588037615646E-003   1.6761378219132650E-002
  -8.7913894811898208E-003   7.8239344247581916E-003   2.3310187046597527E-002
  -6.6036149630750510E-003   1.2670449160696689E-002   3.0833687496165309E-002
  -4.4158404449601563E-003   1.9714503011577955E-002   3.9331879567836570E-002
  -1.9469954470166438E-002   5.0048835953700743E-003   1.0485005481368145E-003
  -1.6235093634264008E-002   4.6910229631743905E-003   6.7417784745714207E-003
  -1.3000232798361613E-002   6.2886270934407115E-003   1.3554537414478960E-002
  -9.7653719624592027E-003   9.7976959861700210E-003   2.1486777367858062E-002
  -6.5305111265567886E-003   1.5218229641361103E-002   3.0538498334710451E-002
  -2.7780706336227978E-002   5.2862448930337536E-003  -9.7125198795073864E-003
  -2.3353969791168327E-002   4.2070871225872164E-003  -4.1861555844796006E-003
  -1.8927233246108732E-002   4.7533197621236756E-003   2.6044791153899405E-003
  -1.4500496701048998E-002   6.9249428116425205E-003   1.0659384220101702E-002
  -1.0073760155989486E-002   1.0721956271145139E-002   1.9978559729655565E-002
 </DataArray>
 </PointData>
 </Piece>
 </UnstructuredGrid>
 </VTKFile>
