 <VTKFile type="UnstructuredGrid"  version="0.1"   >
 <UnstructuredGrid>
 <Piece  NumberOfPoints="            25 "  NumberOfCells="           16 ">
 <Points>
 <DataArray  type="Float64" NumberOfComponents="3"  format="ascii" >
   0.0000000000000000        0.0000000000000000        0.0000000000000000     
  0.25000000000000000        0.0000000000000000        0.0000000000000000     
  0.50000000000000000        0.0000000000000000        0.0000000000000000     
  0.75000000000000000        0.0000000000000000        0.0000000000000000     
   1.0000000000000000        0.0000000000000000        0.0000000000000000     
   0.0000000000000000       0.25000000000000000        0.0000000000000000     
  0.25000000000000000       0.25000000000000000        0.0000000000000000     
  0.50000000000000000       0.25000000000000000        0.0000000000000000     
  0.75000000000000000       0.25000000000000000        0.0000000000000000     
   1.0000000000000000       0.25000000000000000        0.0000000000000000     
   0.0000000000000000       0.50000000000000000        0.0000000000000000     
  0.25000000000000000       0.50000000000000000        0.0000000000000000     
  0.50000000000000000       0.50000000000000000        0.0000000000000000     
  0.75000000000000000       0.50000000000000000        0.0000000000000000     
   1.0000000000000000       0.50000000000000000        0.0000000000000000     
   0.0000000000000000       0.75000000000000000        0.0000000000000000     
  0.25000000000000000       0.75000000000000000        0.0000000000000000     
  0.50000000000000000       0.75000000000000000        0.0000000000000000     
  0.75000000000000000       0.75000000000000000        0.0000000000000000     
   1.0000000000000000       0.75000000000000000        0.0000000000000000     
   0.0000000000000000        1.0000000000000000        0.0000000000000000     
  0.25000000000000000        1.0000000000000000        0.0000000000000000     
  0.50000000000000000        1.0000000000000000        0.0000000000000000     
  0.75000000000000000        1.0000000000000000        0.0000000000000000     
   1.0000000000000000        1.0000000000000000        0.0000000000000000     
 </DataArray>
 </Points>
 <Cells>
 <DataArray  type="Int32"  Name="connectivity"  format="ascii">
           0           1           6           5
           1           2           7           6
           2           3           8           7
           3           4           9           8
           5           6          11          10
           6           7          12          11
           7           8          13          12
           8           9          14          13
          10          11          16          15
          11          12          17          16
          12          13          18          17
          13          14          19          18
          15          16          21          20
          16          17          22          21
          17          18          23          22
          18          19          24          23
 </DataArray>
 <DataArray  type="Int32"  Name="offsets"  format="ascii"> 
           4
           8
          12
          16
          20
          24
          28
          32
          36
          40
          44
          48
          52
          56
          60
          64
 </DataArray>
 <DataArray  type="UInt8"  Name="types"  format="ascii">
 9
 9
 9
 9
 9
 9
 9
 9
 9
 9
 9
 9
 9
 9
 9
 9
 </DataArray>
 </Cells> 
 <PointData>
 <DataArray  type="Float64" Name="disp" NumberOfComponents="3" format="ascii">
   0.0000000000000000        0.0000000000000000        0.0000000000000000     
   3.2151865691981564E-002   2.3968279995608740E-002   0.0000000000000000     
   5.8543296965586279E-002   5.7474095678045914E-002   0.0000000000000000     
   7.9174293820814146E-002  0.10051744704731153        0.0000000000000000     
   9.4044856257665149E-002  0.15309833410340556        0.0000000000000000     
   0.0000000000000000        0.0000000000000000        0.0000000000000000     
   1.6075932845990865E-002   1.9123981197626296E-002   0.0000000000000000     
   2.9271648482793261E-002   5.1164302640871968E-002   0.0000000000000000     
   3.9587146910407191E-002   9.6120964329737019E-002   0.0000000000000000     
   4.7022428128832644E-002  0.15399396626422146        0.0000000000000000     
   0.0000000000000000        0.0000000000000000        0.0000000000000000     
   8.5001450322863548E-017   1.7509214931632142E-002   0.0000000000000000     
   9.3675067702747583E-017   4.9061038295147394E-002   0.0000000000000000     
   2.2551405187698492E-017   9.4655470090545757E-002   0.0000000000000000     
  -1.2836953722228372E-016  0.15429251031782723        0.0000000000000000     
   0.0000000000000000        0.0000000000000000        0.0000000000000000     
  -1.6075932845990772E-002   1.9123981197626285E-002   0.0000000000000000     
  -2.9271648482793219E-002   5.1164302640872190E-002   0.0000000000000000     
  -3.9587146910407357E-002   9.6120964329737740E-002   0.0000000000000000     
  -4.7022428128833171E-002  0.15399396626422290        0.0000000000000000     
   0.0000000000000000        0.0000000000000000        0.0000000000000000     
  -3.2151865691981703E-002   2.3968279995608726E-002   0.0000000000000000     
  -5.8543296965586682E-002   5.7474095678046372E-002   0.0000000000000000     
  -7.9174293820814937E-002  0.10051744704731294        0.0000000000000000     
  -9.4044856257666481E-002  0.15309833410340842        0.0000000000000000     
 </DataArray>
 <DataArray  type="Float64" Name="stress" NumberOfComponents="3" format="ascii">
   9239230655.2536240        2771769196.5760875        1772262660.2025714     
   7208948298.0923500        612508874.07332325        1168718307.0491347     
   5535111257.0233049       -358600394.78867984        831040157.82077956     
   4217719532.0464878       -141558610.00992227        759228212.51750565     
   3256773123.1618991        1263634228.4095962        953282471.13931322     
   4619615327.6268396        1385884598.2880518        1169151791.5215328     
   3604474149.0461912        306254437.03666580        877497089.94879174     
   2767555628.5116615       -179300197.39432347        851708592.30113268     
   2108859766.0232508       -70779305.004917026        1091786298.5785558     
   1628386561.5809596        631817114.20488787        1597730208.7810595     
   3.3398192636388640E-005   1.0019457790916591E-005   968114835.29451597     
   1.2078250487680276E-005   2.7908078778352153E-006   780423350.91534293     
   5.9476233462061909E-007   2.7656448559858810E-005   858598070.46125233     
  -1.4411548877345811E-006   8.4707881734621311E-005   1202638993.9322438     
   6.2221290391080214E-006   1.7339609601631909E-004   1812546121.3283179     
  -4619615327.6267939       -1385884598.2880380        1169151791.5215209     
  -3604474149.0461860       -306254437.03666604        877497089.94878817     
  -2767555628.5116782        179300197.39437342        851708592.30113840     
  -2108859766.0232689        70779305.005081773        1091786298.5785728     
  -1628386561.5809615       -631817114.20454538        1597730208.7810879     
  -9239230655.2536430       -2771769196.5760927        1772262660.2025476     
  -7208948298.0924044       -612508874.07334065        1168718307.0491276     
  -5535111257.0233746        358600394.78871441        831040157.82079101     
  -4217719532.0465550        141558610.01007199        759228212.51753831     
  -3256773123.1619434       -1263634228.4092665        953282471.13936925     
 </DataArray>
 <DataArray  type="Float64" Name="VM" NumberOfComponents="1" format="ascii">
   8766973107.0659580     
   7212923493.5472040     
   5901086949.4076166     
   4487263513.7119112     
   3288497385.6931458     
   4578210993.0951681     
   3780495059.9919252     
   3219310262.5846524     
   2859642428.1109285     
   3111304970.8677311     
   1676824082.2912769     
   1351732895.1985290     
   1487135481.3194919     
   2083031840.6541650     
   3139421973.2025495     
   4578210993.0951223     
   3780495059.9919176     
   3219310262.5846963     
   2859642428.1110263     
   3111304970.8677959     
   8766973107.0659599     
   7212923493.5472460     
   5901086949.4077072     
   4487263513.7120676     
   3288497385.6932664     
 </DataArray>
 <DataArray  type="Float64" Name="strain" NumberOfComponents="3" format="ascii">
  0.14012833160467997        0.0000000000000000        7.6798048608778091E-002
  0.11708659393117256       -2.5836260255906369E-002   5.0644459972129172E-002
   9.4044856257665149E-002  -3.3652229531594524E-002   3.6011740172233783E-002
   7.1003118584157754E-002  -2.3447907827064483E-002   3.2899889209091912E-002
   4.7961380910650331E-002   4.7767048576837778E-003   4.1308907082703572E-002
   7.0064165802340400E-002   0.0000000000000000        5.0663244299266420E-002
   5.8543296965586522E-002  -1.2918130127953193E-002   3.8024873897780975E-002
   4.7022428128832644E-002  -1.6826114765797033E-002   3.6907372333049082E-002
   3.5501559292078766E-002  -1.1723953913531537E-002   4.7310739605070748E-002
   2.3980690455324888E-002   2.3883524288433322E-003   6.9234975713845917E-002
   5.0653925498522767E-016   0.0000000000000000        4.1951642862762359E-002
   1.8735013540549517E-016  -1.3877787807814457E-017   3.3818345206331528E-002
  -1.2836953722228372E-016   4.5796699765787707E-016   3.7205916386654270E-002
  -4.4755865680201623E-016   1.4190038033490282E-015   5.2114356403730570E-002
  -7.6327832942979512E-016   2.8588242884097781E-015   7.8543665257560444E-002
  -7.0064165802339706E-002   0.0000000000000000        5.0663244299265900E-002
  -5.8543296965586439E-002   1.2918130127953164E-002   3.8024873897780823E-002
  -4.7022428128833171E-002   1.6826114765797949E-002   3.6907372333049332E-002
  -3.5501559292079897E-002   1.1723953913534377E-002   4.7310739605071483E-002
  -2.3980690455326633E-002  -2.3883524288376146E-003   6.9234975713847138E-002
 -0.14012833160468025        0.0000000000000000        7.6798048608777064E-002
 -0.11708659393117336        2.5836260255906341E-002   5.0644459972128866E-002
  -9.4044856257666481E-002   3.3652229531595447E-002   3.6011740172234276E-002
  -7.1003118584159614E-002   2.3447907827067311E-002   3.2899889209093328E-002
  -4.7961380910652718E-002  -4.7767048576780602E-003   4.1308907082706001E-002
 </DataArray>
 </PointData>
 </Piece>
 <Piece  NumberOfPoints="            25 "  NumberOfCells="           16 ">
 <Points>
 <DataArray  type="Float64" NumberOfComponents="3"  format="ascii" >
  0.50000000000000000        0.0000000000000000        0.0000000000000000     
  0.75000000000000000        0.0000000000000000        0.0000000000000000     
   1.0000000000000000        0.0000000000000000        0.0000000000000000     
   1.2500000000000000        0.0000000000000000        0.0000000000000000     
   1.5000000000000000        0.0000000000000000        0.0000000000000000     
  0.50000000000000000       0.25000000000000000        0.0000000000000000     
  0.75000000000000000       0.25000000000000000        0.0000000000000000     
   1.0000000000000000       0.25000000000000000        0.0000000000000000     
   1.2500000000000000       0.25000000000000000        0.0000000000000000     
   1.5000000000000000       0.25000000000000000        0.0000000000000000     
  0.50000000000000000       0.50000000000000000        0.0000000000000000     
  0.75000000000000000       0.50000000000000000        0.0000000000000000     
   1.0000000000000000       0.50000000000000000        0.0000000000000000     
   1.2500000000000000       0.50000000000000000        0.0000000000000000     
   1.5000000000000000       0.50000000000000000        0.0000000000000000     
  0.50000000000000000       0.75000000000000000        0.0000000000000000     
  0.75000000000000000       0.75000000000000000        0.0000000000000000     
   1.0000000000000000       0.75000000000000000        0.0000000000000000     
   1.2500000000000000       0.75000000000000000        0.0000000000000000     
   1.5000000000000000       0.75000000000000000        0.0000000000000000     
  0.50000000000000000        1.0000000000000000        0.0000000000000000     
  0.75000000000000000        1.0000000000000000        0.0000000000000000     
   1.0000000000000000        1.0000000000000000        0.0000000000000000     
   1.2500000000000000        1.0000000000000000        0.0000000000000000     
   1.5000000000000000        1.0000000000000000        0.0000000000000000     
 </DataArray>
 </Points>
 <Cells>
 <DataArray  type="Int32"  Name="connectivity"  format="ascii">
           0           1           6           5
           1           2           7           6
           2           3           8           7
           3           4           9           8
           5           6          11          10
           6           7          12          11
           7           8          13          12
           8           9          14          13
          10          11          16          15
          11          12          17          16
          12          13          18          17
          13          14          19          18
          15          16          21          20
          16          17          22          21
          17          18          23          22
          18          19          24          23
 </DataArray>
 <DataArray  type="Int32"  Name="offsets"  format="ascii"> 
           4
           8
          12
          16
          20
          24
          28
          32
          36
          40
          44
          48
          52
          56
          60
          64
 </DataArray>
 <DataArray  type="UInt8"  Name="types"  format="ascii">
 9
 9
 9
 9
 9
 9
 9
 9
 9
 9
 9
 9
 9
 9
 9
 9
 </DataArray>
 </Cells> 
 <PointData>
 <DataArray  type="Float64" Name="disp" NumberOfComponents="3" format="ascii">
   5.8495372255630000E-002   5.3688588659122440E-002   0.0000000000000000     
   7.9200012312202084E-002  0.10114545455421703        0.0000000000000000     
   9.3996931547709051E-002  0.15371700859162013        0.0000000000000000     
  0.10288612996215088       0.21140325077133176        0.0000000000000000     
  0.10586760755552758       0.27420418109335193        0.0000000000000000     
   2.9247686127815167E-002   4.9000493616182909E-002   0.0000000000000000     
   3.9600006156101208E-002   9.7496162255791149E-002   0.0000000000000000     
   4.6998465773854671E-002  0.15115859557915745        0.0000000000000000     
   5.1443064981075544E-002  0.20998779358628183        0.0000000000000000     
   5.2933803777763834E-002  0.27398375627716431        0.0000000000000000     
  -5.8980598183211441E-017   4.7437795268535879E-002   0.0000000000000000     
   6.0715321659188248E-017   9.6279731489648926E-002   0.0000000000000000     
   1.1926223897340549E-016  0.15030579124166982        0.0000000000000000     
   1.0137290312739466E-016  0.20951597452459855        0.0000000000000000     
   2.0816681711721685E-017  0.27391028133843515        0.0000000000000000     
  -2.9247686127815673E-002   4.9000493616181362E-002   0.0000000000000000     
  -3.9600006156101361E-002   9.7496162255790372E-002   0.0000000000000000     
  -4.6998465773854609E-002  0.15115859557915720        0.0000000000000000     
  -5.1443064981075447E-002  0.20998779358628189        0.0000000000000000     
  -5.2933803777763855E-002  0.27398375627716437        0.0000000000000000     
  -5.8495372255631679E-002   5.3688588659119352E-002   0.0000000000000000     
  -7.9200012312203041E-002  0.10114545455421547        0.0000000000000000     
  -9.3996931547709509E-002  0.15371700859161963        0.0000000000000000     
 -0.10288612996215109       0.21140325077133185        0.0000000000000000     
 -0.10586760755552778       0.27420418109335210        0.0000000000000000     
 </DataArray>
 <DataArray  type="Float64" Name="stress" NumberOfComponents="3" format="ascii">
   5745036250.5307035        223320461.41862249        1444784833.4885247     
   4296544015.8248463        121189669.25120234        961311120.93674779     
   2853545570.1070781        37371507.044077277        750501446.28028429     
   1416040913.3773954       -28134025.202759564        812355809.51913178     
  -15969954.364197362       -75326927.489300236        1146874210.6532955     
   2872518125.2653236        111660230.70920980        1538270784.9151545     
   2148272007.9124060        60594834.625548959        1059604137.7279623     
   1426772785.0535254        18685753.522018433        853601528.43608212     
   708020456.68868589       -14067012.601378232        920262957.03951073     
  -7984977.1821157001       -37663463.744648561        1259588423.5382512     
  -1.9901662735382277E-005  -1.9123896605493767E-004   1569432768.7240334     
  -7.6404084524341115E-006  -9.5550856604243380E-005   1092368476.6583703     
  -4.9067892606201117E-006  -3.1968475485858304E-005   887968222.48801589     
  -1.1514941930371322E-005   9.9508313676911421E-007   956232006.21296895     
  -2.7359067392548502E-005   1.7842870038618590E-006   1297159827.8332312     
  -2872518125.2653284       -111660230.70958197        1538270784.9151635     
  -2148272007.9123902       -60594834.625730395        1059604137.7279725     
  -1426772785.0535142       -18685753.522078574        853601528.43608701     
  -708020456.68869221        14067012.601389796        920262957.03950703     
   7984977.1820690809        37663463.744656220        1259588423.5382335     
  -5745036250.5306005       -223320461.41896200        1444784833.4885442     
  -4296544015.8247471       -121189669.25135827        961311120.93676829     
  -2853545570.1069999       -37371507.044112682        750501446.28029573     
  -1416040913.3773592        28134025.202779472        812355809.51912618     
   15969954.364174671        75326927.489313409        1146874210.6532609     
 </DataArray>
 <DataArray  type="Float64" Name="VM" NumberOfComponents="1" format="ascii">
   6167214853.3434668     
   4552651741.7173986     
   3118851537.7377324     
   2006381869.4995098     
   1987633664.1941423     
   3878390564.8718238     
   2803007840.3357716     
   2048237320.4797075     
   1747026705.8396015     
   2181941920.5372939     
   2718337294.4935212     
   1892037702.1589146     
   1538006076.8558683     
   1656242418.5843806     
   2246746727.3444538     
   3878390564.8717113     
   2803007840.3357053     
   2048237320.4796853     
   1747026705.8396006     
   2181941920.5372634     
   6167214853.3432407     
   4552651741.7172499     
   3118851537.7376537     
   2006381869.4994845     
   1987633664.1940832     
 </DataArray>
 <DataArray  type="Float64" Name="strain" NumberOfComponents="3" format="ascii">
   9.4634001868418624E-002  -2.5003173562343148E-002   6.2607342784502737E-002
   7.1003118584158101E-002  -1.9462892258270859E-002   4.1656815240592407E-002
   4.7372235299897585E-002  -1.3644869399800769E-002   3.2521729338812318E-002
   2.3741352015637058E-002  -7.5491049869329712E-003   3.5202085079162379E-002
   1.1046873137654512E-004  -1.1755990196673505E-003   4.9697882461642806E-002
   4.7317000934209347E-002  -1.2501586781173121E-002   6.6658400679656699E-002
   3.5501559292079016E-002  -9.7314461291362134E-003   4.5916179301545033E-002
   2.3686117649948664E-002  -6.8224346999006535E-003   3.6989399565563560E-002
   1.1870676007818323E-002  -3.7745524934664001E-003   3.9878061471712134E-002
   5.5234365687981124E-005  -5.8779950983356422E-004   5.4582165019990886E-002
   6.2450045135165055E-016  -3.0878077872387166E-015   6.8008753311374778E-002
   3.5041414214731503E-016  -1.5543122344752192E-015   4.7335967321862710E-002
   7.8062556418956319E-017  -5.0827397846120448E-016   3.8478622974480688E-002
  -1.9689111452336761E-016   7.4159428598008503E-017   4.1436720269228657E-002
  -4.6490589156178430E-016   1.6653345369377348E-016   5.6210259206106686E-002
  -4.7317000934207563E-002   1.2501586781166942E-002   6.6658400679657087E-002
  -3.5501559292077857E-002   9.7314461291331117E-003   4.5916179301545477E-002
  -2.3686117649948178E-002   6.8224346998995945E-003   3.6989399565563769E-002
  -1.1870676007818487E-002   3.7745524934666248E-003   3.9878061471711974E-002
  -5.5234365688796444E-005   5.8779950983392504E-004   5.4582165019990123E-002
  -9.4634001868415210E-002   2.5003173562336972E-002   6.2607342784503583E-002
  -7.1003118584155658E-002   1.9462892258267764E-002   4.1656815240593295E-002
  -4.7372235299896100E-002   1.3644869399799787E-002   3.2521729338812817E-002
  -2.3741352015636551E-002   7.5491049869331212E-003   3.5202085079162136E-002
  -1.1046873137698920E-004   1.1755990196676835E-003   4.9697882461641307E-002
 </DataArray>
 </PointData>
 </Piece>
 </UnstructuredGrid>
 </VTKFile>
