 <VTKFile type="UnstructuredGrid"  version="0.1"   >
 <UnstructuredGrid>
 <Piece  NumberOfPoints="          1600 "  NumberOfCells="         1024 ">
 <Points>
 <DataArray  type="Float64" NumberOfComponents="3"  format="ascii" >
   0.0000000000000000        0.0000000000000000        0.0000000000000000     
   3.1250000000000000E-002   0.0000000000000000        0.0000000000000000     
   6.2500000000000000E-002   0.0000000000000000        0.0000000000000000     
   9.3750000000000000E-002   0.0000000000000000        0.0000000000000000     
  0.12500000000000000        0.0000000000000000        0.0000000000000000     
   0.0000000000000000        3.1250000000000000E-002   0.0000000000000000     
   3.1250000000000000E-002   3.1250000000000000E-002   0.0000000000000000     
   6.2500000000000000E-002   3.1250000000000000E-002   0.0000000000000000     
   9.3750000000000000E-002   3.1250000000000000E-002   0.0000000000000000     
  0.12500000000000000        3.1250000000000000E-002   0.0000000000000000     
   0.0000000000000000        6.2500000000000000E-002   0.0000000000000000     
   3.1250000000000000E-002   6.2500000000000000E-002   0.0000000000000000     
   6.2500000000000000E-002   6.2500000000000000E-002   0.0000000000000000     
   9.3750000000000000E-002   6.2500000000000000E-002   0.0000000000000000     
  0.12500000000000000        6.2500000000000000E-002   0.0000000000000000     
   0.0000000000000000        9.3750000000000000E-002   0.0000000000000000     
   3.1250000000000000E-002   9.3750000000000000E-002   0.0000000000000000     
   6.2500000000000000E-002   9.3750000000000000E-002   0.0000000000000000     
   9.3750000000000000E-002   9.3750000000000000E-002   0.0000000000000000     
  0.12500000000000000        9.3750000000000000E-002   0.0000000000000000     
   0.0000000000000000       0.12500000000000000        0.0000000000000000     
   3.1250000000000000E-002  0.12500000000000000        0.0000000000000000     
   6.2500000000000000E-002  0.12500000000000000        0.0000000000000000     
   9.3750000000000000E-002  0.12500000000000000        0.0000000000000000     
  0.12500000000000000       0.12500000000000000        0.0000000000000000     
  0.12500000000000000        0.0000000000000000        0.0000000000000000     
  0.15625000000000000        0.0000000000000000        0.0000000000000000     
  0.18750000000000000        0.0000000000000000        0.0000000000000000     
  0.21875000000000000        0.0000000000000000        0.0000000000000000     
  0.25000000000000000        0.0000000000000000        0.0000000000000000     
  0.12500000000000000        3.1250000000000000E-002   0.0000000000000000     
  0.15625000000000000        3.1250000000000000E-002   0.0000000000000000     
  0.18750000000000000        3.1250000000000000E-002   0.0000000000000000     
  0.21875000000000000        3.1250000000000000E-002   0.0000000000000000     
  0.25000000000000000        3.1250000000000000E-002   0.0000000000000000     
  0.12500000000000000        6.2500000000000000E-002   0.0000000000000000     
  0.15625000000000000        6.2500000000000000E-002   0.0000000000000000     
  0.18750000000000000        6.2500000000000000E-002   0.0000000000000000     
  0.21875000000000000        6.2500000000000000E-002   0.0000000000000000     
  0.25000000000000000        6.2500000000000000E-002   0.0000000000000000     
  0.12500000000000000        9.3750000000000000E-002   0.0000000000000000     
  0.15625000000000000        9.3750000000000000E-002   0.0000000000000000     
  0.18750000000000000        9.3750000000000000E-002   0.0000000000000000     
  0.21875000000000000        9.3750000000000000E-002   0.0000000000000000     
  0.25000000000000000        9.3750000000000000E-002   0.0000000000000000     
  0.12500000000000000       0.12500000000000000        0.0000000000000000     
  0.15625000000000000       0.12500000000000000        0.0000000000000000     
  0.18750000000000000       0.12500000000000000        0.0000000000000000     
  0.21875000000000000       0.12500000000000000        0.0000000000000000     
  0.25000000000000000       0.12500000000000000        0.0000000000000000     
  0.25000000000000000        0.0000000000000000        0.0000000000000000     
  0.28125000000000000        0.0000000000000000        0.0000000000000000     
  0.31250000000000000        0.0000000000000000        0.0000000000000000     
  0.34375000000000000        0.0000000000000000        0.0000000000000000     
  0.37500000000000000        0.0000000000000000        0.0000000000000000     
  0.25000000000000000        3.1250000000000000E-002   0.0000000000000000     
  0.28125000000000000        3.1250000000000000E-002   0.0000000000000000     
  0.31250000000000000        3.1250000000000000E-002   0.0000000000000000     
  0.34375000000000000        3.1250000000000000E-002   0.0000000000000000     
  0.37500000000000000        3.1250000000000000E-002   0.0000000000000000     
  0.25000000000000000        6.2500000000000000E-002   0.0000000000000000     
  0.28125000000000000        6.2500000000000000E-002   0.0000000000000000     
  0.31250000000000000        6.2500000000000000E-002   0.0000000000000000     
  0.34375000000000000        6.2500000000000000E-002   0.0000000000000000     
  0.37500000000000000        6.2500000000000000E-002   0.0000000000000000     
  0.25000000000000000        9.3750000000000000E-002   0.0000000000000000     
  0.28125000000000000        9.3750000000000000E-002   0.0000000000000000     
  0.31250000000000000        9.3750000000000000E-002   0.0000000000000000     
  0.34375000000000000        9.3750000000000000E-002   0.0000000000000000     
  0.37500000000000000        9.3750000000000000E-002   0.0000000000000000     
  0.25000000000000000       0.12500000000000000        0.0000000000000000     
  0.28125000000000000       0.12500000000000000        0.0000000000000000     
  0.31250000000000000       0.12500000000000000        0.0000000000000000     
  0.34375000000000000       0.12500000000000000        0.0000000000000000     
  0.37500000000000000       0.12500000000000000        0.0000000000000000     
  0.37500000000000000        0.0000000000000000        0.0000000000000000     
  0.40625000000000000        0.0000000000000000        0.0000000000000000     
  0.43750000000000000        0.0000000000000000        0.0000000000000000     
  0.46875000000000000        0.0000000000000000        0.0000000000000000     
  0.50000000000000000        0.0000000000000000        0.0000000000000000     
  0.37500000000000000        3.1250000000000000E-002   0.0000000000000000     
  0.40625000000000000        3.1250000000000000E-002   0.0000000000000000     
  0.43750000000000000        3.1250000000000000E-002   0.0000000000000000     
  0.46875000000000000        3.1250000000000000E-002   0.0000000000000000     
  0.50000000000000000        3.1250000000000000E-002   0.0000000000000000     
  0.37500000000000000        6.2500000000000000E-002   0.0000000000000000     
  0.40625000000000000        6.2500000000000000E-002   0.0000000000000000     
  0.43750000000000000        6.2500000000000000E-002   0.0000000000000000     
  0.46875000000000000        6.2500000000000000E-002   0.0000000000000000     
  0.50000000000000000        6.2500000000000000E-002   0.0000000000000000     
  0.37500000000000000        9.3750000000000000E-002   0.0000000000000000     
  0.40625000000000000        9.3750000000000000E-002   0.0000000000000000     
  0.43750000000000000        9.3750000000000000E-002   0.0000000000000000     
  0.46875000000000000        9.3750000000000000E-002   0.0000000000000000     
  0.50000000000000000        9.3750000000000000E-002   0.0000000000000000     
  0.37500000000000000       0.12500000000000000        0.0000000000000000     
  0.40625000000000000       0.12500000000000000        0.0000000000000000     
  0.43750000000000000       0.12500000000000000        0.0000000000000000     
  0.46875000000000000       0.12500000000000000        0.0000000000000000     
  0.50000000000000000       0.12500000000000000        0.0000000000000000     
  0.50000000000000000        0.0000000000000000        0.0000000000000000     
  0.53125000000000000        0.0000000000000000        0.0000000000000000     
  0.56250000000000000        0.0000000000000000        0.0000000000000000     
  0.59375000000000000        0.0000000000000000        0.0000000000000000     
  0.62500000000000000        0.0000000000000000        0.0000000000000000     
  0.50000000000000000        3.1250000000000000E-002   0.0000000000000000     
  0.53125000000000000        3.1250000000000000E-002   0.0000000000000000     
  0.56250000000000000        3.1250000000000000E-002   0.0000000000000000     
  0.59375000000000000        3.1250000000000000E-002   0.0000000000000000     
  0.62500000000000000        3.1250000000000000E-002   0.0000000000000000     
  0.50000000000000000        6.2500000000000000E-002   0.0000000000000000     
  0.53125000000000000        6.2500000000000000E-002   0.0000000000000000     
  0.56250000000000000        6.2500000000000000E-002   0.0000000000000000     
  0.59375000000000000        6.2500000000000000E-002   0.0000000000000000     
  0.62500000000000000        6.2500000000000000E-002   0.0000000000000000     
  0.50000000000000000        9.3750000000000000E-002   0.0000000000000000     
  0.53125000000000000        9.3750000000000000E-002   0.0000000000000000     
  0.56250000000000000        9.3750000000000000E-002   0.0000000000000000     
  0.59375000000000000        9.3750000000000000E-002   0.0000000000000000     
  0.62500000000000000        9.3750000000000000E-002   0.0000000000000000     
  0.50000000000000000       0.12500000000000000        0.0000000000000000     
  0.53125000000000000       0.12500000000000000        0.0000000000000000     
  0.56250000000000000       0.12500000000000000        0.0000000000000000     
  0.59375000000000000       0.12500000000000000        0.0000000000000000     
  0.62500000000000000       0.12500000000000000        0.0000000000000000     
  0.62500000000000000        0.0000000000000000        0.0000000000000000     
  0.65625000000000000        0.0000000000000000        0.0000000000000000     
  0.68750000000000000        0.0000000000000000        0.0000000000000000     
  0.71875000000000000        0.0000000000000000        0.0000000000000000     
  0.75000000000000000        0.0000000000000000        0.0000000000000000     
  0.62500000000000000        3.1250000000000000E-002   0.0000000000000000     
  0.65625000000000000        3.1250000000000000E-002   0.0000000000000000     
  0.68750000000000000        3.1250000000000000E-002   0.0000000000000000     
  0.71875000000000000        3.1250000000000000E-002   0.0000000000000000     
  0.75000000000000000        3.1250000000000000E-002   0.0000000000000000     
  0.62500000000000000        6.2500000000000000E-002   0.0000000000000000     
  0.65625000000000000        6.2500000000000000E-002   0.0000000000000000     
  0.68750000000000000        6.2500000000000000E-002   0.0000000000000000     
  0.71875000000000000        6.2500000000000000E-002   0.0000000000000000     
  0.75000000000000000        6.2500000000000000E-002   0.0000000000000000     
  0.62500000000000000        9.3750000000000000E-002   0.0000000000000000     
  0.65625000000000000        9.3750000000000000E-002   0.0000000000000000     
  0.68750000000000000        9.3750000000000000E-002   0.0000000000000000     
  0.71875000000000000        9.3750000000000000E-002   0.0000000000000000     
  0.75000000000000000        9.3750000000000000E-002   0.0000000000000000     
  0.62500000000000000       0.12500000000000000        0.0000000000000000     
  0.65625000000000000       0.12500000000000000        0.0000000000000000     
  0.68750000000000000       0.12500000000000000        0.0000000000000000     
  0.71875000000000000       0.12500000000000000        0.0000000000000000     
  0.75000000000000000       0.12500000000000000        0.0000000000000000     
  0.75000000000000000        0.0000000000000000        0.0000000000000000     
  0.78125000000000000        0.0000000000000000        0.0000000000000000     
  0.81250000000000000        0.0000000000000000        0.0000000000000000     
  0.84375000000000000        0.0000000000000000        0.0000000000000000     
  0.87500000000000000        0.0000000000000000        0.0000000000000000     
  0.75000000000000000        3.1250000000000000E-002   0.0000000000000000     
  0.78125000000000000        3.1250000000000000E-002   0.0000000000000000     
  0.81250000000000000        3.1250000000000000E-002   0.0000000000000000     
  0.84375000000000000        3.1250000000000000E-002   0.0000000000000000     
  0.87500000000000000        3.1250000000000000E-002   0.0000000000000000     
  0.75000000000000000        6.2500000000000000E-002   0.0000000000000000     
  0.78125000000000000        6.2500000000000000E-002   0.0000000000000000     
  0.81250000000000000        6.2500000000000000E-002   0.0000000000000000     
  0.84375000000000000        6.2500000000000000E-002   0.0000000000000000     
  0.87500000000000000        6.2500000000000000E-002   0.0000000000000000     
  0.75000000000000000        9.3750000000000000E-002   0.0000000000000000     
  0.78125000000000000        9.3750000000000000E-002   0.0000000000000000     
  0.81250000000000000        9.3750000000000000E-002   0.0000000000000000     
  0.84375000000000000        9.3750000000000000E-002   0.0000000000000000     
  0.87500000000000000        9.3750000000000000E-002   0.0000000000000000     
  0.75000000000000000       0.12500000000000000        0.0000000000000000     
  0.78125000000000000       0.12500000000000000        0.0000000000000000     
  0.81250000000000000       0.12500000000000000        0.0000000000000000     
  0.84375000000000000       0.12500000000000000        0.0000000000000000     
  0.87500000000000000       0.12500000000000000        0.0000000000000000     
  0.87500000000000000        0.0000000000000000        0.0000000000000000     
  0.90625000000000000        0.0000000000000000        0.0000000000000000     
  0.93750000000000000        0.0000000000000000        0.0000000000000000     
  0.96875000000000000        0.0000000000000000        0.0000000000000000     
   1.0000000000000000        0.0000000000000000        0.0000000000000000     
  0.87500000000000000        3.1250000000000000E-002   0.0000000000000000     
  0.90625000000000000        3.1250000000000000E-002   0.0000000000000000     
  0.93750000000000000        3.1250000000000000E-002   0.0000000000000000     
  0.96875000000000000        3.1250000000000000E-002   0.0000000000000000     
   1.0000000000000000        3.1250000000000000E-002   0.0000000000000000     
  0.87500000000000000        6.2500000000000000E-002   0.0000000000000000     
  0.90625000000000000        6.2500000000000000E-002   0.0000000000000000     
  0.93750000000000000        6.2500000000000000E-002   0.0000000000000000     
  0.96875000000000000        6.2500000000000000E-002   0.0000000000000000     
   1.0000000000000000        6.2500000000000000E-002   0.0000000000000000     
  0.87500000000000000        9.3750000000000000E-002   0.0000000000000000     
  0.90625000000000000        9.3750000000000000E-002   0.0000000000000000     
  0.93750000000000000        9.3750000000000000E-002   0.0000000000000000     
  0.96875000000000000        9.3750000000000000E-002   0.0000000000000000     
   1.0000000000000000        9.3750000000000000E-002   0.0000000000000000     
  0.87500000000000000       0.12500000000000000        0.0000000000000000     
  0.90625000000000000       0.12500000000000000        0.0000000000000000     
  0.93750000000000000       0.12500000000000000        0.0000000000000000     
  0.96875000000000000       0.12500000000000000        0.0000000000000000     
   1.0000000000000000       0.12500000000000000        0.0000000000000000     
   0.0000000000000000       0.12500000000000000        0.0000000000000000     
   3.1250000000000000E-002  0.12500000000000000        0.0000000000000000     
   6.2500000000000000E-002  0.12500000000000000        0.0000000000000000     
   9.3750000000000000E-002  0.12500000000000000        0.0000000000000000     
  0.12500000000000000       0.12500000000000000        0.0000000000000000     
   0.0000000000000000       0.15625000000000000        0.0000000000000000     
   3.1250000000000000E-002  0.15625000000000000        0.0000000000000000     
   6.2500000000000000E-002  0.15625000000000000        0.0000000000000000     
   9.3750000000000000E-002  0.15625000000000000        0.0000000000000000     
  0.12500000000000000       0.15625000000000000        0.0000000000000000     
   0.0000000000000000       0.18750000000000000        0.0000000000000000     
   3.1250000000000000E-002  0.18750000000000000        0.0000000000000000     
   6.2500000000000000E-002  0.18750000000000000        0.0000000000000000     
   9.3750000000000000E-002  0.18750000000000000        0.0000000000000000     
  0.12500000000000000       0.18750000000000000        0.0000000000000000     
   0.0000000000000000       0.21875000000000000        0.0000000000000000     
   3.1250000000000000E-002  0.21875000000000000        0.0000000000000000     
   6.2500000000000000E-002  0.21875000000000000        0.0000000000000000     
   9.3750000000000000E-002  0.21875000000000000        0.0000000000000000     
  0.12500000000000000       0.21875000000000000        0.0000000000000000     
   0.0000000000000000       0.25000000000000000        0.0000000000000000     
   3.1250000000000000E-002  0.25000000000000000        0.0000000000000000     
   6.2500000000000000E-002  0.25000000000000000        0.0000000000000000     
   9.3750000000000000E-002  0.25000000000000000        0.0000000000000000     
  0.12500000000000000       0.25000000000000000        0.0000000000000000     
  0.12500000000000000       0.12500000000000000        0.0000000000000000     
  0.15625000000000000       0.12500000000000000        0.0000000000000000     
  0.18750000000000000       0.12500000000000000        0.0000000000000000     
  0.21875000000000000       0.12500000000000000        0.0000000000000000     
  0.25000000000000000       0.12500000000000000        0.0000000000000000     
  0.12500000000000000       0.15625000000000000        0.0000000000000000     
  0.15625000000000000       0.15625000000000000        0.0000000000000000     
  0.18750000000000000       0.15625000000000000        0.0000000000000000     
  0.21875000000000000       0.15625000000000000        0.0000000000000000     
  0.25000000000000000       0.15625000000000000        0.0000000000000000     
  0.12500000000000000       0.18750000000000000        0.0000000000000000     
  0.15625000000000000       0.18750000000000000        0.0000000000000000     
  0.18750000000000000       0.18750000000000000        0.0000000000000000     
  0.21875000000000000       0.18750000000000000        0.0000000000000000     
  0.25000000000000000       0.18750000000000000        0.0000000000000000     
  0.12500000000000000       0.21875000000000000        0.0000000000000000     
  0.15625000000000000       0.21875000000000000        0.0000000000000000     
  0.18750000000000000       0.21875000000000000        0.0000000000000000     
  0.21875000000000000       0.21875000000000000        0.0000000000000000     
  0.25000000000000000       0.21875000000000000        0.0000000000000000     
  0.12500000000000000       0.25000000000000000        0.0000000000000000     
  0.15625000000000000       0.25000000000000000        0.0000000000000000     
  0.18750000000000000       0.25000000000000000        0.0000000000000000     
  0.21875000000000000       0.25000000000000000        0.0000000000000000     
  0.25000000000000000       0.25000000000000000        0.0000000000000000     
  0.25000000000000000       0.12500000000000000        0.0000000000000000     
  0.28125000000000000       0.12500000000000000        0.0000000000000000     
  0.31250000000000000       0.12500000000000000        0.0000000000000000     
  0.34375000000000000       0.12500000000000000        0.0000000000000000     
  0.37500000000000000       0.12500000000000000        0.0000000000000000     
  0.25000000000000000       0.15625000000000000        0.0000000000000000     
  0.28125000000000000       0.15625000000000000        0.0000000000000000     
  0.31250000000000000       0.15625000000000000        0.0000000000000000     
  0.34375000000000000       0.15625000000000000        0.0000000000000000     
  0.37500000000000000       0.15625000000000000        0.0000000000000000     
  0.25000000000000000       0.18750000000000000        0.0000000000000000     
  0.28125000000000000       0.18750000000000000        0.0000000000000000     
  0.31250000000000000       0.18750000000000000        0.0000000000000000     
  0.34375000000000000       0.18750000000000000        0.0000000000000000     
  0.37500000000000000       0.18750000000000000        0.0000000000000000     
  0.25000000000000000       0.21875000000000000        0.0000000000000000     
  0.28125000000000000       0.21875000000000000        0.0000000000000000     
  0.31250000000000000       0.21875000000000000        0.0000000000000000     
  0.34375000000000000       0.21875000000000000        0.0000000000000000     
  0.37500000000000000       0.21875000000000000        0.0000000000000000     
  0.25000000000000000       0.25000000000000000        0.0000000000000000     
  0.28125000000000000       0.25000000000000000        0.0000000000000000     
  0.31250000000000000       0.25000000000000000        0.0000000000000000     
  0.34375000000000000       0.25000000000000000        0.0000000000000000     
  0.37500000000000000       0.25000000000000000        0.0000000000000000     
  0.37500000000000000       0.12500000000000000        0.0000000000000000     
  0.40625000000000000       0.12500000000000000        0.0000000000000000     
  0.43750000000000000       0.12500000000000000        0.0000000000000000     
  0.46875000000000000       0.12500000000000000        0.0000000000000000     
  0.50000000000000000       0.12500000000000000        0.0000000000000000     
  0.37500000000000000       0.15625000000000000        0.0000000000000000     
  0.40625000000000000       0.15625000000000000        0.0000000000000000     
  0.43750000000000000       0.15625000000000000        0.0000000000000000     
  0.46875000000000000       0.15625000000000000        0.0000000000000000     
  0.50000000000000000       0.15625000000000000        0.0000000000000000     
  0.37500000000000000       0.18750000000000000        0.0000000000000000     
  0.40625000000000000       0.18750000000000000        0.0000000000000000     
  0.43750000000000000       0.18750000000000000        0.0000000000000000     
  0.46875000000000000       0.18750000000000000        0.0000000000000000     
  0.50000000000000000       0.18750000000000000        0.0000000000000000     
  0.37500000000000000       0.21875000000000000        0.0000000000000000     
  0.40625000000000000       0.21875000000000000        0.0000000000000000     
  0.43750000000000000       0.21875000000000000        0.0000000000000000     
  0.46875000000000000       0.21875000000000000        0.0000000000000000     
  0.50000000000000000       0.21875000000000000        0.0000000000000000     
  0.37500000000000000       0.25000000000000000        0.0000000000000000     
  0.40625000000000000       0.25000000000000000        0.0000000000000000     
  0.43750000000000000       0.25000000000000000        0.0000000000000000     
  0.46875000000000000       0.25000000000000000        0.0000000000000000     
  0.50000000000000000       0.25000000000000000        0.0000000000000000     
  0.50000000000000000       0.12500000000000000        0.0000000000000000     
  0.53125000000000000       0.12500000000000000        0.0000000000000000     
  0.56250000000000000       0.12500000000000000        0.0000000000000000     
  0.59375000000000000       0.12500000000000000        0.0000000000000000     
  0.62500000000000000       0.12500000000000000        0.0000000000000000     
  0.50000000000000000       0.15625000000000000        0.0000000000000000     
  0.53125000000000000       0.15625000000000000        0.0000000000000000     
  0.56250000000000000       0.15625000000000000        0.0000000000000000     
  0.59375000000000000       0.15625000000000000        0.0000000000000000     
  0.62500000000000000       0.15625000000000000        0.0000000000000000     
  0.50000000000000000       0.18750000000000000        0.0000000000000000     
  0.53125000000000000       0.18750000000000000        0.0000000000000000     
  0.56250000000000000       0.18750000000000000        0.0000000000000000     
  0.59375000000000000       0.18750000000000000        0.0000000000000000     
  0.62500000000000000       0.18750000000000000        0.0000000000000000     
  0.50000000000000000       0.21875000000000000        0.0000000000000000     
  0.53125000000000000       0.21875000000000000        0.0000000000000000     
  0.56250000000000000       0.21875000000000000        0.0000000000000000     
  0.59375000000000000       0.21875000000000000        0.0000000000000000     
  0.62500000000000000       0.21875000000000000        0.0000000000000000     
  0.50000000000000000       0.25000000000000000        0.0000000000000000     
  0.53125000000000000       0.25000000000000000        0.0000000000000000     
  0.56250000000000000       0.25000000000000000        0.0000000000000000     
  0.59375000000000000       0.25000000000000000        0.0000000000000000     
  0.62500000000000000       0.25000000000000000        0.0000000000000000     
  0.62500000000000000       0.12500000000000000        0.0000000000000000     
  0.65625000000000000       0.12500000000000000        0.0000000000000000     
  0.68750000000000000       0.12500000000000000        0.0000000000000000     
  0.71875000000000000       0.12500000000000000        0.0000000000000000     
  0.75000000000000000       0.12500000000000000        0.0000000000000000     
  0.62500000000000000       0.15625000000000000        0.0000000000000000     
  0.65625000000000000       0.15625000000000000        0.0000000000000000     
  0.68750000000000000       0.15625000000000000        0.0000000000000000     
  0.71875000000000000       0.15625000000000000        0.0000000000000000     
  0.75000000000000000       0.15625000000000000        0.0000000000000000     
  0.62500000000000000       0.18750000000000000        0.0000000000000000     
  0.65625000000000000       0.18750000000000000        0.0000000000000000     
  0.68750000000000000       0.18750000000000000        0.0000000000000000     
  0.71875000000000000       0.18750000000000000        0.0000000000000000     
  0.75000000000000000       0.18750000000000000        0.0000000000000000     
  0.62500000000000000       0.21875000000000000        0.0000000000000000     
  0.65625000000000000       0.21875000000000000        0.0000000000000000     
  0.68750000000000000       0.21875000000000000        0.0000000000000000     
  0.71875000000000000       0.21875000000000000        0.0000000000000000     
  0.75000000000000000       0.21875000000000000        0.0000000000000000     
  0.62500000000000000       0.25000000000000000        0.0000000000000000     
  0.65625000000000000       0.25000000000000000        0.0000000000000000     
  0.68750000000000000       0.25000000000000000        0.0000000000000000     
  0.71875000000000000       0.25000000000000000        0.0000000000000000     
  0.75000000000000000       0.25000000000000000        0.0000000000000000     
  0.75000000000000000       0.12500000000000000        0.0000000000000000     
  0.78125000000000000       0.12500000000000000        0.0000000000000000     
  0.81250000000000000       0.12500000000000000        0.0000000000000000     
  0.84375000000000000       0.12500000000000000        0.0000000000000000     
  0.87500000000000000       0.12500000000000000        0.0000000000000000     
  0.75000000000000000       0.15625000000000000        0.0000000000000000     
  0.78125000000000000       0.15625000000000000        0.0000000000000000     
  0.81250000000000000       0.15625000000000000        0.0000000000000000     
  0.84375000000000000       0.15625000000000000        0.0000000000000000     
  0.87500000000000000       0.15625000000000000        0.0000000000000000     
  0.75000000000000000       0.18750000000000000        0.0000000000000000     
  0.78125000000000000       0.18750000000000000        0.0000000000000000     
  0.81250000000000000       0.18750000000000000        0.0000000000000000     
  0.84375000000000000       0.18750000000000000        0.0000000000000000     
  0.87500000000000000       0.18750000000000000        0.0000000000000000     
  0.75000000000000000       0.21875000000000000        0.0000000000000000     
  0.78125000000000000       0.21875000000000000        0.0000000000000000     
  0.81250000000000000       0.21875000000000000        0.0000000000000000     
  0.84375000000000000       0.21875000000000000        0.0000000000000000     
  0.87500000000000000       0.21875000000000000        0.0000000000000000     
  0.75000000000000000       0.25000000000000000        0.0000000000000000     
  0.78125000000000000       0.25000000000000000        0.0000000000000000     
  0.81250000000000000       0.25000000000000000        0.0000000000000000     
  0.84375000000000000       0.25000000000000000        0.0000000000000000     
  0.87500000000000000       0.25000000000000000        0.0000000000000000     
  0.87500000000000000       0.12500000000000000        0.0000000000000000     
  0.90625000000000000       0.12500000000000000        0.0000000000000000     
  0.93750000000000000       0.12500000000000000        0.0000000000000000     
  0.96875000000000000       0.12500000000000000        0.0000000000000000     
   1.0000000000000000       0.12500000000000000        0.0000000000000000     
  0.87500000000000000       0.15625000000000000        0.0000000000000000     
  0.90625000000000000       0.15625000000000000        0.0000000000000000     
  0.93750000000000000       0.15625000000000000        0.0000000000000000     
  0.96875000000000000       0.15625000000000000        0.0000000000000000     
   1.0000000000000000       0.15625000000000000        0.0000000000000000     
  0.87500000000000000       0.18750000000000000        0.0000000000000000     
  0.90625000000000000       0.18750000000000000        0.0000000000000000     
  0.93750000000000000       0.18750000000000000        0.0000000000000000     
  0.96875000000000000       0.18750000000000000        0.0000000000000000     
   1.0000000000000000       0.18750000000000000        0.0000000000000000     
  0.87500000000000000       0.21875000000000000        0.0000000000000000     
  0.90625000000000000       0.21875000000000000        0.0000000000000000     
  0.93750000000000000       0.21875000000000000        0.0000000000000000     
  0.96875000000000000       0.21875000000000000        0.0000000000000000     
   1.0000000000000000       0.21875000000000000        0.0000000000000000     
  0.87500000000000000       0.25000000000000000        0.0000000000000000     
  0.90625000000000000       0.25000000000000000        0.0000000000000000     
  0.93750000000000000       0.25000000000000000        0.0000000000000000     
  0.96875000000000000       0.25000000000000000        0.0000000000000000     
   1.0000000000000000       0.25000000000000000        0.0000000000000000     
   0.0000000000000000       0.25000000000000000        0.0000000000000000     
   3.1250000000000000E-002  0.25000000000000000        0.0000000000000000     
   6.2500000000000000E-002  0.25000000000000000        0.0000000000000000     
   9.3750000000000000E-002  0.25000000000000000        0.0000000000000000     
  0.12500000000000000       0.25000000000000000        0.0000000000000000     
   0.0000000000000000       0.28125000000000000        0.0000000000000000     
   3.1250000000000000E-002  0.28125000000000000        0.0000000000000000     
   6.2500000000000000E-002  0.28125000000000000        0.0000000000000000     
   9.3750000000000000E-002  0.28125000000000000        0.0000000000000000     
  0.12500000000000000       0.28125000000000000        0.0000000000000000     
   0.0000000000000000       0.31250000000000000        0.0000000000000000     
   3.1250000000000000E-002  0.31250000000000000        0.0000000000000000     
   6.2500000000000000E-002  0.31250000000000000        0.0000000000000000     
   9.3750000000000000E-002  0.31250000000000000        0.0000000000000000     
  0.12500000000000000       0.31250000000000000        0.0000000000000000     
   0.0000000000000000       0.34375000000000000        0.0000000000000000     
   3.1250000000000000E-002  0.34375000000000000        0.0000000000000000     
   6.2500000000000000E-002  0.34375000000000000        0.0000000000000000     
   9.3750000000000000E-002  0.34375000000000000        0.0000000000000000     
  0.12500000000000000       0.34375000000000000        0.0000000000000000     
   0.0000000000000000       0.37500000000000000        0.0000000000000000     
   3.1250000000000000E-002  0.37500000000000000        0.0000000000000000     
   6.2500000000000000E-002  0.37500000000000000        0.0000000000000000     
   9.3750000000000000E-002  0.37500000000000000        0.0000000000000000     
  0.12500000000000000       0.37500000000000000        0.0000000000000000     
  0.12500000000000000       0.25000000000000000        0.0000000000000000     
  0.15625000000000000       0.25000000000000000        0.0000000000000000     
  0.18750000000000000       0.25000000000000000        0.0000000000000000     
  0.21875000000000000       0.25000000000000000        0.0000000000000000     
  0.25000000000000000       0.25000000000000000        0.0000000000000000     
  0.12500000000000000       0.28125000000000000        0.0000000000000000     
  0.15625000000000000       0.28125000000000000        0.0000000000000000     
  0.18750000000000000       0.28125000000000000        0.0000000000000000     
  0.21875000000000000       0.28125000000000000        0.0000000000000000     
  0.25000000000000000       0.28125000000000000        0.0000000000000000     
  0.12500000000000000       0.31250000000000000        0.0000000000000000     
  0.15625000000000000       0.31250000000000000        0.0000000000000000     
  0.18750000000000000       0.31250000000000000        0.0000000000000000     
  0.21875000000000000       0.31250000000000000        0.0000000000000000     
  0.25000000000000000       0.31250000000000000        0.0000000000000000     
  0.12500000000000000       0.34375000000000000        0.0000000000000000     
  0.15625000000000000       0.34375000000000000        0.0000000000000000     
  0.18750000000000000       0.34375000000000000        0.0000000000000000     
  0.21875000000000000       0.34375000000000000        0.0000000000000000     
  0.25000000000000000       0.34375000000000000        0.0000000000000000     
  0.12500000000000000       0.37500000000000000        0.0000000000000000     
  0.15625000000000000       0.37500000000000000        0.0000000000000000     
  0.18750000000000000       0.37500000000000000        0.0000000000000000     
  0.21875000000000000       0.37500000000000000        0.0000000000000000     
  0.25000000000000000       0.37500000000000000        0.0000000000000000     
  0.25000000000000000       0.25000000000000000        0.0000000000000000     
  0.28125000000000000       0.25000000000000000        0.0000000000000000     
  0.31250000000000000       0.25000000000000000        0.0000000000000000     
  0.34375000000000000       0.25000000000000000        0.0000000000000000     
  0.37500000000000000       0.25000000000000000        0.0000000000000000     
  0.25000000000000000       0.28125000000000000        0.0000000000000000     
  0.28125000000000000       0.28125000000000000        0.0000000000000000     
  0.31250000000000000       0.28125000000000000        0.0000000000000000     
  0.34375000000000000       0.28125000000000000        0.0000000000000000     
  0.37500000000000000       0.28125000000000000        0.0000000000000000     
  0.25000000000000000       0.31250000000000000        0.0000000000000000     
  0.28125000000000000       0.31250000000000000        0.0000000000000000     
  0.31250000000000000       0.31250000000000000        0.0000000000000000     
  0.34375000000000000       0.31250000000000000        0.0000000000000000     
  0.37500000000000000       0.31250000000000000        0.0000000000000000     
  0.25000000000000000       0.34375000000000000        0.0000000000000000     
  0.28125000000000000       0.34375000000000000        0.0000000000000000     
  0.31250000000000000       0.34375000000000000        0.0000000000000000     
  0.34375000000000000       0.34375000000000000        0.0000000000000000     
  0.37500000000000000       0.34375000000000000        0.0000000000000000     
  0.25000000000000000       0.37500000000000000        0.0000000000000000     
  0.28125000000000000       0.37500000000000000        0.0000000000000000     
  0.31250000000000000       0.37500000000000000        0.0000000000000000     
  0.34375000000000000       0.37500000000000000        0.0000000000000000     
  0.37500000000000000       0.37500000000000000        0.0000000000000000     
  0.37500000000000000       0.25000000000000000        0.0000000000000000     
  0.40625000000000000       0.25000000000000000        0.0000000000000000     
  0.43750000000000000       0.25000000000000000        0.0000000000000000     
  0.46875000000000000       0.25000000000000000        0.0000000000000000     
  0.50000000000000000       0.25000000000000000        0.0000000000000000     
  0.37500000000000000       0.28125000000000000        0.0000000000000000     
  0.40625000000000000       0.28125000000000000        0.0000000000000000     
  0.43750000000000000       0.28125000000000000        0.0000000000000000     
  0.46875000000000000       0.28125000000000000        0.0000000000000000     
  0.50000000000000000       0.28125000000000000        0.0000000000000000     
  0.37500000000000000       0.31250000000000000        0.0000000000000000     
  0.40625000000000000       0.31250000000000000        0.0000000000000000     
  0.43750000000000000       0.31250000000000000        0.0000000000000000     
  0.46875000000000000       0.31250000000000000        0.0000000000000000     
  0.50000000000000000       0.31250000000000000        0.0000000000000000     
  0.37500000000000000       0.34375000000000000        0.0000000000000000     
  0.40625000000000000       0.34375000000000000        0.0000000000000000     
  0.43750000000000000       0.34375000000000000        0.0000000000000000     
  0.46875000000000000       0.34375000000000000        0.0000000000000000     
  0.50000000000000000       0.34375000000000000        0.0000000000000000     
  0.37500000000000000       0.37500000000000000        0.0000000000000000     
  0.40625000000000000       0.37500000000000000        0.0000000000000000     
  0.43750000000000000       0.37500000000000000        0.0000000000000000     
  0.46875000000000000       0.37500000000000000        0.0000000000000000     
  0.50000000000000000       0.37500000000000000        0.0000000000000000     
  0.50000000000000000       0.25000000000000000        0.0000000000000000     
  0.53125000000000000       0.25000000000000000        0.0000000000000000     
  0.56250000000000000       0.25000000000000000        0.0000000000000000     
  0.59375000000000000       0.25000000000000000        0.0000000000000000     
  0.62500000000000000       0.25000000000000000        0.0000000000000000     
  0.50000000000000000       0.28125000000000000        0.0000000000000000     
  0.53125000000000000       0.28125000000000000        0.0000000000000000     
  0.56250000000000000       0.28125000000000000        0.0000000000000000     
  0.59375000000000000       0.28125000000000000        0.0000000000000000     
  0.62500000000000000       0.28125000000000000        0.0000000000000000     
  0.50000000000000000       0.31250000000000000        0.0000000000000000     
  0.53125000000000000       0.31250000000000000        0.0000000000000000     
  0.56250000000000000       0.31250000000000000        0.0000000000000000     
  0.59375000000000000       0.31250000000000000        0.0000000000000000     
  0.62500000000000000       0.31250000000000000        0.0000000000000000     
  0.50000000000000000       0.34375000000000000        0.0000000000000000     
  0.53125000000000000       0.34375000000000000        0.0000000000000000     
  0.56250000000000000       0.34375000000000000        0.0000000000000000     
  0.59375000000000000       0.34375000000000000        0.0000000000000000     
  0.62500000000000000       0.34375000000000000        0.0000000000000000     
  0.50000000000000000       0.37500000000000000        0.0000000000000000     
  0.53125000000000000       0.37500000000000000        0.0000000000000000     
  0.56250000000000000       0.37500000000000000        0.0000000000000000     
  0.59375000000000000       0.37500000000000000        0.0000000000000000     
  0.62500000000000000       0.37500000000000000        0.0000000000000000     
  0.62500000000000000       0.25000000000000000        0.0000000000000000     
  0.65625000000000000       0.25000000000000000        0.0000000000000000     
  0.68750000000000000       0.25000000000000000        0.0000000000000000     
  0.71875000000000000       0.25000000000000000        0.0000000000000000     
  0.75000000000000000       0.25000000000000000        0.0000000000000000     
  0.62500000000000000       0.28125000000000000        0.0000000000000000     
  0.65625000000000000       0.28125000000000000        0.0000000000000000     
  0.68750000000000000       0.28125000000000000        0.0000000000000000     
  0.71875000000000000       0.28125000000000000        0.0000000000000000     
  0.75000000000000000       0.28125000000000000        0.0000000000000000     
  0.62500000000000000       0.31250000000000000        0.0000000000000000     
  0.65625000000000000       0.31250000000000000        0.0000000000000000     
  0.68750000000000000       0.31250000000000000        0.0000000000000000     
  0.71875000000000000       0.31250000000000000        0.0000000000000000     
  0.75000000000000000       0.31250000000000000        0.0000000000000000     
  0.62500000000000000       0.34375000000000000        0.0000000000000000     
  0.65625000000000000       0.34375000000000000        0.0000000000000000     
  0.68750000000000000       0.34375000000000000        0.0000000000000000     
  0.71875000000000000       0.34375000000000000        0.0000000000000000     
  0.75000000000000000       0.34375000000000000        0.0000000000000000     
  0.62500000000000000       0.37500000000000000        0.0000000000000000     
  0.65625000000000000       0.37500000000000000        0.0000000000000000     
  0.68750000000000000       0.37500000000000000        0.0000000000000000     
  0.71875000000000000       0.37500000000000000        0.0000000000000000     
  0.75000000000000000       0.37500000000000000        0.0000000000000000     
  0.75000000000000000       0.25000000000000000        0.0000000000000000     
  0.78125000000000000       0.25000000000000000        0.0000000000000000     
  0.81250000000000000       0.25000000000000000        0.0000000000000000     
  0.84375000000000000       0.25000000000000000        0.0000000000000000     
  0.87500000000000000       0.25000000000000000        0.0000000000000000     
  0.75000000000000000       0.28125000000000000        0.0000000000000000     
  0.78125000000000000       0.28125000000000000        0.0000000000000000     
  0.81250000000000000       0.28125000000000000        0.0000000000000000     
  0.84375000000000000       0.28125000000000000        0.0000000000000000     
  0.87500000000000000       0.28125000000000000        0.0000000000000000     
  0.75000000000000000       0.31250000000000000        0.0000000000000000     
  0.78125000000000000       0.31250000000000000        0.0000000000000000     
  0.81250000000000000       0.31250000000000000        0.0000000000000000     
  0.84375000000000000       0.31250000000000000        0.0000000000000000     
  0.87500000000000000       0.31250000000000000        0.0000000000000000     
  0.75000000000000000       0.34375000000000000        0.0000000000000000     
  0.78125000000000000       0.34375000000000000        0.0000000000000000     
  0.81250000000000000       0.34375000000000000        0.0000000000000000     
  0.84375000000000000       0.34375000000000000        0.0000000000000000     
  0.87500000000000000       0.34375000000000000        0.0000000000000000     
  0.75000000000000000       0.37500000000000000        0.0000000000000000     
  0.78125000000000000       0.37500000000000000        0.0000000000000000     
  0.81250000000000000       0.37500000000000000        0.0000000000000000     
  0.84375000000000000       0.37500000000000000        0.0000000000000000     
  0.87500000000000000       0.37500000000000000        0.0000000000000000     
  0.87500000000000000       0.25000000000000000        0.0000000000000000     
  0.90625000000000000       0.25000000000000000        0.0000000000000000     
  0.93750000000000000       0.25000000000000000        0.0000000000000000     
  0.96875000000000000       0.25000000000000000        0.0000000000000000     
   1.0000000000000000       0.25000000000000000        0.0000000000000000     
  0.87500000000000000       0.28125000000000000        0.0000000000000000     
  0.90625000000000000       0.28125000000000000        0.0000000000000000     
  0.93750000000000000       0.28125000000000000        0.0000000000000000     
  0.96875000000000000       0.28125000000000000        0.0000000000000000     
   1.0000000000000000       0.28125000000000000        0.0000000000000000     
  0.87500000000000000       0.31250000000000000        0.0000000000000000     
  0.90625000000000000       0.31250000000000000        0.0000000000000000     
  0.93750000000000000       0.31250000000000000        0.0000000000000000     
  0.96875000000000000       0.31250000000000000        0.0000000000000000     
   1.0000000000000000       0.31250000000000000        0.0000000000000000     
  0.87500000000000000       0.34375000000000000        0.0000000000000000     
  0.90625000000000000       0.34375000000000000        0.0000000000000000     
  0.93750000000000000       0.34375000000000000        0.0000000000000000     
  0.96875000000000000       0.34375000000000000        0.0000000000000000     
   1.0000000000000000       0.34375000000000000        0.0000000000000000     
  0.87500000000000000       0.37500000000000000        0.0000000000000000     
  0.90625000000000000       0.37500000000000000        0.0000000000000000     
  0.93750000000000000       0.37500000000000000        0.0000000000000000     
  0.96875000000000000       0.37500000000000000        0.0000000000000000     
   1.0000000000000000       0.37500000000000000        0.0000000000000000     
   0.0000000000000000       0.37500000000000000        0.0000000000000000     
   3.1250000000000000E-002  0.37500000000000000        0.0000000000000000     
   6.2500000000000000E-002  0.37500000000000000        0.0000000000000000     
   9.3750000000000000E-002  0.37500000000000000        0.0000000000000000     
  0.12500000000000000       0.37500000000000000        0.0000000000000000     
   0.0000000000000000       0.40625000000000000        0.0000000000000000     
   3.1250000000000000E-002  0.40625000000000000        0.0000000000000000     
   6.2500000000000000E-002  0.40625000000000000        0.0000000000000000     
   9.3750000000000000E-002  0.40625000000000000        0.0000000000000000     
  0.12500000000000000       0.40625000000000000        0.0000000000000000     
   0.0000000000000000       0.43750000000000000        0.0000000000000000     
   3.1250000000000000E-002  0.43750000000000000        0.0000000000000000     
   6.2500000000000000E-002  0.43750000000000000        0.0000000000000000     
   9.3750000000000000E-002  0.43750000000000000        0.0000000000000000     
  0.12500000000000000       0.43750000000000000        0.0000000000000000     
   0.0000000000000000       0.46875000000000000        0.0000000000000000     
   3.1250000000000000E-002  0.46875000000000000        0.0000000000000000     
   6.2500000000000000E-002  0.46875000000000000        0.0000000000000000     
   9.3750000000000000E-002  0.46875000000000000        0.0000000000000000     
  0.12500000000000000       0.46875000000000000        0.0000000000000000     
   0.0000000000000000       0.50000000000000000        0.0000000000000000     
   3.1250000000000000E-002  0.50000000000000000        0.0000000000000000     
   6.2500000000000000E-002  0.50000000000000000        0.0000000000000000     
   9.3750000000000000E-002  0.50000000000000000        0.0000000000000000     
  0.12500000000000000       0.50000000000000000        0.0000000000000000     
  0.12500000000000000       0.37500000000000000        0.0000000000000000     
  0.15625000000000000       0.37500000000000000        0.0000000000000000     
  0.18750000000000000       0.37500000000000000        0.0000000000000000     
  0.21875000000000000       0.37500000000000000        0.0000000000000000     
  0.25000000000000000       0.37500000000000000        0.0000000000000000     
  0.12500000000000000       0.40625000000000000        0.0000000000000000     
  0.15625000000000000       0.40625000000000000        0.0000000000000000     
  0.18750000000000000       0.40625000000000000        0.0000000000000000     
  0.21875000000000000       0.40625000000000000        0.0000000000000000     
  0.25000000000000000       0.40625000000000000        0.0000000000000000     
  0.12500000000000000       0.43750000000000000        0.0000000000000000     
  0.15625000000000000       0.43750000000000000        0.0000000000000000     
  0.18750000000000000       0.43750000000000000        0.0000000000000000     
  0.21875000000000000       0.43750000000000000        0.0000000000000000     
  0.25000000000000000       0.43750000000000000        0.0000000000000000     
  0.12500000000000000       0.46875000000000000        0.0000000000000000     
  0.15625000000000000       0.46875000000000000        0.0000000000000000     
  0.18750000000000000       0.46875000000000000        0.0000000000000000     
  0.21875000000000000       0.46875000000000000        0.0000000000000000     
  0.25000000000000000       0.46875000000000000        0.0000000000000000     
  0.12500000000000000       0.50000000000000000        0.0000000000000000     
  0.15625000000000000       0.50000000000000000        0.0000000000000000     
  0.18750000000000000       0.50000000000000000        0.0000000000000000     
  0.21875000000000000       0.50000000000000000        0.0000000000000000     
  0.25000000000000000       0.50000000000000000        0.0000000000000000     
  0.25000000000000000       0.37500000000000000        0.0000000000000000     
  0.28125000000000000       0.37500000000000000        0.0000000000000000     
  0.31250000000000000       0.37500000000000000        0.0000000000000000     
  0.34375000000000000       0.37500000000000000        0.0000000000000000     
  0.37500000000000000       0.37500000000000000        0.0000000000000000     
  0.25000000000000000       0.40625000000000000        0.0000000000000000     
  0.28125000000000000       0.40625000000000000        0.0000000000000000     
  0.31250000000000000       0.40625000000000000        0.0000000000000000     
  0.34375000000000000       0.40625000000000000        0.0000000000000000     
  0.37500000000000000       0.40625000000000000        0.0000000000000000     
  0.25000000000000000       0.43750000000000000        0.0000000000000000     
  0.28125000000000000       0.43750000000000000        0.0000000000000000     
  0.31250000000000000       0.43750000000000000        0.0000000000000000     
  0.34375000000000000       0.43750000000000000        0.0000000000000000     
  0.37500000000000000       0.43750000000000000        0.0000000000000000     
  0.25000000000000000       0.46875000000000000        0.0000000000000000     
  0.28125000000000000       0.46875000000000000        0.0000000000000000     
  0.31250000000000000       0.46875000000000000        0.0000000000000000     
  0.34375000000000000       0.46875000000000000        0.0000000000000000     
  0.37500000000000000       0.46875000000000000        0.0000000000000000     
  0.25000000000000000       0.50000000000000000        0.0000000000000000     
  0.28125000000000000       0.50000000000000000        0.0000000000000000     
  0.31250000000000000       0.50000000000000000        0.0000000000000000     
  0.34375000000000000       0.50000000000000000        0.0000000000000000     
  0.37500000000000000       0.50000000000000000        0.0000000000000000     
  0.37500000000000000       0.37500000000000000        0.0000000000000000     
  0.40625000000000000       0.37500000000000000        0.0000000000000000     
  0.43750000000000000       0.37500000000000000        0.0000000000000000     
  0.46875000000000000       0.37500000000000000        0.0000000000000000     
  0.50000000000000000       0.37500000000000000        0.0000000000000000     
  0.37500000000000000       0.40625000000000000        0.0000000000000000     
  0.40625000000000000       0.40625000000000000        0.0000000000000000     
  0.43750000000000000       0.40625000000000000        0.0000000000000000     
  0.46875000000000000       0.40625000000000000        0.0000000000000000     
  0.50000000000000000       0.40625000000000000        0.0000000000000000     
  0.37500000000000000       0.43750000000000000        0.0000000000000000     
  0.40625000000000000       0.43750000000000000        0.0000000000000000     
  0.43750000000000000       0.43750000000000000        0.0000000000000000     
  0.46875000000000000       0.43750000000000000        0.0000000000000000     
  0.50000000000000000       0.43750000000000000        0.0000000000000000     
  0.37500000000000000       0.46875000000000000        0.0000000000000000     
  0.40625000000000000       0.46875000000000000        0.0000000000000000     
  0.43750000000000000       0.46875000000000000        0.0000000000000000     
  0.46875000000000000       0.46875000000000000        0.0000000000000000     
  0.50000000000000000       0.46875000000000000        0.0000000000000000     
  0.37500000000000000       0.50000000000000000        0.0000000000000000     
  0.40625000000000000       0.50000000000000000        0.0000000000000000     
  0.43750000000000000       0.50000000000000000        0.0000000000000000     
  0.46875000000000000       0.50000000000000000        0.0000000000000000     
  0.50000000000000000       0.50000000000000000        0.0000000000000000     
  0.50000000000000000       0.37500000000000000        0.0000000000000000     
  0.53125000000000000       0.37500000000000000        0.0000000000000000     
  0.56250000000000000       0.37500000000000000        0.0000000000000000     
  0.59375000000000000       0.37500000000000000        0.0000000000000000     
  0.62500000000000000       0.37500000000000000        0.0000000000000000     
  0.50000000000000000       0.40625000000000000        0.0000000000000000     
  0.53125000000000000       0.40625000000000000        0.0000000000000000     
  0.56250000000000000       0.40625000000000000        0.0000000000000000     
  0.59375000000000000       0.40625000000000000        0.0000000000000000     
  0.62500000000000000       0.40625000000000000        0.0000000000000000     
  0.50000000000000000       0.43750000000000000        0.0000000000000000     
  0.53125000000000000       0.43750000000000000        0.0000000000000000     
  0.56250000000000000       0.43750000000000000        0.0000000000000000     
  0.59375000000000000       0.43750000000000000        0.0000000000000000     
  0.62500000000000000       0.43750000000000000        0.0000000000000000     
  0.50000000000000000       0.46875000000000000        0.0000000000000000     
  0.53125000000000000       0.46875000000000000        0.0000000000000000     
  0.56250000000000000       0.46875000000000000        0.0000000000000000     
  0.59375000000000000       0.46875000000000000        0.0000000000000000     
  0.62500000000000000       0.46875000000000000        0.0000000000000000     
  0.50000000000000000       0.50000000000000000        0.0000000000000000     
  0.53125000000000000       0.50000000000000000        0.0000000000000000     
  0.56250000000000000       0.50000000000000000        0.0000000000000000     
  0.59375000000000000       0.50000000000000000        0.0000000000000000     
  0.62500000000000000       0.50000000000000000        0.0000000000000000     
  0.62500000000000000       0.37500000000000000        0.0000000000000000     
  0.65625000000000000       0.37500000000000000        0.0000000000000000     
  0.68750000000000000       0.37500000000000000        0.0000000000000000     
  0.71875000000000000       0.37500000000000000        0.0000000000000000     
  0.75000000000000000       0.37500000000000000        0.0000000000000000     
  0.62500000000000000       0.40625000000000000        0.0000000000000000     
  0.65625000000000000       0.40625000000000000        0.0000000000000000     
  0.68750000000000000       0.40625000000000000        0.0000000000000000     
  0.71875000000000000       0.40625000000000000        0.0000000000000000     
  0.75000000000000000       0.40625000000000000        0.0000000000000000     
  0.62500000000000000       0.43750000000000000        0.0000000000000000     
  0.65625000000000000       0.43750000000000000        0.0000000000000000     
  0.68750000000000000       0.43750000000000000        0.0000000000000000     
  0.71875000000000000       0.43750000000000000        0.0000000000000000     
  0.75000000000000000       0.43750000000000000        0.0000000000000000     
  0.62500000000000000       0.46875000000000000        0.0000000000000000     
  0.65625000000000000       0.46875000000000000        0.0000000000000000     
  0.68750000000000000       0.46875000000000000        0.0000000000000000     
  0.71875000000000000       0.46875000000000000        0.0000000000000000     
  0.75000000000000000       0.46875000000000000        0.0000000000000000     
  0.62500000000000000       0.50000000000000000        0.0000000000000000     
  0.65625000000000000       0.50000000000000000        0.0000000000000000     
  0.68750000000000000       0.50000000000000000        0.0000000000000000     
  0.71875000000000000       0.50000000000000000        0.0000000000000000     
  0.75000000000000000       0.50000000000000000        0.0000000000000000     
  0.75000000000000000       0.37500000000000000        0.0000000000000000     
  0.78125000000000000       0.37500000000000000        0.0000000000000000     
  0.81250000000000000       0.37500000000000000        0.0000000000000000     
  0.84375000000000000       0.37500000000000000        0.0000000000000000     
  0.87500000000000000       0.37500000000000000        0.0000000000000000     
  0.75000000000000000       0.40625000000000000        0.0000000000000000     
  0.78125000000000000       0.40625000000000000        0.0000000000000000     
  0.81250000000000000       0.40625000000000000        0.0000000000000000     
  0.84375000000000000       0.40625000000000000        0.0000000000000000     
  0.87500000000000000       0.40625000000000000        0.0000000000000000     
  0.75000000000000000       0.43750000000000000        0.0000000000000000     
  0.78125000000000000       0.43750000000000000        0.0000000000000000     
  0.81250000000000000       0.43750000000000000        0.0000000000000000     
  0.84375000000000000       0.43750000000000000        0.0000000000000000     
  0.87500000000000000       0.43750000000000000        0.0000000000000000     
  0.75000000000000000       0.46875000000000000        0.0000000000000000     
  0.78125000000000000       0.46875000000000000        0.0000000000000000     
  0.81250000000000000       0.46875000000000000        0.0000000000000000     
  0.84375000000000000       0.46875000000000000        0.0000000000000000     
  0.87500000000000000       0.46875000000000000        0.0000000000000000     
  0.75000000000000000       0.50000000000000000        0.0000000000000000     
  0.78125000000000000       0.50000000000000000        0.0000000000000000     
  0.81250000000000000       0.50000000000000000        0.0000000000000000     
  0.84375000000000000       0.50000000000000000        0.0000000000000000     
  0.87500000000000000       0.50000000000000000        0.0000000000000000     
  0.87500000000000000       0.37500000000000000        0.0000000000000000     
  0.90625000000000000       0.37500000000000000        0.0000000000000000     
  0.93750000000000000       0.37500000000000000        0.0000000000000000     
  0.96875000000000000       0.37500000000000000        0.0000000000000000     
   1.0000000000000000       0.37500000000000000        0.0000000000000000     
  0.87500000000000000       0.40625000000000000        0.0000000000000000     
  0.90625000000000000       0.40625000000000000        0.0000000000000000     
  0.93750000000000000       0.40625000000000000        0.0000000000000000     
  0.96875000000000000       0.40625000000000000        0.0000000000000000     
   1.0000000000000000       0.40625000000000000        0.0000000000000000     
  0.87500000000000000       0.43750000000000000        0.0000000000000000     
  0.90625000000000000       0.43750000000000000        0.0000000000000000     
  0.93750000000000000       0.43750000000000000        0.0000000000000000     
  0.96875000000000000       0.43750000000000000        0.0000000000000000     
   1.0000000000000000       0.43750000000000000        0.0000000000000000     
  0.87500000000000000       0.46875000000000000        0.0000000000000000     
  0.90625000000000000       0.46875000000000000        0.0000000000000000     
  0.93750000000000000       0.46875000000000000        0.0000000000000000     
  0.96875000000000000       0.46875000000000000        0.0000000000000000     
   1.0000000000000000       0.46875000000000000        0.0000000000000000     
  0.87500000000000000       0.50000000000000000        0.0000000000000000     
  0.90625000000000000       0.50000000000000000        0.0000000000000000     
  0.93750000000000000       0.50000000000000000        0.0000000000000000     
  0.96875000000000000       0.50000000000000000        0.0000000000000000     
   1.0000000000000000       0.50000000000000000        0.0000000000000000     
   0.0000000000000000       0.50000000000000000        0.0000000000000000     
   3.1250000000000000E-002  0.50000000000000000        0.0000000000000000     
   6.2500000000000000E-002  0.50000000000000000        0.0000000000000000     
   9.3750000000000000E-002  0.50000000000000000        0.0000000000000000     
  0.12500000000000000       0.50000000000000000        0.0000000000000000     
   0.0000000000000000       0.53125000000000000        0.0000000000000000     
   3.1250000000000000E-002  0.53125000000000000        0.0000000000000000     
   6.2500000000000000E-002  0.53125000000000000        0.0000000000000000     
   9.3750000000000000E-002  0.53125000000000000        0.0000000000000000     
  0.12500000000000000       0.53125000000000000        0.0000000000000000     
   0.0000000000000000       0.56250000000000000        0.0000000000000000     
   3.1250000000000000E-002  0.56250000000000000        0.0000000000000000     
   6.2500000000000000E-002  0.56250000000000000        0.0000000000000000     
   9.3750000000000000E-002  0.56250000000000000        0.0000000000000000     
  0.12500000000000000       0.56250000000000000        0.0000000000000000     
   0.0000000000000000       0.59375000000000000        0.0000000000000000     
   3.1250000000000000E-002  0.59375000000000000        0.0000000000000000     
   6.2500000000000000E-002  0.59375000000000000        0.0000000000000000     
   9.3750000000000000E-002  0.59375000000000000        0.0000000000000000     
  0.12500000000000000       0.59375000000000000        0.0000000000000000     
   0.0000000000000000       0.62500000000000000        0.0000000000000000     
   3.1250000000000000E-002  0.62500000000000000        0.0000000000000000     
   6.2500000000000000E-002  0.62500000000000000        0.0000000000000000     
   9.3750000000000000E-002  0.62500000000000000        0.0000000000000000     
  0.12500000000000000       0.62500000000000000        0.0000000000000000     
  0.12500000000000000       0.50000000000000000        0.0000000000000000     
  0.15625000000000000       0.50000000000000000        0.0000000000000000     
  0.18750000000000000       0.50000000000000000        0.0000000000000000     
  0.21875000000000000       0.50000000000000000        0.0000000000000000     
  0.25000000000000000       0.50000000000000000        0.0000000000000000     
  0.12500000000000000       0.53125000000000000        0.0000000000000000     
  0.15625000000000000       0.53125000000000000        0.0000000000000000     
  0.18750000000000000       0.53125000000000000        0.0000000000000000     
  0.21875000000000000       0.53125000000000000        0.0000000000000000     
  0.25000000000000000       0.53125000000000000        0.0000000000000000     
  0.12500000000000000       0.56250000000000000        0.0000000000000000     
  0.15625000000000000       0.56250000000000000        0.0000000000000000     
  0.18750000000000000       0.56250000000000000        0.0000000000000000     
  0.21875000000000000       0.56250000000000000        0.0000000000000000     
  0.25000000000000000       0.56250000000000000        0.0000000000000000     
  0.12500000000000000       0.59375000000000000        0.0000000000000000     
  0.15625000000000000       0.59375000000000000        0.0000000000000000     
  0.18750000000000000       0.59375000000000000        0.0000000000000000     
  0.21875000000000000       0.59375000000000000        0.0000000000000000     
  0.25000000000000000       0.59375000000000000        0.0000000000000000     
  0.12500000000000000       0.62500000000000000        0.0000000000000000     
  0.15625000000000000       0.62500000000000000        0.0000000000000000     
  0.18750000000000000       0.62500000000000000        0.0000000000000000     
  0.21875000000000000       0.62500000000000000        0.0000000000000000     
  0.25000000000000000       0.62500000000000000        0.0000000000000000     
  0.25000000000000000       0.50000000000000000        0.0000000000000000     
  0.28125000000000000       0.50000000000000000        0.0000000000000000     
  0.31250000000000000       0.50000000000000000        0.0000000000000000     
  0.34375000000000000       0.50000000000000000        0.0000000000000000     
  0.37500000000000000       0.50000000000000000        0.0000000000000000     
  0.25000000000000000       0.53125000000000000        0.0000000000000000     
  0.28125000000000000       0.53125000000000000        0.0000000000000000     
  0.31250000000000000       0.53125000000000000        0.0000000000000000     
  0.34375000000000000       0.53125000000000000        0.0000000000000000     
  0.37500000000000000       0.53125000000000000        0.0000000000000000     
  0.25000000000000000       0.56250000000000000        0.0000000000000000     
  0.28125000000000000       0.56250000000000000        0.0000000000000000     
  0.31250000000000000       0.56250000000000000        0.0000000000000000     
  0.34375000000000000       0.56250000000000000        0.0000000000000000     
  0.37500000000000000       0.56250000000000000        0.0000000000000000     
  0.25000000000000000       0.59375000000000000        0.0000000000000000     
  0.28125000000000000       0.59375000000000000        0.0000000000000000     
  0.31250000000000000       0.59375000000000000        0.0000000000000000     
  0.34375000000000000       0.59375000000000000        0.0000000000000000     
  0.37500000000000000       0.59375000000000000        0.0000000000000000     
  0.25000000000000000       0.62500000000000000        0.0000000000000000     
  0.28125000000000000       0.62500000000000000        0.0000000000000000     
  0.31250000000000000       0.62500000000000000        0.0000000000000000     
  0.34375000000000000       0.62500000000000000        0.0000000000000000     
  0.37500000000000000       0.62500000000000000        0.0000000000000000     
  0.37500000000000000       0.50000000000000000        0.0000000000000000     
  0.40625000000000000       0.50000000000000000        0.0000000000000000     
  0.43750000000000000       0.50000000000000000        0.0000000000000000     
  0.46875000000000000       0.50000000000000000        0.0000000000000000     
  0.50000000000000000       0.50000000000000000        0.0000000000000000     
  0.37500000000000000       0.53125000000000000        0.0000000000000000     
  0.40625000000000000       0.53125000000000000        0.0000000000000000     
  0.43750000000000000       0.53125000000000000        0.0000000000000000     
  0.46875000000000000       0.53125000000000000        0.0000000000000000     
  0.50000000000000000       0.53125000000000000        0.0000000000000000     
  0.37500000000000000       0.56250000000000000        0.0000000000000000     
  0.40625000000000000       0.56250000000000000        0.0000000000000000     
  0.43750000000000000       0.56250000000000000        0.0000000000000000     
  0.46875000000000000       0.56250000000000000        0.0000000000000000     
  0.50000000000000000       0.56250000000000000        0.0000000000000000     
  0.37500000000000000       0.59375000000000000        0.0000000000000000     
  0.40625000000000000       0.59375000000000000        0.0000000000000000     
  0.43750000000000000       0.59375000000000000        0.0000000000000000     
  0.46875000000000000       0.59375000000000000        0.0000000000000000     
  0.50000000000000000       0.59375000000000000        0.0000000000000000     
  0.37500000000000000       0.62500000000000000        0.0000000000000000     
  0.40625000000000000       0.62500000000000000        0.0000000000000000     
  0.43750000000000000       0.62500000000000000        0.0000000000000000     
  0.46875000000000000       0.62500000000000000        0.0000000000000000     
  0.50000000000000000       0.62500000000000000        0.0000000000000000     
  0.50000000000000000       0.50000000000000000        0.0000000000000000     
  0.53125000000000000       0.50000000000000000        0.0000000000000000     
  0.56250000000000000       0.50000000000000000        0.0000000000000000     
  0.59375000000000000       0.50000000000000000        0.0000000000000000     
  0.62500000000000000       0.50000000000000000        0.0000000000000000     
  0.50000000000000000       0.53125000000000000        0.0000000000000000     
  0.53125000000000000       0.53125000000000000        0.0000000000000000     
  0.56250000000000000       0.53125000000000000        0.0000000000000000     
  0.59375000000000000       0.53125000000000000        0.0000000000000000     
  0.62500000000000000       0.53125000000000000        0.0000000000000000     
  0.50000000000000000       0.56250000000000000        0.0000000000000000     
  0.53125000000000000       0.56250000000000000        0.0000000000000000     
  0.56250000000000000       0.56250000000000000        0.0000000000000000     
  0.59375000000000000       0.56250000000000000        0.0000000000000000     
  0.62500000000000000       0.56250000000000000        0.0000000000000000     
  0.50000000000000000       0.59375000000000000        0.0000000000000000     
  0.53125000000000000       0.59375000000000000        0.0000000000000000     
  0.56250000000000000       0.59375000000000000        0.0000000000000000     
  0.59375000000000000       0.59375000000000000        0.0000000000000000     
  0.62500000000000000       0.59375000000000000        0.0000000000000000     
  0.50000000000000000       0.62500000000000000        0.0000000000000000     
  0.53125000000000000       0.62500000000000000        0.0000000000000000     
  0.56250000000000000       0.62500000000000000        0.0000000000000000     
  0.59375000000000000       0.62500000000000000        0.0000000000000000     
  0.62500000000000000       0.62500000000000000        0.0000000000000000     
  0.62500000000000000       0.50000000000000000        0.0000000000000000     
  0.65625000000000000       0.50000000000000000        0.0000000000000000     
  0.68750000000000000       0.50000000000000000        0.0000000000000000     
  0.71875000000000000       0.50000000000000000        0.0000000000000000     
  0.75000000000000000       0.50000000000000000        0.0000000000000000     
  0.62500000000000000       0.53125000000000000        0.0000000000000000     
  0.65625000000000000       0.53125000000000000        0.0000000000000000     
  0.68750000000000000       0.53125000000000000        0.0000000000000000     
  0.71875000000000000       0.53125000000000000        0.0000000000000000     
  0.75000000000000000       0.53125000000000000        0.0000000000000000     
  0.62500000000000000       0.56250000000000000        0.0000000000000000     
  0.65625000000000000       0.56250000000000000        0.0000000000000000     
  0.68750000000000000       0.56250000000000000        0.0000000000000000     
  0.71875000000000000       0.56250000000000000        0.0000000000000000     
  0.75000000000000000       0.56250000000000000        0.0000000000000000     
  0.62500000000000000       0.59375000000000000        0.0000000000000000     
  0.65625000000000000       0.59375000000000000        0.0000000000000000     
  0.68750000000000000       0.59375000000000000        0.0000000000000000     
  0.71875000000000000       0.59375000000000000        0.0000000000000000     
  0.75000000000000000       0.59375000000000000        0.0000000000000000     
  0.62500000000000000       0.62500000000000000        0.0000000000000000     
  0.65625000000000000       0.62500000000000000        0.0000000000000000     
  0.68750000000000000       0.62500000000000000        0.0000000000000000     
  0.71875000000000000       0.62500000000000000        0.0000000000000000     
  0.75000000000000000       0.62500000000000000        0.0000000000000000     
  0.75000000000000000       0.50000000000000000        0.0000000000000000     
  0.78125000000000000       0.50000000000000000        0.0000000000000000     
  0.81250000000000000       0.50000000000000000        0.0000000000000000     
  0.84375000000000000       0.50000000000000000        0.0000000000000000     
  0.87500000000000000       0.50000000000000000        0.0000000000000000     
  0.75000000000000000       0.53125000000000000        0.0000000000000000     
  0.78125000000000000       0.53125000000000000        0.0000000000000000     
  0.81250000000000000       0.53125000000000000        0.0000000000000000     
  0.84375000000000000       0.53125000000000000        0.0000000000000000     
  0.87500000000000000       0.53125000000000000        0.0000000000000000     
  0.75000000000000000       0.56250000000000000        0.0000000000000000     
  0.78125000000000000       0.56250000000000000        0.0000000000000000     
  0.81250000000000000       0.56250000000000000        0.0000000000000000     
  0.84375000000000000       0.56250000000000000        0.0000000000000000     
  0.87500000000000000       0.56250000000000000        0.0000000000000000     
  0.75000000000000000       0.59375000000000000        0.0000000000000000     
  0.78125000000000000       0.59375000000000000        0.0000000000000000     
  0.81250000000000000       0.59375000000000000        0.0000000000000000     
  0.84375000000000000       0.59375000000000000        0.0000000000000000     
  0.87500000000000000       0.59375000000000000        0.0000000000000000     
  0.75000000000000000       0.62500000000000000        0.0000000000000000     
  0.78125000000000000       0.62500000000000000        0.0000000000000000     
  0.81250000000000000       0.62500000000000000        0.0000000000000000     
  0.84375000000000000       0.62500000000000000        0.0000000000000000     
  0.87500000000000000       0.62500000000000000        0.0000000000000000     
  0.87500000000000000       0.50000000000000000        0.0000000000000000     
  0.90625000000000000       0.50000000000000000        0.0000000000000000     
  0.93750000000000000       0.50000000000000000        0.0000000000000000     
  0.96875000000000000       0.50000000000000000        0.0000000000000000     
   1.0000000000000000       0.50000000000000000        0.0000000000000000     
  0.87500000000000000       0.53125000000000000        0.0000000000000000     
  0.90625000000000000       0.53125000000000000        0.0000000000000000     
  0.93750000000000000       0.53125000000000000        0.0000000000000000     
  0.96875000000000000       0.53125000000000000        0.0000000000000000     
   1.0000000000000000       0.53125000000000000        0.0000000000000000     
  0.87500000000000000       0.56250000000000000        0.0000000000000000     
  0.90625000000000000       0.56250000000000000        0.0000000000000000     
  0.93750000000000000       0.56250000000000000        0.0000000000000000     
  0.96875000000000000       0.56250000000000000        0.0000000000000000     
   1.0000000000000000       0.56250000000000000        0.0000000000000000     
  0.87500000000000000       0.59375000000000000        0.0000000000000000     
  0.90625000000000000       0.59375000000000000        0.0000000000000000     
  0.93750000000000000       0.59375000000000000        0.0000000000000000     
  0.96875000000000000       0.59375000000000000        0.0000000000000000     
   1.0000000000000000       0.59375000000000000        0.0000000000000000     
  0.87500000000000000       0.62500000000000000        0.0000000000000000     
  0.90625000000000000       0.62500000000000000        0.0000000000000000     
  0.93750000000000000       0.62500000000000000        0.0000000000000000     
  0.96875000000000000       0.62500000000000000        0.0000000000000000     
   1.0000000000000000       0.62500000000000000        0.0000000000000000     
   0.0000000000000000       0.62500000000000000        0.0000000000000000     
   3.1250000000000000E-002  0.62500000000000000        0.0000000000000000     
   6.2500000000000000E-002  0.62500000000000000        0.0000000000000000     
   9.3750000000000000E-002  0.62500000000000000        0.0000000000000000     
  0.12500000000000000       0.62500000000000000        0.0000000000000000     
   0.0000000000000000       0.65625000000000000        0.0000000000000000     
   3.1250000000000000E-002  0.65625000000000000        0.0000000000000000     
   6.2500000000000000E-002  0.65625000000000000        0.0000000000000000     
   9.3750000000000000E-002  0.65625000000000000        0.0000000000000000     
  0.12500000000000000       0.65625000000000000        0.0000000000000000     
   0.0000000000000000       0.68750000000000000        0.0000000000000000     
   3.1250000000000000E-002  0.68750000000000000        0.0000000000000000     
   6.2500000000000000E-002  0.68750000000000000        0.0000000000000000     
   9.3750000000000000E-002  0.68750000000000000        0.0000000000000000     
  0.12500000000000000       0.68750000000000000        0.0000000000000000     
   0.0000000000000000       0.71875000000000000        0.0000000000000000     
   3.1250000000000000E-002  0.71875000000000000        0.0000000000000000     
   6.2500000000000000E-002  0.71875000000000000        0.0000000000000000     
   9.3750000000000000E-002  0.71875000000000000        0.0000000000000000     
  0.12500000000000000       0.71875000000000000        0.0000000000000000     
   0.0000000000000000       0.75000000000000000        0.0000000000000000     
   3.1250000000000000E-002  0.75000000000000000        0.0000000000000000     
   6.2500000000000000E-002  0.75000000000000000        0.0000000000000000     
   9.3750000000000000E-002  0.75000000000000000        0.0000000000000000     
  0.12500000000000000       0.75000000000000000        0.0000000000000000     
  0.12500000000000000       0.62500000000000000        0.0000000000000000     
  0.15625000000000000       0.62500000000000000        0.0000000000000000     
  0.18750000000000000       0.62500000000000000        0.0000000000000000     
  0.21875000000000000       0.62500000000000000        0.0000000000000000     
  0.25000000000000000       0.62500000000000000        0.0000000000000000     
  0.12500000000000000       0.65625000000000000        0.0000000000000000     
  0.15625000000000000       0.65625000000000000        0.0000000000000000     
  0.18750000000000000       0.65625000000000000        0.0000000000000000     
  0.21875000000000000       0.65625000000000000        0.0000000000000000     
  0.25000000000000000       0.65625000000000000        0.0000000000000000     
  0.12500000000000000       0.68750000000000000        0.0000000000000000     
  0.15625000000000000       0.68750000000000000        0.0000000000000000     
  0.18750000000000000       0.68750000000000000        0.0000000000000000     
  0.21875000000000000       0.68750000000000000        0.0000000000000000     
  0.25000000000000000       0.68750000000000000        0.0000000000000000     
  0.12500000000000000       0.71875000000000000        0.0000000000000000     
  0.15625000000000000       0.71875000000000000        0.0000000000000000     
  0.18750000000000000       0.71875000000000000        0.0000000000000000     
  0.21875000000000000       0.71875000000000000        0.0000000000000000     
  0.25000000000000000       0.71875000000000000        0.0000000000000000     
  0.12500000000000000       0.75000000000000000        0.0000000000000000     
  0.15625000000000000       0.75000000000000000        0.0000000000000000     
  0.18750000000000000       0.75000000000000000        0.0000000000000000     
  0.21875000000000000       0.75000000000000000        0.0000000000000000     
  0.25000000000000000       0.75000000000000000        0.0000000000000000     
  0.25000000000000000       0.62500000000000000        0.0000000000000000     
  0.28125000000000000       0.62500000000000000        0.0000000000000000     
  0.31250000000000000       0.62500000000000000        0.0000000000000000     
  0.34375000000000000       0.62500000000000000        0.0000000000000000     
  0.37500000000000000       0.62500000000000000        0.0000000000000000     
  0.25000000000000000       0.65625000000000000        0.0000000000000000     
  0.28125000000000000       0.65625000000000000        0.0000000000000000     
  0.31250000000000000       0.65625000000000000        0.0000000000000000     
  0.34375000000000000       0.65625000000000000        0.0000000000000000     
  0.37500000000000000       0.65625000000000000        0.0000000000000000     
  0.25000000000000000       0.68750000000000000        0.0000000000000000     
  0.28125000000000000       0.68750000000000000        0.0000000000000000     
  0.31250000000000000       0.68750000000000000        0.0000000000000000     
  0.34375000000000000       0.68750000000000000        0.0000000000000000     
  0.37500000000000000       0.68750000000000000        0.0000000000000000     
  0.25000000000000000       0.71875000000000000        0.0000000000000000     
  0.28125000000000000       0.71875000000000000        0.0000000000000000     
  0.31250000000000000       0.71875000000000000        0.0000000000000000     
  0.34375000000000000       0.71875000000000000        0.0000000000000000     
  0.37500000000000000       0.71875000000000000        0.0000000000000000     
  0.25000000000000000       0.75000000000000000        0.0000000000000000     
  0.28125000000000000       0.75000000000000000        0.0000000000000000     
  0.31250000000000000       0.75000000000000000        0.0000000000000000     
  0.34375000000000000       0.75000000000000000        0.0000000000000000     
  0.37500000000000000       0.75000000000000000        0.0000000000000000     
  0.37500000000000000       0.62500000000000000        0.0000000000000000     
  0.40625000000000000       0.62500000000000000        0.0000000000000000     
  0.43750000000000000       0.62500000000000000        0.0000000000000000     
  0.46875000000000000       0.62500000000000000        0.0000000000000000     
  0.50000000000000000       0.62500000000000000        0.0000000000000000     
  0.37500000000000000       0.65625000000000000        0.0000000000000000     
  0.40625000000000000       0.65625000000000000        0.0000000000000000     
  0.43750000000000000       0.65625000000000000        0.0000000000000000     
  0.46875000000000000       0.65625000000000000        0.0000000000000000     
  0.50000000000000000       0.65625000000000000        0.0000000000000000     
  0.37500000000000000       0.68750000000000000        0.0000000000000000     
  0.40625000000000000       0.68750000000000000        0.0000000000000000     
  0.43750000000000000       0.68750000000000000        0.0000000000000000     
  0.46875000000000000       0.68750000000000000        0.0000000000000000     
  0.50000000000000000       0.68750000000000000        0.0000000000000000     
  0.37500000000000000       0.71875000000000000        0.0000000000000000     
  0.40625000000000000       0.71875000000000000        0.0000000000000000     
  0.43750000000000000       0.71875000000000000        0.0000000000000000     
  0.46875000000000000       0.71875000000000000        0.0000000000000000     
  0.50000000000000000       0.71875000000000000        0.0000000000000000     
  0.37500000000000000       0.75000000000000000        0.0000000000000000     
  0.40625000000000000       0.75000000000000000        0.0000000000000000     
  0.43750000000000000       0.75000000000000000        0.0000000000000000     
  0.46875000000000000       0.75000000000000000        0.0000000000000000     
  0.50000000000000000       0.75000000000000000        0.0000000000000000     
  0.50000000000000000       0.62500000000000000        0.0000000000000000     
  0.53125000000000000       0.62500000000000000        0.0000000000000000     
  0.56250000000000000       0.62500000000000000        0.0000000000000000     
  0.59375000000000000       0.62500000000000000        0.0000000000000000     
  0.62500000000000000       0.62500000000000000        0.0000000000000000     
  0.50000000000000000       0.65625000000000000        0.0000000000000000     
  0.53125000000000000       0.65625000000000000        0.0000000000000000     
  0.56250000000000000       0.65625000000000000        0.0000000000000000     
  0.59375000000000000       0.65625000000000000        0.0000000000000000     
  0.62500000000000000       0.65625000000000000        0.0000000000000000     
  0.50000000000000000       0.68750000000000000        0.0000000000000000     
  0.53125000000000000       0.68750000000000000        0.0000000000000000     
  0.56250000000000000       0.68750000000000000        0.0000000000000000     
  0.59375000000000000       0.68750000000000000        0.0000000000000000     
  0.62500000000000000       0.68750000000000000        0.0000000000000000     
  0.50000000000000000       0.71875000000000000        0.0000000000000000     
  0.53125000000000000       0.71875000000000000        0.0000000000000000     
  0.56250000000000000       0.71875000000000000        0.0000000000000000     
  0.59375000000000000       0.71875000000000000        0.0000000000000000     
  0.62500000000000000       0.71875000000000000        0.0000000000000000     
  0.50000000000000000       0.75000000000000000        0.0000000000000000     
  0.53125000000000000       0.75000000000000000        0.0000000000000000     
  0.56250000000000000       0.75000000000000000        0.0000000000000000     
  0.59375000000000000       0.75000000000000000        0.0000000000000000     
  0.62500000000000000       0.75000000000000000        0.0000000000000000     
  0.62500000000000000       0.62500000000000000        0.0000000000000000     
  0.65625000000000000       0.62500000000000000        0.0000000000000000     
  0.68750000000000000       0.62500000000000000        0.0000000000000000     
  0.71875000000000000       0.62500000000000000        0.0000000000000000     
  0.75000000000000000       0.62500000000000000        0.0000000000000000     
  0.62500000000000000       0.65625000000000000        0.0000000000000000     
  0.65625000000000000       0.65625000000000000        0.0000000000000000     
  0.68750000000000000       0.65625000000000000        0.0000000000000000     
  0.71875000000000000       0.65625000000000000        0.0000000000000000     
  0.75000000000000000       0.65625000000000000        0.0000000000000000     
  0.62500000000000000       0.68750000000000000        0.0000000000000000     
  0.65625000000000000       0.68750000000000000        0.0000000000000000     
  0.68750000000000000       0.68750000000000000        0.0000000000000000     
  0.71875000000000000       0.68750000000000000        0.0000000000000000     
  0.75000000000000000       0.68750000000000000        0.0000000000000000     
  0.62500000000000000       0.71875000000000000        0.0000000000000000     
  0.65625000000000000       0.71875000000000000        0.0000000000000000     
  0.68750000000000000       0.71875000000000000        0.0000000000000000     
  0.71875000000000000       0.71875000000000000        0.0000000000000000     
  0.75000000000000000       0.71875000000000000        0.0000000000000000     
  0.62500000000000000       0.75000000000000000        0.0000000000000000     
  0.65625000000000000       0.75000000000000000        0.0000000000000000     
  0.68750000000000000       0.75000000000000000        0.0000000000000000     
  0.71875000000000000       0.75000000000000000        0.0000000000000000     
  0.75000000000000000       0.75000000000000000        0.0000000000000000     
  0.75000000000000000       0.62500000000000000        0.0000000000000000     
  0.78125000000000000       0.62500000000000000        0.0000000000000000     
  0.81250000000000000       0.62500000000000000        0.0000000000000000     
  0.84375000000000000       0.62500000000000000        0.0000000000000000     
  0.87500000000000000       0.62500000000000000        0.0000000000000000     
  0.75000000000000000       0.65625000000000000        0.0000000000000000     
  0.78125000000000000       0.65625000000000000        0.0000000000000000     
  0.81250000000000000       0.65625000000000000        0.0000000000000000     
  0.84375000000000000       0.65625000000000000        0.0000000000000000     
  0.87500000000000000       0.65625000000000000        0.0000000000000000     
  0.75000000000000000       0.68750000000000000        0.0000000000000000     
  0.78125000000000000       0.68750000000000000        0.0000000000000000     
  0.81250000000000000       0.68750000000000000        0.0000000000000000     
  0.84375000000000000       0.68750000000000000        0.0000000000000000     
  0.87500000000000000       0.68750000000000000        0.0000000000000000     
  0.75000000000000000       0.71875000000000000        0.0000000000000000     
  0.78125000000000000       0.71875000000000000        0.0000000000000000     
  0.81250000000000000       0.71875000000000000        0.0000000000000000     
  0.84375000000000000       0.71875000000000000        0.0000000000000000     
  0.87500000000000000       0.71875000000000000        0.0000000000000000     
  0.75000000000000000       0.75000000000000000        0.0000000000000000     
  0.78125000000000000       0.75000000000000000        0.0000000000000000     
  0.81250000000000000       0.75000000000000000        0.0000000000000000     
  0.84375000000000000       0.75000000000000000        0.0000000000000000     
  0.87500000000000000       0.75000000000000000        0.0000000000000000     
  0.87500000000000000       0.62500000000000000        0.0000000000000000     
  0.90625000000000000       0.62500000000000000        0.0000000000000000     
  0.93750000000000000       0.62500000000000000        0.0000000000000000     
  0.96875000000000000       0.62500000000000000        0.0000000000000000     
   1.0000000000000000       0.62500000000000000        0.0000000000000000     
  0.87500000000000000       0.65625000000000000        0.0000000000000000     
  0.90625000000000000       0.65625000000000000        0.0000000000000000     
  0.93750000000000000       0.65625000000000000        0.0000000000000000     
  0.96875000000000000       0.65625000000000000        0.0000000000000000     
   1.0000000000000000       0.65625000000000000        0.0000000000000000     
  0.87500000000000000       0.68750000000000000        0.0000000000000000     
  0.90625000000000000       0.68750000000000000        0.0000000000000000     
  0.93750000000000000       0.68750000000000000        0.0000000000000000     
  0.96875000000000000       0.68750000000000000        0.0000000000000000     
   1.0000000000000000       0.68750000000000000        0.0000000000000000     
  0.87500000000000000       0.71875000000000000        0.0000000000000000     
  0.90625000000000000       0.71875000000000000        0.0000000000000000     
  0.93750000000000000       0.71875000000000000        0.0000000000000000     
  0.96875000000000000       0.71875000000000000        0.0000000000000000     
   1.0000000000000000       0.71875000000000000        0.0000000000000000     
  0.87500000000000000       0.75000000000000000        0.0000000000000000     
  0.90625000000000000       0.75000000000000000        0.0000000000000000     
  0.93750000000000000       0.75000000000000000        0.0000000000000000     
  0.96875000000000000       0.75000000000000000        0.0000000000000000     
   1.0000000000000000       0.75000000000000000        0.0000000000000000     
   0.0000000000000000       0.75000000000000000        0.0000000000000000     
   3.1250000000000000E-002  0.75000000000000000        0.0000000000000000     
   6.2500000000000000E-002  0.75000000000000000        0.0000000000000000     
   9.3750000000000000E-002  0.75000000000000000        0.0000000000000000     
  0.12500000000000000       0.75000000000000000        0.0000000000000000     
   0.0000000000000000       0.78125000000000000        0.0000000000000000     
   3.1250000000000000E-002  0.78125000000000000        0.0000000000000000     
   6.2500000000000000E-002  0.78125000000000000        0.0000000000000000     
   9.3750000000000000E-002  0.78125000000000000        0.0000000000000000     
  0.12500000000000000       0.78125000000000000        0.0000000000000000     
   0.0000000000000000       0.81250000000000000        0.0000000000000000     
   3.1250000000000000E-002  0.81250000000000000        0.0000000000000000     
   6.2500000000000000E-002  0.81250000000000000        0.0000000000000000     
   9.3750000000000000E-002  0.81250000000000000        0.0000000000000000     
  0.12500000000000000       0.81250000000000000        0.0000000000000000     
   0.0000000000000000       0.84375000000000000        0.0000000000000000     
   3.1250000000000000E-002  0.84375000000000000        0.0000000000000000     
   6.2500000000000000E-002  0.84375000000000000        0.0000000000000000     
   9.3750000000000000E-002  0.84375000000000000        0.0000000000000000     
  0.12500000000000000       0.84375000000000000        0.0000000000000000     
   0.0000000000000000       0.87500000000000000        0.0000000000000000     
   3.1250000000000000E-002  0.87500000000000000        0.0000000000000000     
   6.2500000000000000E-002  0.87500000000000000        0.0000000000000000     
   9.3750000000000000E-002  0.87500000000000000        0.0000000000000000     
  0.12500000000000000       0.87500000000000000        0.0000000000000000     
  0.12500000000000000       0.75000000000000000        0.0000000000000000     
  0.15625000000000000       0.75000000000000000        0.0000000000000000     
  0.18750000000000000       0.75000000000000000        0.0000000000000000     
  0.21875000000000000       0.75000000000000000        0.0000000000000000     
  0.25000000000000000       0.75000000000000000        0.0000000000000000     
  0.12500000000000000       0.78125000000000000        0.0000000000000000     
  0.15625000000000000       0.78125000000000000        0.0000000000000000     
  0.18750000000000000       0.78125000000000000        0.0000000000000000     
  0.21875000000000000       0.78125000000000000        0.0000000000000000     
  0.25000000000000000       0.78125000000000000        0.0000000000000000     
  0.12500000000000000       0.81250000000000000        0.0000000000000000     
  0.15625000000000000       0.81250000000000000        0.0000000000000000     
  0.18750000000000000       0.81250000000000000        0.0000000000000000     
  0.21875000000000000       0.81250000000000000        0.0000000000000000     
  0.25000000000000000       0.81250000000000000        0.0000000000000000     
  0.12500000000000000       0.84375000000000000        0.0000000000000000     
  0.15625000000000000       0.84375000000000000        0.0000000000000000     
  0.18750000000000000       0.84375000000000000        0.0000000000000000     
  0.21875000000000000       0.84375000000000000        0.0000000000000000     
  0.25000000000000000       0.84375000000000000        0.0000000000000000     
  0.12500000000000000       0.87500000000000000        0.0000000000000000     
  0.15625000000000000       0.87500000000000000        0.0000000000000000     
  0.18750000000000000       0.87500000000000000        0.0000000000000000     
  0.21875000000000000       0.87500000000000000        0.0000000000000000     
  0.25000000000000000       0.87500000000000000        0.0000000000000000     
  0.25000000000000000       0.75000000000000000        0.0000000000000000     
  0.28125000000000000       0.75000000000000000        0.0000000000000000     
  0.31250000000000000       0.75000000000000000        0.0000000000000000     
  0.34375000000000000       0.75000000000000000        0.0000000000000000     
  0.37500000000000000       0.75000000000000000        0.0000000000000000     
  0.25000000000000000       0.78125000000000000        0.0000000000000000     
  0.28125000000000000       0.78125000000000000        0.0000000000000000     
  0.31250000000000000       0.78125000000000000        0.0000000000000000     
  0.34375000000000000       0.78125000000000000        0.0000000000000000     
  0.37500000000000000       0.78125000000000000        0.0000000000000000     
  0.25000000000000000       0.81250000000000000        0.0000000000000000     
  0.28125000000000000       0.81250000000000000        0.0000000000000000     
  0.31250000000000000       0.81250000000000000        0.0000000000000000     
  0.34375000000000000       0.81250000000000000        0.0000000000000000     
  0.37500000000000000       0.81250000000000000        0.0000000000000000     
  0.25000000000000000       0.84375000000000000        0.0000000000000000     
  0.28125000000000000       0.84375000000000000        0.0000000000000000     
  0.31250000000000000       0.84375000000000000        0.0000000000000000     
  0.34375000000000000       0.84375000000000000        0.0000000000000000     
  0.37500000000000000       0.84375000000000000        0.0000000000000000     
  0.25000000000000000       0.87500000000000000        0.0000000000000000     
  0.28125000000000000       0.87500000000000000        0.0000000000000000     
  0.31250000000000000       0.87500000000000000        0.0000000000000000     
  0.34375000000000000       0.87500000000000000        0.0000000000000000     
  0.37500000000000000       0.87500000000000000        0.0000000000000000     
  0.37500000000000000       0.75000000000000000        0.0000000000000000     
  0.40625000000000000       0.75000000000000000        0.0000000000000000     
  0.43750000000000000       0.75000000000000000        0.0000000000000000     
  0.46875000000000000       0.75000000000000000        0.0000000000000000     
  0.50000000000000000       0.75000000000000000        0.0000000000000000     
  0.37500000000000000       0.78125000000000000        0.0000000000000000     
  0.40625000000000000       0.78125000000000000        0.0000000000000000     
  0.43750000000000000       0.78125000000000000        0.0000000000000000     
  0.46875000000000000       0.78125000000000000        0.0000000000000000     
  0.50000000000000000       0.78125000000000000        0.0000000000000000     
  0.37500000000000000       0.81250000000000000        0.0000000000000000     
  0.40625000000000000       0.81250000000000000        0.0000000000000000     
  0.43750000000000000       0.81250000000000000        0.0000000000000000     
  0.46875000000000000       0.81250000000000000        0.0000000000000000     
  0.50000000000000000       0.81250000000000000        0.0000000000000000     
  0.37500000000000000       0.84375000000000000        0.0000000000000000     
  0.40625000000000000       0.84375000000000000        0.0000000000000000     
  0.43750000000000000       0.84375000000000000        0.0000000000000000     
  0.46875000000000000       0.84375000000000000        0.0000000000000000     
  0.50000000000000000       0.84375000000000000        0.0000000000000000     
  0.37500000000000000       0.87500000000000000        0.0000000000000000     
  0.40625000000000000       0.87500000000000000        0.0000000000000000     
  0.43750000000000000       0.87500000000000000        0.0000000000000000     
  0.46875000000000000       0.87500000000000000        0.0000000000000000     
  0.50000000000000000       0.87500000000000000        0.0000000000000000     
  0.50000000000000000       0.75000000000000000        0.0000000000000000     
  0.53125000000000000       0.75000000000000000        0.0000000000000000     
  0.56250000000000000       0.75000000000000000        0.0000000000000000     
  0.59375000000000000       0.75000000000000000        0.0000000000000000     
  0.62500000000000000       0.75000000000000000        0.0000000000000000     
  0.50000000000000000       0.78125000000000000        0.0000000000000000     
  0.53125000000000000       0.78125000000000000        0.0000000000000000     
  0.56250000000000000       0.78125000000000000        0.0000000000000000     
  0.59375000000000000       0.78125000000000000        0.0000000000000000     
  0.62500000000000000       0.78125000000000000        0.0000000000000000     
  0.50000000000000000       0.81250000000000000        0.0000000000000000     
  0.53125000000000000       0.81250000000000000        0.0000000000000000     
  0.56250000000000000       0.81250000000000000        0.0000000000000000     
  0.59375000000000000       0.81250000000000000        0.0000000000000000     
  0.62500000000000000       0.81250000000000000        0.0000000000000000     
  0.50000000000000000       0.84375000000000000        0.0000000000000000     
  0.53125000000000000       0.84375000000000000        0.0000000000000000     
  0.56250000000000000       0.84375000000000000        0.0000000000000000     
  0.59375000000000000       0.84375000000000000        0.0000000000000000     
  0.62500000000000000       0.84375000000000000        0.0000000000000000     
  0.50000000000000000       0.87500000000000000        0.0000000000000000     
  0.53125000000000000       0.87500000000000000        0.0000000000000000     
  0.56250000000000000       0.87500000000000000        0.0000000000000000     
  0.59375000000000000       0.87500000000000000        0.0000000000000000     
  0.62500000000000000       0.87500000000000000        0.0000000000000000     
  0.62500000000000000       0.75000000000000000        0.0000000000000000     
  0.65625000000000000       0.75000000000000000        0.0000000000000000     
  0.68750000000000000       0.75000000000000000        0.0000000000000000     
  0.71875000000000000       0.75000000000000000        0.0000000000000000     
  0.75000000000000000       0.75000000000000000        0.0000000000000000     
  0.62500000000000000       0.78125000000000000        0.0000000000000000     
  0.65625000000000000       0.78125000000000000        0.0000000000000000     
  0.68750000000000000       0.78125000000000000        0.0000000000000000     
  0.71875000000000000       0.78125000000000000        0.0000000000000000     
  0.75000000000000000       0.78125000000000000        0.0000000000000000     
  0.62500000000000000       0.81250000000000000        0.0000000000000000     
  0.65625000000000000       0.81250000000000000        0.0000000000000000     
  0.68750000000000000       0.81250000000000000        0.0000000000000000     
  0.71875000000000000       0.81250000000000000        0.0000000000000000     
  0.75000000000000000       0.81250000000000000        0.0000000000000000     
  0.62500000000000000       0.84375000000000000        0.0000000000000000     
  0.65625000000000000       0.84375000000000000        0.0000000000000000     
  0.68750000000000000       0.84375000000000000        0.0000000000000000     
  0.71875000000000000       0.84375000000000000        0.0000000000000000     
  0.75000000000000000       0.84375000000000000        0.0000000000000000     
  0.62500000000000000       0.87500000000000000        0.0000000000000000     
  0.65625000000000000       0.87500000000000000        0.0000000000000000     
  0.68750000000000000       0.87500000000000000        0.0000000000000000     
  0.71875000000000000       0.87500000000000000        0.0000000000000000     
  0.75000000000000000       0.87500000000000000        0.0000000000000000     
  0.75000000000000000       0.75000000000000000        0.0000000000000000     
  0.78125000000000000       0.75000000000000000        0.0000000000000000     
  0.81250000000000000       0.75000000000000000        0.0000000000000000     
  0.84375000000000000       0.75000000000000000        0.0000000000000000     
  0.87500000000000000       0.75000000000000000        0.0000000000000000     
  0.75000000000000000       0.78125000000000000        0.0000000000000000     
  0.78125000000000000       0.78125000000000000        0.0000000000000000     
  0.81250000000000000       0.78125000000000000        0.0000000000000000     
  0.84375000000000000       0.78125000000000000        0.0000000000000000     
  0.87500000000000000       0.78125000000000000        0.0000000000000000     
  0.75000000000000000       0.81250000000000000        0.0000000000000000     
  0.78125000000000000       0.81250000000000000        0.0000000000000000     
  0.81250000000000000       0.81250000000000000        0.0000000000000000     
  0.84375000000000000       0.81250000000000000        0.0000000000000000     
  0.87500000000000000       0.81250000000000000        0.0000000000000000     
  0.75000000000000000       0.84375000000000000        0.0000000000000000     
  0.78125000000000000       0.84375000000000000        0.0000000000000000     
  0.81250000000000000       0.84375000000000000        0.0000000000000000     
  0.84375000000000000       0.84375000000000000        0.0000000000000000     
  0.87500000000000000       0.84375000000000000        0.0000000000000000     
  0.75000000000000000       0.87500000000000000        0.0000000000000000     
  0.78125000000000000       0.87500000000000000        0.0000000000000000     
  0.81250000000000000       0.87500000000000000        0.0000000000000000     
  0.84375000000000000       0.87500000000000000        0.0000000000000000     
  0.87500000000000000       0.87500000000000000        0.0000000000000000     
  0.87500000000000000       0.75000000000000000        0.0000000000000000     
  0.90625000000000000       0.75000000000000000        0.0000000000000000     
  0.93750000000000000       0.75000000000000000        0.0000000000000000     
  0.96875000000000000       0.75000000000000000        0.0000000000000000     
   1.0000000000000000       0.75000000000000000        0.0000000000000000     
  0.87500000000000000       0.78125000000000000        0.0000000000000000     
  0.90625000000000000       0.78125000000000000        0.0000000000000000     
  0.93750000000000000       0.78125000000000000        0.0000000000000000     
  0.96875000000000000       0.78125000000000000        0.0000000000000000     
   1.0000000000000000       0.78125000000000000        0.0000000000000000     
  0.87500000000000000       0.81250000000000000        0.0000000000000000     
  0.90625000000000000       0.81250000000000000        0.0000000000000000     
  0.93750000000000000       0.81250000000000000        0.0000000000000000     
  0.96875000000000000       0.81250000000000000        0.0000000000000000     
   1.0000000000000000       0.81250000000000000        0.0000000000000000     
  0.87500000000000000       0.84375000000000000        0.0000000000000000     
  0.90625000000000000       0.84375000000000000        0.0000000000000000     
  0.93750000000000000       0.84375000000000000        0.0000000000000000     
  0.96875000000000000       0.84375000000000000        0.0000000000000000     
   1.0000000000000000       0.84375000000000000        0.0000000000000000     
  0.87500000000000000       0.87500000000000000        0.0000000000000000     
  0.90625000000000000       0.87500000000000000        0.0000000000000000     
  0.93750000000000000       0.87500000000000000        0.0000000000000000     
  0.96875000000000000       0.87500000000000000        0.0000000000000000     
   1.0000000000000000       0.87500000000000000        0.0000000000000000     
   0.0000000000000000       0.87500000000000000        0.0000000000000000     
   3.1250000000000000E-002  0.87500000000000000        0.0000000000000000     
   6.2500000000000000E-002  0.87500000000000000        0.0000000000000000     
   9.3750000000000000E-002  0.87500000000000000        0.0000000000000000     
  0.12500000000000000       0.87500000000000000        0.0000000000000000     
   0.0000000000000000       0.90625000000000000        0.0000000000000000     
   3.1250000000000000E-002  0.90625000000000000        0.0000000000000000     
   6.2500000000000000E-002  0.90625000000000000        0.0000000000000000     
   9.3750000000000000E-002  0.90625000000000000        0.0000000000000000     
  0.12500000000000000       0.90625000000000000        0.0000000000000000     
   0.0000000000000000       0.93750000000000000        0.0000000000000000     
   3.1250000000000000E-002  0.93750000000000000        0.0000000000000000     
   6.2500000000000000E-002  0.93750000000000000        0.0000000000000000     
   9.3750000000000000E-002  0.93750000000000000        0.0000000000000000     
  0.12500000000000000       0.93750000000000000        0.0000000000000000     
   0.0000000000000000       0.96875000000000000        0.0000000000000000     
   3.1250000000000000E-002  0.96875000000000000        0.0000000000000000     
   6.2500000000000000E-002  0.96875000000000000        0.0000000000000000     
   9.3750000000000000E-002  0.96875000000000000        0.0000000000000000     
  0.12500000000000000       0.96875000000000000        0.0000000000000000     
   0.0000000000000000        1.0000000000000000        0.0000000000000000     
   3.1250000000000000E-002   1.0000000000000000        0.0000000000000000     
   6.2500000000000000E-002   1.0000000000000000        0.0000000000000000     
   9.3750000000000000E-002   1.0000000000000000        0.0000000000000000     
  0.12500000000000000        1.0000000000000000        0.0000000000000000     
  0.12500000000000000       0.87500000000000000        0.0000000000000000     
  0.15625000000000000       0.87500000000000000        0.0000000000000000     
  0.18750000000000000       0.87500000000000000        0.0000000000000000     
  0.21875000000000000       0.87500000000000000        0.0000000000000000     
  0.25000000000000000       0.87500000000000000        0.0000000000000000     
  0.12500000000000000       0.90625000000000000        0.0000000000000000     
  0.15625000000000000       0.90625000000000000        0.0000000000000000     
  0.18750000000000000       0.90625000000000000        0.0000000000000000     
  0.21875000000000000       0.90625000000000000        0.0000000000000000     
  0.25000000000000000       0.90625000000000000        0.0000000000000000     
  0.12500000000000000       0.93750000000000000        0.0000000000000000     
  0.15625000000000000       0.93750000000000000        0.0000000000000000     
  0.18750000000000000       0.93750000000000000        0.0000000000000000     
  0.21875000000000000       0.93750000000000000        0.0000000000000000     
  0.25000000000000000       0.93750000000000000        0.0000000000000000     
  0.12500000000000000       0.96875000000000000        0.0000000000000000     
  0.15625000000000000       0.96875000000000000        0.0000000000000000     
  0.18750000000000000       0.96875000000000000        0.0000000000000000     
  0.21875000000000000       0.96875000000000000        0.0000000000000000     
  0.25000000000000000       0.96875000000000000        0.0000000000000000     
  0.12500000000000000        1.0000000000000000        0.0000000000000000     
  0.15625000000000000        1.0000000000000000        0.0000000000000000     
  0.18750000000000000        1.0000000000000000        0.0000000000000000     
  0.21875000000000000        1.0000000000000000        0.0000000000000000     
  0.25000000000000000        1.0000000000000000        0.0000000000000000     
  0.25000000000000000       0.87500000000000000        0.0000000000000000     
  0.28125000000000000       0.87500000000000000        0.0000000000000000     
  0.31250000000000000       0.87500000000000000        0.0000000000000000     
  0.34375000000000000       0.87500000000000000        0.0000000000000000     
  0.37500000000000000       0.87500000000000000        0.0000000000000000     
  0.25000000000000000       0.90625000000000000        0.0000000000000000     
  0.28125000000000000       0.90625000000000000        0.0000000000000000     
  0.31250000000000000       0.90625000000000000        0.0000000000000000     
  0.34375000000000000       0.90625000000000000        0.0000000000000000     
  0.37500000000000000       0.90625000000000000        0.0000000000000000     
  0.25000000000000000       0.93750000000000000        0.0000000000000000     
  0.28125000000000000       0.93750000000000000        0.0000000000000000     
  0.31250000000000000       0.93750000000000000        0.0000000000000000     
  0.34375000000000000       0.93750000000000000        0.0000000000000000     
  0.37500000000000000       0.93750000000000000        0.0000000000000000     
  0.25000000000000000       0.96875000000000000        0.0000000000000000     
  0.28125000000000000       0.96875000000000000        0.0000000000000000     
  0.31250000000000000       0.96875000000000000        0.0000000000000000     
  0.34375000000000000       0.96875000000000000        0.0000000000000000     
  0.37500000000000000       0.96875000000000000        0.0000000000000000     
  0.25000000000000000        1.0000000000000000        0.0000000000000000     
  0.28125000000000000        1.0000000000000000        0.0000000000000000     
  0.31250000000000000        1.0000000000000000        0.0000000000000000     
  0.34375000000000000        1.0000000000000000        0.0000000000000000     
  0.37500000000000000        1.0000000000000000        0.0000000000000000     
  0.37500000000000000       0.87500000000000000        0.0000000000000000     
  0.40625000000000000       0.87500000000000000        0.0000000000000000     
  0.43750000000000000       0.87500000000000000        0.0000000000000000     
  0.46875000000000000       0.87500000000000000        0.0000000000000000     
  0.50000000000000000       0.87500000000000000        0.0000000000000000     
  0.37500000000000000       0.90625000000000000        0.0000000000000000     
  0.40625000000000000       0.90625000000000000        0.0000000000000000     
  0.43750000000000000       0.90625000000000000        0.0000000000000000     
  0.46875000000000000       0.90625000000000000        0.0000000000000000     
  0.50000000000000000       0.90625000000000000        0.0000000000000000     
  0.37500000000000000       0.93750000000000000        0.0000000000000000     
  0.40625000000000000       0.93750000000000000        0.0000000000000000     
  0.43750000000000000       0.93750000000000000        0.0000000000000000     
  0.46875000000000000       0.93750000000000000        0.0000000000000000     
  0.50000000000000000       0.93750000000000000        0.0000000000000000     
  0.37500000000000000       0.96875000000000000        0.0000000000000000     
  0.40625000000000000       0.96875000000000000        0.0000000000000000     
  0.43750000000000000       0.96875000000000000        0.0000000000000000     
  0.46875000000000000       0.96875000000000000        0.0000000000000000     
  0.50000000000000000       0.96875000000000000        0.0000000000000000     
  0.37500000000000000        1.0000000000000000        0.0000000000000000     
  0.40625000000000000        1.0000000000000000        0.0000000000000000     
  0.43750000000000000        1.0000000000000000        0.0000000000000000     
  0.46875000000000000        1.0000000000000000        0.0000000000000000     
  0.50000000000000000        1.0000000000000000        0.0000000000000000     
  0.50000000000000000       0.87500000000000000        0.0000000000000000     
  0.53125000000000000       0.87500000000000000        0.0000000000000000     
  0.56250000000000000       0.87500000000000000        0.0000000000000000     
  0.59375000000000000       0.87500000000000000        0.0000000000000000     
  0.62500000000000000       0.87500000000000000        0.0000000000000000     
  0.50000000000000000       0.90625000000000000        0.0000000000000000     
  0.53125000000000000       0.90625000000000000        0.0000000000000000     
  0.56250000000000000       0.90625000000000000        0.0000000000000000     
  0.59375000000000000       0.90625000000000000        0.0000000000000000     
  0.62500000000000000       0.90625000000000000        0.0000000000000000     
  0.50000000000000000       0.93750000000000000        0.0000000000000000     
  0.53125000000000000       0.93750000000000000        0.0000000000000000     
  0.56250000000000000       0.93750000000000000        0.0000000000000000     
  0.59375000000000000       0.93750000000000000        0.0000000000000000     
  0.62500000000000000       0.93750000000000000        0.0000000000000000     
  0.50000000000000000       0.96875000000000000        0.0000000000000000     
  0.53125000000000000       0.96875000000000000        0.0000000000000000     
  0.56250000000000000       0.96875000000000000        0.0000000000000000     
  0.59375000000000000       0.96875000000000000        0.0000000000000000     
  0.62500000000000000       0.96875000000000000        0.0000000000000000     
  0.50000000000000000        1.0000000000000000        0.0000000000000000     
  0.53125000000000000        1.0000000000000000        0.0000000000000000     
  0.56250000000000000        1.0000000000000000        0.0000000000000000     
  0.59375000000000000        1.0000000000000000        0.0000000000000000     
  0.62500000000000000        1.0000000000000000        0.0000000000000000     
  0.62500000000000000       0.87500000000000000        0.0000000000000000     
  0.65625000000000000       0.87500000000000000        0.0000000000000000     
  0.68750000000000000       0.87500000000000000        0.0000000000000000     
  0.71875000000000000       0.87500000000000000        0.0000000000000000     
  0.75000000000000000       0.87500000000000000        0.0000000000000000     
  0.62500000000000000       0.90625000000000000        0.0000000000000000     
  0.65625000000000000       0.90625000000000000        0.0000000000000000     
  0.68750000000000000       0.90625000000000000        0.0000000000000000     
  0.71875000000000000       0.90625000000000000        0.0000000000000000     
  0.75000000000000000       0.90625000000000000        0.0000000000000000     
  0.62500000000000000       0.93750000000000000        0.0000000000000000     
  0.65625000000000000       0.93750000000000000        0.0000000000000000     
  0.68750000000000000       0.93750000000000000        0.0000000000000000     
  0.71875000000000000       0.93750000000000000        0.0000000000000000     
  0.75000000000000000       0.93750000000000000        0.0000000000000000     
  0.62500000000000000       0.96875000000000000        0.0000000000000000     
  0.65625000000000000       0.96875000000000000        0.0000000000000000     
  0.68750000000000000       0.96875000000000000        0.0000000000000000     
  0.71875000000000000       0.96875000000000000        0.0000000000000000     
  0.75000000000000000       0.96875000000000000        0.0000000000000000     
  0.62500000000000000        1.0000000000000000        0.0000000000000000     
  0.65625000000000000        1.0000000000000000        0.0000000000000000     
  0.68750000000000000        1.0000000000000000        0.0000000000000000     
  0.71875000000000000        1.0000000000000000        0.0000000000000000     
  0.75000000000000000        1.0000000000000000        0.0000000000000000     
  0.75000000000000000       0.87500000000000000        0.0000000000000000     
  0.78125000000000000       0.87500000000000000        0.0000000000000000     
  0.81250000000000000       0.87500000000000000        0.0000000000000000     
  0.84375000000000000       0.87500000000000000        0.0000000000000000     
  0.87500000000000000       0.87500000000000000        0.0000000000000000     
  0.75000000000000000       0.90625000000000000        0.0000000000000000     
  0.78125000000000000       0.90625000000000000        0.0000000000000000     
  0.81250000000000000       0.90625000000000000        0.0000000000000000     
  0.84375000000000000       0.90625000000000000        0.0000000000000000     
  0.87500000000000000       0.90625000000000000        0.0000000000000000     
  0.75000000000000000       0.93750000000000000        0.0000000000000000     
  0.78125000000000000       0.93750000000000000        0.0000000000000000     
  0.81250000000000000       0.93750000000000000        0.0000000000000000     
  0.84375000000000000       0.93750000000000000        0.0000000000000000     
  0.87500000000000000       0.93750000000000000        0.0000000000000000     
  0.75000000000000000       0.96875000000000000        0.0000000000000000     
  0.78125000000000000       0.96875000000000000        0.0000000000000000     
  0.81250000000000000       0.96875000000000000        0.0000000000000000     
  0.84375000000000000       0.96875000000000000        0.0000000000000000     
  0.87500000000000000       0.96875000000000000        0.0000000000000000     
  0.75000000000000000        1.0000000000000000        0.0000000000000000     
  0.78125000000000000        1.0000000000000000        0.0000000000000000     
  0.81250000000000000        1.0000000000000000        0.0000000000000000     
  0.84375000000000000        1.0000000000000000        0.0000000000000000     
  0.87500000000000000        1.0000000000000000        0.0000000000000000     
  0.87500000000000000       0.87500000000000000        0.0000000000000000     
  0.90625000000000000       0.87500000000000000        0.0000000000000000     
  0.93750000000000000       0.87500000000000000        0.0000000000000000     
  0.96875000000000000       0.87500000000000000        0.0000000000000000     
   1.0000000000000000       0.87500000000000000        0.0000000000000000     
  0.87500000000000000       0.90625000000000000        0.0000000000000000     
  0.90625000000000000       0.90625000000000000        0.0000000000000000     
  0.93750000000000000       0.90625000000000000        0.0000000000000000     
  0.96875000000000000       0.90625000000000000        0.0000000000000000     
   1.0000000000000000       0.90625000000000000        0.0000000000000000     
  0.87500000000000000       0.93750000000000000        0.0000000000000000     
  0.90625000000000000       0.93750000000000000        0.0000000000000000     
  0.93750000000000000       0.93750000000000000        0.0000000000000000     
  0.96875000000000000       0.93750000000000000        0.0000000000000000     
   1.0000000000000000       0.93750000000000000        0.0000000000000000     
  0.87500000000000000       0.96875000000000000        0.0000000000000000     
  0.90625000000000000       0.96875000000000000        0.0000000000000000     
  0.93750000000000000       0.96875000000000000        0.0000000000000000     
  0.96875000000000000       0.96875000000000000        0.0000000000000000     
   1.0000000000000000       0.96875000000000000        0.0000000000000000     
  0.87500000000000000        1.0000000000000000        0.0000000000000000     
  0.90625000000000000        1.0000000000000000        0.0000000000000000     
  0.93750000000000000        1.0000000000000000        0.0000000000000000     
  0.96875000000000000        1.0000000000000000        0.0000000000000000     
   1.0000000000000000        1.0000000000000000        0.0000000000000000     
 </DataArray>
 </Points>
 <Cells>
 <DataArray  type="Int32"  Name="connectivity"  format="ascii">
           0           1           6           5
           1           2           7           6
           2           3           8           7
           3           4           9           8
           5           6          11          10
           6           7          12          11
           7           8          13          12
           8           9          14          13
          10          11          16          15
          11          12          17          16
          12          13          18          17
          13          14          19          18
          15          16          21          20
          16          17          22          21
          17          18          23          22
          18          19          24          23
          25          26          31          30
          26          27          32          31
          27          28          33          32
          28          29          34          33
          30          31          36          35
          31          32          37          36
          32          33          38          37
          33          34          39          38
          35          36          41          40
          36          37          42          41
          37          38          43          42
          38          39          44          43
          40          41          46          45
          41          42          47          46
          42          43          48          47
          43          44          49          48
          50          51          56          55
          51          52          57          56
          52          53          58          57
          53          54          59          58
          55          56          61          60
          56          57          62          61
          57          58          63          62
          58          59          64          63
          60          61          66          65
          61          62          67          66
          62          63          68          67
          63          64          69          68
          65          66          71          70
          66          67          72          71
          67          68          73          72
          68          69          74          73
          75          76          81          80
          76          77          82          81
          77          78          83          82
          78          79          84          83
          80          81          86          85
          81          82          87          86
          82          83          88          87
          83          84          89          88
          85          86          91          90
          86          87          92          91
          87          88          93          92
          88          89          94          93
          90          91          96          95
          91          92          97          96
          92          93          98          97
          93          94          99          98
         100         101         106         105
         101         102         107         106
         102         103         108         107
         103         104         109         108
         105         106         111         110
         106         107         112         111
         107         108         113         112
         108         109         114         113
         110         111         116         115
         111         112         117         116
         112         113         118         117
         113         114         119         118
         115         116         121         120
         116         117         122         121
         117         118         123         122
         118         119         124         123
         125         126         131         130
         126         127         132         131
         127         128         133         132
         128         129         134         133
         130         131         136         135
         131         132         137         136
         132         133         138         137
         133         134         139         138
         135         136         141         140
         136         137         142         141
         137         138         143         142
         138         139         144         143
         140         141         146         145
         141         142         147         146
         142         143         148         147
         143         144         149         148
         150         151         156         155
         151         152         157         156
         152         153         158         157
         153         154         159         158
         155         156         161         160
         156         157         162         161
         157         158         163         162
         158         159         164         163
         160         161         166         165
         161         162         167         166
         162         163         168         167
         163         164         169         168
         165         166         171         170
         166         167         172         171
         167         168         173         172
         168         169         174         173
         175         176         181         180
         176         177         182         181
         177         178         183         182
         178         179         184         183
         180         181         186         185
         181         182         187         186
         182         183         188         187
         183         184         189         188
         185         186         191         190
         186         187         192         191
         187         188         193         192
         188         189         194         193
         190         191         196         195
         191         192         197         196
         192         193         198         197
         193         194         199         198
         200         201         206         205
         201         202         207         206
         202         203         208         207
         203         204         209         208
         205         206         211         210
         206         207         212         211
         207         208         213         212
         208         209         214         213
         210         211         216         215
         211         212         217         216
         212         213         218         217
         213         214         219         218
         215         216         221         220
         216         217         222         221
         217         218         223         222
         218         219         224         223
         225         226         231         230
         226         227         232         231
         227         228         233         232
         228         229         234         233
         230         231         236         235
         231         232         237         236
         232         233         238         237
         233         234         239         238
         235         236         241         240
         236         237         242         241
         237         238         243         242
         238         239         244         243
         240         241         246         245
         241         242         247         246
         242         243         248         247
         243         244         249         248
         250         251         256         255
         251         252         257         256
         252         253         258         257
         253         254         259         258
         255         256         261         260
         256         257         262         261
         257         258         263         262
         258         259         264         263
         260         261         266         265
         261         262         267         266
         262         263         268         267
         263         264         269         268
         265         266         271         270
         266         267         272         271
         267         268         273         272
         268         269         274         273
         275         276         281         280
         276         277         282         281
         277         278         283         282
         278         279         284         283
         280         281         286         285
         281         282         287         286
         282         283         288         287
         283         284         289         288
         285         286         291         290
         286         287         292         291
         287         288         293         292
         288         289         294         293
         290         291         296         295
         291         292         297         296
         292         293         298         297
         293         294         299         298
         300         301         306         305
         301         302         307         306
         302         303         308         307
         303         304         309         308
         305         306         311         310
         306         307         312         311
         307         308         313         312
         308         309         314         313
         310         311         316         315
         311         312         317         316
         312         313         318         317
         313         314         319         318
         315         316         321         320
         316         317         322         321
         317         318         323         322
         318         319         324         323
         325         326         331         330
         326         327         332         331
         327         328         333         332
         328         329         334         333
         330         331         336         335
         331         332         337         336
         332         333         338         337
         333         334         339         338
         335         336         341         340
         336         337         342         341
         337         338         343         342
         338         339         344         343
         340         341         346         345
         341         342         347         346
         342         343         348         347
         343         344         349         348
         350         351         356         355
         351         352         357         356
         352         353         358         357
         353         354         359         358
         355         356         361         360
         356         357         362         361
         357         358         363         362
         358         359         364         363
         360         361         366         365
         361         362         367         366
         362         363         368         367
         363         364         369         368
         365         366         371         370
         366         367         372         371
         367         368         373         372
         368         369         374         373
         375         376         381         380
         376         377         382         381
         377         378         383         382
         378         379         384         383
         380         381         386         385
         381         382         387         386
         382         383         388         387
         383         384         389         388
         385         386         391         390
         386         387         392         391
         387         388         393         392
         388         389         394         393
         390         391         396         395
         391         392         397         396
         392         393         398         397
         393         394         399         398
         400         401         406         405
         401         402         407         406
         402         403         408         407
         403         404         409         408
         405         406         411         410
         406         407         412         411
         407         408         413         412
         408         409         414         413
         410         411         416         415
         411         412         417         416
         412         413         418         417
         413         414         419         418
         415         416         421         420
         416         417         422         421
         417         418         423         422
         418         419         424         423
         425         426         431         430
         426         427         432         431
         427         428         433         432
         428         429         434         433
         430         431         436         435
         431         432         437         436
         432         433         438         437
         433         434         439         438
         435         436         441         440
         436         437         442         441
         437         438         443         442
         438         439         444         443
         440         441         446         445
         441         442         447         446
         442         443         448         447
         443         444         449         448
         450         451         456         455
         451         452         457         456
         452         453         458         457
         453         454         459         458
         455         456         461         460
         456         457         462         461
         457         458         463         462
         458         459         464         463
         460         461         466         465
         461         462         467         466
         462         463         468         467
         463         464         469         468
         465         466         471         470
         466         467         472         471
         467         468         473         472
         468         469         474         473
         475         476         481         480
         476         477         482         481
         477         478         483         482
         478         479         484         483
         480         481         486         485
         481         482         487         486
         482         483         488         487
         483         484         489         488
         485         486         491         490
         486         487         492         491
         487         488         493         492
         488         489         494         493
         490         491         496         495
         491         492         497         496
         492         493         498         497
         493         494         499         498
         500         501         506         505
         501         502         507         506
         502         503         508         507
         503         504         509         508
         505         506         511         510
         506         507         512         511
         507         508         513         512
         508         509         514         513
         510         511         516         515
         511         512         517         516
         512         513         518         517
         513         514         519         518
         515         516         521         520
         516         517         522         521
         517         518         523         522
         518         519         524         523
         525         526         531         530
         526         527         532         531
         527         528         533         532
         528         529         534         533
         530         531         536         535
         531         532         537         536
         532         533         538         537
         533         534         539         538
         535         536         541         540
         536         537         542         541
         537         538         543         542
         538         539         544         543
         540         541         546         545
         541         542         547         546
         542         543         548         547
         543         544         549         548
         550         551         556         555
         551         552         557         556
         552         553         558         557
         553         554         559         558
         555         556         561         560
         556         557         562         561
         557         558         563         562
         558         559         564         563
         560         561         566         565
         561         562         567         566
         562         563         568         567
         563         564         569         568
         565         566         571         570
         566         567         572         571
         567         568         573         572
         568         569         574         573
         575         576         581         580
         576         577         582         581
         577         578         583         582
         578         579         584         583
         580         581         586         585
         581         582         587         586
         582         583         588         587
         583         584         589         588
         585         586         591         590
         586         587         592         591
         587         588         593         592
         588         589         594         593
         590         591         596         595
         591         592         597         596
         592         593         598         597
         593         594         599         598
         600         601         606         605
         601         602         607         606
         602         603         608         607
         603         604         609         608
         605         606         611         610
         606         607         612         611
         607         608         613         612
         608         609         614         613
         610         611         616         615
         611         612         617         616
         612         613         618         617
         613         614         619         618
         615         616         621         620
         616         617         622         621
         617         618         623         622
         618         619         624         623
         625         626         631         630
         626         627         632         631
         627         628         633         632
         628         629         634         633
         630         631         636         635
         631         632         637         636
         632         633         638         637
         633         634         639         638
         635         636         641         640
         636         637         642         641
         637         638         643         642
         638         639         644         643
         640         641         646         645
         641         642         647         646
         642         643         648         647
         643         644         649         648
         650         651         656         655
         651         652         657         656
         652         653         658         657
         653         654         659         658
         655         656         661         660
         656         657         662         661
         657         658         663         662
         658         659         664         663
         660         661         666         665
         661         662         667         666
         662         663         668         667
         663         664         669         668
         665         666         671         670
         666         667         672         671
         667         668         673         672
         668         669         674         673
         675         676         681         680
         676         677         682         681
         677         678         683         682
         678         679         684         683
         680         681         686         685
         681         682         687         686
         682         683         688         687
         683         684         689         688
         685         686         691         690
         686         687         692         691
         687         688         693         692
         688         689         694         693
         690         691         696         695
         691         692         697         696
         692         693         698         697
         693         694         699         698
         700         701         706         705
         701         702         707         706
         702         703         708         707
         703         704         709         708
         705         706         711         710
         706         707         712         711
         707         708         713         712
         708         709         714         713
         710         711         716         715
         711         712         717         716
         712         713         718         717
         713         714         719         718
         715         716         721         720
         716         717         722         721
         717         718         723         722
         718         719         724         723
         725         726         731         730
         726         727         732         731
         727         728         733         732
         728         729         734         733
         730         731         736         735
         731         732         737         736
         732         733         738         737
         733         734         739         738
         735         736         741         740
         736         737         742         741
         737         738         743         742
         738         739         744         743
         740         741         746         745
         741         742         747         746
         742         743         748         747
         743         744         749         748
         750         751         756         755
         751         752         757         756
         752         753         758         757
         753         754         759         758
         755         756         761         760
         756         757         762         761
         757         758         763         762
         758         759         764         763
         760         761         766         765
         761         762         767         766
         762         763         768         767
         763         764         769         768
         765         766         771         770
         766         767         772         771
         767         768         773         772
         768         769         774         773
         775         776         781         780
         776         777         782         781
         777         778         783         782
         778         779         784         783
         780         781         786         785
         781         782         787         786
         782         783         788         787
         783         784         789         788
         785         786         791         790
         786         787         792         791
         787         788         793         792
         788         789         794         793
         790         791         796         795
         791         792         797         796
         792         793         798         797
         793         794         799         798
         800         801         806         805
         801         802         807         806
         802         803         808         807
         803         804         809         808
         805         806         811         810
         806         807         812         811
         807         808         813         812
         808         809         814         813
         810         811         816         815
         811         812         817         816
         812         813         818         817
         813         814         819         818
         815         816         821         820
         816         817         822         821
         817         818         823         822
         818         819         824         823
         825         826         831         830
         826         827         832         831
         827         828         833         832
         828         829         834         833
         830         831         836         835
         831         832         837         836
         832         833         838         837
         833         834         839         838
         835         836         841         840
         836         837         842         841
         837         838         843         842
         838         839         844         843
         840         841         846         845
         841         842         847         846
         842         843         848         847
         843         844         849         848
         850         851         856         855
         851         852         857         856
         852         853         858         857
         853         854         859         858
         855         856         861         860
         856         857         862         861
         857         858         863         862
         858         859         864         863
         860         861         866         865
         861         862         867         866
         862         863         868         867
         863         864         869         868
         865         866         871         870
         866         867         872         871
         867         868         873         872
         868         869         874         873
         875         876         881         880
         876         877         882         881
         877         878         883         882
         878         879         884         883
         880         881         886         885
         881         882         887         886
         882         883         888         887
         883         884         889         888
         885         886         891         890
         886         887         892         891
         887         888         893         892
         888         889         894         893
         890         891         896         895
         891         892         897         896
         892         893         898         897
         893         894         899         898
         900         901         906         905
         901         902         907         906
         902         903         908         907
         903         904         909         908
         905         906         911         910
         906         907         912         911
         907         908         913         912
         908         909         914         913
         910         911         916         915
         911         912         917         916
         912         913         918         917
         913         914         919         918
         915         916         921         920
         916         917         922         921
         917         918         923         922
         918         919         924         923
         925         926         931         930
         926         927         932         931
         927         928         933         932
         928         929         934         933
         930         931         936         935
         931         932         937         936
         932         933         938         937
         933         934         939         938
         935         936         941         940
         936         937         942         941
         937         938         943         942
         938         939         944         943
         940         941         946         945
         941         942         947         946
         942         943         948         947
         943         944         949         948
         950         951         956         955
         951         952         957         956
         952         953         958         957
         953         954         959         958
         955         956         961         960
         956         957         962         961
         957         958         963         962
         958         959         964         963
         960         961         966         965
         961         962         967         966
         962         963         968         967
         963         964         969         968
         965         966         971         970
         966         967         972         971
         967         968         973         972
         968         969         974         973
         975         976         981         980
         976         977         982         981
         977         978         983         982
         978         979         984         983
         980         981         986         985
         981         982         987         986
         982         983         988         987
         983         984         989         988
         985         986         991         990
         986         987         992         991
         987         988         993         992
         988         989         994         993
         990         991         996         995
         991         992         997         996
         992         993         998         997
         993         994         999         998
        1000        1001        1006        1005
        1001        1002        1007        1006
        1002        1003        1008        1007
        1003        1004        1009        1008
        1005        1006        1011        1010
        1006        1007        1012        1011
        1007        1008        1013        1012
        1008        1009        1014        1013
        1010        1011        1016        1015
        1011        1012        1017        1016
        1012        1013        1018        1017
        1013        1014        1019        1018
        1015        1016        1021        1020
        1016        1017        1022        1021
        1017        1018        1023        1022
        1018        1019        1024        1023
        1025        1026        1031        1030
        1026        1027        1032        1031
        1027        1028        1033        1032
        1028        1029        1034        1033
        1030        1031        1036        1035
        1031        1032        1037        1036
        1032        1033        1038        1037
        1033        1034        1039        1038
        1035        1036        1041        1040
        1036        1037        1042        1041
        1037        1038        1043        1042
        1038        1039        1044        1043
        1040        1041        1046        1045
        1041        1042        1047        1046
        1042        1043        1048        1047
        1043        1044        1049        1048
        1050        1051        1056        1055
        1051        1052        1057        1056
        1052        1053        1058        1057
        1053        1054        1059        1058
        1055        1056        1061        1060
        1056        1057        1062        1061
        1057        1058        1063        1062
        1058        1059        1064        1063
        1060        1061        1066        1065
        1061        1062        1067        1066
        1062        1063        1068        1067
        1063        1064        1069        1068
        1065        1066        1071        1070
        1066        1067        1072        1071
        1067        1068        1073        1072
        1068        1069        1074        1073
        1075        1076        1081        1080
        1076        1077        1082        1081
        1077        1078        1083        1082
        1078        1079        1084        1083
        1080        1081        1086        1085
        1081        1082        1087        1086
        1082        1083        1088        1087
        1083        1084        1089        1088
        1085        1086        1091        1090
        1086        1087        1092        1091
        1087        1088        1093        1092
        1088        1089        1094        1093
        1090        1091        1096        1095
        1091        1092        1097        1096
        1092        1093        1098        1097
        1093        1094        1099        1098
        1100        1101        1106        1105
        1101        1102        1107        1106
        1102        1103        1108        1107
        1103        1104        1109        1108
        1105        1106        1111        1110
        1106        1107        1112        1111
        1107        1108        1113        1112
        1108        1109        1114        1113
        1110        1111        1116        1115
        1111        1112        1117        1116
        1112        1113        1118        1117
        1113        1114        1119        1118
        1115        1116        1121        1120
        1116        1117        1122        1121
        1117        1118        1123        1122
        1118        1119        1124        1123
        1125        1126        1131        1130
        1126        1127        1132        1131
        1127        1128        1133        1132
        1128        1129        1134        1133
        1130        1131        1136        1135
        1131        1132        1137        1136
        1132        1133        1138        1137
        1133        1134        1139        1138
        1135        1136        1141        1140
        1136        1137        1142        1141
        1137        1138        1143        1142
        1138        1139        1144        1143
        1140        1141        1146        1145
        1141        1142        1147        1146
        1142        1143        1148        1147
        1143        1144        1149        1148
        1150        1151        1156        1155
        1151        1152        1157        1156
        1152        1153        1158        1157
        1153        1154        1159        1158
        1155        1156        1161        1160
        1156        1157        1162        1161
        1157        1158        1163        1162
        1158        1159        1164        1163
        1160        1161        1166        1165
        1161        1162        1167        1166
        1162        1163        1168        1167
        1163        1164        1169        1168
        1165        1166        1171        1170
        1166        1167        1172        1171
        1167        1168        1173        1172
        1168        1169        1174        1173
        1175        1176        1181        1180
        1176        1177        1182        1181
        1177        1178        1183        1182
        1178        1179        1184        1183
        1180        1181        1186        1185
        1181        1182        1187        1186
        1182        1183        1188        1187
        1183        1184        1189        1188
        1185        1186        1191        1190
        1186        1187        1192        1191
        1187        1188        1193        1192
        1188        1189        1194        1193
        1190        1191        1196        1195
        1191        1192        1197        1196
        1192        1193        1198        1197
        1193        1194        1199        1198
        1200        1201        1206        1205
        1201        1202        1207        1206
        1202        1203        1208        1207
        1203        1204        1209        1208
        1205        1206        1211        1210
        1206        1207        1212        1211
        1207        1208        1213        1212
        1208        1209        1214        1213
        1210        1211        1216        1215
        1211        1212        1217        1216
        1212        1213        1218        1217
        1213        1214        1219        1218
        1215        1216        1221        1220
        1216        1217        1222        1221
        1217        1218        1223        1222
        1218        1219        1224        1223
        1225        1226        1231        1230
        1226        1227        1232        1231
        1227        1228        1233        1232
        1228        1229        1234        1233
        1230        1231        1236        1235
        1231        1232        1237        1236
        1232        1233        1238        1237
        1233        1234        1239        1238
        1235        1236        1241        1240
        1236        1237        1242        1241
        1237        1238        1243        1242
        1238        1239        1244        1243
        1240        1241        1246        1245
        1241        1242        1247        1246
        1242        1243        1248        1247
        1243        1244        1249        1248
        1250        1251        1256        1255
        1251        1252        1257        1256
        1252        1253        1258        1257
        1253        1254        1259        1258
        1255        1256        1261        1260
        1256        1257        1262        1261
        1257        1258        1263        1262
        1258        1259        1264        1263
        1260        1261        1266        1265
        1261        1262        1267        1266
        1262        1263        1268        1267
        1263        1264        1269        1268
        1265        1266        1271        1270
        1266        1267        1272        1271
        1267        1268        1273        1272
        1268        1269        1274        1273
        1275        1276        1281        1280
        1276        1277        1282        1281
        1277        1278        1283        1282
        1278        1279        1284        1283
        1280        1281        1286        1285
        1281        1282        1287        1286
        1282        1283        1288        1287
        1283        1284        1289        1288
        1285        1286        1291        1290
        1286        1287        1292        1291
        1287        1288        1293        1292
        1288        1289        1294        1293
        1290        1291        1296        1295
        1291        1292        1297        1296
        1292        1293        1298        1297
        1293        1294        1299        1298
        1300        1301        1306        1305
        1301        1302        1307        1306
        1302        1303        1308        1307
        1303        1304        1309        1308
        1305        1306        1311        1310
        1306        1307        1312        1311
        1307        1308        1313        1312
        1308        1309        1314        1313
        1310        1311        1316        1315
        1311        1312        1317        1316
        1312        1313        1318        1317
        1313        1314        1319        1318
        1315        1316        1321        1320
        1316        1317        1322        1321
        1317        1318        1323        1322
        1318        1319        1324        1323
        1325        1326        1331        1330
        1326        1327        1332        1331
        1327        1328        1333        1332
        1328        1329        1334        1333
        1330        1331        1336        1335
        1331        1332        1337        1336
        1332        1333        1338        1337
        1333        1334        1339        1338
        1335        1336        1341        1340
        1336        1337        1342        1341
        1337        1338        1343        1342
        1338        1339        1344        1343
        1340        1341        1346        1345
        1341        1342        1347        1346
        1342        1343        1348        1347
        1343        1344        1349        1348
        1350        1351        1356        1355
        1351        1352        1357        1356
        1352        1353        1358        1357
        1353        1354        1359        1358
        1355        1356        1361        1360
        1356        1357        1362        1361
        1357        1358        1363        1362
        1358        1359        1364        1363
        1360        1361        1366        1365
        1361        1362        1367        1366
        1362        1363        1368        1367
        1363        1364        1369        1368
        1365        1366        1371        1370
        1366        1367        1372        1371
        1367        1368        1373        1372
        1368        1369        1374        1373
        1375        1376        1381        1380
        1376        1377        1382        1381
        1377        1378        1383        1382
        1378        1379        1384        1383
        1380        1381        1386        1385
        1381        1382        1387        1386
        1382        1383        1388        1387
        1383        1384        1389        1388
        1385        1386        1391        1390
        1386        1387        1392        1391
        1387        1388        1393        1392
        1388        1389        1394        1393
        1390        1391        1396        1395
        1391        1392        1397        1396
        1392        1393        1398        1397
        1393        1394        1399        1398
        1400        1401        1406        1405
        1401        1402        1407        1406
        1402        1403        1408        1407
        1403        1404        1409        1408
        1405        1406        1411        1410
        1406        1407        1412        1411
        1407        1408        1413        1412
        1408        1409        1414        1413
        1410        1411        1416        1415
        1411        1412        1417        1416
        1412        1413        1418        1417
        1413        1414        1419        1418
        1415        1416        1421        1420
        1416        1417        1422        1421
        1417        1418        1423        1422
        1418        1419        1424        1423
        1425        1426        1431        1430
        1426        1427        1432        1431
        1427        1428        1433        1432
        1428        1429        1434        1433
        1430        1431        1436        1435
        1431        1432        1437        1436
        1432        1433        1438        1437
        1433        1434        1439        1438
        1435        1436        1441        1440
        1436        1437        1442        1441
        1437        1438        1443        1442
        1438        1439        1444        1443
        1440        1441        1446        1445
        1441        1442        1447        1446
        1442        1443        1448        1447
        1443        1444        1449        1448
        1450        1451        1456        1455
        1451        1452        1457        1456
        1452        1453        1458        1457
        1453        1454        1459        1458
        1455        1456        1461        1460
        1456        1457        1462        1461
        1457        1458        1463        1462
        1458        1459        1464        1463
        1460        1461        1466        1465
        1461        1462        1467        1466
        1462        1463        1468        1467
        1463        1464        1469        1468
        1465        1466        1471        1470
        1466        1467        1472        1471
        1467        1468        1473        1472
        1468        1469        1474        1473
        1475        1476        1481        1480
        1476        1477        1482        1481
        1477        1478        1483        1482
        1478        1479        1484        1483
        1480        1481        1486        1485
        1481        1482        1487        1486
        1482        1483        1488        1487
        1483        1484        1489        1488
        1485        1486        1491        1490
        1486        1487        1492        1491
        1487        1488        1493        1492
        1488        1489        1494        1493
        1490        1491        1496        1495
        1491        1492        1497        1496
        1492        1493        1498        1497
        1493        1494        1499        1498
        1500        1501        1506        1505
        1501        1502        1507        1506
        1502        1503        1508        1507
        1503        1504        1509        1508
        1505        1506        1511        1510
        1506        1507        1512        1511
        1507        1508        1513        1512
        1508        1509        1514        1513
        1510        1511        1516        1515
        1511        1512        1517        1516
        1512        1513        1518        1517
        1513        1514        1519        1518
        1515        1516        1521        1520
        1516        1517        1522        1521
        1517        1518        1523        1522
        1518        1519        1524        1523
        1525        1526        1531        1530
        1526        1527        1532        1531
        1527        1528        1533        1532
        1528        1529        1534        1533
        1530        1531        1536        1535
        1531        1532        1537        1536
        1532        1533        1538        1537
        1533        1534        1539        1538
        1535        1536        1541        1540
        1536        1537        1542        1541
        1537        1538        1543        1542
        1538        1539        1544        1543
        1540        1541        1546        1545
        1541        1542        1547        1546
        1542        1543        1548        1547
        1543        1544        1549        1548
        1550        1551        1556        1555
        1551        1552        1557        1556
        1552        1553        1558        1557
        1553        1554        1559        1558
        1555        1556        1561        1560
        1556        1557        1562        1561
        1557        1558        1563        1562
        1558        1559        1564        1563
        1560        1561        1566        1565
        1561        1562        1567        1566
        1562        1563        1568        1567
        1563        1564        1569        1568
        1565        1566        1571        1570
        1566        1567        1572        1571
        1567        1568        1573        1572
        1568        1569        1574        1573
        1575        1576        1581        1580
        1576        1577        1582        1581
        1577        1578        1583        1582
        1578        1579        1584        1583
        1580        1581        1586        1585
        1581        1582        1587        1586
        1582        1583        1588        1587
        1583        1584        1589        1588
        1585        1586        1591        1590
        1586        1587        1592        1591
        1587        1588        1593        1592
        1588        1589        1594        1593
        1590        1591        1596        1595
        1591        1592        1597        1596
        1592        1593        1598        1597
        1593        1594        1599        1598
 </DataArray>
 <DataArray  type="Int32"  Name="offsets"  format="ascii"> 
           4
           8
          12
          16
          20
          24
          28
          32
          36
          40
          44
          48
          52
          56
          60
          64
          68
          72
          76
          80
          84
          88
          92
          96
         100
         104
         108
         112
         116
         120
         124
         128
         132
         136
         140
         144
         148
         152
         156
         160
         164
         168
         172
         176
         180
         184
         188
         192
         196
         200
         204
         208
         212
         216
         220
         224
         228
         232
         236
         240
         244
         248
         252
         256
         260
         264
         268
         272
         276
         280
         284
         288
         292
         296
         300
         304
         308
         312
         316
         320
         324
         328
         332
         336
         340
         344
         348
         352
         356
         360
         364
         368
         372
         376
         380
         384
         388
         392
         396
         400
         404
         408
         412
         416
         420
         424
         428
         432
         436
         440
         444
         448
         452
         456
         460
         464
         468
         472
         476
         480
         484
         488
         492
         496
         500
         504
         508
         512
         516
         520
         524
         528
         532
         536
         540
         544
         548
         552
         556
         560
         564
         568
         572
         576
         580
         584
         588
         592
         596
         600
         604
         608
         612
         616
         620
         624
         628
         632
         636
         640
         644
         648
         652
         656
         660
         664
         668
         672
         676
         680
         684
         688
         692
         696
         700
         704
         708
         712
         716
         720
         724
         728
         732
         736
         740
         744
         748
         752
         756
         760
         764
         768
         772
         776
         780
         784
         788
         792
         796
         800
         804
         808
         812
         816
         820
         824
         828
         832
         836
         840
         844
         848
         852
         856
         860
         864
         868
         872
         876
         880
         884
         888
         892
         896
         900
         904
         908
         912
         916
         920
         924
         928
         932
         936
         940
         944
         948
         952
         956
         960
         964
         968
         972
         976
         980
         984
         988
         992
         996
        1000
        1004
        1008
        1012
        1016
        1020
        1024
        1028
        1032
        1036
        1040
        1044
        1048
        1052
        1056
        1060
        1064
        1068
        1072
        1076
        1080
        1084
        1088
        1092
        1096
        1100
        1104
        1108
        1112
        1116
        1120
        1124
        1128
        1132
        1136
        1140
        1144
        1148
        1152
        1156
        1160
        1164
        1168
        1172
        1176
        1180
        1184
        1188
        1192
        1196
        1200
        1204
        1208
        1212
        1216
        1220
        1224
        1228
        1232
        1236
        1240
        1244
        1248
        1252
        1256
        1260
        1264
        1268
        1272
        1276
        1280
        1284
        1288
        1292
        1296
        1300
        1304
        1308
        1312
        1316
        1320
        1324
        1328
        1332
        1336
        1340
        1344
        1348
        1352
        1356
        1360
        1364
        1368
        1372
        1376
        1380
        1384
        1388
        1392
        1396
        1400
        1404
        1408
        1412
        1416
        1420
        1424
        1428
        1432
        1436
        1440
        1444
        1448
        1452
        1456
        1460
        1464
        1468
        1472
        1476
        1480
        1484
        1488
        1492
        1496
        1500
        1504
        1508
        1512
        1516
        1520
        1524
        1528
        1532
        1536
        1540
        1544
        1548
        1552
        1556
        1560
        1564
        1568
        1572
        1576
        1580
        1584
        1588
        1592
        1596
        1600
        1604
        1608
        1612
        1616
        1620
        1624
        1628
        1632
        1636
        1640
        1644
        1648
        1652
        1656
        1660
        1664
        1668
        1672
        1676
        1680
        1684
        1688
        1692
        1696
        1700
        1704
        1708
        1712
        1716
        1720
        1724
        1728
        1732
        1736
        1740
        1744
        1748
        1752
        1756
        1760
        1764
        1768
        1772
        1776
        1780
        1784
        1788
        1792
        1796
        1800
        1804
        1808
        1812
        1816
        1820
        1824
        1828
        1832
        1836
        1840
        1844
        1848
        1852
        1856
        1860
        1864
        1868
        1872
        1876
        1880
        1884
        1888
        1892
        1896
        1900
        1904
        1908
        1912
        1916
        1920
        1924
        1928
        1932
        1936
        1940
        1944
        1948
        1952
        1956
        1960
        1964
        1968
        1972
        1976
        1980
        1984
        1988
        1992
        1996
        2000
        2004
        2008
        2012
        2016
        2020
        2024
        2028
        2032
        2036
        2040
        2044
        2048
        2052
        2056
        2060
        2064
        2068
        2072
        2076
        2080
        2084
        2088
        2092
        2096
        2100
        2104
        2108
        2112
        2116
        2120
        2124
        2128
        2132
        2136
        2140
        2144
        2148
        2152
        2156
        2160
        2164
        2168
        2172
        2176
        2180
        2184
        2188
        2192
        2196
        2200
        2204
        2208
        2212
        2216
        2220
        2224
        2228
        2232
        2236
        2240
        2244
        2248
        2252
        2256
        2260
        2264
        2268
        2272
        2276
        2280
        2284
        2288
        2292
        2296
        2300
        2304
        2308
        2312
        2316
        2320
        2324
        2328
        2332
        2336
        2340
        2344
        2348
        2352
        2356
        2360
        2364
        2368
        2372
        2376
        2380
        2384
        2388
        2392
        2396
        2400
        2404
        2408
        2412
        2416
        2420
        2424
        2428
        2432
        2436
        2440
        2444
        2448
        2452
        2456
        2460
        2464
        2468
        2472
        2476
        2480
        2484
        2488
        2492
        2496
        2500
        2504
        2508
        2512
        2516
        2520
        2524
        2528
        2532
        2536
        2540
        2544
        2548
        2552
        2556
        2560
        2564
        2568
        2572
        2576
        2580
        2584
        2588
        2592
        2596
        2600
        2604
        2608
        2612
        2616
        2620
        2624
        2628
        2632
        2636
        2640
        2644
        2648
        2652
        2656
        2660
        2664
        2668
        2672
        2676
        2680
        2684
        2688
        2692
        2696
        2700
        2704
        2708
        2712
        2716
        2720
        2724
        2728
        2732
        2736
        2740
        2744
        2748
        2752
        2756
        2760
        2764
        2768
        2772
        2776
        2780
        2784
        2788
        2792
        2796
        2800
        2804
        2808
        2812
        2816
        2820
        2824
        2828
        2832
        2836
        2840
        2844
        2848
        2852
        2856
        2860
        2864
        2868
        2872
        2876
        2880
        2884
        2888
        2892
        2896
        2900
        2904
        2908
        2912
        2916
        2920
        2924
        2928
        2932
        2936
        2940
        2944
        2948
        2952
        2956
        2960
        2964
        2968
        2972
        2976
        2980
        2984
        2988
        2992
        2996
        3000
        3004
        3008
        3012
        3016
        3020
        3024
        3028
        3032
        3036
        3040
        3044
        3048
        3052
        3056
        3060
        3064
        3068
        3072
        3076
        3080
        3084
        3088
        3092
        3096
        3100
        3104
        3108
        3112
        3116
        3120
        3124
        3128
        3132
        3136
        3140
        3144
        3148
        3152
        3156
        3160
        3164
        3168
        3172
        3176
        3180
        3184
        3188
        3192
        3196
        3200
        3204
        3208
        3212
        3216
        3220
        3224
        3228
        3232
        3236
        3240
        3244
        3248
        3252
        3256
        3260
        3264
        3268
        3272
        3276
        3280
        3284
        3288
        3292
        3296
        3300
        3304
        3308
        3312
        3316
        3320
        3324
        3328
        3332
        3336
        3340
        3344
        3348
        3352
        3356
        3360
        3364
        3368
        3372
        3376
        3380
        3384
        3388
        3392
        3396
        3400
        3404
        3408
        3412
        3416
        3420
        3424
        3428
        3432
        3436
        3440
        3444
        3448
        3452
        3456
        3460
        3464
        3468
        3472
        3476
        3480
        3484
        3488
        3492
        3496
        3500
        3504
        3508
        3512
        3516
        3520
        3524
        3528
        3532
        3536
        3540
        3544
        3548
        3552
        3556
        3560
        3564
        3568
        3572
        3576
        3580
        3584
        3588
        3592
        3596
        3600
        3604
        3608
        3612
        3616
        3620
        3624
        3628
        3632
        3636
        3640
        3644
        3648
        3652
        3656
        3660
        3664
        3668
        3672
        3676
        3680
        3684
        3688
        3692
        3696
        3700
        3704
        3708
        3712
        3716
        3720
        3724
        3728
        3732
        3736
        3740
        3744
        3748
        3752
        3756
        3760
        3764
        3768
        3772
        3776
        3780
        3784
        3788
        3792
        3796
        3800
        3804
        3808
        3812
        3816
        3820
        3824
        3828
        3832
        3836
        3840
        3844
        3848
        3852
        3856
        3860
        3864
        3868
        3872
        3876
        3880
        3884
        3888
        3892
        3896
        3900
        3904
        3908
        3912
        3916
        3920
        3924
        3928
        3932
        3936
        3940
        3944
        3948
        3952
        3956
        3960
        3964
        3968
        3972
        3976
        3980
        3984
        3988
        3992
        3996
        4000
        4004
        4008
        4012
        4016
        4020
        4024
        4028
        4032
        4036
        4040
        4044
        4048
        4052
        4056
        4060
        4064
        4068
        4072
        4076
        4080
        4084
        4088
        4092
        4096
 </DataArray>
 <DataArray  type="UInt8"  Name="types"  format="ascii">
 9
 9
 9
 9
 9
 9
 9
 9
 9
 9
 9
 9
 9
 9
 9
 9
 9
 9
 9
 9
 9
 9
 9
 9
 9
 9
 9
 9
 9
 9
 9
 9
 9
 9
 9
 9
 9
 9
 9
 9
 9
 9
 9
 9
 9
 9
 9
 9
 9
 9
 9
 9
 9
 9
 9
 9
 9
 9
 9
 9
 9
 9
 9
 9
 9
 9
 9
 9
 9
 9
 9
 9
 9
 9
 9
 9
 9
 9
 9
 9
 9
 9
 9
 9
 9
 9
 9
 9
 9
 9
 9
 9
 9
 9
 9
 9
 9
 9
 9
 9
 9
 9
 9
 9
 9
 9
 9
 9
 9
 9
 9
 9
 9
 9
 9
 9
 9
 9
 9
 9
 9
 9
 9
 9
 9
 9
 9
 9
 9
 9
 9
 9
 9
 9
 9
 9
 9
 9
 9
 9
 9
 9
 9
 9
 9
 9
 9
 9
 9
 9
 9
 9
 9
 9
 9
 9
 9
 9
 9
 9
 9
 9
 9
 9
 9
 9
 9
 9
 9
 9
 9
 9
 9
 9
 9
 9
 9
 9
 9
 9
 9
 9
 9
 9
 9
 9
 9
 9
 9
 9
 9
 9
 9
 9
 9
 9
 9
 9
 9
 9
 9
 9
 9
 9
 9
 9
 9
 9
 9
 9
 9
 9
 9
 9
 9
 9
 9
 9
 9
 9
 9
 9
 9
 9
 9
 9
 9
 9
 9
 9
 9
 9
 9
 9
 9
 9
 9
 9
 9
 9
 9
 9
 9
 9
 9
 9
 9
 9
 9
 9
 9
 9
 9
 9
 9
 9
 9
 9
 9
 9
 9
 9
 9
 9
 9
 9
 9
 9
 9
 9
 9
 9
 9
 9
 9
 9
 9
 9
 9
 9
 9
 9
 9
 9
 9
 9
 9
 9
 9
 9
 9
 9
 9
 9
 9
 9
 9
 9
 9
 9
 9
 9
 9
 9
 9
 9
 9
 9
 9
 9
 9
 9
 9
 9
 9
 9
 9
 9
 9
 9
 9
 9
 9
 9
 9
 9
 9
 9
 9
 9
 9
 9
 9
 9
 9
 9
 9
 9
 9
 9
 9
 9
 9
 9
 9
 9
 9
 9
 9
 9
 9
 9
 9
 9
 9
 9
 9
 9
 9
 9
 9
 9
 9
 9
 9
 9
 9
 9
 9
 9
 9
 9
 9
 9
 9
 9
 9
 9
 9
 9
 9
 9
 9
 9
 9
 9
 9
 9
 9
 9
 9
 9
 9
 9
 9
 9
 9
 9
 9
 9
 9
 9
 9
 9
 9
 9
 9
 9
 9
 9
 9
 9
 9
 9
 9
 9
 9
 9
 9
 9
 9
 9
 9
 9
 9
 9
 9
 9
 9
 9
 9
 9
 9
 9
 9
 9
 9
 9
 9
 9
 9
 9
 9
 9
 9
 9
 9
 9
 9
 9
 9
 9
 9
 9
 9
 9
 9
 9
 9
 9
 9
 9
 9
 9
 9
 9
 9
 9
 9
 9
 9
 9
 9
 9
 9
 9
 9
 9
 9
 9
 9
 9
 9
 9
 9
 9
 9
 9
 9
 9
 9
 9
 9
 9
 9
 9
 9
 9
 9
 9
 9
 9
 9
 9
 9
 9
 9
 9
 9
 9
 9
 9
 9
 9
 9
 9
 9
 9
 9
 9
 9
 9
 9
 9
 9
 9
 9
 9
 9
 9
 9
 9
 9
 9
 9
 9
 9
 9
 9
 9
 9
 9
 9
 9
 9
 9
 9
 9
 9
 9
 9
 9
 9
 9
 9
 9
 9
 9
 9
 9
 9
 9
 9
 9
 9
 9
 9
 9
 9
 9
 9
 9
 9
 9
 9
 9
 9
 9
 9
 9
 9
 9
 9
 9
 9
 9
 9
 9
 9
 9
 9
 9
 9
 9
 9
 9
 9
 9
 9
 9
 9
 9
 9
 9
 9
 9
 9
 9
 9
 9
 9
 9
 9
 9
 9
 9
 9
 9
 9
 9
 9
 9
 9
 9
 9
 9
 9
 9
 9
 9
 9
 9
 9
 9
 9
 9
 9
 9
 9
 9
 9
 9
 9
 9
 9
 9
 9
 9
 9
 9
 9
 9
 9
 9
 9
 9
 9
 9
 9
 9
 9
 9
 9
 9
 9
 9
 9
 9
 9
 9
 9
 9
 9
 9
 9
 9
 9
 9
 9
 9
 9
 9
 9
 9
 9
 9
 9
 9
 9
 9
 9
 9
 9
 9
 9
 9
 9
 9
 9
 9
 9
 9
 9
 9
 9
 9
 9
 9
 9
 9
 9
 9
 9
 9
 9
 9
 9
 9
 9
 9
 9
 9
 9
 9
 9
 9
 9
 9
 9
 9
 9
 9
 9
 9
 9
 9
 9
 9
 9
 9
 9
 9
 9
 9
 9
 9
 9
 9
 9
 9
 9
 9
 9
 9
 9
 9
 9
 9
 9
 9
 9
 9
 9
 9
 9
 9
 9
 9
 9
 9
 9
 9
 9
 9
 9
 9
 9
 9
 9
 9
 9
 9
 9
 9
 9
 9
 9
 9
 9
 9
 9
 9
 9
 9
 9
 9
 9
 9
 9
 9
 9
 9
 9
 9
 9
 9
 9
 9
 9
 9
 9
 9
 9
 9
 9
 9
 9
 9
 9
 9
 9
 9
 9
 9
 9
 9
 9
 9
 9
 9
 9
 9
 9
 9
 9
 9
 9
 9
 9
 9
 9
 9
 9
 9
 9
 9
 9
 9
 9
 9
 9
 9
 9
 9
 9
 9
 9
 9
 9
 9
 9
 9
 9
 9
 9
 9
 9
 9
 9
 9
 9
 9
 9
 9
 9
 9
 9
 9
 9
 9
 9
 9
 9
 9
 9
 9
 9
 9
 9
 9
 9
 9
 9
 9
 9
 9
 9
 9
 9
 9
 9
 9
 9
 9
 9
 9
 9
 9
 9
 9
 9
 9
 9
 9
 9
 9
 9
 9
 9
 9
 9
 9
 9
 9
 9
 9
 9
 9
 9
 9
 9
 9
 9
 9
 9
 9
 9
 9
 9
 9
 9
 9
 9
 9
 9
 9
 9
 9
 9
 9
 9
 9
 9
 9
 9
 9
 9
 9
 9
 9
 9
 9
 9
 9
 9
 9
 9
 9
 9
 9
 9
 9
 9
 9
 9
 9
 9
 9
 9
 9
 9
 9
 9
 9
 9
 9
 9
 9
 9
 9
 9
 9
 9
 9
 9
 9
 9
 9
 9
 9
 9
 9
 9
 9
 9
 9
 9
 9
 9
 9
 9
 9
 9
 9
 9
 9
 9
 9
 9
 9
 9
 9
 9
 9
 </DataArray>
 </Cells> 
 <PointData>
 <DataArray  type="Float64" Name="disp" NumberOfComponents="3" format="ascii">
   0.0000000000000000        0.0000000000000000        0.0000000000000000     
   6.0959126656005436E-003   3.7904581785000628E-003   0.0000000000000000     
   1.1665874340955321E-002   7.3239154587922718E-003   0.0000000000000000     
   1.6709885026064332E-002   1.0600371840876630E-002   0.0000000000000000     
   2.1227944720927580E-002   1.3619827324753130E-002   0.0000000000000000     
   0.0000000000000000        0.0000000000000000        0.0000000000000000     
   4.8910849092661888E-003   3.0221946811963291E-003   0.0000000000000000     
   9.5734761370391552E-003   6.0606383954125379E-003   0.0000000000000000     
   1.4047173683318898E-002   9.1153311426486229E-003   0.0000000000000000     
   1.8312177548105418E-002   1.2186272922904588E-002   0.0000000000000000     
   0.0000000000000000        0.0000000000000000        0.0000000000000000     
   3.9534762665291807E-003   2.4251924623110944E-003   0.0000000000000000     
   7.9104146622404371E-003   5.0630448954709544E-003   0.0000000000000000     
   1.1870815187133774E-002   7.9135572994795799E-003   0.0000000000000000     
   1.5834677841209181E-002   1.0976729674336973E-002   0.0000000000000000     
   0.0000000000000000        0.0000000000000000        0.0000000000000000     
   3.2830867373895194E-003   1.9994515218443574E-003   0.0000000000000000     
   6.6766899165591736E-003   4.3311349589675238E-003   0.0000000000000000     
   1.0180809537508960E-002   6.9950503113695014E-003   0.0000000000000000     
   1.3795445600238879E-002   9.9911975790502889E-003   0.0000000000000000     
   0.0000000000000000        0.0000000000000000        0.0000000000000000     
   2.8799163218472057E-003   1.7449718597961183E-003   0.0000000000000000     
   5.8723018999953594E-003   3.8649085859022467E-003   0.0000000000000000     
   8.9771567344444601E-003   6.3598101783183848E-003   0.0000000000000000     
   1.2194480825194509E-002   9.2296766370445343E-003   0.0000000000000000     
   2.1227944720927580E-002   1.3619827324753130E-002   0.0000000000000000     
   2.5432994915916406E-002   1.6612868820581307E-002   0.0000000000000000     
   2.9537977101402151E-002   1.9810083238520695E-002   0.0000000000000000     
   3.3542891277384815E-002   2.3211470578571283E-002   0.0000000000000000     
   3.7447737443864412E-002   2.6817030840733079E-002   0.0000000000000000     
   1.8312177548105418E-002   1.2186272922904588E-002   0.0000000000000000     
   2.2406754809131572E-002   1.5341800550399260E-002   0.0000000000000000     
   2.6369172544130209E-002   1.8650250839351474E-002   0.0000000000000000     
   3.0199430753101341E-002   2.2111623789761236E-002   0.0000000000000000     
   3.3897529436044960E-002   2.5725919401628536E-002   0.0000000000000000     
   1.5834677841209181E-002   1.0976729674336973E-002   0.0000000000000000     
   1.9730266824072359E-002   1.4211363672207773E-002   0.0000000000000000     
   2.3485846335328988E-002   1.7576260945256630E-002   0.0000000000000000     
   2.7101416374979075E-002   2.1071421493483546E-002   0.0000000000000000     
   3.0576976943022607E-002   2.4696845316888507E-002   0.0000000000000000     
   1.3795445600238879E-002   9.9911975790502889E-003   0.0000000000000000     
   1.7403530960738774E-002   1.3221558186006852E-002   0.0000000000000000     
   2.0887998474998486E-002   1.6588113556236156E-002   0.0000000000000000     
   2.4248848143018011E-002   2.0090863689738198E-002   0.0000000000000000     
   2.7486079964797357E-002   2.3729808586512982E-002   0.0000000000000000     
   1.2194480825194509E-002   9.2296766370445343E-003   0.0000000000000000     
   1.5426547219130820E-002   1.2372384091796489E-002   0.0000000000000000     
   1.8575628963138704E-002   1.5685808672290049E-002   0.0000000000000000     
   2.1641726057218168E-002   1.9169950378525209E-002   0.0000000000000000     
   2.4624838501369206E-002   2.2824809210501971E-002   0.0000000000000000     
   3.7447737443864412E-002   2.6817030840733079E-002   0.0000000000000000     
   4.1256809652464990E-002   3.0622257206278206E-002   0.0000000000000000     
   4.4974401954810631E-002   3.4622642856478800E-002   0.0000000000000000     
   4.8600514350901333E-002   3.8818187791334856E-002   0.0000000000000000     
   5.2135146840737098E-002   4.3208892010846371E-002   0.0000000000000000     
   3.3897529436044960E-002   2.5725919401628536E-002   0.0000000000000000     
   3.7486587093857757E-002   2.9522132340764395E-002   0.0000000000000000     
   4.0989722227436423E-002   3.3529257272979833E-002   0.0000000000000000     
   4.4406934836780959E-002   3.7747294198274856E-002   0.0000000000000000     
   4.7738224921891365E-002   4.2176243116649463E-002   0.0000000000000000     
   3.0576976943022607E-002   2.4696845316888507E-002   0.0000000000000000     
   3.3941904222247146E-002   2.8497267395453888E-002   0.0000000000000000     
   3.7225574395440247E-002   3.2517422709162053E-002   0.0000000000000000     
   4.0427987462601928E-002   3.6757311258013015E-002   0.0000000000000000     
   4.3549143423732159E-002   4.1216933042006756E-002   0.0000000000000000     
   2.7486079964797357E-002   2.3729808586512982E-002   0.0000000000000000     
   3.0622761037633176E-002   2.7547662370346681E-002   0.0000000000000000     
   3.3681958458822145E-002   3.1587139165025452E-002   0.0000000000000000     
   3.6663672228364252E-002   3.5848238970549312E-002   0.0000000000000000     
   3.9567902346259502E-002   4.0330961786918251E-002   0.0000000000000000     
   2.4624838501369206E-002   2.2824809210501971E-002   0.0000000000000000     
   2.7529157540015836E-002   2.6673317265442767E-002   0.0000000000000000     
   3.0358874417582078E-002   3.0738406640570034E-002   0.0000000000000000     
   3.3113989134067927E-002   3.5020077335883762E-002   0.0000000000000000     
   3.5794501689473381E-002   3.9518329351383961E-002   0.0000000000000000     
   5.2135146840737098E-002   4.3208892010846371E-002   0.0000000000000000     
   5.5575920202593491E-002   4.7799144776019757E-002   0.0000000000000000     
   5.8920455214746086E-002   5.2593335347861411E-002   0.0000000000000000     
   6.2168751877194874E-002   5.7591463726371341E-002   0.0000000000000000     
   6.5320810189939862E-002   6.2793529911549545E-002   0.0000000000000000     
   4.7738224921891365E-002   4.2176243116649463E-002   0.0000000000000000     
   5.0979740007641813E-002   4.6809391848841447E-002   0.0000000000000000     
   5.4127627618906479E-002   5.1640028215588649E-002   0.0000000000000000     
   5.7181887755685369E-002   5.6668152216891046E-002   0.0000000000000000     
   6.0142520417978476E-002   6.1893763852748654E-002   0.0000000000000000     
   4.3549143423732159E-002   4.1216933042006756E-002   0.0000000000000000     
   4.6585091812721316E-002   4.5883553654563453E-002   0.0000000000000000     
   4.9531882163459766E-002   5.0744438689103298E-002   0.0000000000000000     
   5.2389514475947502E-002   5.5799588145626265E-002   0.0000000000000000     
   5.5157988750184531E-002   6.1049002024132375E-002   0.0000000000000000     
   3.9567902346259502E-002   4.0330961786918251E-002   0.0000000000000000     
   4.2391975617832027E-002   4.5021630193185773E-002   0.0000000000000000     
   4.5133218848405952E-002   4.9906566768405339E-002   0.0000000000000000     
   4.7791632037981278E-002   5.4985771512576991E-002   0.0000000000000000     
   5.0367215186558012E-002   6.0259244425700693E-002   0.0000000000000000     
   3.5794501689473381E-002   3.9518329351383961E-002   0.0000000000000000     
   3.8400391422973926E-002   4.4223621464708388E-002   0.0000000000000000     
   4.0931637673745039E-002   4.9126412453494805E-002   0.0000000000000000     
   4.3388240441786692E-002   5.4226702317743222E-002   0.0000000000000000     
   4.5770199727098927E-002   5.9524491057453617E-002   0.0000000000000000     
   6.5320810189939862E-002   6.2793529911549545E-002   0.0000000000000000     
   6.8379105065443022E-002   6.8186634605134161E-002   0.0000000000000000     
   7.1346111416166272E-002   7.3757878508863339E-002   0.0000000000000000     
   7.4221829242109641E-002   7.9507261622737080E-002   0.0000000000000000     
   7.7006258543273115E-002   8.5434783946755383E-002   0.0000000000000000     
   6.0142520417978476E-002   6.1893763852748654E-002   0.0000000000000000     
   6.3013444984142922E-002   6.7308615262778607E-002   0.0000000000000000     
   6.5798580832535786E-002   7.2904458586598025E-002   0.0000000000000000     
   6.8497927963157110E-002   7.8681293824206910E-002   0.0000000000000000     
   7.1111486376006866E-002   8.4639120975605248E-002   0.0000000000000000     
   5.5157988750184531E-002   6.1049002024132375E-002   0.0000000000000000     
   5.7841511751366738E-002   6.6486813582833926E-002   0.0000000000000000     
   6.0444290244690030E-002   7.2107156079943197E-002   0.0000000000000000     
   6.2966324230154413E-002   7.7910029515460208E-002   0.0000000000000000     
   6.5407613707759868E-002   8.3895433889384918E-002   0.0000000000000000     
   5.0367215186558012E-002   6.0259244425700693E-002   0.0000000000000000     
   5.2863305367114463E-002   6.5721229565300104E-002   0.0000000000000000     
   5.5283239652628977E-002   7.1365970988898866E-002   0.0000000000000000     
   5.7627018043101538E-002   7.7193468696496931E-002   0.0000000000000000     
   5.9894640538532162E-002   8.3203722688094367E-002   0.0000000000000000     
   4.5770199727098927E-002   5.9524491057453617E-002   0.0000000000000000     
   4.8078825831386118E-002   6.5011863210177170E-002   0.0000000000000000     
   5.0315429056352647E-002   7.0680903313465007E-002   0.0000000000000000     
   5.2480009401998498E-002   7.6531611367317162E-002   0.0000000000000000     
   5.4572566868323708E-002   8.2563987371733594E-002   0.0000000000000000     
   7.7006258543273115E-002   8.5434783946755383E-002   0.0000000000000000     
   7.9694000673146942E-002   9.1531417480103933E-002   0.0000000000000000     
   8.2279656985221356E-002   9.7788134221968359E-002   0.0000000000000000     
   8.4763227479496356E-002  0.10420493417234866        0.0000000000000000     
   8.7144712155971943E-002  0.11078181733124490        0.0000000000000000     
   7.1111486376006866E-002   8.4639120975605248E-002   0.0000000000000000     
   7.3633462654736595E-002   9.0766669317878995E-002   0.0000000000000000     
   7.6058063382997865E-002   9.7052668128113972E-002   0.0000000000000000     
   7.8385288560790675E-002  0.10349711740631022        0.0000000000000000     
   8.0615138188114999E-002  0.11010001715246777        0.0000000000000000     
   6.5407613707759868E-002   8.3895433889384918E-002   0.0000000000000000     
   6.7762719300726082E-002   9.0050891895006396E-002   0.0000000000000000     
   7.0026201632272689E-002   9.6363926225613544E-002   0.0000000000000000     
   7.2198060702399702E-002  0.10283453688120646        0.0000000000000000     
   7.4278296511107095E-002  0.10946272386178509        0.0000000000000000     
   5.9894640538532162E-002   8.3203722688094367E-002   0.0000000000000000     
   6.2081770611115396E-002   8.9384085211486095E-002   0.0000000000000000     
   6.4184071733045828E-002   9.5721908514467088E-002   0.0000000000000000     
   6.6201543904323437E-002  0.10221719259703733        0.0000000000000000     
   6.8134187124948245E-002  0.10886993745919685        0.0000000000000000     
   5.4572566868323708E-002   8.2563987371733594E-002   0.0000000000000000     
   5.6590616585904537E-002   8.8766249267318131E-002   0.0000000000000000     
   5.8531673685317268E-002   9.5126614994674577E-002   0.0000000000000000     
   6.0395738166561894E-002  0.10164508455380285        0.0000000000000000     
   6.2182810029638422E-002  0.10832165794470304        0.0000000000000000     
   8.7144712155971943E-002  0.11078181733124490        0.0000000000000000     
   8.9431263847043960E-002  0.11750517679714395        0.0000000000000000     
   9.1630035385108277E-002  0.12436140566853279        0.0000000000000000     
   9.3741026770164909E-002  0.13135050394541145        0.0000000000000000     
   9.5764238002213814E-002  0.13847247162777987        0.0000000000000000     
   8.0615138188114999E-002  0.11010001715246777        0.0000000000000000     
   8.2756475714679562E-002  0.11684920764941450        0.0000000000000000     
   8.4818164590193063E-002  0.12373252917997839        0.0000000000000000     
   8.6800204814655516E-002  0.13074998174415942        0.0000000000000000     
   8.8702596388066907E-002  0.13790156534195763        0.0000000000000000     
   7.4278296511107095E-002  0.10946272386178509        0.0000000000000000     
   7.6275850550971774E-002  0.11623711074377269        0.0000000000000000     
   7.8199664314570580E-002  0.12314632110359258        0.0000000000000000     
   8.0049737801903526E-002  0.13019035494124467        0.0000000000000000     
   8.1826071012970597E-002  0.13736921225672907        0.0000000000000000     
   6.8134187124948245E-002  0.10886993745919685        0.0000000000000000     
   6.9989388355920570E-002  0.11566888608021852        0.0000000000000000     
   7.1774534558240816E-002  0.12260278143937532        0.0000000000000000     
   7.3489625731908939E-002  0.12967162353666720        0.0000000000000000     
   7.5134661876924955E-002  0.13687541237209419        0.0000000000000000     
   6.2182810029638422E-002  0.10832165794470304        0.0000000000000000     
   6.3897089129526005E-002  0.11514453365875200        0.0000000000000000     
   6.5542775321203769E-002  0.12210191018732665        0.0000000000000000     
   6.7119868604671742E-002  0.12919378753042698        0.0000000000000000     
   6.8628368979929910E-002  0.13642016568805304        0.0000000000000000     
   9.5764238002213814E-002  0.13847247162777987        0.0000000000000000     
   9.7691356166999810E-002  0.14571730768774457        0.0000000000000000     
   9.9514068350267673E-002  0.15307501109741206        0.0000000000000000     
  0.10123237455201739       0.16054558185678233        0.0000000000000000     
  0.10284627477224899       0.16812901996585539        0.0000000000000000     
   8.8702596388066907E-002  0.13790156534195763        0.0000000000000000     
   9.0514078354902092E-002  0.14517481527008794        0.0000000000000000     
   9.2223389759635996E-002  0.15255726682526530        0.0000000000000000     
   9.3830530602268578E-002  0.16004892000748974        0.0000000000000000     
   9.5335500882799837E-002  0.16764977481676127        0.0000000000000000     
   8.1826071012970597E-002  0.13736921225672907        0.0000000000000000     
   8.3517025007598708E-002  0.14466951193938976        0.0000000000000000     
   8.5110960845614730E-002  0.15207787287857083        0.0000000000000000     
   8.6607878527018636E-002  0.15959429507427234        0.0000000000000000     
   8.8007778051810454E-002  0.16721877852649414        0.0000000000000000     
   7.5134661876924955E-002  0.13687541237209419        0.0000000000000000     
   7.6700196125089645E-002  0.14420139769565007        0.0000000000000000     
   7.8176781608203877E-002  0.15163682925732869        0.0000000000000000     
   7.9564418326267580E-002  0.15918170705713000        0.0000000000000000     
   8.0863106279280811E-002  0.16683603109505402        0.0000000000000000     
   6.8628368979929910E-002  0.13642016568805304        0.0000000000000000     
   7.0063591707374917E-002  0.14377047253886890        0.0000000000000000     
   7.1420852047403421E-002  0.15123413596153884        0.0000000000000000     
   7.2700150000015437E-002  0.15881115595606285        0.0000000000000000     
   7.3901485565210936E-002  0.16650153252244085        0.0000000000000000     
   0.0000000000000000        0.0000000000000000        0.0000000000000000     
   2.8799163218472057E-003   1.7449718597961183E-003   0.0000000000000000     
   5.8723018999953594E-003   3.8649085859022467E-003   0.0000000000000000     
   8.9771567344444601E-003   6.3598101783183848E-003   0.0000000000000000     
   1.2194480825194509E-002   9.2296766370445343E-003   0.0000000000000000     
   0.0000000000000000        0.0000000000000000        0.0000000000000000     
   2.6101374047064006E-003   1.5891043871059120E-003   0.0000000000000000     
   5.2893044537568445E-003   3.5570641933180807E-003   0.0000000000000000     
   8.0375011471513300E-003   5.9038794186365047E-003   0.0000000000000000     
   1.0854727484889859E-002   8.6295500630611862E-003   0.0000000000000000     
   0.0000000000000000        0.0000000000000000        0.0000000000000000     
   2.3399223707712652E-003   1.4592000147132735E-003   0.0000000000000000     
   4.7197514190514735E-003   3.3003001982579846E-003   0.0000000000000000     
   7.1394871448406264E-003   5.5233005506341339E-003   0.0000000000000000     
   9.5991295481387216E-003   8.1282010718417199E-003   0.0000000000000000     
   0.0000000000000000        0.0000000000000000        0.0000000000000000     
   2.0692712200418009E-003   1.3552587426182018E-003   0.0000000000000000     
   4.1636427958792509E-003   3.0946166007219588E-003   0.0000000000000000     
   6.2831147275123509E-003   5.2180735743112706E-003   0.0000000000000000     
   8.4276870149411001E-003   7.7256296633861372E-003   0.0000000000000000     
   0.0000000000000000        0.0000000000000000        0.0000000000000000     
   1.7981839525180059E-003   1.2772805708206976E-003   0.0000000000000000     
   3.6209785842401731E-003   2.9400134007100029E-003   0.0000000000000000     
   5.4683838951665020E-003   4.9881984896679166E-003   0.0000000000000000     
   7.3403998852969912E-003   7.4218358376944380E-003   0.0000000000000000     
   1.2194480825194509E-002   9.2296766370445343E-003   0.0000000000000000     
   1.5426547219130820E-002   1.2372384091796489E-002   0.0000000000000000     
   1.8575628963138704E-002   1.5685808672290049E-002   0.0000000000000000     
   2.1641726057218168E-002   1.9169950378525209E-002   0.0000000000000000     
   2.4624838501369206E-002   2.2824809210501971E-002   0.0000000000000000     
   1.0854727484889859E-002   8.6295500630611862E-003   0.0000000000000000     
   1.3687641366199882E-002   1.1651749292716767E-002   0.0000000000000000     
   1.6482900690308857E-002   1.4888150273727894E-002   0.0000000000000000     
   1.9240505457216776E-002   1.8338753006094562E-002   0.0000000000000000     
   2.1960455666923649E-002   2.2003557489816770E-002   0.0000000000000000     
   9.5991295481387216E-003   8.1282010718417199E-003   0.0000000000000000     
   1.2075139168897363E-002   1.1047561691907761E-002   0.0000000000000000     
   1.4543976547068153E-002   1.4213942340859266E-002   0.0000000000000000     
   1.7005641682651087E-002   1.7627343018696243E-002   0.0000000000000000     
   1.9460134575646170E-002   2.1287763725418685E-002   0.0000000000000000     
   8.4276870149411001E-003   7.7256296633861372E-003   0.0000000000000000     
   1.0589040627223259E-002   1.0559821289369470E-002   0.0000000000000000     
   1.2758856533416591E-002   1.3663184873684177E-002   0.0000000000000000     
   1.4937134733521096E-002   1.7035720416330259E-002   0.0000000000000000     
   1.7123875227536774E-002   2.0677427917307711E-002   0.0000000000000000     
   7.3403998852969912E-003   7.4218358376944380E-003   0.0000000000000000     
   9.2293457411775741E-003   1.0188528085101895E-002   0.0000000000000000     
   1.1127540649354180E-002   1.3235877872202619E-002   0.0000000000000000     
   1.3034984609826807E-002   1.6563885198996604E-002   0.0000000000000000     
   1.4951677622595461E-002   2.0172550065483855E-002   0.0000000000000000     
   2.4624838501369206E-002   2.2824809210501971E-002   0.0000000000000000     
   2.7529157540015836E-002   2.6673317265442767E-002   0.0000000000000000     
   3.0358874417582078E-002   3.0738406640570034E-002   0.0000000000000000     
   3.3113989134067927E-002   3.5020077335883762E-002   0.0000000000000000     
   3.5794501689473381E-002   3.9518329351383961E-002   0.0000000000000000     
   2.1960455666923649E-002   2.2003557489816770E-002   0.0000000000000000     
   2.4626215391078239E-002   2.5880775011766784E-002   0.0000000000000000     
   2.7221248701329335E-002   2.9968616858816858E-002   0.0000000000000000     
   2.9745555597676932E-002   3.4267083030966997E-002   0.0000000000000000     
   3.2199136080121031E-002   3.8776173528217189E-002   0.0000000000000000     
   1.9460134575646170E-002   2.1287763725418685E-002   0.0000000000000000     
   2.1879056252503505E-002   2.5176578540343355E-002   0.0000000000000000     
   2.4234007739673200E-002   2.9275161542787004E-002   0.0000000000000000     
   2.6524989037155253E-002   3.3583512732749642E-002   0.0000000000000000     
   2.8752000144949660E-002   3.8101632110231251E-002   0.0000000000000000     
   1.7123875227536774E-002   2.0677427917307711E-002   0.0000000000000000     
   1.9287680124291631E-002   2.4560727851172474E-002   0.0000000000000000     
   2.1397151532613665E-002   2.8658040692480471E-002   0.0000000000000000     
   2.3452289452502887E-002   3.2969366441231704E-002   0.0000000000000000     
   2.5453093883959287E-002   3.7494705097426174E-002   0.0000000000000000     
   1.4951677622595461E-002   2.0172550065483855E-002   0.0000000000000000     
   1.6852087006442612E-002   2.4033222944254150E-002   0.0000000000000000     
   1.8710680080150737E-002   2.8117254307897258E-002   0.0000000000000000     
   2.0527456843719833E-002   3.2424644156413177E-002   0.0000000000000000     
   2.2302417297149900E-002   3.6955392489801911E-002   0.0000000000000000     
   3.5794501689473381E-002   3.9518329351383961E-002   0.0000000000000000     
   3.8400391422973926E-002   4.4223621464708388E-002   0.0000000000000000     
   4.0931637673745039E-002   4.9126412453494805E-002   0.0000000000000000     
   4.3388240441786692E-002   5.4226702317743222E-002   0.0000000000000000     
   4.5770199727098927E-002   5.9524491057453617E-002   0.0000000000000000     
   3.2199136080121031E-002   3.8776173528217189E-002   0.0000000000000000     
   3.4584345130768718E-002   4.3491420284659674E-002   0.0000000000000000     
   3.6903537731727117E-002   4.8408355234386670E-002   0.0000000000000000     
   3.9156713882996214E-002   5.3526978377398192E-002   0.0000000000000000     
   4.1343873584576002E-002   5.8847289713694226E-002   0.0000000000000000     
   2.8752000144949660E-002   3.8101632110231251E-002   0.0000000000000000     
   3.0917842643838116E-002   4.2826919468567981E-002   0.0000000000000000     
   3.3025318114602319E-002   4.7756774601095953E-002   0.0000000000000000     
   3.5074426557242258E-002   5.2891197507815152E-002   0.0000000000000000     
   3.7065167971757941E-002   5.8230188188725600E-002   0.0000000000000000     
   2.5453093883959287E-002   3.7494705097426174E-002   0.0000000000000000     
   2.7400883962182123E-002   4.2230119016433323E-002   0.0000000000000000     
   2.9296978822370642E-002   4.7171670553622647E-002   0.0000000000000000     
   3.1141378464524843E-002   5.2319359708994116E-002   0.0000000000000000     
   3.2934082888644738E-002   5.7673186482547746E-002   0.0000000000000000     
   2.2302417297149900E-002   3.6955392489801911E-002   0.0000000000000000     
   2.4033469085800726E-002   4.1701018928255687E-002   0.0000000000000000     
   2.5718519855032082E-002   4.6653043091966738E-002   0.0000000000000000     
   2.7357569604843975E-002   5.1811464980935064E-002   0.0000000000000000     
   2.8950618335236399E-002   5.7176284595160665E-002   0.0000000000000000     
   4.5770199727098927E-002   5.9524491057453617E-002   0.0000000000000000     
   4.8078825831386118E-002   6.5011863210177170E-002   0.0000000000000000     
   5.0315429056352647E-002   7.0680903313465007E-002   0.0000000000000000     
   5.2480009401998498E-002   7.6531611367317162E-002   0.0000000000000000     
   5.4572566868323708E-002   8.2563987371733594E-002   0.0000000000000000     
   4.1343873584576002E-002   5.8847289713694226E-002   0.0000000000000000     
   4.3464209797136638E-002   6.4358642679971184E-002   0.0000000000000000     
   4.5516915481348265E-002   7.0050390712925445E-002   0.0000000000000000     
   4.7501990637210861E-002   7.5922533812557022E-002   0.0000000000000000     
   4.9419435264724462E-002   8.1975071978865902E-002   0.0000000000000000     
   3.7065167971757941E-002   5.8230188188725600E-002   0.0000000000000000     
   3.8995593917320999E-002   6.3761496137188206E-002   0.0000000000000000     
   4.0863755953103084E-002   6.9472870846563894E-002   0.0000000000000000     
   4.2669654079104204E-002   7.5364312316852686E-002   0.0000000000000000     
   4.4413288295324344E-002   8.1435820548054566E-002   0.0000000000000000     
   3.2934082888644738E-002   5.7673186482547746E-002   0.0000000000000000     
   3.4672978191939194E-002   6.3220423581828278E-002   0.0000000000000000     
   3.6355950471617125E-002   6.8948343714380411E-002   0.0000000000000000     
   3.7982999727678497E-002   7.4856946880204167E-002   0.0000000000000000     
   3.9554125960123337E-002   8.0946233079299573E-002   0.0000000000000000     
   2.8950618335236399E-002   5.7176284595160665E-002   0.0000000000000000     
   3.0496362620991233E-002   6.2735425013891358E-002   0.0000000000000000     
   3.1993499036890354E-002   6.8476809316374967E-002   0.0000000000000000     
   3.3442027582933756E-002   7.4400437502611494E-002   0.0000000000000000     
   3.4841948259121451E-002   8.0506309572600937E-002   0.0000000000000000     
   5.4572566868323708E-002   8.2563987371733594E-002   0.0000000000000000     
   5.6590616585904537E-002   8.8766249267318131E-002   0.0000000000000000     
   5.8531673685317268E-002   9.5126614994674577E-002   0.0000000000000000     
   6.0395738166561894E-002  0.10164508455380285        0.0000000000000000     
   6.2182810029638422E-002  0.10832165794470304        0.0000000000000000     
   4.9419435264724462E-002   8.1975071978865902E-002   0.0000000000000000     
   5.1268404535948775E-002   8.8197281168477207E-002   0.0000000000000000     
   5.3048053622943493E-002   9.4578437338016005E-002   0.0000000000000000     
   5.4758382525708665E-002  0.10111854048748231        0.0000000000000000     
   5.6399391244244243E-002  0.10781759061687611        0.0000000000000000     
   4.4413288295324344E-002   8.1435820548054566E-002   0.0000000000000000     
   4.6094281772103320E-002   8.7677078020937993E-002   0.0000000000000000     
   4.7712257679780976E-002   9.4077767216271480E-002   0.0000000000000000     
   4.9267216018357304E-002  0.10063788813405498        0.0000000000000000     
   5.0759156787832299E-002  0.10735744077428851        0.0000000000000000     
   3.9554125960123337E-002   8.0946233079299573E-002   0.0000000000000000     
   4.1068248294368212E-002   8.7205639824700518E-002   0.0000000000000000     
   4.2524285855829715E-002   9.3624604629440930E-002   0.0000000000000000     
   4.3922238644507845E-002  0.10020312749352084        0.0000000000000000     
   4.5262106660402611E-002  0.10694120841694024        0.0000000000000000     
   3.4841948259121451E-002   8.0506309572600937E-002   0.0000000000000000     
   3.6190304102743431E-002   8.6782966579764767E-002   0.0000000000000000     
   3.7484138151089703E-002   9.3218949577524426E-002   0.0000000000000000     
   3.8723450404160281E-002   9.9814258565879943E-002   0.0000000000000000     
   3.9908240861955144E-002  0.10656889354483129        0.0000000000000000     
   6.2182810029638422E-002  0.10832165794470304        0.0000000000000000     
   6.3897089129526005E-002  0.11514453365875200        0.0000000000000000     
   6.5542775321203769E-002  0.12210191018732665        0.0000000000000000     
   6.7119868604671742E-002  0.12919378753042698        0.0000000000000000     
   6.8628368979929910E-002  0.13642016568805304        0.0000000000000000     
   5.6399391244244243E-002  0.10781759061687611        0.0000000000000000     
   5.7972314933968969E-002  0.11466309710999985        0.0000000000000000     
   5.9478388750301550E-002  0.12164256935065593        0.0000000000000000     
   6.0917612693241988E-002  0.12875600733884437        0.0000000000000000     
   6.2289986762790267E-002  0.13600341107456518        0.0000000000000000     
   5.0759156787832299E-002  0.10735744077428851        0.0000000000000000     
   5.2188427831430462E-002  0.11422362006458880        0.0000000000000000     
   5.3555376992376266E-002  0.12122362093257254        0.0000000000000000     
   5.4860004270669727E-002  0.12835744337823973        0.0000000000000000     
   5.6102309666310829E-002  0.13562508740159038        0.0000000000000000     
   4.5262106660402611E-002  0.10694120841694024        0.0000000000000000     
   4.6545427821910471E-002  0.11382610252251883        0.0000000000000000     
   4.7773740047427925E-002  0.12084506493307645        0.0000000000000000     
   4.8947043336954953E-002  0.12799809564861300        0.0000000000000000     
   5.0065337690491575E-002  0.13528519466912861        0.0000000000000000     
   3.9908240861955144E-002  0.10656889354483129        0.0000000000000000     
   4.1043314905408988E-002  0.11347054448379001        0.0000000000000000     
   4.2133477915456505E-002  0.12050690135216770        0.0000000000000000     
   4.3178729892097679E-002  0.12767796414996430        0.0000000000000000     
   4.4179070835332519E-002  0.13498373287717985        0.0000000000000000     
   6.8628368979929910E-002  0.13642016568805304        0.0000000000000000     
   7.0063591707374917E-002  0.14377047253886890        0.0000000000000000     
   7.1420852047403421E-002  0.15123413596153884        0.0000000000000000     
   7.2700150000015437E-002  0.15881115595606285        0.0000000000000000     
   7.3901485565210936E-002  0.16650153252244085        0.0000000000000000     
   6.2289986762790267E-002  0.13600341107456518        0.0000000000000000     
   6.3595212263529502E-002  0.14337639808660144        0.0000000000000000     
   6.4832990500042764E-002  0.15086658590373628        0.0000000000000000     
   6.6003321472330068E-002  0.15847397452596967        0.0000000000000000     
   6.7106205180391412E-002  0.16619856395330163        0.0000000000000000     
   5.6102309666310829E-002  0.13562508740159038        0.0000000000000000     
   5.7283058302628392E-002  0.14301883595640297        0.0000000000000000     
   5.8403015302951271E-002  0.15053097199645601        0.0000000000000000     
   5.9462180667279430E-002  0.15816149552174941        0.0000000000000000     
   6.0460554395612875E-002  0.16591040653228328        0.0000000000000000     
   5.0065337690491575E-002  0.13528519466912861        0.0000000000000000     
   5.1127129824671616E-002  0.14269778614827347        0.0000000000000000     
   5.2130926456128920E-002  0.15022729423969794        0.0000000000000000     
   5.3076727584863502E-002  0.15787371894340210        0.0000000000000000     
   5.3964533210875319E-002  0.16563706025938585        0.0000000000000000     
   4.4179070835332519E-002  0.13498373287717985        0.0000000000000000     
   4.5127426829659159E-002  0.14241324866221294        0.0000000000000000     
   4.6016723959575748E-002  0.14995555263346222        0.0000000000000000     
   4.6846962225082271E-002  0.15761064479092768        0.0000000000000000     
   4.7618141626178744E-002  0.16537852513460929        0.0000000000000000     
   0.0000000000000000        0.0000000000000000        0.0000000000000000     
   1.7981839525180059E-003   1.2772805708206976E-003   0.0000000000000000     
   3.6209785842401731E-003   2.9400134007100029E-003   0.0000000000000000     
   5.4683838951665020E-003   4.9881984896679166E-003   0.0000000000000000     
   7.3403998852969912E-003   7.4218358376944380E-003   0.0000000000000000     
   0.0000000000000000        0.0000000000000000        0.0000000000000000     
   1.5349328300123082E-003   1.2181132156622925E-003   0.0000000000000000     
   3.0991121415150664E-003   2.8219202287271495E-003   0.0000000000000000     
   4.6925379345082738E-003   4.8114210391945710E-003   0.0000000000000000     
   6.3152102089919331E-003   7.1866156470645585E-003   0.0000000000000000     
   0.0000000000000000        0.0000000000000000        0.0000000000000000     
   1.2877901143371342E-003   1.1706043934845178E-003   0.0000000000000000     
   2.6053968250847551E-003   2.7257667152784291E-003   0.0000000000000000     
   3.9528201322428635E-003   4.6654869653817346E-003   0.0000000000000000     
   5.3300600358114581E-003   6.9897651437944349E-003   0.0000000000000000     
   0.0000000000000000        0.0000000000000000        0.0000000000000000     
   1.0567558054924834E-003   1.1347541042873736E-003   0.0000000000000000     
   2.1398326349492394E-003   2.6515528603638428E-003   0.0000000000000000     
   3.2492304883702675E-003   4.5503962682294083E-003   0.0000000000000000     
   4.3849493657555690E-003   6.8312843278840697E-003   0.0000000000000000     
   0.0000000000000000        0.0000000000000000        0.0000000000000000     
   8.4182990347835625E-004   1.1105623480708597E-003   0.0000000000000000     
   1.7024195711085191E-003   2.5992786639833900E-003   0.0000000000000000     
   2.5817690028904884E-003   4.4661489477375903E-003   0.0000000000000000     
   3.4798781988242640E-003   6.7111731993334612E-003   0.0000000000000000     
   7.3403998852969912E-003   7.4218358376944380E-003   0.0000000000000000     
   9.2293457411775741E-003   1.0188528085101895E-002   0.0000000000000000     
   1.1127540649354180E-002   1.3235877872202619E-002   0.0000000000000000     
   1.3034984609826807E-002   1.6563885198996604E-002   0.0000000000000000     
   1.4951677622595461E-002   2.0172550065483855E-002   0.0000000000000000     
   6.3152102089919331E-003   7.1866156470645585E-003   0.0000000000000000     
   7.9544236271916115E-003   9.8980097250879612E-003   0.0000000000000000     
   9.5974728513328837E-003   1.2896108946015634E-002   0.0000000000000000     
   1.1244357881415749E-002   1.6180913309847573E-002   0.0000000000000000     
   1.2895078717440204E-002   1.9752422816583785E-002   0.0000000000000000     
   5.3300600358114581E-003   6.9897651437944349E-003   0.0000000000000000     
   6.7226434016966832E-003   9.6525938553105872E-003   0.0000000000000000     
   8.1160970958046776E-003   1.2607965704724262E-002   0.0000000000000000     
   9.5104211181354474E-003   1.5855880692035456E-002   0.0000000000000000     
   1.0905615468688986E-002   1.9396338817244167E-002   0.0000000000000000     
   4.3849493657555690E-003   6.8312843278840697E-003   0.0000000000000000     
   5.5340050646927848E-003   9.4522804757697868E-003   0.0000000000000000     
   6.6834133827695643E-003   1.2371448148328511E-002   0.0000000000000000     
   7.8331743199859024E-003   1.5588787345560252E-002   0.0000000000000000     
   8.9832878763418025E-003   1.9104298067465001E-002   0.0000000000000000     
   3.4798781988242640E-003   6.7111731993334612E-003   0.0000000000000000     
   4.3885086161799232E-003   9.2970695864655426E-003   0.0000000000000000     
   5.2994217122275403E-003   1.2186556276828376E-002   0.0000000000000000     
   6.2126174869671169E-003   1.5379633270421958E-002   0.0000000000000000     
   7.1280959403986523E-003   1.8876300567246290E-002   0.0000000000000000     
   1.4951677622595461E-002   2.0172550065483855E-002   0.0000000000000000     
   1.6852087006442612E-002   2.4033222944254150E-002   0.0000000000000000     
   1.8710680080150737E-002   2.8117254307897258E-002   0.0000000000000000     
   2.0527456843719833E-002   3.2424644156413177E-002   0.0000000000000000     
   2.2302417297149900E-002   3.6955392489801911E-002   0.0000000000000000     
   1.2895078717440204E-002   1.9752422816583785E-002   0.0000000000000000     
   1.4532987890408390E-002   2.3584325899875570E-002   0.0000000000000000     
   1.6141437931322437E-002   2.7650310993374231E-002   0.0000000000000000     
   1.7720428840182347E-002   3.1950378097079776E-002   0.0000000000000000     
   1.9269960616988119E-002   3.6484527210992185E-002   0.0000000000000000     
   1.0905615468688986E-002   1.9396338817244167E-002   0.0000000000000000     
   1.2291093767640902E-002   2.3204298798323923E-002   0.0000000000000000     
   1.3656269635166803E-002   2.7254719353248261E-002   0.0000000000000000     
   1.5001143071266687E-002   3.1547600482017178E-002   0.0000000000000000     
   1.6325714075940558E-002   3.6082942184630679E-002   0.0000000000000000     
   8.9832878763418025E-003   1.9104298067465001E-002   0.0000000000000000     
   1.0126404638140149E-002   2.2893141639599216E-002   0.0000000000000000     
   1.1255175191683831E-002   2.6930479387519350E-002   0.0000000000000000     
   1.2369599536972854E-002   3.1216311311225417E-002   0.0000000000000000     
   1.3469677674007209E-002   3.5750637410717379E-002   0.0000000000000000     
   7.1280959403986523E-003   1.8876300567246290E-002   0.0000000000000000     
   8.0389205019061293E-003   2.2650854423701454E-002   0.0000000000000000     
   8.9381546008735248E-003   2.6677591096187506E-002   0.0000000000000000     
   9.8257982373008423E-003   3.0956510584704458E-002   0.0000000000000000     
   1.0701851411188078E-002   3.5487612889252312E-002   0.0000000000000000     
   2.2302417297149900E-002   3.6955392489801911E-002   0.0000000000000000     
   2.4033469085800726E-002   4.1701018928255687E-002   0.0000000000000000     
   2.5718519855032082E-002   4.6653043091966738E-002   0.0000000000000000     
   2.7357569604843975E-002   5.1811464980935064E-002   0.0000000000000000     
   2.8950618335236399E-002   5.7176284595160665E-002   0.0000000000000000     
   1.9269960616988119E-002   3.6484527210992185E-002   0.0000000000000000     
   2.0784378544474194E-002   4.1238884553204500E-002   0.0000000000000000     
   2.2258027905375014E-002   4.6199576341809739E-002   0.0000000000000000     
   2.3690908699690583E-002   5.1366602576807897E-002   0.0000000000000000     
   2.5083020927420891E-002   5.6739963258198980E-002   0.0000000000000000     
   1.6325714075940558E-002   3.6082942184630679E-002   0.0000000000000000     
   1.7622392867982804E-002   4.0842981240449182E-002   0.0000000000000000     
   1.8883589666187826E-002   4.5809954428833122E-002   0.0000000000000000     
   2.0109304470555620E-002   5.0983861749782498E-002   0.0000000000000000     
   2.1299537281086189E-002   5.6364703203297305E-002   0.0000000000000000     
   1.3469677674007209E-002   3.5750637410717379E-002   0.0000000000000000     
   1.4547512056326546E-002   4.0513308989989727E-002   0.0000000000000000     
   1.5595205137470503E-002   4.5484177353036892E-002   0.0000000000000000     
   1.6612756917439089E-002   5.0663242499858881E-002   0.0000000000000000     
   1.7600167396232293E-002   5.6050504430455672E-002   0.0000000000000000     
   1.0701851411188078E-002   3.5487612889252312E-002   0.0000000000000000     
   1.1559736109505421E-002   4.0249867801826149E-002   0.0000000000000000     
   1.2392874319223056E-002   4.5222245114421050E-002   0.0000000000000000     
   1.3201266040340980E-002   5.0404744827037017E-002   0.0000000000000000     
   1.3984911272859193E-002   5.5797366939674055E-002   0.0000000000000000     
   2.8950618335236399E-002   5.7176284595160665E-002   0.0000000000000000     
   3.0496362620991233E-002   6.2735425013891358E-002   0.0000000000000000     
   3.1993499036890354E-002   6.8476809316374967E-002   0.0000000000000000     
   3.3442027582933756E-002   7.4400437502611494E-002   0.0000000000000000     
   3.4841948259121451E-002   8.0506309572600937E-002   0.0000000000000000     
   2.5083020927420891E-002   5.6739963258198980E-002   0.0000000000000000     
   2.6434204371278750E-002   6.2308539887634254E-002   0.0000000000000000     
   2.7744298813976966E-002   6.8061213966764997E-002   0.0000000000000000     
   2.9013304255515539E-002   7.3997985495591209E-002   0.0000000000000000     
   3.0241220695894466E-002   8.0118854474112905E-002   0.0000000000000000     
   2.1299537281086189E-002   5.6364703203297305E-002   0.0000000000000000     
   2.2454960609603405E-002   6.1941807657313726E-002   0.0000000000000000     
   2.3576246967931144E-002   6.7704503979767933E-002   0.0000000000000000     
   2.4663396356069393E-002   7.3652792170659911E-002   0.0000000000000000     
   2.5716408774018158E-002   7.9786672229989683E-002   0.0000000000000000     
   1.7600167396232293E-002   5.6050504430455672E-002   0.0000000000000000     
   1.8558631335965189E-002   6.1635228322929801E-002   0.0000000000000000     
   1.9489343498752865E-002   6.7406679355383789E-002   0.0000000000000000     
   2.0392303884595311E-002   7.3364857527817656E-002   0.0000000000000000     
   2.1267512493492530E-002   7.9509762840231341E-002   0.0000000000000000     
   1.3984911272859193E-002   5.5797366939674055E-002   0.0000000000000000     
   1.4745216550364110E-002   6.1388801884482466E-002   0.0000000000000000     
   1.5483588406442147E-002   6.7167740093612566E-002   0.0000000000000000     
   1.6200026841093298E-002   7.3134181567064360E-002   0.0000000000000000     
   1.6894531854317569E-002   7.9288126304837836E-002   0.0000000000000000     
   3.4841948259121451E-002   8.0506309572600937E-002   0.0000000000000000     
   3.6190304102743431E-002   8.6782966579764767E-002   0.0000000000000000     
   3.7484138151089703E-002   9.3218949577524426E-002   0.0000000000000000     
   3.8723450404160281E-002   9.9814258565879943E-002   0.0000000000000000     
   3.9908240861955144E-002  0.10656889354483129        0.0000000000000000     
   3.0241220695894466E-002   8.0118854474112905E-002   0.0000000000000000     
   3.1423188053385544E-002   8.6411267190989058E-002   0.0000000000000000     
   3.2554346246260531E-002   9.2862669934878739E-002   0.0000000000000000     
   3.3634695274519441E-002   9.9473062705781892E-002   0.0000000000000000     
   3.4664235138162275E-002  0.10624244550369857        0.0000000000000000     
   2.5716408774018158E-002   7.9786672229989683E-002   0.0000000000000000     
   2.6729639002451070E-002   8.6092750563231776E-002   0.0000000000000000     
   2.7697441822041740E-002   9.2557633575860679E-002   0.0000000000000000     
   2.8619817232790168E-002   9.9181321267876418E-002   0.0000000000000000     
   2.9496765234696354E-002  0.10596381363927898        0.0000000000000000     
   2.1267512493492530E-002   7.9509762840231341E-002   0.0000000000000000     
   2.2109656949940038E-002   8.5827416696492867E-002   0.0000000000000000     
   2.2913424878433342E-002   9.2303840500470274E-002   0.0000000000000000     
   2.3678816278972455E-002   9.8939034252163480E-002   0.0000000000000000     
   2.4405831151557370E-002  0.10573299795157255        0.0000000000000000     
   1.6894531854317569E-002   7.9288126304837836E-002   0.0000000000000000     
   1.7563241895852424E-002   8.5615265590772413E-002   0.0000000000000000     
   1.8202295415435339E-002   9.2101290708707498E-002   0.0000000000000000     
   1.8811692413066308E-002   9.8746201658643118E-002   0.0000000000000000     
   1.9391432888745334E-002  0.10554999844057927        0.0000000000000000     
   3.9908240861955144E-002  0.10656889354483129        0.0000000000000000     
   4.1043314905408988E-002  0.11347054448379001        0.0000000000000000     
   4.2133477915456505E-002  0.12050690135216770        0.0000000000000000     
   4.3178729892097679E-002  0.12767796414996430        0.0000000000000000     
   4.4179070835332519E-002  0.13498373287717985        0.0000000000000000     
   3.4664235138162275E-002  0.10624244550369857        0.0000000000000000     
   3.5650847077438430E-002  0.11315897262961559        0.0000000000000000     
   3.6602412332597277E-002  0.12021079838451991        0.0000000000000000     
   3.7518930903638836E-002  0.12739792276841147        0.0000000000000000     
   3.8400402790563101E-002  0.13472034578129025        0.0000000000000000     
   2.9496765234696354E-002  0.10596381363927898        0.0000000000000000     
   3.0336782333511184E-002  0.11289341364120889        0.0000000000000000     
   3.1148365034985529E-002  0.11995842422480674        0.0000000000000000     
   3.1931513339119394E-002  0.12715884539007244        0.0000000000000000     
   3.2686227245912781E-002  0.13449467713700600        0.0000000000000000     
   2.4405831151557370E-002  0.10573299795157255        0.0000000000000000     
   2.5101120673627252E-002  0.11267386751856993        0.0000000000000000     
   2.5771336022621244E-002  0.11974977887302815        0.0000000000000000     
   2.6416477198539345E-002  0.12696073201494720        0.0000000000000000     
   2.7036544201381563E-002  0.13430672694432713        0.0000000000000000     
   1.9391432888745334E-002  0.10554999844057927        0.0000000000000000     
   1.9943862097786633E-002  0.11250033426169870        0.0000000000000000     
   2.0471325295504418E-002  0.11958486232918424        0.0000000000000000     
   2.0973822481898687E-002  0.12680358264303584        0.0000000000000000     
   2.1451353656969447E-002  0.13415649520325354        0.0000000000000000     
   4.4179070835332519E-002  0.13498373287717985        0.0000000000000000     
   4.5127426829659159E-002  0.14241324866221294        0.0000000000000000     
   4.6016723959575748E-002  0.14995555263346222        0.0000000000000000     
   4.6846962225082271E-002  0.15761064479092768        0.0000000000000000     
   4.7618141626178744E-002  0.16537852513460929        0.0000000000000000     
   3.8400402790563101E-002  0.13472034578129025        0.0000000000000000     
   3.9234417468964181E-002  0.14216593810049319        0.0000000000000000     
   4.0008564414436218E-002  0.14972257040335712        0.0000000000000000     
   4.0722843626979185E-002  0.15739024268988211        0.0000000000000000     
   4.1377255106593111E-002  0.16516895496006806        0.0000000000000000     
   3.2686227245912781E-002  0.13449467713700600        0.0000000000000000     
   3.3398569893959867E-002  0.14195656906538609        0.0000000000000000     
   3.4054604421854824E-002  0.14953517077499121        0.0000000000000000     
   3.4654330829597672E-002  0.15723048226582131        0.0000000000000000     
   3.5197749117188377E-002  0.16504250353787650        0.0000000000000000     
   2.7036544201381563E-002  0.13430672694432713        0.0000000000000000     
   2.7619884104646209E-002  0.14178514155689154        0.0000000000000000     
   2.8154843981831587E-002  0.14939335374836432        0.0000000000000000     
   2.8641423832937704E-002  0.15713136351874538        0.0000000000000000     
   2.9079623657964560E-002  0.16499917086803473        0.0000000000000000     
   2.1451353656969447E-002  0.13415649520325354        0.0000000000000000     
   2.1898360101023213E-002  0.14165165557500967        0.0000000000000000     
   2.2309283094366500E-002  0.14929711932347656        0.0000000000000000     
   2.2684122636999308E-002  0.15709288644865421        0.0000000000000000     
   2.3022878728921645E-002  0.16503895695054263        0.0000000000000000     
   0.0000000000000000        0.0000000000000000        0.0000000000000000     
   8.4182990347835625E-004   1.1105623480708597E-003   0.0000000000000000     
   1.7024195711085191E-003   2.5992786639833900E-003   0.0000000000000000     
   2.5817690028904884E-003   4.4661489477375903E-003   0.0000000000000000     
   3.4798781988242640E-003   6.7111731993334612E-003   0.0000000000000000     
   0.0000000000000000        0.0000000000000000        0.0000000000000000     
   6.3408751918557450E-004   1.0944703564673851E-003   0.0000000000000000     
   1.2785767804987058E-003   2.5630844004509053E-003   0.0000000000000000     
   1.9334677839393938E-003   4.4058421319505608E-003   0.0000000000000000     
   2.5987605295076386E-003   6.6227435509663502E-003   0.0000000000000000     
   0.0000000000000000        0.0000000000000000        0.0000000000000000     
   4.2460376350495963E-004   1.0829193611093587E-003   0.0000000000000000     
   8.5372341005591080E-004   2.5371103440802235E-003   0.0000000000000000     
   1.2873589396528535E-003   4.3625729489125964E-003   0.0000000000000000     
   1.7255103522957878E-003   6.5593071756064759E-003   0.0000000000000000     
   0.0000000000000000        0.0000000000000000        0.0000000000000000     
   2.1337863643651177E-004   1.0759093619967797E-003   0.0000000000000000     
   4.2785945978013421E-004   2.5213564948713455E-003   0.0000000000000000     
   6.4344247003086724E-004   4.3363413986236962E-003   0.0000000000000000     
   8.6012766718871099E-004   6.5208640732538348E-003   0.0000000000000000     
   0.0000000000000000        0.0000000000000000        0.0000000000000000     
   4.1213798023084693E-007   1.0734403591296494E-003   0.0000000000000000     
   9.8492967137589569E-007   2.5158228528242709E-003   0.0000000000000000     
   1.7183750734350921E-006   4.3271474810838645E-003   0.0000000000000000     
   2.6124741864084360E-006   6.5074142439084295E-003   0.0000000000000000     
   3.4798781988242640E-003   6.7111731993334612E-003   0.0000000000000000     
   4.3885086161799232E-003   9.2970695864655426E-003   0.0000000000000000     
   5.2994217122275403E-003   1.2186556276828376E-002   0.0000000000000000     
   6.2126174869671169E-003   1.5379633270421958E-002   0.0000000000000000     
   7.1280959403986523E-003   1.8876300567246290E-002   0.0000000000000000     
   2.5987605295076386E-003   6.6227435509663502E-003   0.0000000000000000     
   3.2715184397492563E-003   9.1808336332376717E-003   0.0000000000000000     
   3.9488049372100606E-003   1.2047157354503920E-002   0.0000000000000000     
   4.6306200218900534E-003   1.5221714714765095E-002   0.0000000000000000     
   5.3169636937892353E-003   1.8704505714021200E-002   0.0000000000000000     
   1.7255103522957878E-003   6.5593071756064759E-003   0.0000000000000000     
   2.1683989189919509E-003   9.0974450619259722E-003   0.0000000000000000     
   2.6162459107485813E-003   1.1947118645635208E-002   0.0000000000000000     
   3.0690513275656800E-003   1.5108327926734177E-002   0.0000000000000000     
   3.5268151694432450E-003   1.8581072905222880E-002   0.0000000000000000     
   8.6012766718871099E-004   6.5208640732538348E-003   0.0000000000000000     
   1.0791500539080086E-003   9.0469038725304509E-003   0.0000000000000000     
   1.3017446328431024E-003   1.1886440150222244E-002   0.0000000000000000     
   1.5279114039939937E-003   1.5039472906329204E-002   0.0000000000000000     
   1.7576503673606815E-003   1.8506002140851342E-002   0.0000000000000000     
   2.6124741864084360E-006   6.5074142439084295E-003   0.0000000000000000     
   3.7718444974274882E-006   9.0292100650511027E-003   0.0000000000000000     
   5.3011034936231450E-006   1.1865121868265018E-002   0.0000000000000000     
   7.2002511749954166E-006   1.5015149653550176E-002   0.0000000000000000     
   9.4692875415448418E-006   1.8479293420906574E-002   0.0000000000000000     
   7.1280959403986523E-003   1.8876300567246290E-002   0.0000000000000000     
   8.0389205019061293E-003   2.2650854423701454E-002   0.0000000000000000     
   8.9381546008735248E-003   2.6677591096187506E-002   0.0000000000000000     
   9.8257982373008423E-003   3.0956510584704458E-002   0.0000000000000000     
   1.0701851411188078E-002   3.5487612889252312E-002   0.0000000000000000     
   5.3169636937892353E-003   1.8704505714021200E-002   0.0000000000000000     
   6.0006111742542043E-003   2.2468573197359922E-002   0.0000000000000000     
   6.6743376846315587E-003   2.6486960009868967E-002   0.0000000000000000     
   7.3381432249213013E-003   3.0759666151548327E-002   0.0000000000000000     
   7.9920277951234294E-003   3.5286691622398024E-002   0.0000000000000000     
   3.5268151694432450E-003   1.8581072905222880E-002   0.0000000000000000     
   3.9834464704997363E-003   2.2337434007303942E-002   0.0000000000000000     
   4.4328542648536130E-003   2.6349491659179995E-002   0.0000000000000000     
   4.8750385525048743E-003   3.0617245860851034E-002   0.0000000000000000     
   5.3099993334535219E-003   3.5140696612317064E-002   0.0000000000000000     
   1.7576503673606815E-003   1.8506002140851342E-002   0.0000000000000000     
   1.9874263906427252E-003   2.2257436853533513E-002   0.0000000000000000     
   2.2137043415396867E-003   2.6265186044120592E-002   0.0000000000000000     
   2.4364842200515634E-003   3.0529249712612568E-002   0.0000000000000000     
   2.6557660261783576E-003   3.5049627859009454E-002   0.0000000000000000     
   9.4692875415448418E-006   1.8479293420906574E-002   0.0000000000000000     
   1.2550934683172447E-005   2.2228581736048632E-002   0.0000000000000000     
   1.6887914689780071E-005   2.6234043164690749E-002   0.0000000000000000     
   2.2480227561367456E-005   3.0495677706832935E-002   0.0000000000000000     
   2.9327873297935484E-005   3.5013485362475186E-002   0.0000000000000000     
   1.0701851411188078E-002   3.5487612889252312E-002   0.0000000000000000     
   1.1559736109505421E-002   4.0249867801826149E-002   0.0000000000000000     
   1.2392874319223056E-002   4.5222245114421050E-002   0.0000000000000000     
   1.3201266040340980E-002   5.0404744827037017E-002   0.0000000000000000     
   1.3984911272859193E-002   5.5797366939674055E-002   0.0000000000000000     
   7.9920277951234294E-003   3.5286691622398024E-002   0.0000000000000000     
   8.6315473784850313E-003   4.0046922293738595E-002   0.0000000000000000     
   9.2522579582531971E-003   4.5019244036890622E-002   0.0000000000000000     
   9.8541595344279215E-003   5.0203656851854107E-002   0.0000000000000000     
   1.0437252107009210E-002   5.5600160738629056E-002   0.0000000000000000     
   5.3099993334535219E-003   3.5140696612317064E-002   0.0000000000000000     
   5.7354282142309714E-003   3.9898737083507226E-002   0.0000000000000000     
   6.1490168013686427E-003   4.4870260444350635E-002   0.0000000000000000     
   6.5507650948665348E-003   5.0055266694847333E-002   0.0000000000000000     
   6.9406730947246470E-003   5.5453755834997287E-002   0.0000000000000000     
   2.6557660261783576E-003   3.5049627859009454E-002   0.0000000000000000     
   2.8713786167432432E-003   3.9805312171132035E-002   0.0000000000000000     
   3.0831508485693968E-003   4.4775294336801115E-002   0.0000000000000000     
   3.2910827216568179E-003   4.9959574356016667E-002   0.0000000000000000     
   3.4951742360055074E-003   5.5358152228778740E-002   0.0000000000000000     
   2.9327873297935484E-005   3.5013485362475186E-002   0.0000000000000000     
   3.9398586021844716E-005   3.9766647556613036E-002   0.0000000000000000     
   5.4660099855456906E-005   4.4734345714242021E-002   0.0000000000000000     
   7.5112414798772785E-005   4.9916579835362143E-002   0.0000000000000000     
   1.0075553085179059E-004   5.5313349919973415E-002   0.0000000000000000     
   1.3984911272859193E-002   5.5797366939674055E-002   0.0000000000000000     
   1.4745216550364110E-002   6.1388801884482466E-002   0.0000000000000000     
   1.5483588406442147E-002   6.7167740093612566E-002   0.0000000000000000     
   1.6200026841093298E-002   7.3134181567064360E-002   0.0000000000000000     
   1.6894531854317569E-002   7.9288126304837836E-002   0.0000000000000000     
   1.0437252107009210E-002   5.5600160738629056E-002   0.0000000000000000     
   1.1002618879514427E-002   6.1196685071899799E-002   0.0000000000000000     
   1.1551343055460947E-002   6.6981159226350673E-002   0.0000000000000000     
   1.2083424634848764E-002   7.2953583201981712E-002   0.0000000000000000     
   1.2598863617677883E-002   7.9113956998792867E-002   0.0000000000000000     
   6.9406730947246470E-003   5.5453755834997287E-002   0.0000000000000000     
   7.3187409501304038E-003   6.1053034615109907E-002   0.0000000000000000     
   7.6849688102712289E-003   6.6840409785494589E-002   0.0000000000000000     
   8.0393566751471197E-003   7.2815881346151315E-002   0.0000000000000000     
   8.3819045447580780E-003   7.8979449297080118E-002   0.0000000000000000     
   3.4951742360055074E-003   5.5358152228778740E-002   0.0000000000000000     
   3.6935827622120408E-003   6.0957850514112774E-002   0.0000000000000000     
   3.8844656708729910E-003   6.6745491771044260E-002   0.0000000000000000     
   4.0678229619883609E-003   7.2721075999573226E-002   0.0000000000000000     
   4.2436546355581481E-003   7.8884603199699616E-002   0.0000000000000000     
   1.0075553085179059E-004   5.5313349919973415E-002   0.0000000000000000     
   1.2714431575933723E-004   6.0911132768908402E-002   0.0000000000000000     
   1.4983363726623716E-004   6.6696405182999727E-002   0.0000000000000000     
   1.6882349537248963E-004   7.2669167162247375E-002   0.0000000000000000     
   1.8411389007809615E-004   7.8829418706651347E-002   0.0000000000000000     
   1.6894531854317569E-002   7.9288126304837836E-002   0.0000000000000000     
   1.7563241895852424E-002   8.5615265590772413E-002   0.0000000000000000     
   1.8202295415435339E-002   9.2101290708707498E-002   0.0000000000000000     
   1.8811692413066308E-002   9.8746201658643118E-002   0.0000000000000000     
   1.9391432888745334E-002  0.10554999844057927        0.0000000000000000     
   1.2598863617677883E-002   7.9113956998792867E-002   0.0000000000000000     
   1.3095648129346795E-002   8.5447855828007555E-002   0.0000000000000000     
   1.3571766295253990E-002   9.1940854900849175E-002   0.0000000000000000     
   1.4027218115399471E-002   9.8592954217317730E-002   0.0000000000000000     
   1.4462003589783232E-002  0.10540415377741322        0.0000000000000000     
   8.3819045447580780E-003   7.8979449297080118E-002   0.0000000000000000     
   8.7121299395816962E-003   8.5316745990135529E-002   0.0000000000000000     
   9.0295503800955652E-003   9.1813403777172037E-002   0.0000000000000000     
   9.3341658662996867E-003   9.8469422658189712E-002   0.0000000000000000     
   9.6259763981940607E-003  0.10528480263318850        0.0000000000000000     
   4.2436546355581481E-003   7.8884603199699616E-002   0.0000000000000000     
   4.4126873265571253E-003   8.5221936077156321E-002   0.0000000000000000     
   4.5756476699600618E-003   9.1718937337676124E-002   0.0000000000000000     
   4.7325356657669593E-003   9.8375606981259037E-002   0.0000000000000000     
   4.8833513139778170E-003  0.10519194500790510        0.0000000000000000     
   1.8411389007809615E-004   7.8829418706651347E-002   0.0000000000000000     
   1.9732029027308287E-004   8.5163426089069946E-002   0.0000000000000000     
   2.1005816484748028E-004   9.1657455582361422E-002   0.0000000000000000     
   2.2232751380128605E-004   9.8311507186525787E-002   0.0000000000000000     
   2.3412833713450315E-004  0.10512558090156304        0.0000000000000000     
   1.9391432888745334E-002  0.10554999844057927        0.0000000000000000     
   1.9943862097786633E-002  0.11250033426169870        0.0000000000000000     
   2.0471325295504418E-002  0.11958486232918424        0.0000000000000000     
   2.0973822481898687E-002  0.12680358264303584        0.0000000000000000     
   2.1451353656969447E-002  0.13415649520325354        0.0000000000000000     
   1.4462003589783232E-002  0.10540415377741322        0.0000000000000000     
   1.4874399181551593E-002  0.11236138624271147        0.0000000000000000     
   1.5262681353850865E-002  0.11945158427478832        0.0000000000000000     
   1.5626850106681044E-002  0.12667474787364380        0.0000000000000000     
   1.5966905440042138E-002  0.13403087703927785        0.0000000000000000     
   9.6259763981940607E-003  0.10528480263318850        0.0000000000000000     
   9.9021245004843900E-003  0.11224559583372450        0.0000000000000000     
   1.0159752697876379E-002  0.11933785439135389        0.0000000000000000     
   1.0398860990370032E-002  0.12656157830607659        0.0000000000000000     
   1.0619449377965341E-002  0.13391676757789264        0.0000000000000000     
   4.8833513139778170E-003  0.10519194500790510        0.0000000000000000     
   5.0270380545850233E-003  0.11215296303473786        0.0000000000000000     
   5.1625393275809648E-003  0.11924367267888088        0.0000000000000000     
   5.2898551329656433E-003  0.12646407394033427        0.0000000000000000     
   5.4089854707390595E-003  0.13381416681909786        0.0000000000000000     
   2.3412833713450315E-004  0.10512558090156304        0.0000000000000000     
   2.4913984385349251E-004  0.11208348784575148        0.0000000000000000     
   2.7104124296462159E-004  0.11916903913736937        0.0000000000000000     
   2.9983253446788682E-004  0.12638223477641675        0.0000000000000000     
   3.3551371836329155E-004  0.13372307476289355        0.0000000000000000     
   2.1451353656969447E-002  0.13415649520325354        0.0000000000000000     
   2.1898360101023213E-002  0.14165165557500967        0.0000000000000000     
   2.2309283094366500E-002  0.14929711932347656        0.0000000000000000     
   2.2684122636999308E-002  0.15709288644865421        0.0000000000000000     
   2.3022878728921645E-002  0.16503895695054263        0.0000000000000000     
   1.5966905440042138E-002  0.13403087703927785        0.0000000000000000     
   1.6283334084893315E-002  0.14153645017475450        0.0000000000000000     
   1.6576622772193756E-002  0.14920794568313775        0.0000000000000000     
   1.6846771501943459E-002  0.15704536356442758        0.0000000000000000     
   1.7093780274142427E-002  0.16504870381862394        0.0000000000000000     
   1.0619449377965341E-002  0.13391676757789264        0.0000000000000000     
   1.0824142258058968E-002  0.14141986441114027        0.0000000000000000     
   1.1015564028047566E-002  0.14908731101015774        0.0000000000000000     
   1.1193714687931140E-002  0.15691910737494508        0.0000000000000000     
   1.1358594237709681E-002  0.16491525350550226        0.0000000000000000     
   5.4089854707390595E-003  0.13381416681909786        0.0000000000000000     
   5.5207846205201682E-003  0.14130189828416695        0.0000000000000000     
   5.6261068619279314E-003  0.14893521530453657        0.0000000000000000     
   5.7249521949623468E-003  0.15671411788020678        0.0000000000000000     
   5.8173206196234150E-003  0.16463860601117761        0.0000000000000000     
   3.3551371836329155E-004  0.13372307476289355        0.0000000000000000     
   3.7326117227691729E-004  0.14118255179383449        0.0000000000000000     
   4.0825127383484737E-004  0.14875165856627420        0.0000000000000000     
   4.4048402303708514E-004  0.15643039508021267        0.0000000000000000     
   4.6995941988362596E-004  0.16421876133564997        0.0000000000000000     
   0.0000000000000000        0.0000000000000000        0.0000000000000000     
   4.1213798023084693E-007   1.0734403591296494E-003   0.0000000000000000     
   9.8492967137589569E-007   2.5158228528242709E-003   0.0000000000000000     
   1.7183750734350921E-006   4.3271474810838645E-003   0.0000000000000000     
   2.6124741864084360E-006   6.5074142439084295E-003   0.0000000000000000     
   0.0000000000000000        0.0000000000000000        0.0000000000000000     
  -2.1258761569049772E-004   1.0755492862480167E-003   0.0000000000000000     
  -4.2596998559101782E-004   2.5205901742091598E-003   0.0000000000000000     
  -6.4014710970156032E-004   4.3351226638834294E-003   0.0000000000000000     
  -8.5511898802212514E-004   6.5191467552708241E-003   0.0000000000000000     
   0.0000000000000000        0.0000000000000000        0.0000000000000000     
  -4.2391250840228861E-004   1.0822730770919324E-003   0.0000000000000000     
  -8.5207509132770071E-004   2.5357392152961732E-003   0.0000000000000000     
  -1.2844877487762365E-003   4.3603984146127232E-003   0.0000000000000000     
  -1.7211504807478960E-003   6.5562506750415812E-003   0.0000000000000000     
   0.0000000000000000        0.0000000000000000        0.0000000000000000     
  -6.3356254015514181E-004   1.0936117316613968E-003   0.0000000000000000     
  -1.2773303875386729E-003   2.5612699760853125E-003   0.0000000000000000     
  -1.9313035421505934E-003   4.4029747332717467E-003   0.0000000000000000     
  -2.5954820039909032E-003   6.6187260032207016E-003   0.0000000000000000     
   0.0000000000000000        0.0000000000000000        0.0000000000000000     
  -8.4153771094905728E-004   1.1095652499564094E-003   0.0000000000000000     
  -1.7017358742239341E-003   2.5971824565765760E-003   0.0000000000000000     
  -2.5805944898246308E-003   4.4628516198605009E-003   0.0000000000000000     
  -3.4781135577511470E-003   6.7065727398081827E-003   0.0000000000000000     
   2.6124741864084360E-006   6.5074142439084295E-003   0.0000000000000000     
   3.7718444974274882E-006   9.0292100650511027E-003   0.0000000000000000     
   5.3011034936231450E-006   1.1865121868265018E-002   0.0000000000000000     
   7.2002511749954166E-006   1.5015149653550176E-002   0.0000000000000000     
   9.4692875415448418E-006   1.8479293420906574E-002   0.0000000000000000     
  -8.5511898802212514E-004   6.5191467552708241E-003   0.0000000000000000     
  -1.0719302993683587E-003   9.0446283702610673E-003   0.0000000000000000     
  -1.2916257225559066E-003   1.1883533430743873E-002   0.0000000000000000     
  -1.5142052575847691E-003   1.5035861936719250E-002   0.0000000000000000     
  -1.7396689044549456E-003   1.8501613888187194E-002   0.0000000000000000     
  -1.7211504807478960E-003   6.5562506750415812E-003   0.0000000000000000     
  -2.1621509678179164E-003   9.0934235189334776E-003   0.0000000000000000     
  -2.6075768905615359E-003   1.1942044468639147E-002   0.0000000000000000     
  -3.0574282489787535E-003   1.5102113524158581E-002   0.0000000000000000     
  -3.5117050430695704E-003   1.8573630685491786E-002   0.0000000000000000     
  -2.5954820039909032E-003   6.6187260032207016E-003   0.0000000000000000     
  -3.2668901608512452E-003   9.1755955110683404E-003   0.0000000000000000     
  -3.9425524005232649E-003   1.2040654981950831E-002   0.0000000000000000     
  -4.6224687230069584E-003   1.5213904415868175E-002   0.0000000000000000     
  -5.3066391283023290E-003   1.8695343812820370E-002   0.0000000000000000     
  -3.4781135577511470E-003   6.7065727398081827E-003   0.0000000000000000     
  -4.3861478784683466E-003   9.2911443466656505E-003   0.0000000000000000     
  -5.2965522524410918E-003   1.2179364970678929E-002   0.0000000000000000     
  -6.2093266796693844E-003   1.5371234611848023E-002   0.0000000000000000     
  -7.1244711601532226E-003   1.8866753270172933E-002   0.0000000000000000     
   9.4692875415448418E-006   1.8479293420906574E-002   0.0000000000000000     
   1.2550934683172447E-005   2.2228581736048632E-002   0.0000000000000000     
   1.6887914689780071E-005   2.6234043164690749E-002   0.0000000000000000     
   2.2480227561367456E-005   3.0495677706832935E-002   0.0000000000000000     
   2.9327873297935484E-005   3.5013485362475186E-002   0.0000000000000000     
  -1.7396689044549456E-003   1.8501613888187194E-002   0.0000000000000000     
  -1.9636583097802983E-003   2.2251785950430439E-002   0.0000000000000000     
  -2.1818151201746881E-003   2.6257374788731733E-002   0.0000000000000000     
  -2.3941393356381145E-003   3.0518380403091072E-002   0.0000000000000000     
  -2.6006309561705772E-003   3.5034802793508457E-002   0.0000000000000000     
  -3.5117050430695704E-003   1.8573630685491786E-002   0.0000000000000000     
  -3.9636797551490608E-003   2.2327966792260085E-002   0.0000000000000000     
  -4.4066248675322991E-003   2.6336492684084799E-002   0.0000000000000000     
  -4.8405403802192831E-003   3.0599208360965920E-002   0.0000000000000000     
  -5.2654262932100163E-003   3.5116113822903458E-002   0.0000000000000000     
  -5.3066391283023290E-003   1.8695343812820370E-002   0.0000000000000000     
  -5.9875134014231134E-003   2.2457124261537575E-002   0.0000000000000000     
  -6.6575413273830507E-003   2.6471396850749944E-002   0.0000000000000000     
  -7.3167229061821401E-003   3.0738161580457488E-002   0.0000000000000000     
  -7.9650581378203807E-003   3.5257418450660202E-002   0.0000000000000000     
  -7.1244711601532226E-003   1.8866753270172933E-002   0.0000000000000000     
  -8.0351592486024598E-003   2.2639258358262901E-002   0.0000000000000000     
  -8.9345644997269463E-003   2.6662087288727179E-002   0.0000000000000000     
  -9.8226869135266837E-003   3.0935240061565769E-002   0.0000000000000000     
  -1.0699526490001670E-002   3.5458716676778669E-002   0.0000000000000000     
   2.9327873297935484E-005   3.5013485362475186E-002   0.0000000000000000     
   3.9398586021844716E-005   3.9766647556613036E-002   0.0000000000000000     
   5.4660099855456906E-005   4.4734345714242021E-002   0.0000000000000000     
   7.5112414798772785E-005   4.9916579835362143E-002   0.0000000000000000     
   1.0075553085179059E-004   5.5313349919973415E-002   0.0000000000000000     
  -2.6006309561705772E-003   3.5034802793508457E-002   0.0000000000000000     
  -2.7975548970250084E-003   3.9786199751491801E-002   0.0000000000000000     
  -2.9811760734543336E-003   4.4752129068549029E-002   0.0000000000000000     
  -3.1514944854585556E-003   4.9932590744680115E-002   0.0000000000000000     
  -3.3085101330376748E-003   5.5327584779885100E-002   0.0000000000000000     
  -5.2654262932100163E-003   3.5116113822903458E-002   0.0000000000000000     
  -5.6765248514890976E-003   3.9867425267309901E-002   0.0000000000000000     
  -6.0690783000411320E-003   4.4833358891597737E-002   0.0000000000000000     
  -6.4430866388661186E-003   5.0013914695766971E-002   0.0000000000000000     
  -6.7985498679640549E-003   5.5409092679817612E-002   0.0000000000000000     
  -7.9650581378203807E-003   3.5257418450660202E-002   0.0000000000000000     
  -8.5975112773704291E-003   4.0010324104067331E-002   0.0000000000000000     
  -9.2090465799049403E-003   4.4978035183388165E-002   0.0000000000000000     
  -9.7996640454239160E-003   5.0160551688622705E-002   0.0000000000000000     
  -1.0369363673927354E-002   5.5557873619770937E-002   0.0000000000000000     
  -1.0699526490001670E-002   3.5458716676778669E-002   0.0000000000000000     
  -1.1560514174668997E-002   4.0214896261764117E-002   0.0000000000000000     
  -1.2401080913045755E-002   4.5186157943920328E-002   0.0000000000000000     
  -1.3221226705131947E-002   5.0372501723247316E-002   0.0000000000000000     
  -1.4020951550927569E-002   5.5773927599745074E-002   0.0000000000000000     
   1.0075553085179059E-004   5.5313349919973415E-002   0.0000000000000000     
   1.2714431575933723E-004   6.0911132768908402E-002   0.0000000000000000     
   1.4983363726623716E-004   6.6696405182999727E-002   0.0000000000000000     
   1.6882349537248963E-004   7.2669167162247375E-002   0.0000000000000000     
   1.8411389007809615E-004   7.8829418706651347E-002   0.0000000000000000     
  -3.3085101330376748E-003   5.5327584779885100E-002   0.0000000000000000     
  -3.4585619275141269E-003   6.0923215624215356E-002   0.0000000000000000     
  -3.6079887802103524E-003   6.6705587727722254E-002   0.0000000000000000     
  -3.7567906911263500E-003   7.2674701090405816E-002   0.0000000000000000     
  -3.9049676602621228E-003   7.8830555712266021E-002   0.0000000000000000     
  -6.7985498679640549E-003   5.5409092679817612E-002   0.0000000000000000     
  -7.1415235058947708E-003   6.1004433324752159E-002   0.0000000000000000     
  -7.4780630712180923E-003   6.6785477111573135E-002   0.0000000000000000     
  -7.8081685639340192E-003   7.2752224040280533E-002   0.0000000000000000     
  -8.1318399840425507E-003   7.8904674110874359E-002   0.0000000000000000     
  -1.0369363673927354E-002   5.5557873619770937E-002   0.0000000000000000     
  -1.0921740419382594E-002   6.1154785870518827E-002   0.0000000000000000     
  -1.1460389235756981E-002   6.6936073334552371E-002   0.0000000000000000     
  -1.1985310123050513E-002   7.2901736011871526E-002   0.0000000000000000     
  -1.2496503081263191E-002   7.9051773902476349E-002   0.0000000000000000     
  -1.4020951550927569E-002   5.5773927599745074E-002   0.0000000000000000     
  -1.4799212667977601E-002   6.1374273261515365E-002   0.0000000000000000     
  -1.5554967273827025E-002   6.7157376396659946E-002   0.0000000000000000     
  -1.6288215368475838E-002   7.3123237005178823E-002   0.0000000000000000     
  -1.6998956951924039E-002   7.9271855087071991E-002   0.0000000000000000     
   1.8411389007809615E-004   7.8829418706651347E-002   0.0000000000000000     
   1.9732029027308287E-004   8.5163426089069946E-002   0.0000000000000000     
   2.1005816484748028E-004   9.1657455582361422E-002   0.0000000000000000     
   2.2232751380128605E-004   9.8311507186525787E-002   0.0000000000000000     
   2.3412833713450315E-004  0.10512558090156304        0.0000000000000000     
  -3.9049676602621228E-003   7.8830555712266021E-002   0.0000000000000000     
  -4.0502845851924426E-003   8.5159962219468088E-002   0.0000000000000000     
  -4.1905063634920898E-003   9.1649731238177143E-002   0.0000000000000000     
  -4.3256329951610597E-003   9.8299862768393226E-002   0.0000000000000000     
  -4.4556644801993540E-003  0.10511035681011635        0.0000000000000000     
  -8.1318399840425507E-003   7.8904674110874359E-002   0.0000000000000000     
  -8.4464407157614687E-003   8.5230290661942418E-002   0.0000000000000000     
  -8.7493341433085570E-003   9.1716537032072581E-002   0.0000000000000000     
  -9.0405202666838103E-003   9.8363413221264767E-002   0.0000000000000000     
  -9.3199990858872286E-003  0.10517091922951904        0.0000000000000000     
  -1.2496503081263191E-002   7.9051773902476349E-002   0.0000000000000000     
  -1.2991148101433996E-002   8.5374411416492990E-002   0.0000000000000000     
  -1.3466425174601920E-002   9.1857872964047682E-002   0.0000000000000000     
  -1.3922334300766961E-002   9.8502158545140384E-002   0.0000000000000000     
  -1.4358875479929121E-002  0.10530726815977116        0.0000000000000000     
  -1.6998956951924039E-002   7.9271855087071991E-002   0.0000000000000000     
  -1.7684406742210022E-002   8.5592324483119750E-002   0.0000000000000000     
  -1.8341779457372184E-002   9.2073739034102459E-002   0.0000000000000000     
  -1.8971075097410518E-002   9.8716098740020089E-002   0.0000000000000000     
  -1.9572293662325029E-002  0.10551940360087267        0.0000000000000000     
   2.3412833713450315E-004  0.10512558090156304        0.0000000000000000     
   2.4913984385349251E-004  0.11208348784575148        0.0000000000000000     
   2.7104124296462159E-004  0.11916903913736937        0.0000000000000000     
   2.9983253446788682E-004  0.12638223477641675        0.0000000000000000     
   3.3551371836329155E-004  0.13372307476289355        0.0000000000000000     
  -4.4556644801993540E-003  0.10511035681011635        0.0000000000000000     
  -4.5726029296215796E-003  0.11206428199557156        0.0000000000000000     
  -4.6684504544423407E-003  0.11914470695698397        0.0000000000000000     
  -4.7432070546616365E-003  0.12635163169435357        0.0000000000000000     
  -4.7968727302794677E-003  0.13368505620768031        0.0000000000000000     
  -9.3199990858872286E-003  0.10517091922951904        0.0000000000000000     
  -9.5792230637515730E-003  0.11212245721300429        0.0000000000000000     
  -9.8096446631096082E-003  0.11920142932788931        0.0000000000000000     
  -1.0011263883961324E-002  0.12640783557417418        0.0000000000000000     
  -1.0184080726306723E-002  0.13374167595185887        0.0000000000000000     
  -1.4358875479929121E-002  0.10530726815977116        0.0000000000000000     
  -1.4770720558536491E-002  0.11225801349804963        0.0000000000000000     
  -1.5152541383037175E-002  0.11933920625008546        0.0000000000000000     
  -1.5504337953431176E-002  0.12655084641587863        0.0000000000000000     
  -1.5826110269718481E-002  0.13389293399542918        0.0000000000000000     
  -1.9572293662325029E-002  0.10551940360087267        0.0000000000000000     
  -2.0147095413976336E-002  0.11247095085070760        0.0000000000000000     
  -2.0697140614225056E-002  0.11955803772357232        0.0000000000000000     
  -2.1222429263071187E-002  0.12678066421946685        0.0000000000000000     
  -2.1722961360514735E-002  0.13413883033839125        0.0000000000000000     
   3.3551371836329155E-004  0.13372307476289355        0.0000000000000000     
   3.7326117227691729E-004  0.14118255179383449        0.0000000000000000     
   4.0825127383484737E-004  0.14875165856627420        0.0000000000000000     
   4.4048402303708514E-004  0.15643039508021267        0.0000000000000000     
   4.6995941988362596E-004  0.16421876133564997        0.0000000000000000     
  -4.7968727302794677E-003  0.13368505620768031        0.0000000000000000     
  -4.8395060691999638E-003  0.14111976107231547        0.0000000000000000     
  -4.8811656593272506E-003  0.14863052686361011        0.0000000000000000     
  -4.9218515006613306E-003  0.15621735358156430        0.0000000000000000     
  -4.9615635932022039E-003  0.16388024122617798        0.0000000000000000     
  -1.0184080726306723E-002  0.13374167595185887        0.0000000000000000     
  -1.0338595086439650E-002  0.14117146225178243        0.0000000000000000     
  -1.0485306860653939E-002  0.14866570626478384        0.0000000000000000     
  -1.0624216048949585E-002  0.15622440799086310        0.0000000000000000     
  -1.0755322651326591E-002  0.16384756743002024        0.0000000000000000     
  -1.5826110269718481E-002  0.13389293399542918        0.0000000000000000     
  -1.6124005879442144E-002  0.14133765533223533        0.0000000000000000     
  -1.6404172330145211E-002  0.14885719676979528        0.0000000000000000     
  -1.6666609621827672E-002  0.15645155830810908        0.0000000000000000     
  -1.6911317754489535E-002  0.16412073994717674        0.0000000000000000     
  -2.1722961360514735E-002  0.13413883033839125        0.0000000000000000     
  -2.2195738448207443E-002  0.14161834031367418        0.0000000000000000     
  -2.2637762067801066E-002  0.14920499837864457        0.0000000000000000     
  -2.3049032219295596E-002  0.15689880453330232        0.0000000000000000     
  -2.3429548902691041E-002  0.16469975877764748        0.0000000000000000     
   0.0000000000000000        0.0000000000000000        0.0000000000000000     
  -8.4153771094905728E-004   1.1095652499564094E-003   0.0000000000000000     
  -1.7017358742239341E-003   2.5971824565765760E-003   0.0000000000000000     
  -2.5805944898246308E-003   4.4628516198605009E-003   0.0000000000000000     
  -3.4781135577511470E-003   6.7065727398081827E-003   0.0000000000000000     
   0.0000000000000000        0.0000000000000000        0.0000000000000000     
  -1.0566991597226064E-003   1.1336858035350045E-003   0.0000000000000000     
  -2.1397212439242977E-003   2.6493244631907989E-003   0.0000000000000000     
  -3.2490662526050737E-003   4.5469159789673841E-003   0.0000000000000000     
  -4.3847341857649351E-003   6.8264603508647586E-003   0.0000000000000000     
   0.0000000000000000        0.0000000000000000        0.0000000000000000     
  -1.2879080254143600E-003   1.1695255639552172E-003   0.0000000000000000     
  -2.6057161891805758E-003   2.7235438023488160E-003   0.0000000000000000     
  -3.9534244912986473E-003   4.6620547151807971E-003   0.0000000000000000     
  -5.3310329317685741E-003   6.9850583024511602E-003   0.0000000000000000     
   0.0000000000000000        0.0000000000000000        0.0000000000000000     
  -1.5351643080243182E-003   1.2170845312170471E-003   0.0000000000000000     
  -3.0997207099927680E-003   2.8198404740506270E-003   0.0000000000000000     
  -4.6936692059053511E-003   4.8082678285007409E-003   0.0000000000000000     
  -6.3170097957620640E-003   7.1823665945673874E-003   0.0000000000000000     
   0.0000000000000000        0.0000000000000000        0.0000000000000000     
  -1.7984680075524809E-003   1.2763627053204939E-003   0.0000000000000000     
  -3.6217348063608762E-003   2.9382144782962318E-003   0.0000000000000000     
  -5.4698003964251838E-003   4.9855553189272137E-003   0.0000000000000000     
  -7.3426647777454050E-003   7.4183852272134403E-003   0.0000000000000000     
  -3.4781135577511470E-003   6.7065727398081827E-003   0.0000000000000000     
  -4.3861478784683466E-003   9.2911443466656505E-003   0.0000000000000000     
  -5.2965522524410918E-003   1.2179364970678929E-002   0.0000000000000000     
  -6.2093266796693844E-003   1.5371234611848023E-002   0.0000000000000000     
  -7.1244711601532226E-003   1.8866753270172933E-002   0.0000000000000000     
  -4.3847341857649351E-003   6.8264603508647586E-003   0.0000000000000000     
  -5.5339448321749000E-003   9.4461478163893175E-003   0.0000000000000000     
  -6.6839179806059872E-003   1.2364168613047453E-002   0.0000000000000000     
  -7.8346536310581957E-003   1.5580522740839167E-002   0.0000000000000000     
  -8.9861517835315274E-003   1.9095210199764463E-002   0.0000000000000000     
  -5.3310329317685741E-003   6.9850583024511602E-003   0.0000000000000000     
  -6.7243017334765879E-003   9.6466837109032508E-003   0.0000000000000000     
  -8.1189911193089142E-003   1.2601060087280413E-002   0.0000000000000000     
  -9.5151010892655617E-003   1.5848187431582651E-002   0.0000000000000000     
  -1.0912631643346524E-002   1.9388065743809958E-002   0.0000000000000000     
  -6.3170097957620640E-003   7.1823665945673874E-003   0.0000000000000000     
  -7.9572185823734067E-003   9.8927520302074488E-003   0.0000000000000000     
  -9.6017716685498789E-003   1.2890039393377808E-002   0.0000000000000000     
  -1.1250669054291477E-002   1.6174228684078466E-002   0.0000000000000000     
  -1.2903910739598205E-002   1.9745319902309412E-002   0.0000000000000000     
  -7.3426647777454050E-003   7.4183852272134403E-003   0.0000000000000000     
  -9.2326953788653618E-003   1.0184352774301913E-002   0.0000000000000000     
  -1.1132259628328877E-002   1.3231106531339635E-002   0.0000000000000000     
  -1.3041357526135946E-002   1.6558646498326609E-002   0.0000000000000000     
  -1.4959989072286576E-002   2.0166972675262830E-002   0.0000000000000000     
  -7.1244711601532226E-003   1.8866753270172933E-002   0.0000000000000000     
  -8.0351592486024598E-003   2.2639258358262901E-002   0.0000000000000000     
  -8.9345644997269463E-003   2.6662087288727179E-002   0.0000000000000000     
  -9.8226869135266837E-003   3.0935240061565769E-002   0.0000000000000000     
  -1.0699526490001670E-002   3.5458716676778669E-002   0.0000000000000000     
  -8.9861517835315274E-003   1.9095210199764463E-002   0.0000000000000000     
  -1.0131577510699361E-002   2.2882486859330479E-002   0.0000000000000000     
  -1.1264095885235073E-002   2.6916608589044363E-002   0.0000000000000000     
  -1.2383706907138666E-002   3.1197575388906117E-002   0.0000000000000000     
  -1.3490410576410138E-002   3.5725387258915733E-002   0.0000000000000000     
  -1.0912631643346524E-002   1.9388065743809958E-002   0.0000000000000000     
  -1.2301728401726081E-002   2.3194927541634734E-002   0.0000000000000000     
  -1.3672536984578520E-002   2.7243005342729377E-002   0.0000000000000000     
  -1.5025057391903842E-002   3.1532299147093885E-002   0.0000000000000000     
  -1.6359289623702040E-002   3.6062808954728263E-002   0.0000000000000000     
  -1.2903910739598205E-002   1.9745319902309412E-002   0.0000000000000000     
  -1.4545611921682619E-002   2.3576580405175667E-002   0.0000000000000000     
  -1.6159887797757292E-002   2.7641277549782215E-002   0.0000000000000000     
  -1.7746738367822205E-002   3.1939411336129077E-002   0.0000000000000000     
  -1.9306163631877378E-002   3.6470981764216238E-002   0.0000000000000000     
  -1.4959989072286576E-002   2.0166972675262830E-002   0.0000000000000000     
  -1.6863228070568979E-002   2.4027445449953267E-002   0.0000000000000000     
  -1.8726148324771374E-002   2.8111425210202889E-002   0.0000000000000000     
  -2.0548749834893767E-002   3.2418911956011688E-002   0.0000000000000000     
  -2.2331032600936149E-002   3.6949905687379672E-002   0.0000000000000000     
  -1.0699526490001670E-002   3.5458716676778669E-002   0.0000000000000000     
  -1.1560514174668997E-002   4.0214896261764117E-002   0.0000000000000000     
  -1.2401080913045755E-002   4.5186157943920328E-002   0.0000000000000000     
  -1.3221226705131947E-002   5.0372501723247316E-002   0.0000000000000000     
  -1.4020951550927569E-002   5.5773927599745074E-002   0.0000000000000000     
  -1.3490410576410138E-002   3.5725387258915733E-002   0.0000000000000000     
  -1.4580475021131824E-002   4.0484065901258012E-002   0.0000000000000000     
  -1.5650168369386055E-002   4.5457633018117727E-002   0.0000000000000000     
  -1.6699490621172836E-002   5.0646088609494884E-002   0.0000000000000000     
  -1.7728441776492160E-002   5.6049432675389484E-002   0.0000000000000000     
  -1.6359289623702040E-002   3.6062808954728263E-002   0.0000000000000000     
  -1.7672335294505931E-002   4.0820757183406824E-002   0.0000000000000000     
  -1.8961296018848318E-002   4.5792366250903917E-002   0.0000000000000000     
  -2.0226171796729212E-002   5.0977636157219515E-002   0.0000000000000000     
  -2.1466962628148595E-002   5.6376566902353639E-002   0.0000000000000000     
  -1.9306163631877378E-002   3.6470981764216238E-002   0.0000000000000000     
  -2.0836094994791318E-002   4.1224970108210558E-002   0.0000000000000000     
  -2.2334463861432549E-002   4.6190357642278877E-002   0.0000000000000000     
  -2.3801270231801067E-002   5.1367144366421195E-002   0.0000000000000000     
  -2.5236514105896873E-002   5.6755330280637513E-002   0.0000000000000000     
  -2.2331032600936149E-002   3.6949905687379672E-002   0.0000000000000000     
  -2.4071754121987986E-002   4.1696704675669195E-002   0.0000000000000000     
  -2.5769671897138736E-002   4.6651607192242608E-002   0.0000000000000000     
  -2.7424785926388404E-002   5.1814613237099925E-002   0.0000000000000000     
  -2.9037096209736983E-002   5.7185722810241132E-002   0.0000000000000000     
  -1.4020951550927569E-002   5.5773927599745074E-002   0.0000000000000000     
  -1.4799212667977601E-002   6.1374273261515365E-002   0.0000000000000000     
  -1.5554967273827025E-002   6.7157376396659946E-002   0.0000000000000000     
  -1.6288215368475838E-002   7.3123237005178823E-002   0.0000000000000000     
  -1.6998956951924039E-002   7.9271855087071991E-002   0.0000000000000000     
  -1.7728441776492160E-002   5.6049432675389484E-002   0.0000000000000000     
  -1.8731597313787016E-002   6.1650926089350834E-002   0.0000000000000000     
  -1.9703532711500382E-002   6.7433829724928243E-002   0.0000000000000000     
  -2.0644247969632257E-002   7.3398143582121669E-002   0.0000000000000000     
  -2.1553743088182649E-002   7.9543867660931147E-002   0.0000000000000000     
  -2.1466962628148595E-002   5.6376566902353639E-002   0.0000000000000000     
  -2.2676551418918070E-002   6.1972774945634301E-002   0.0000000000000000     
  -2.3847821074849229E-002   6.7749876746389534E-002   0.0000000000000000     
  -2.4980771595942062E-002   7.3707872304619351E-002   0.0000000000000000     
  -2.6075402982196575E-002   7.9846761620323711E-002   0.0000000000000000     
  -2.5236514105896873E-002   5.6755330280637513E-002   0.0000000000000000     
  -2.6634074983370764E-002   6.2339819830365767E-002   0.0000000000000000     
  -2.7987832363873557E-002   6.8105517461043902E-002   0.0000000000000000     
  -2.9297786247405238E-002   7.4052423172671855E-002   0.0000000000000000     
  -3.0563936633965814E-002   8.0180536965249696E-002   0.0000000000000000     
  -2.9037096209736983E-002   5.7185722810241132E-002   0.0000000000000000     
  -3.0604168007145105E-002   6.2752060743545238E-002   0.0000000000000000     
  -3.2123566578573369E-002   6.8500751868891263E-002   0.0000000000000000     
  -3.3595291924021796E-002   7.4431796186279209E-002   0.0000000000000000     
  -3.5019344043490372E-002   8.0545193695709075E-002   0.0000000000000000     
  -1.6998956951924039E-002   7.9271855087071991E-002   0.0000000000000000     
  -1.7684406742210022E-002   8.5592324483119750E-002   0.0000000000000000     
  -1.8341779457372184E-002   9.2073739034102459E-002   0.0000000000000000     
  -1.8971075097410518E-002   9.8716098740020089E-002   0.0000000000000000     
  -1.9572293662325029E-002  0.10551940360087267        0.0000000000000000     
  -2.1553743088182649E-002   7.9543867660931147E-002   0.0000000000000000     
  -2.2429225261502483E-002   8.5860686462624403E-002   0.0000000000000000     
  -2.3267901683942712E-002   9.2338284488469119E-002   0.0000000000000000     
  -2.4069772355503321E-002   9.8976661738465296E-002   0.0000000000000000     
  -2.4834837276184327E-002  0.10577581821261295        0.0000000000000000     
  -2.6075402982196575E-002   7.9846761620323711E-002   0.0000000000000000     
  -2.7128612282724330E-002   8.6156153955808584E-002   0.0000000000000000     
  -2.8137296546636877E-002   9.2625658573379788E-002   0.0000000000000000     
  -2.9101455773934234E-002   9.9255275473037405E-002   0.0000000000000000     
  -3.0021089964616388E-002  0.10604500465478138        0.0000000000000000     
  -3.0563936633965814E-002   8.0180536965249696E-002   0.0000000000000000     
  -3.1782567805875545E-002   8.6478726962672267E-002   0.0000000000000000     
  -3.2949964045454687E-002   9.2935861288834520E-002   0.0000000000000000     
  -3.4066125352703237E-002   9.9551939943736414E-002   0.0000000000000000     
  -3.5131051727621210E-002  0.10632696292737800        0.0000000000000000     
  -3.5019344043490372E-002   8.0545193695709075E-002   0.0000000000000000     
  -3.6391091830956138E-002   8.6828405483215534E-002   0.0000000000000000     
  -3.7705904180396120E-002   9.3268892634833303E-002   0.0000000000000000     
  -3.8963781091810347E-002   9.9866655150562381E-002   0.0000000000000000     
  -4.0164722565198797E-002  0.10662169303040278        0.0000000000000000     
  -1.9572293662325029E-002  0.10551940360087267        0.0000000000000000     
  -2.0147095413976336E-002  0.11247095085070760        0.0000000000000000     
  -2.0697140614225056E-002  0.11955803772357232        0.0000000000000000     
  -2.1222429263071187E-002  0.12678066421946685        0.0000000000000000     
  -2.1722961360514735E-002  0.13413883033839125        0.0000000000000000     
  -2.4834837276184327E-002  0.10577581821261295        0.0000000000000000     
  -2.5571718875086618E-002  0.11272555855380788        0.0000000000000000     
  -2.6289039581311097E-002  0.11981568740494586        0.0000000000000000     
  -2.6986799394857760E-002  0.12704620476602690        0.0000000000000000     
  -2.7664998315726611E-002  0.13441711063705103        0.0000000000000000     
  -3.0021089964616388E-002  0.10604500465478138        0.0000000000000000     
  -3.0907962186882861E-002  0.11298612589018008        0.0000000000000000     
  -3.1773835508933146E-002  0.12006991895080187        0.0000000000000000     
  -3.2618709930767278E-002  0.12729638383664668        0.0000000000000000     
  -3.3442585452385237E-002  0.13466552054771455        0.0000000000000000     
  -3.5131051727621210E-002  0.10632696292737800        0.0000000000000000     
  -3.6155825349365046E-002  0.11325265285982430        0.0000000000000000     
  -3.7151528397091245E-002  0.12032073236114034        0.0000000000000000     
  -3.8118160870799743E-002  0.12753120143132621        0.0000000000000000     
  -3.9055722770490589E-002  0.13488406007038184        0.0000000000000000     
  -4.0164722565198797E-002  0.10662169303040278        0.0000000000000000     
  -4.1315308362533207E-002  0.11352513946274041        0.0000000000000000     
  -4.2422118245785331E-002  0.12056812763596132        0.0000000000000000     
  -4.3485152214955164E-002  0.12775065755006548        0.0000000000000000     
  -4.4504410270042705E-002  0.13507272920505281        0.0000000000000000     
  -2.1722961360514735E-002  0.13413883033839125        0.0000000000000000     
  -2.2195738448207443E-002  0.14161834031367418        0.0000000000000000     
  -2.2637762067801066E-002  0.14920499837864457        0.0000000000000000     
  -2.3049032219295596E-002  0.15689880453330232        0.0000000000000000     
  -2.3429548902691041E-002  0.16469975877764748        0.0000000000000000     
  -2.7664998315726611E-002  0.13441711063705103        0.0000000000000000     
  -2.8311424066798433E-002  0.14192723651940584        0.0000000000000000     
  -2.8913864370954018E-002  0.14957541391447890        0.0000000000000000     
  -2.9472319228193353E-002  0.15736164282227030        0.0000000000000000     
  -2.9986788638516448E-002  0.16528592324277999        0.0000000000000000     
  -3.3442585452385237E-002  0.13466552054771455        0.0000000000000000     
  -3.4228694009277999E-002  0.14217806327273708        0.0000000000000000     
  -3.4960267536936561E-002  0.14983474620044576        0.0000000000000000     
  -3.5637306035360937E-002  0.15763556933084061        0.0000000000000000     
  -3.6259809504551099E-002  0.16558053266392173        0.0000000000000000     
  -3.9055722770490589E-002  0.13488406007038184        0.0000000000000000     
  -3.9947548275646137E-002  0.14237082057366790        0.0000000000000000     
  -4.0776971565748714E-002  0.14998299523654504        0.0000000000000000     
  -4.1543992640798347E-002  0.15772058405901335        0.0000000000000000     
  -4.2248611500795008E-002  0.16558358704107271        0.0000000000000000     
  -4.4504410270042705E-002  0.13507272920505281        0.0000000000000000     
  -4.5467986865902837E-002  0.14250550842219831        0.0000000000000000     
  -4.6363976457390460E-002  0.15002016102277682        0.0000000000000000     
  -4.7192379044505565E-002  0.15761668700678841        0.0000000000000000     
  -4.7953194627248168E-002  0.16529508637423296        0.0000000000000000     
   0.0000000000000000        0.0000000000000000        0.0000000000000000     
  -1.7984680075524809E-003   1.2763627053204939E-003   0.0000000000000000     
  -3.6217348063608762E-003   2.9382144782962318E-003   0.0000000000000000     
  -5.4698003964251838E-003   4.9855553189272137E-003   0.0000000000000000     
  -7.3426647777454050E-003   7.4183852272134403E-003   0.0000000000000000     
   0.0000000000000000        0.0000000000000000        0.0000000000000000     
  -2.0695764878209105E-003   1.3544850120924905E-003   0.0000000000000000     
  -4.1644559559221913E-003   3.0931551320923134E-003   0.0000000000000000     
  -6.2846384043038408E-003   5.2160103599994687E-003   0.0000000000000000     
  -8.4301238329658607E-003   7.7230506958139563E-003   0.0000000000000000     
   0.0000000000000000        0.0000000000000000        0.0000000000000000     
  -2.3402471126516685E-003   1.4585763773599693E-003   0.0000000000000000     
  -4.7205816363140064E-003   3.2991517524455548E-003   0.0000000000000000     
  -7.1410035709870145E-003   5.5217261252567575E-003   0.0000000000000000     
  -9.6015129166706938E-003   8.1262994957935764E-003   0.0000000000000000     
   0.0000000000000000        0.0000000000000000        0.0000000000000000     
  -2.6104798820447547E-003   1.5886368011229304E-003   0.0000000000000000     
  -5.2901118475363234E-003   3.5562043393559573E-003   0.0000000000000000     
  -8.0388958964747043E-003   5.9027026146990800E-003   0.0000000000000000     
  -1.0856832028859901E-002   8.6281316271523013E-003   0.0000000000000000     
   0.0000000000000000        0.0000000000000000        0.0000000000000000     
  -2.8802747960001694E-003   1.7446662833813735E-003   0.0000000000000000     
  -5.8730465895891395E-003   3.8643128928235191E-003   0.0000000000000000     
  -8.9783153807669117E-003   6.3589398283264379E-003   0.0000000000000000     
  -1.2196081169533485E-002   9.2285470898901267E-003   0.0000000000000000     
  -7.3426647777454050E-003   7.4183852272134403E-003   0.0000000000000000     
  -9.2326953788653618E-003   1.0184352774301913E-002   0.0000000000000000     
  -1.1132259628328877E-002   1.3231106531339635E-002   0.0000000000000000     
  -1.3041357526135946E-002   1.6558646498326609E-002   0.0000000000000000     
  -1.4959989072286576E-002   2.0166972675262830E-002   0.0000000000000000     
  -8.4301238329658607E-003   7.7230506958139563E-003   0.0000000000000000     
  -1.0592511494460499E-002   1.0556794345839102E-002   0.0000000000000000     
  -1.2763400641340007E-002   1.3659759516378231E-002   0.0000000000000000     
  -1.4942791273604384E-002   1.7031946207431349E-002   0.0000000000000000     
  -1.7130683391253631E-002   2.0673354418998448E-002   0.0000000000000000     
  -9.6015129166706938E-003   8.1262994957935764E-003   0.0000000000000000     
  -1.2078446300666866E-002   1.1045385147471481E-002   0.0000000000000000     
  -1.4548140350277369E-002   1.4211496363705937E-002   0.0000000000000000     
  -1.7010595065502201E-002   1.7624633144496946E-002   0.0000000000000000     
  -1.9465810446341353E-002   2.1284795489844511E-002   0.0000000000000000     
  -1.0856832028859901E-002   8.6281316271523013E-003   0.0000000000000000     
  -1.3690499797484469E-002   1.1650125179199047E-002   0.0000000000000000     
  -1.6486478755140969E-002   1.4886317073322749E-002   0.0000000000000000     
  -1.9244768901829395E-002   1.8336707309523404E-002   0.0000000000000000     
  -2.1965370237549759E-002   2.2001295887801021E-002   0.0000000000000000     
  -1.2196081169533485E-002   9.2285470898901267E-003   0.0000000000000000     
  -1.5428671984913298E-002   1.2371014441021800E-002   0.0000000000000000     
  -1.8578415855930792E-002   1.5684221645228667E-002   0.0000000000000000     
  -2.1645312782585972E-002   1.9168168702510726E-002   0.0000000000000000     
  -2.4629362764878829E-002   2.2822855612867971E-002   0.0000000000000000     
  -1.4959989072286576E-002   2.0166972675262830E-002   0.0000000000000000     
  -1.6863228070568979E-002   2.4027445449953267E-002   0.0000000000000000     
  -1.8726148324771374E-002   2.8111425210202889E-002   0.0000000000000000     
  -2.0548749834893767E-002   3.2418911956011688E-002   0.0000000000000000     
  -2.2331032600936149E-002   3.6949905687379672E-002   0.0000000000000000     
  -1.7130683391253631E-002   2.0673354418998448E-002   0.0000000000000000     
  -1.9296017878509448E-002   2.4556786373063112E-002   0.0000000000000000     
  -2.1407735619593540E-002   2.8655044291608922E-002   0.0000000000000000     
  -2.3465836614505915E-002   3.2968128174635861E-002   0.0000000000000000     
  -2.5470320863246559E-002   3.7496038022143956E-002   0.0000000000000000     
  -1.9465810446341353E-002   2.1284795489844511E-002   0.0000000000000000     
  -2.1885422375628311E-002   2.5173866871600767E-002   0.0000000000000000     
  -2.4241066736196536E-002   2.9273730761617846E-002   0.0000000000000000     
  -2.6532743528046042E-002   3.3584387159895757E-002   0.0000000000000000     
  -2.8760452751176814E-002   3.8105836066434480E-002   0.0000000000000000     
  -2.1965370237549759E-002   2.2001295887801021E-002   0.0000000000000000     
  -2.4631441561925569E-002   2.5878686945566227E-002   0.0000000000000000     
  -2.7226141674580370E-002   2.9967484620229672E-002   0.0000000000000000     
  -2.9749470575514143E-002   3.4267688911791341E-002   0.0000000000000000     
  -3.2201428264726897E-002   3.8779299820251252E-002   0.0000000000000000     
  -2.4629362764878829E-002   2.2822855612867971E-002   0.0000000000000000     
  -2.7534075437401231E-002   2.6671246594959497E-002   0.0000000000000000     
  -3.0362960434745033E-002   3.0736305867444386E-002   0.0000000000000000     
  -3.3116017756910233E-002   3.5018033430322643E-002   0.0000000000000000     
  -3.5793247403896847E-002   3.9516429283594265E-002   0.0000000000000000     
  -2.2331032600936149E-002   3.6949905687379672E-002   0.0000000000000000     
  -2.4071754121987986E-002   4.1696704675669195E-002   0.0000000000000000     
  -2.5769671897138736E-002   4.6651607192242608E-002   0.0000000000000000     
  -2.7424785926388404E-002   5.1814613237099925E-002   0.0000000000000000     
  -2.9037096209736983E-002   5.7185722810241132E-002   0.0000000000000000     
  -2.5470320863246559E-002   3.7496038022143956E-002   0.0000000000000000     
  -2.7420623117260186E-002   4.2233632353425588E-002   0.0000000000000000     
  -2.9316178127991494E-002   4.7175769687773157E-002   0.0000000000000000     
  -3.1156985895440484E-002   5.2322450025186672E-002   0.0000000000000000     
  -3.2943046419607165E-002   5.7673673365666124E-002   0.0000000000000000     
  -2.8760452751176814E-002   3.8105836066434480E-002   0.0000000000000000     
  -3.0924012421772170E-002   4.2833424609122574E-002   0.0000000000000000     
  -3.3023240556015424E-002   4.7762499915848543E-002   0.0000000000000000     
  -3.5058137153906571E-002   5.2893061986612415E-002   0.0000000000000000     
  -3.7028702215445623E-002   5.8225110821414156E-002   0.0000000000000000     
  -3.2201428264726897E-002   3.8779299820251252E-002   0.0000000000000000     
  -3.4581922035523946E-002   4.3496081442760140E-002   0.0000000000000000     
  -3.6890859181210524E-002   4.8411797876468772E-002   0.0000000000000000     
  -3.9128239701786673E-002   5.3526449121377127E-002   0.0000000000000000     
  -4.1294063597252371E-002   5.8840035177485220E-002   0.0000000000000000     
  -3.5793247403896847E-002   3.9516429283594265E-002   0.0000000000000000     
  -3.8394351958515482E-002   4.4221602854338307E-002   0.0000000000000000     
  -4.0919034003576792E-002   4.9123663569633838E-002   0.0000000000000000     
  -4.3367293539080767E-002   5.4222611429480830E-002   0.0000000000000000     
  -4.5739130565027417E-002   5.9518446433879331E-002   0.0000000000000000     
  -2.9037096209736983E-002   5.7185722810241132E-002   0.0000000000000000     
  -3.0604168007145105E-002   6.2752060743545238E-002   0.0000000000000000     
  -3.2123566578573369E-002   6.8500751868891263E-002   0.0000000000000000     
  -3.3595291924021796E-002   7.4431796186279209E-002   0.0000000000000000     
  -3.5019344043490372E-002   8.0545193695709075E-002   0.0000000000000000     
  -3.2943046419607165E-002   5.7673673365666124E-002   0.0000000000000000     
  -3.4676133439746876E-002   6.3218940393380454E-002   0.0000000000000000     
  -3.6358020695114984E-002   6.8947751792498554E-002   0.0000000000000000     
  -3.7988708185711470E-002   7.4860107563020473E-002   0.0000000000000000     
  -3.9568195911536347E-002   8.0956007704946181E-002   0.0000000000000000     
  -3.7028702215445623E-002   5.8225110821414156E-002   0.0000000000000000     
  -3.8939274230681893E-002   6.3749901488079116E-002   0.0000000000000000     
  -4.0794191689664680E-002   6.9458689054432657E-002   0.0000000000000000     
  -4.2593454592394012E-002   7.5351473520474721E-002   0.0000000000000000     
  -4.4337062938869860E-002   8.1428254886205378E-002   0.0000000000000000     
  -4.1294063597252371E-002   5.8840035177485220E-002   0.0000000000000000     
  -4.3393590379950157E-002   6.4344944027641293E-002   0.0000000000000000     
  -4.5432079562222498E-002   7.0033563654693542E-002   0.0000000000000000     
  -4.7409531144069428E-002   7.5905894058642023E-002   0.0000000000000000     
  -4.9325945125490912E-002   8.1961935239486652E-002   0.0000000000000000     
  -4.5739130565027417E-002   5.9518446433879331E-002   0.0000000000000000     
  -4.8039081887551661E-002   6.5004068012066915E-002   0.0000000000000000     
  -5.0271684312788417E-002   7.0672375593281239E-002   0.0000000000000000     
  -5.2436937840737691E-002   7.6523369177522269E-002   0.0000000000000000     
  -5.4534842471399503E-002   8.2557048764790031E-002   0.0000000000000000     
  -3.5019344043490372E-002   8.0545193695709075E-002   0.0000000000000000     
  -3.6391091830956138E-002   8.6828405483215534E-002   0.0000000000000000     
  -3.7705904180396120E-002   9.3268892634833303E-002   0.0000000000000000     
  -3.8963781091810347E-002   9.9866655150562381E-002   0.0000000000000000     
  -4.0164722565198797E-002  0.10662169303040278        0.0000000000000000     
  -3.9568195911536347E-002   8.0956007704946181E-002   0.0000000000000000     
  -4.1090920125373596E-002   8.7221544932136297E-002   0.0000000000000000     
  -4.2551317080007214E-002   9.3642811958451436E-002   0.0000000000000000     
  -4.3949386775437194E-002  0.10021980878389163        0.0000000000000000     
  -4.5285129211663534E-002  0.10695253540845687        0.0000000000000000     
  -4.4337062938869860E-002   8.1428254886205378E-002   0.0000000000000000     
  -4.6018788456535446E-002   8.7674500724132562E-002   0.0000000000000000     
  -4.7632402872833969E-002   9.4075678606764315E-002   0.0000000000000000     
  -4.9177906187765422E-002  0.10063178853410062        0.0000000000000000     
  -5.0655298401329797E-002  0.10734283050614149        0.0000000000000000     
  -4.9325945125490912E-002   8.1961935239486652E-002   0.0000000000000000     
  -5.1174696824441666E-002   8.8187272859204358E-002   0.0000000000000000     
  -5.2949161558876363E-002   9.4567492579771914E-002   0.0000000000000000     
  -5.4649339328795017E-002  0.10110259440118932        0.0000000000000000     
  -5.6275230134197607E-002  0.10779257832345661        0.0000000000000000     
  -5.4534842471399503E-002   8.2557048764790031E-002   0.0000000000000000     
  -5.6558645229092264E-002   8.8759861337351642E-002   0.0000000000000000     
  -5.8501593138134432E-002   9.5118253877474204E-002   0.0000000000000000     
  -6.0363686198526001E-002  0.10163222638515775        0.0000000000000000     
  -6.2144924410266963E-002  0.10830177886040222        0.0000000000000000     
  -4.0164722565198797E-002  0.10662169303040278        0.0000000000000000     
  -4.1315308362533207E-002  0.11352513946274041        0.0000000000000000     
  -4.2422118245785331E-002  0.12056812763596132        0.0000000000000000     
  -4.3485152214955164E-002  0.12775065755006548        0.0000000000000000     
  -4.4504410270042705E-002  0.13507272920505281        0.0000000000000000     
  -4.5285129211663534E-002  0.10695253540845687        0.0000000000000000     
  -4.6560100733944433E-002  0.11383119783583651        0.0000000000000000     
  -4.7775857687538087E-002  0.12084600206971996        0.0000000000000000     
  -4.8932400072444510E-002  0.12799694811010717        0.0000000000000000     
  -5.0029727888663687E-002  0.13528403595699817        0.0000000000000000     
  -5.0655298401329797E-002  0.10734283050614149        0.0000000000000000     
  -5.2063891971155817E-002  0.11419844011602051        0.0000000000000000     
  -5.3402999354872117E-002  0.12118825295687137        0.0000000000000000     
  -5.4672620552478741E-002  0.12831226902869405        0.0000000000000000     
  -5.5872755563975661E-002  0.13557048833148852        0.0000000000000000     
  -5.6275230134197607E-002  0.10779257832345661        0.0000000000000000     
  -5.7826682074167350E-002  0.11462686630329245        0.0000000000000000     
  -5.9303543247787437E-002  0.12159488029741562        0.0000000000000000     
  -6.0705813655057859E-002  0.12869662030582610        0.0000000000000000     
  -6.2033493295978633E-002  0.13593208632852385        0.0000000000000000     
  -6.2144924410266963E-002  0.10830177886040222        0.0000000000000000     
  -6.3848471042979055E-002  0.11511647639765234        0.0000000000000000     
  -6.5477489366284031E-002  0.12206588409135269        0.0000000000000000     
  -6.7031979380181878E-002  0.12915000194150328        0.0000000000000000     
  -6.8511941084672609E-002  0.13636882994810415        0.0000000000000000     
  -4.4504410270042705E-002  0.13507272920505281        0.0000000000000000     
  -4.5467986865902837E-002  0.14250550842219831        0.0000000000000000     
  -4.6363976457390460E-002  0.15002016102277682        0.0000000000000000     
  -4.7192379044505565E-002  0.15761668700678841        0.0000000000000000     
  -4.7953194627248168E-002  0.16529508637423296        0.0000000000000000     
  -5.0029727888663687E-002  0.13528403595699817        0.0000000000000000     
  -5.1061741551192058E-002  0.14265833819968093        0.0000000000000000     
  -5.2022341475026053E-002  0.15007092742744330        0.0000000000000000     
  -5.2911527660165679E-002  0.15752180364028537        0.0000000000000000     
  -5.3729300106610929E-002  0.16501096683820712        0.0000000000000000     
  -5.5872755563975661E-002  0.13557048833148852        0.0000000000000000     
  -5.7000544102657723E-002  0.14290552128746828        0.0000000000000000     
  -5.8053125881819725E-002  0.15025997831884677        0.0000000000000000     
  -5.9030500901461697E-002  0.15763385942562400        0.0000000000000000     
  -5.9932669161583629E-002  0.16502716460779995        0.0000000000000000     
  -6.2033493295978633E-002  0.13593208632852385        0.0000000000000000     
  -6.3284394520299839E-002  0.14324705768556037        0.0000000000000000     
  -6.4456329677771512E-002  0.15058731369698714        0.0000000000000000     
  -6.5549298768393632E-002  0.15795285436280415        0.0000000000000000     
  -6.6563301792166296E-002  0.16534367968301142        0.0000000000000000     
  -6.8511941084672609E-002  0.13636882994810415        0.0000000000000000     
  -6.9913292804118371E-002  0.14368294739395723        0.0000000000000000     
  -7.1231952862881323E-002  0.15105293356186447        0.0000000000000000     
  -7.2467921260961521E-002  0.15847878845182589        0.0000000000000000     
  -7.3621197998358909E-002  0.16596051206384149        0.0000000000000000     
   0.0000000000000000        0.0000000000000000        0.0000000000000000     
  -2.8802747960001694E-003   1.7446662833813735E-003   0.0000000000000000     
  -5.8730465895891395E-003   3.8643128928235191E-003   0.0000000000000000     
  -8.9783153807669117E-003   6.3589398283264379E-003   0.0000000000000000     
  -1.2196081169533485E-002   9.2285470898901267E-003   0.0000000000000000     
   0.0000000000000000        0.0000000000000000        0.0000000000000000     
  -3.2834231780726024E-003   1.9992465590152240E-003   0.0000000000000000     
  -6.6773211410883649E-003   4.3307101930067380E-003   0.0000000000000000     
  -1.0181693889047286E-002   6.9943909019745416E-003   0.0000000000000000     
  -1.3796541421949369E-002   9.9902886859186343E-003   0.0000000000000000     
   0.0000000000000000        0.0000000000000000        0.0000000000000000     
  -3.9537163518167445E-003   2.4249593629044079E-003   0.0000000000000000     
  -7.9108707806499045E-003   5.0626290200641100E-003   0.0000000000000000     
  -1.1871463286499477E-002   7.9130089714791064E-003   0.0000000000000000     
  -1.5835493869365471E-002   1.0976099217149399E-002   0.0000000000000000     
   0.0000000000000000        0.0000000000000000        0.0000000000000000     
  -4.8911543172325943E-003   3.0218046950489246E-003   0.0000000000000000     
  -9.5736955082737583E-003   6.0600693739956361E-003   0.0000000000000000     
  -1.4047623573123490E-002   9.1147940368401306E-003   0.0000000000000000     
  -1.8312938511781791E-002   1.2185978683582415E-002   0.0000000000000000     
   0.0000000000000000        0.0000000000000000        0.0000000000000000     
  -6.0957370743201528E-003   3.7897825554487740E-003   0.0000000000000000     
  -1.1665795323959928E-002   7.3230312548013144E-003   0.0000000000000000     
  -1.6710174748919320E-002   1.0599746098057618E-002   0.0000000000000000     
  -2.1228875349198335E-002   1.3619927085217689E-002   0.0000000000000000     
  -1.2196081169533485E-002   9.2285470898901267E-003   0.0000000000000000     
  -1.5428671984913298E-002   1.2371014441021800E-002   0.0000000000000000     
  -1.8578415855930792E-002   1.5684221645228667E-002   0.0000000000000000     
  -2.1645312782585972E-002   1.9168168702510726E-002   0.0000000000000000     
  -2.4629362764878829E-002   2.2822855612867971E-002   0.0000000000000000     
  -1.3796541421949369E-002   9.9902886859186343E-003   0.0000000000000000     
  -1.7404949698236367E-002   1.3220389335581130E-002   0.0000000000000000     
  -2.0890004676350053E-002   1.6586678641704142E-002   0.0000000000000000     
  -2.4251706356290408E-002   2.0089156604287662E-002   0.0000000000000000     
  -2.7490054738057445E-002   2.3727823223331695E-002   0.0000000000000000     
  -1.5835493869365471E-002   1.0976099217149399E-002   0.0000000000000000     
  -1.9731319772736681E-002   1.4210586265518420E-002   0.0000000000000000     
  -2.3487298240101921E-002   1.7575156625029620E-002   0.0000000000000000     
  -2.7103429271461185E-002   2.1069810295682993E-002   0.0000000000000000     
  -3.0579712866814476E-002   2.4694547277478530E-002   0.0000000000000000     
  -1.8312938511781791E-002   1.2185978683582415E-002   0.0000000000000000     
  -2.2407782208414242E-002   1.5341605230833676E-002   0.0000000000000000     
  -2.6370296547186416E-002   1.8649655595205109E-002   0.0000000000000000     
  -3.0200481528098306E-002   2.2110129776696706E-002   0.0000000000000000     
  -3.3898337151149913E-002   2.5723027775308476E-002   0.0000000000000000     
  -2.1228875349198335E-002   1.3619927085217689E-002   0.0000000000000000     
  -2.5434337005269040E-002   1.6613446231526892E-002   0.0000000000000000     
  -2.9538999597603522E-002   1.9810175552230601E-002   0.0000000000000000     
  -3.3542863126201763E-002   2.3210115047328814E-002   0.0000000000000000     
  -3.7445927591063771E-002   2.6813264716821529E-002   0.0000000000000000     
  -2.4629362764878829E-002   2.2822855612867971E-002   0.0000000000000000     
  -2.7534075437401231E-002   2.6671246594959497E-002   0.0000000000000000     
  -3.0362960434745033E-002   3.0736305867444386E-002   0.0000000000000000     
  -3.3116017756910233E-002   3.5018033430322643E-002   0.0000000000000000     
  -3.5793247403896847E-002   3.9516429283594265E-002   0.0000000000000000     
  -2.7490054738057445E-002   2.3727823223331695E-002   0.0000000000000000     
  -3.0627266550442251E-002   2.7545122694809163E-002   0.0000000000000000     
  -3.3685558522235919E-002   3.1583499214692994E-002   0.0000000000000000     
  -3.6664930653438448E-002   3.5842952782983176E-002   0.0000000000000000     
  -3.9565382944049834E-002   4.0323483399679713E-002   0.0000000000000000     
  -3.0579712866814476E-002   2.4694547277478530E-002   0.0000000000000000     
  -3.3944957449435612E-002   2.8493892120143832E-002   0.0000000000000000     
  -3.7227971442598429E-002   3.2512369373406479E-002   0.0000000000000000     
  -4.0428754846302928E-002   3.6749979037266463E-002   0.0000000000000000     
  -4.3547307660549102E-002   4.1206721111723806E-002   0.0000000000000000     
  -3.3898337151149913E-002   2.5723027775308476E-002   0.0000000000000000     
  -3.7487148134381330E-002   2.9517554870963490E-002   0.0000000000000000     
  -4.0990199195832570E-002   3.3522916343584841E-002   0.0000000000000000     
  -4.4407490335503681E-002   3.7739112193172525E-002   0.0000000000000000     
  -4.7739021553394628E-002   4.2166142419726528E-002   0.0000000000000000     
  -3.7445927591063771E-002   2.6813264716821529E-002   0.0000000000000000     
  -4.1253838605279362E-002   3.0616110947268151E-002   0.0000000000000000     
  -4.4972241781938330E-002   3.4615140125228087E-002   0.0000000000000000     
  -4.8601137121040694E-002   3.8810352250701334E-002   0.0000000000000000     
  -5.2140524622586434E-002   4.3201747323687895E-002   0.0000000000000000     
  -3.5793247403896847E-002   3.9516429283594265E-002   0.0000000000000000     
  -3.8394351958515482E-002   4.4221602854338307E-002   0.0000000000000000     
  -4.0919034003576792E-002   4.9123663569633838E-002   0.0000000000000000     
  -4.3367293539080767E-002   5.4222611429480830E-002   0.0000000000000000     
  -4.5739130565027417E-002   5.9518446433879331E-002   0.0000000000000000     
  -3.9565382944049834E-002   4.0323483399679713E-002   0.0000000000000000     
  -4.2386091594067060E-002   4.5012542233579741E-002   0.0000000000000000     
  -4.5126232803487085E-002   4.9897580453480396E-002   0.0000000000000000     
  -4.7785806572309922E-002   5.4978598059381691E-002   0.0000000000000000     
  -5.0364812900535579E-002   6.0255595051283604E-002   0.0000000000000000     
  -4.3547307660549102E-002   4.1206721111723806E-002   0.0000000000000000     
  -4.6581930345498887E-002   4.5871452970207144E-002   0.0000000000000000     
  -4.9530923361314254E-002   5.0733031986145156E-002   0.0000000000000000     
  -5.2394286707995182E-002   5.5791458159537857E-002   0.0000000000000000     
  -5.5172020385541684E-002   6.1046731490385212E-002   0.0000000000000000     
  -4.7739021553394628E-002   4.2166142419726528E-002   0.0000000000000000     
  -5.0981868212810991E-002   4.6798335064220507E-002   0.0000000000000000     
  -5.4133105677058292E-002   5.1630018167628113E-002   0.0000000000000000     
  -5.7192733946136554E-002   5.6661191729949309E-002   0.0000000000000000     
  -6.0160753020045754E-002   6.1891855751184131E-002   0.0000000000000000     
  -5.2140524622586434E-002   4.3201747323687895E-002   0.0000000000000000     
  -5.5585905196003343E-002   4.7793188515619839E-002   0.0000000000000000     
  -5.8932779750719200E-002   5.2588538997929229E-002   0.0000000000000000     
  -6.2181148286734010E-002   5.7587798770616080E-002   0.0000000000000000     
  -6.5331010804047768E-002   6.2790967833680378E-002   0.0000000000000000     
  -4.5739130565027417E-002   5.9518446433879331E-002   0.0000000000000000     
  -4.8039081887551661E-002   6.5004068012066915E-002   0.0000000000000000     
  -5.0271684312788417E-002   7.0672375593281239E-002   0.0000000000000000     
  -5.2436937840737691E-002   7.6523369177522269E-002   0.0000000000000000     
  -5.4534842471399503E-002   8.2557048764790031E-002   0.0000000000000000     
  -5.0364812900535579E-002   6.0255595051283604E-002   0.0000000000000000     
  -5.2866633376020176E-002   6.5721284348388767E-002   0.0000000000000000     
  -5.5294649586619893E-002   7.1368378869899773E-002   0.0000000000000000     
  -5.7648861532334721E-002   7.7196878615816644E-002   0.0000000000000000     
  -5.9929269213164646E-002   8.3206783586139352E-002   0.0000000000000000     
  -5.5172020385541684E-002   6.1046731490385212E-002   0.0000000000000000     
  -5.7867129467889508E-002   6.6490603943639565E-002   0.0000000000000000     
  -6.0482619028974387E-002   7.2114827484253227E-002   0.0000000000000000     
  -6.3018489068796341E-002   7.7919402112226199E-002   0.0000000000000000     
  -6.5474739587355377E-002   8.3904327827558509E-002   0.0000000000000000     
  -6.0160753020045754E-002   6.1891855751184131E-002   0.0000000000000000     
  -6.3040570163159629E-002   6.7312026797819322E-002   0.0000000000000000     
  -6.5835592639851906E-002   7.2911721436341587E-002   0.0000000000000000     
  -6.8545820450122599E-002   7.8690939666751003E-002   0.0000000000000000     
  -7.1171253593971667E-002   8.4649681489047487E-002   0.0000000000000000     
  -6.5331010804047768E-002   6.2790967833680378E-002   0.0000000000000000     
  -6.8386955461830559E-002   6.8185552910928010E-002   0.0000000000000000     
  -7.1353570419252443E-002   7.3759060726164866E-002   0.0000000000000000     
  -7.4230855676313448E-002   7.9511491279390945E-002   0.0000000000000000     
  -7.7018811233013545E-002   8.5442844570606247E-002   0.0000000000000000     
  -5.4534842471399503E-002   8.2557048764790031E-002   0.0000000000000000     
  -5.6558645229092264E-002   8.8759861337351642E-002   0.0000000000000000     
  -5.8501593138134432E-002   9.5118253877474204E-002   0.0000000000000000     
  -6.0363686198526001E-002  0.10163222638515775        0.0000000000000000     
  -6.2144924410266963E-002  0.10830177886040222        0.0000000000000000     
  -5.9929269213164646E-002   8.3206783586139352E-002   0.0000000000000000     
  -6.2129166022681252E-002   8.9385578454336048E-002   0.0000000000000000     
  -6.4241845354456095E-002   9.5720747893874830E-002   0.0000000000000000     
  -6.6267307208489223E-002  0.10221229190475568        0.0000000000000000     
  -6.8205551584780574E-002  0.10886021048697865        0.0000000000000000     
  -6.5474739587355377E-002   8.3904327827558509E-002   0.0000000000000000     
  -6.7844791557402639E-002   9.0057736505919181E-002   0.0000000000000000     
  -7.0122065951689364E-002   9.6367760022977381E-002   0.0000000000000000     
  -7.2306562770215563E-002  0.10283439837873304        0.0000000000000000     
  -7.4398282012981168E-002  0.10945765157318615        0.0000000000000000     
  -7.1171253593971667E-002   8.4649681489047487E-002   0.0000000000000000     
  -7.3705521833256446E-002   9.0776335492101082E-002   0.0000000000000000     
  -7.6142254929834216E-002   9.7059290264781814E-002   0.0000000000000000     
  -7.8481452883704991E-002  0.10349854580708973        0.0000000000000000     
  -8.0723115694868772E-002  0.11009410211902478        0.0000000000000000     
  -7.7018811233013545E-002   8.5442844570606247E-002   0.0000000000000000     
  -7.9711356850242665E-002   9.1541375412881695E-002   0.0000000000000000     
  -8.2302412288890653E-002   9.7795338619288213E-002   0.0000000000000000     
  -8.4791977548957564E-002  0.10420473418982580        0.0000000000000000     
  -8.7180052630443372E-002  0.11076956212449444        0.0000000000000000     
  -6.2144924410266963E-002  0.10830177886040222        0.0000000000000000     
  -6.3848471042979055E-002  0.11511647639765234        0.0000000000000000     
  -6.5477489366284031E-002  0.12206588409135269        0.0000000000000000     
  -6.7031979380181878E-002  0.12915000194150328        0.0000000000000000     
  -6.8511941084672609E-002  0.13636882994810415        0.0000000000000000     
  -6.8205551584780574E-002  0.10886021048697865        0.0000000000000000     
  -7.0063383776647475E-002  0.11565445157401287        0.0000000000000000     
  -7.1847609077407254E-002  0.12258496309932755        0.0000000000000000     
  -7.3558227487059910E-002  0.12965174506292262        0.0000000000000000     
  -7.5195239005605430E-002  0.13685479746479814        0.0000000000000000     
  -7.4398282012981168E-002  0.10945765157318615        0.0000000000000000     
  -7.6405545174229150E-002  0.11622797300728685        0.0000000000000000     
  -7.8336673748202454E-002  0.12313581608198515        0.0000000000000000     
  -8.0191667734901051E-002  0.13018118079728105        0.0000000000000000     
  -8.1970527134324955E-002  0.13736406715317456        0.0000000000000000     
  -8.0723115694868772E-002  0.11009410211902478        0.0000000000000000     
  -8.2874955235724121E-002  0.11683704069747426        0.0000000000000000     
  -8.4944683378669644E-002  0.12371844303932551        0.0000000000000000     
  -8.6932300123705328E-002  0.13073830914457854        0.0000000000000000     
  -8.8837805470831185E-002  0.13789663901323337        0.0000000000000000     
  -8.7180052630443372E-002  0.11076956212449444        0.0000000000000000     
  -8.9471613961132346E-002  0.11748165464457509        0.0000000000000000     
  -9.1671637968808811E-002  0.12433284397134865        0.0000000000000000     
  -9.3780124653472741E-002  0.13132313010481514        0.0000000000000000     
  -9.5797074015124134E-002  0.13845251304497458        0.0000000000000000     
  -6.8511941084672609E-002  0.13636882994810415        0.0000000000000000     
  -6.9913292804118371E-002  0.14368294739395723        0.0000000000000000     
  -7.1231952862881323E-002  0.15105293356186447        0.0000000000000000     
  -7.2467921260961521E-002  0.15847878845182589        0.0000000000000000     
  -7.3621197998358909E-002  0.16596051206384149        0.0000000000000000     
  -7.5195239005605430E-002  0.13685479746479814        0.0000000000000000     
  -7.6751867396901152E-002  0.14417072558596616        0.0000000000000000     
  -7.8221336424804416E-002  0.15157613470743875        0.0000000000000000     
  -7.9603646089315194E-002  0.15907102482921587        0.0000000000000000     
  -8.0898796390433500E-002  0.16665539595129755        0.0000000000000000     
  -8.1970527134324955E-002  0.13736406715317456        0.0000000000000000     
  -8.3664746741435939E-002  0.14466792743489451        0.0000000000000000     
  -8.5265821351195800E-002  0.15207621392766996        0.0000000000000000     
  -8.6773750963604526E-002  0.15958892663150068        0.0000000000000000     
  -8.8188535578662131E-002  0.16720606554638687        0.0000000000000000     
  -8.8837805470831185E-002  0.13789663901323337        0.0000000000000000     
  -9.0651930837722758E-002  0.14517455294074239        0.0000000000000000     
  -9.2365407642055544E-002  0.15255317122255807        0.0000000000000000     
  -9.3978235883829558E-002  0.16003249385868043        0.0000000000000000     
  -9.5490415563044787E-002  0.16761252084910941        0.0000000000000000     
  -9.5797074015124134E-002  0.13845251304497458        0.0000000000000000     
  -9.7713419685761554E-002  0.14569060210350965        0.0000000000000000     
  -9.9520095297383593E-002  0.15300700659210312        0.0000000000000000     
 -0.10121710084999022       0.16040172651075499        0.0000000000000000     
 -0.10280443634358145       0.16787476185946520        0.0000000000000000     
 </DataArray>
 <DataArray  type="Float64" Name="stress" NumberOfComponents="3" format="ascii">
   13416555240.207670        4024966572.0623007        2894000217.3075619     
   11766369609.544647        1890434140.7584686        1715830461.2404485     
   10313460451.943213        413489952.99324560        810749732.46527255     
   9057827767.4033566       -405865991.23336840        178758030.98203278     
   7999471555.9250851       -567633691.92137146       -180144643.20926994     
   10539812043.983049        3161943613.1949153        2225774890.8453345     
   9667407214.6100731        1589567076.8416119        1446720737.1105874     
   8943642308.6308346        512656951.80078554        863142196.70304370     
   8368517326.0453434       -68786761.927562237        475039269.62270385     
   7942032266.8535929       -154764064.34343386        282411955.86956733     
   8337748118.3749809        2501324435.5124941        1712390752.1624944     
   8021371478.9642324        1424578010.7113764        1275709559.4809673     
   7804998213.2793875        681176164.99660420        956890566.16190946     
   7688628321.3204489        271118898.36817741        755933772.20532191     
   7672261803.0874119        194406210.82609749        672839177.61120522     
   6810363463.3834610        2043109039.0150383        1353847801.2590415     
   6828262402.6071358        1395466942.3677635        1202796928.3515875     
   6897528165.8888731        919047592.58070254        1091994840.8418705     
   7018160753.2286758        613850989.65385509        1021441538.7298900     
   7190160164.6265421        479877133.58722186        991137022.01564682     
   5957658079.0084887        1787297423.7025466        1150146038.1349759     
   6088079985.5387764        1502233871.8107727        1227982843.7224491     
   6221232166.4592876        1226271234.5530801        1268455020.7429254     
   6357114621.7700243        959409511.92946863        1271562569.1964059     
   6495727351.4709835        701648703.93993902        1237305489.0828903     
   7999471555.9250851       -567633691.92137146       -180144643.20926994     
   7917575737.0741167       -200184493.93823767       -78268217.179470107     
   7794191652.3371325        28970484.424847126       -9040875.7014005315     
   7629319301.7141352        119831243.16789293        27537381.224941272     
   7422958685.2051268        72397782.290889740        31466553.599554099     
   7942032266.8535929       -154764064.34343386        282411955.86956733     
   7739650234.5628834        16450127.930271149        281076858.31489855     
   7513877017.3087130        109693703.65911388        264994143.98356169     
   7264712615.0910854        124966662.84309483        234163812.87556052     
   6992157027.9099979        62269005.482210636        188585864.99089533     
   7672261803.0874119        194406210.82609749        672839177.61120522     
   7400540608.1428576        184729512.62614346        589405817.54838109     
   7123525309.1573954        157405800.95650911        509126308.48395509     
   6841215906.1310291        112435075.81719351        432000650.41792488     
   6553612399.0637627        49817337.208198071        358028843.35029435     
   7190160164.6265421        479877133.58722186        991137022.01564682     
   6900246857.8140354        304653660.14937687        846718660.52098179     
   6623136527.8831768        172106776.31703377        723355617.79977715     
   6358829174.8339720        82236482.090193748        621047893.85203516     
   6107324798.6664143        35042777.468852997        539795488.67775166     
   6495727351.4709835        701648703.93993902        1237305489.0828903     
   6238768983.5764208        376222570.49997211        1053015387.2326977     
   6012710673.4860611        153796629.74068809        907682071.93103075     
   5817552421.1999073        34370881.662089109        801305543.17788589     
   5653294226.7179585        17945326.264174223        733885800.97326648     
   7422958685.2051268        72397782.290889740        31466553.599554099     
   7220056209.8394194       -18472402.229856968        14631585.797396908     
   7029318374.4344072       -68793786.881611347        2229871.3588362201     
   6850745178.9900894       -78566371.664392471       -5738589.7161367703     
   6684336623.5064716       -47790156.578168869       -9273797.4275122974     
   6992157027.9099979        62269005.482210636        188585864.99089533     
   6809349466.1740694        2814621.4608778954        180344285.95697114     
   6634319154.7022572       -30715595.013395786        175877279.31326351     
   6467066093.4945660       -38321643.940594435        175184845.05977061     
   6307590282.5509939       -20003525.320731878        178266983.19649345     
   6553612399.0637627        49817337.208198071        358028843.35029435     
   6389017805.3193865        21214169.994804621        353262031.77192718     
   6227813072.1425552        3910538.0065593719        351611111.61040574     
   6069998199.5332642       -2093558.7565453053        353076082.86571974     
   5915573187.4915209        3201879.7054996490        357656945.53787351     
   6107324798.6664143        35042777.468852997        539795488.67775166     
   5959061227.2753763        36726243.371937275        533384823.24227476     
   5809800126.7553062        35084612.178248405        529431368.25026143     
   5659541497.1062021        30117883.887781620        527935123.70170677     
   5508285338.3280630        21826058.500537634        528896089.59662032     
   5653294226.7179585        17945326.264174223        733885800.97326648     
   5519479732.0420380        49350841.592272997        720712660.36800551     
   5380280318.5405064        62806627.501670837        709338049.23282933     
   5235695986.2133675        58312683.992377043        699761967.56773734     
   5085726735.0606174        35869011.064380407        691984415.37273300     
   6684336623.5064716       -47790156.578168869       -9273797.4275122974     
   6511418582.3281717       -8258189.0681858063       -3488881.0779719017     
   6333396515.3422470        14260359.083061695        3537828.2878065426     
   6150270422.5487013        19765487.875564098        11806330.669836488     
   5962040303.9475384        8257197.3093469143        21316626.068107042     
   6307590282.5509939       -20003525.320731878        178266983.19649345     
   6134215765.0056038        1297252.9036338329        174630169.50166845     
   5957779780.6587677        12393141.789844513        173607624.65105820     
   5778282329.5104771        13284141.337871313        175199348.64466658     
   5595723411.5607395        3970251.5477416515        179405341.48248973     
   5915573187.4915209        3201879.7054996490        357656945.53787351     
   5745663553.0875463        7447876.4968066216        346981387.30587727     
   5574735010.8882875        8297513.9705159664        340292573.74607569     
   5402787560.8937540        5750792.1266283989        337590504.85846186     
   5229821203.1039391       -192289.03486204147        338875180.64303613     
   5508285338.3280630        21826058.500537634        528896089.59662032     
   5345761946.5739908        10193681.711329937        513564772.33465737     
   5184262206.0308123        1973475.6250944138        503592675.57285500     
   5023786116.6985207       -2834559.7581739426        498979799.31121653     
   4864333678.5771189       -4230424.4384725094        499726143.54974121     
   5085726735.0606174        35869011.064380407        691984415.37273300     
   4934510945.4649458        9534668.5472052097        674380324.58799970     
   4786361366.0863361       -6578973.2464249134        663507930.13140082     
   4641277996.9247847       -12471914.316526890        659367232.00293779     
   4499260837.9802990       -8144154.6630830765        661958230.20261180     
   5962040303.9475384        8257197.3093469143        21316626.068107042     
   5782812471.6551819       -4922351.7405481339        14511354.900806991     
   5605806064.4827595       -10697150.390666008        11935700.144216418     
   5431021082.4302807       -9067198.6409707069        13589661.798336286     
   5258457525.4977283       -32496.491521120071        19473239.863159869     
   5595723411.5607395        3970251.5477416515        179405341.48248973     
   5428867630.2775307       -3167892.3249700069        174683601.14698565     
   5263401758.5984831       -5673004.1837961674        173855036.28998917     
   5099325796.5236092       -3545084.0287220478        176919646.91151598     
   4936639744.0528898        3215868.1402077675        183877433.01154652     
   5229821203.1039391       -192289.03486204147        338875180.64303613     
   5074376213.0235987       -1577405.6722757816        335266869.70425624     
   4919489617.0316582       -1101208.6817016602        335215293.31180304     
   4765161415.1281147        1236301.9368729591        338720451.46566135     
   4611391607.3129654        5435126.1834275723        345782344.16584331     
   4864333678.5771189       -4230424.4384725094        499726143.54974121     
   4719338219.8933849       -150891.78246760368        496261160.57262987     
   4574069639.7822809        3018236.1156363487        496016471.20964336     
   4428527938.2438049        5276959.2558338642        498992075.46078318     
   4282713115.2779536        6625277.6381194592        505187973.32604188     
   4499260837.9802990       -8144154.6630830765        661958230.20261180     
   4363753650.8868990        1111649.3444647789        657666473.75210202     
   4227141826.8503551        6685330.2082006931        656258569.98351848     
   4089425365.8706770        8576887.9281487465        657734518.89686823     
   3950604267.9478502        6786322.5042774677        662094320.49214935     
   5258457525.4977283       -32496.491521120071        19473239.863159869     
   5063586802.0827208        3747659.3747112751        15684765.781819576     
   4867442524.0938234        3282633.3279645443        14989896.479802227     
   4670024691.5310345       -1427574.6317551136        17388631.957084756     
   4471333304.3943558       -10382964.504426718        22880972.213685106     
   4936639744.0528898        3215868.1402077675        183877433.01154652     
   4749805009.0145884        3636941.0107364655        178067364.95552000     
   4562176886.6612358        1413389.4977617264        176120394.63972443     
   4373755376.9928408       -3454786.3986809254        178036522.06417170     
   4184540480.0094037       -10967586.678597927        183815747.22885570     
   4611391607.3129654        5435126.1834275723        345782344.16584331     
   4434791411.9682980        3156681.4533081055        338510877.27043706     
   4257877996.5674314       -165830.13078594208        335872001.07620245     
   4080651361.1103663       -4532408.5688912868        337865715.58312559     
   3903111505.5971127       -9943053.8609545231        344492020.79121816     
   4282713115.2779536        6625277.6381194592        505187973.32604188     
   4118546010.9438491        2306880.7024419308        497015302.72658801     
   3954545853.8124042       -1455025.5577239990        494244715.78922445     
   3790712643.8836064       -4660441.1423804760        496876212.51395297     
   3627046381.1574645       -7309366.0515196323        504909792.90077496     
   3950604267.9478502        6786322.5042774677        662094320.49214935     
   3801068805.9412518        1087538.7581264973        653580641.32396400     
   3652180458.3961573       -2454196.7830159664        651238538.77880037     
   3503939225.3125601       -3838884.1191642284        655068012.85665488     
   3356345106.6904659       -3066523.2503032684        665069063.55752909     
   4471333304.3943558       -10382964.504426718        22880972.213685106     
   4302677873.7994423       -10774753.904829979        13236592.210154651     
   4135001149.5430946       -7904188.8433554173        10417860.607137863     
   3968303131.6253018       -1771269.3200232983        14424777.404640509     
   3802583820.0460701        7624004.6651692390        25257342.602655545     
   4184540480.0094037       -10967586.678597927        183815747.22885570     
   4032639914.9714580       -7551436.7449660301        176159531.60804313     
   3881357781.6199236       -2073847.8566353321        173687270.47651675     
   3730694079.9547849        5465179.9863567352        176398963.83429158     
   3580648809.9760537        15065646.784051418        184294611.68134940     
   3903111505.5971127       -9943053.8609545231        344492020.79121816     
   3763275252.0840654       -4126130.8029162884        338403649.12559998     
   3623697155.6052732        2551315.7026350498        335857538.03805810     
   3484377216.1607294        10089285.655682087        336853687.52858818     
   3345315433.7504449        18487779.056255817        341392097.59719288     
   3627046381.1574645       -7309366.0515196323        504909792.90077496     
   3494583885.1372609       -498836.07869410515        499968944.76284510     
   3362019271.4991608        5971301.8344762325        496928663.29176408     
   3229352540.2431526        12101047.687954545        495788948.48753858     
   3096583691.3692408        17890401.481755018        496549800.35017169     
   3356345106.6904659       -3066523.2503032684        665069063.55752909     
   3226565814.1310425        3330447.4277070761        660855418.51977515     
   3096324129.3015685        8186110.5388638973        656900646.23764420     
   2965620052.2020350        11500466.083147049        653204746.71115267     
   2834453582.8324447        13273514.060596466        649767719.94028544     
   3802583820.0460701        7624004.6651692390        25257342.602655545     
   3600715433.5356312        2927664.6797769070        25018848.237211823     
   3395727533.1099815       -12167055.023007154        25354084.122073919     
   3187620118.7691083       -37660154.443175435        26263050.257268734     
   2976393190.5130401       -73551633.580692172        27745746.642769367     
   3580648809.9760537        15065646.784051418        184294611.68134940     
   3382633473.8243279        8906123.7266747952        177736734.98089507     
   3183097088.4016933       -2323563.5670707226        173906670.55343261     
   2982039653.7081470       -18623415.097182155        172804418.39896196     
   2779461169.7436800       -39993430.863693953        174429978.51751134     
   3345315433.7504449        18487779.056255817        341392097.59719288     
   3157307668.0222478        12711428.946342826        330379713.98006022     
   2969377317.6674485        7193130.0810835361        324249224.65861368     
   2781524382.6860399        1932882.4604539871        323000629.63285106     
   2593748863.0780039       -3069313.9155770540        326633928.90278041     
   3096583691.3692408        17890401.481755018        496549800.35017169     
   2924738016.1294060        14343580.338794112        482947785.23472130     
   2754568220.9072537        16383025.921456933        476381746.43763572     
   2586074305.7027893        24008738.229733706        476851683.95893556     
   2419256270.5160151        37220717.263639092        484357597.79859781     
   2834453582.8324447        13273514.060596466        649767719.94028544     
   2684924518.1457820        13802577.904004216        635440948.74486160     
   2538669798.1211042        25246123.954027176        630304235.89050579     
   2395689422.7584167        47604152.210686207        634357581.37719977     
   2255983392.0577111        80876662.673961163        647600985.20495641     
   5957658079.0084887        1787297423.7025466        1150146038.1349759     
   6088079985.5387764        1502233871.8107727        1227982843.7224491     
   6221232166.4592876        1226271234.5530801        1268455020.7429254     
   6357114621.7700243        959409511.92946863        1271562569.1964059     
   6495727351.4709835        701648703.93993902        1237305489.0828903     
   5434280613.6989088        1630284184.1096728        1033607392.6543636     
   5489483499.1458359        1372504078.4642198        1113995166.3663287     
   5546881293.5226202        1122040335.9182944        1167590603.2935536     
   5606473996.8292627        878892956.47189713        1194393703.4360385     
   5668261609.0657654        643061940.12502837        1194404466.7937837     
   4894879715.9035645        1468463914.7710693        936553794.68127096     
   4905070128.2164335        1247029219.7567279        1018867943.4806341     
   4916920083.9987946        1031126336.3073616        1084962047.2775140     
   4930429583.2506485        820755264.42296946        1134836106.0719099     
   4945598625.9719944        615916004.10355198        1168490119.8638225     
   4339455385.6224546        1301836615.6867363        858985244.21569812     
   4334839872.7505703        1125809295.6882987        942601175.06536567     
   4331348537.8878126        953529235.72028172        1020569352.6948063     
   4328981381.0341816        784996435.78268588        1092889777.1040201     
   4327738402.1896782        620210895.87551177        1159562448.2930059     
   3768007622.8555789        1130402286.8566737        800901741.25764465     
   3778792732.7482452        1008844306.2589301        885194861.12052333     
   3790166655.1896720        889249034.15705419        974412519.54543102     
   3802129390.1798596        771616470.55104589        1068554716.5323679     
   3814680937.7188067        655946615.44090509        1167621452.0813344     
   6495727351.4709835        701648703.93993902        1237305489.0828903     
   6238768983.5764208        376222570.49997211        1053015387.2326977     
   6012710673.4860611        153796629.74068809        907682071.93103075     
   5817552421.1999073        34370881.662089109        801305543.17788589     
   5653294226.7179585        17945326.264174223        733885800.97326648     
   5668261609.0657654        643061940.12502837        1194404466.7937837     
   5518129039.5981140        383609207.98625350        1073424797.6984316     
   5392145081.2353334        204651846.19705224        980437402.08267200     
   5290309733.9774256        106189854.75742102        915442279.94650996     
   5212622997.8243885        88223233.667361736        878439431.28994441     
   4945598625.9719944        615916004.10355198        1168490119.8638225     
   4870964674.7343178        413038519.20689058        1102944195.7074182     
   4813727887.9021816        268151582.32868862        1054426031.9616804     
   4773888265.4755812        181255193.46894526        1022935628.6266115     
   4751445807.4545212        152349352.62766147        1008472985.7022083     
   4327738402.1896782        620210895.87551177        1159562448.2930059     
   4297275888.9850359        464510504.16188025        1141573581.2596607     
   4277459093.4866023        344295838.13559580        1129647961.5680554     
   4268288015.6943722        259566897.79665923        1123785589.2181880     
   4269762655.6083446        210323683.14506841        1123986464.2100601     
   3814680937.7188067        655946615.44090509        1167621452.0813344     
   3797062682.3502679        538025162.85122502        1189312954.3551595     
   3783338697.9885988        433084613.61777747        1206103190.9017947     
   3773508984.6338000        341124967.74056470        1217992161.7212415     
   3767573542.2858706        262146225.21958470        1224979866.8134975     
   5653294226.7179585        17945326.264174223        733885800.97326648     
   5519479732.0420380        49350841.592272997        720712660.36800551     
   5380280318.5405064        62806627.501670837        709338049.23282933     
   5235695986.2133675        58312683.992377043        699761967.56773734     
   5085726735.0606174        35869011.064380407        691984415.37273300     
   5212622997.8243885        88223233.667361736        878439431.28994441     
   5076154461.7591524        85977162.432307005        854753753.16471004     
   4937529681.5090437        76543610.581006527        834993726.01526153     
   4796748657.0740614        59922578.113460064        819159349.84159625     
   4653811388.4542046        36114065.029666185        807250624.64371443     
   4751445807.4545212        152349352.62766147        1008472985.7022083     
   4618400720.0162487        118274941.83433700        978041557.13786101     
   4486428063.0338411        87775299.227218628        953662901.05499673     
   4355527836.5072947        60850424.806305885        935337017.45361567     
   4225700040.4366074        37500318.571597099        923063906.33371449     
   4269762655.6083446        210323683.14506841        1123986464.2100601     
   4146218506.8133235        146244179.79835892        1090576072.2874565     
   4026975463.1148973        96501693.440308809        1065345574.3520349     
   3912033524.5130701        61096224.070915699        1048294970.4037936     
   3801392691.0078402        40027771.690179348        1039424260.4427333     
   3767573542.2858706        262146225.21958470        1224979866.8134975     
   3659607822.1503758        169884876.32437539        1192357298.6134973     
   3559171881.7522140        102722793.22027814        1170041745.9063761     
   3466265721.0913844        60659975.907284498        1158033208.6921346     
   3380889340.1678877        43696424.385402441        1156331686.9707711     
   5085726735.0606174        35869011.064380407        691984415.37273300     
   4934510945.4649458        9534668.5472052097        674380324.58799970     
   4786361366.0863361       -6578973.2464249134        663507930.13140082     
   4641277996.9247847       -12471914.316526890        659367232.00293779     
   4499260837.9802990       -8144154.6630830765        661958230.20261180     
   4653811388.4542046        36114065.029666185        807250624.64371443     
   4520852099.6191320        15421713.590954542        793710619.21243250     
   4390130000.7115602        2186661.9105687141        786180381.63537145     
   4261645091.7314849       -3591090.0114877224        784659911.91253340     
   4135397372.6789064       -1911542.1752245426        789149210.04391074     
   4225700040.4366074        37500318.571597099        923063906.33371449     
   4108934599.5795188        21831162.376559019        912620795.91806495     
   3993577328.3603621        10855904.974637747        907465524.88271821     
   3879628226.7791414        4574546.3658306599        907598093.22767568     
   3767087294.8358545        2987086.5501375198        913018500.95293069     
   3801392691.0078402        40027771.690179348        1039424260.4427333     
   3698758445.3461099        28763014.904028177        1031110854.7048911     
   3596703349.0327511        19428755.945780277        1027363359.8734353     
   3495227402.0677643        12024994.815440178        1028181775.9483631     
   3394330604.4511476        6551731.5130000114        1033566102.9296777     
   3380889340.1678877        43696424.385402441        1156331686.9707711     
   3290323636.9188976        36217271.173354387        1149180795.5729120     
   3199508062.7287197        27905214.824003220        1145873886.6075234     
   3108442617.5973463        18760255.337339997        1146410960.0746028     
   3017127301.5247808        8782392.7133691311        1150792015.9741492     
   4499260837.9802990       -8144154.6630830765        661958230.20261180     
   4363753650.8868990        1111649.3444647789        657666473.75210202     
   4227141826.8503551        6685330.2082006931        656258569.98351848     
   4089425365.8706770        8576887.9281487465        657734518.89686823     
   3950604267.9478502        6786322.5042774677        662094320.49214935     
   4135397372.6789064       -1911542.1752245426        789149210.04391074     
   4006609344.9236803        1630413.4077100754        782720892.98440349     
   3877314567.0370789        3483201.8860609531        779895887.75493765     
   3747513039.0191073        3646823.2598419189        780674194.35550857     
   3617204760.8697648        2121277.5290513039        785055812.78611267     
   3767087294.8358545        2987086.5501375198        913018500.95293069     
   3647074023.9848208        1431872.9782578945        905151157.89816511     
   3527151889.8141799        180448.34103083611        901606585.82154024     
   3407320892.3239384       -767187.36153960228        902384784.72306204     
   3287581031.5140920       -1411034.1294541359        907485754.60272253     
   3394330604.4511476        6551731.5130000114        1033566102.9296777     
   3285147688.0703225        516028.05611467361        1024957268.4933785     
   3176653795.1816611       -3222930.4268870354        1021390664.1833287     
   3068848925.7851648       -4665143.9360033274        1022866289.9995273     
   2961733079.8808365       -3810612.4712345600        1029384145.9419789     
   3017127301.5247808        8782392.7133691311        1150792015.9741492     
   2920830337.1801825       -1117121.3587138653        1142139224.7700450     
   2825820283.1395197       -6726934.4176881313        1139248122.8403001     
   2732097139.4027910       -8047046.4635469913        1142118710.1849079     
   2639660905.9699945       -5077457.4962908030        1150750986.8038757     
   3950604267.9478502        6786322.5042774677        662094320.49214935     
   3801068805.9412518        1087538.7581264973        653580641.32396400     
   3652180458.3961573       -2454196.7830159664        651238538.77880037     
   3503939225.3125601       -3838884.1191642284        655068012.85665488     
   3356345106.6904659       -3066523.2503032684        665069063.55752909     
   3617204760.8697648        2121277.5290513039        785055812.78611267     
   3483288247.1788917       -617922.37126612663        777980509.05189574     
   3349791988.9993448       -1956270.5671665668        776065223.43463814     
   3216715986.3311286       -1893767.0586284399        779309955.93434346     
   3084060239.1742377       -430411.84567379951        787714706.55100787     
   3287581031.5140920       -1411034.1294541359        907485754.60272253     
   3166393298.9787798       -2057700.3319900036        901584157.52726924     
   3045398963.0046210       -2059711.3306800127        899831020.06271982     
   2924598023.5916181       -1417067.1255162954        902226342.20907450     
   2803990480.7397676       -129767.71651327610        908770123.96633029     
   2961733079.8808365       -3810612.4712345600        1029384145.9419789     
   2850383961.3409176       -3231795.1240396500        1024391586.7500845     
   2739001380.4119797       -2764519.0735740662        1022535928.6630378     
   2627585337.0940218       -2408784.3198367357        1023817171.6808393     
   2516135831.3870492       -2164590.8628257513        1028235315.8034823     
   2639660905.9699945       -5077457.4962908030        1150750986.8038757     
   2535260234.2653065       -4140206.7474086285        1146402796.7203474     
   2430599241.2214217       -4070693.7958414555        1144179949.2356021     
   2325677926.8383498       -4868918.6415643692        1144082444.3496406     
   2220496291.1160784       -6534881.2846207619        1146110282.0624740     
   3356345106.6904659       -3066523.2503032684        665069063.55752909     
   3226565814.1310425        3330447.4277070761        660855418.51977515     
   3096324129.3015685        8186110.5388638973        656900646.23764420     
   2965620052.2020350        11500466.083147049        653204746.71115267     
   2834453582.8324447        13273514.060596466        649767719.94028544     
   3084060239.1742377       -430411.84567379951        787714706.55100787     
   2956719220.5450692        2938715.7668418884        781409514.71419883     
   2829163234.6515441        5591285.8315107822        777419778.46783113     
   2701392281.4936647        7527298.3483231068        775745497.81190193     
   2573406361.0714283        8746753.3172944784        776386672.74642122     
   2803990480.7397676       -129767.71651327610        908770123.96633029     
   2684963686.9974523        1974302.1174821854        900662047.83711517     
   2565969350.9964833        4186564.4226403236        896926010.13315737     
   2447007472.7368641        6507019.1989599466        897562010.85445142     
   2328078052.2185965        8935666.4464514256        902570050.00100541     
   2516135831.3870492       -2164590.8628257513        1028235315.8034823     
   2411299213.4881878        437206.47962224483        1018613017.8885192     
   2306742478.3363810        3971946.3122570515        1015419341.2336285     
   2202465625.9316301        8439628.6350719929        1018654285.8388050     
   2098468656.2739282        13840253.448058844        1028317851.7040492     
   2220496291.1160784       -6534881.2846207619        1146110282.0624740     
   2135725800.0172877       -1672571.1467134953        1135262424.8684196     
   2051482616.6712484        4947431.5003727674        1132899771.7692468     
   1967766741.0779676        13325126.656648755        1139022322.7649515     
   1884578173.2374449        23460514.322118521        1153630077.8555355     
   2834453582.8324447        13273514.060596466        649767719.94028544     
   2684924518.1457820        13802577.904004216        635440948.74486160     
   2538669798.1211042        25246123.954027176        630304235.89050579     
   2395689422.7584167        47604152.210686207        634357581.37719977     
   2255983392.0577111        80876662.673961163        647600985.20495641     
   2573406361.0714283        8746753.3172944784        776386672.74642122     
   2444848628.5848451        11883469.408159375        768975295.17215395     
   2317883097.2578955        20327522.697820067        767903887.35362577     
   2192509767.0905943        34078913.186319470        773172449.29083681     
   2068728638.0829520        53137640.873636723        784780980.98379028     
   2328078052.2185965        8935666.4464514256        902570050.00100541     
   2212348541.6883140        12237101.711629629        900111565.29516041     
   2096529088.8153307        15238729.167819262        901142961.75973260     
   1980619693.5996518        17940548.815018177        905664239.39472723     
   1864620356.0412765        20342560.653237104        913675398.20014691     
   2098468656.2739282        13840253.448058844        1028317851.7040492     
   1987424257.4561794        14863474.814415574        1028849759.1138905     
   1874607772.7933950        9979743.3639975786        1030021459.1088371     
   1760019202.2855692       -810940.90322256088        1031832951.6888905     
   1643658545.9327133       -17508577.987228632        1034284236.8540409     
   1884578173.2374449        23460514.322118521        1153630077.8555355     
   1770075775.8884621        19762588.716543436        1155189876.6283405     
   1652119149.1921053        4550565.2863785028        1154539379.4009295     
   1530708293.1483569       -22175555.968403161        1151678586.1733022     
   1405843207.7572408       -60415775.047767222        1146607496.9454517     
   3768007622.8555789        1130402286.8566737        800901741.25764465     
   3778792732.7482452        1008844306.2589301        885194861.12052333     
   3790166655.1896720        889249034.15705419        974412519.54543102     
   3802129390.1798596        771616470.55104589        1068554716.5323679     
   3814680937.7188067        655946615.44090509        1167621452.0813344     
   3207686166.3657136        962305849.90971410        757119741.75582302     
   3235631776.6831250        868280402.76220477        853486667.27862549     
   3263294346.0569611        773311485.80277741        951775777.61607158     
   3290673874.4872212        677399099.03143215        1051987072.7681613     
   3317770361.9739056        580543242.44816875        1154120552.7348940     
   2685640754.9156370        805692226.47469103        722455701.65894461     
   2722168712.0938334        736625866.70822775        829879270.43394625     
   2757541774.8361182        663709858.82206094        936222670.27620554     
   2791759943.1424928        586944202.81619143        1041485901.1857222     
   2824823217.0129552        506328898.69061816        1145668963.1624973     
   2201871388.5053477        660561416.55160427        696909620.96700966     
   2238403538.9803696        613880698.09699917        814372670.58648551     
   2272908941.5271444        560444153.21490550        927753197.52583337     
   2305387596.1456738        500251781.90532333        1037051201.7850530     
   2335839502.8359556        433303584.16825265        1142266683.3641436     
   1756378067.1348462        526913420.14045388        680481499.68001807     
   1784336257.3427341        500044896.92851913        806966867.73624337     
   1809395846.1300397        463514368.98131025        926367359.36495471     
   1831556833.4967632        417321836.29882807        1038682974.5661523     
   1850819219.4429052        361467298.88107169        1143913713.3398354     
   3814680937.7188067        655946615.44090509        1167621452.0813344     
   3797062682.3502679        538025162.85122502        1189312954.3551595     
   3783338697.9885988        433084613.61777747        1206103190.9017947     
   3773508984.6338000        341124967.74056470        1217992161.7212415     
   3767573542.2858706        262146225.21958470        1224979866.8134975     
   3317770361.9739056        580543242.44816875        1154120552.7348940     
   3292992393.9202385        473400857.57641888        1182568969.6505291     
   3271976021.7817636        378797125.75530970        1207923703.8314259     
   3254721245.5584807        296732046.98484135        1230184755.2775841     
   3241228065.2503901        227205621.26501322        1249352123.9890018     
   2824823217.0129552        506328898.69061816        1145668963.1624973     
   2798050059.1097326        411514938.38747102        1180719507.1129856     
   2774905822.0300245        328797380.82937157        1214483951.3211863     
   2755390505.7738304        258176226.01631856        1246962295.7870970     
   2739504110.3411508        199651473.94831312        1278154540.5107207     
   2335839502.8359556        433303584.16825265        1142266683.3641436     
   2312235677.9187493        352367405.28437960        1183764566.7425287     
   2292128098.7333803        283085378.83996135        1225783933.3710744     
   2275516765.2798467        225457504.83499652        1268324783.2497823     
   2262401677.5581493        179483783.26948583        1311387116.3786511     
   1850819219.4429052        361467298.88107169        1143913713.3398354     
   1835549250.3472881        295958258.26714402        1191704148.5391579     
   1823642851.8918304        241661119.78707933        1241823649.9810920     
   1815100024.0765307        198575883.44087362        1294272217.6656373     
   1809920766.9013889        166702549.22852910        1349049851.5927958     
   3767573542.2858706        262146225.21958470        1224979866.8134975     
   3659607822.1503758        169884876.32437539        1192357298.6134973     
   3559171881.7522140        102722793.22027814        1170041745.9063761     
   3466265721.0913844        60659975.907284498        1158033208.6921346     
   3380889340.1678877        43696424.385402441        1156331686.9707711     
   3241228065.2503901        227205621.26501322        1249352123.9890018     
   3162389770.6582842        152949751.10447001        1232084284.7958412     
   3089596972.3561416        98845535.243808508        1222760031.5890229     
   3022849670.3439646        64892973.683032751        1221379364.3685446     
   2962147864.6217542        51092066.422141552        1227942283.1344125     
   2739504110.3411508        199651473.94831312        1278154540.5107207     
   2683040585.5594678        141375285.80254483        1274509766.3024697     
   2631138273.6203847        98303140.465435266        1276445148.5740247     
   2583797174.5238976        70435037.936985016        1283960687.3253856     
   2541017288.2700090        57770978.217194676        1297056382.5565529     
   2262401677.5581493        179483783.26948583        1311387116.3786511     
   2221560266.8539300        135161480.41860235        1319633743.1333835     
   2183795785.5449419        101095608.88515365        1331097096.8613834     
   2149108233.6311841        77286168.669142008        1345777177.5626535     
   2117497611.1126568        63733159.770566821        1363673985.2371907     
   1809920766.9013889        166702549.22852910        1349049851.5927958     
   1777948814.5416715        134308334.95264775        1367456215.2885811     
   1747569508.1298156        107222940.50297004        1386715876.4510980     
   1718782847.6658239        85446365.879508495        1406828835.0803480     
   1691588833.1496954        68978611.082254410        1427795091.1763301     
   3380889340.1678877        43696424.385402441        1156331686.9707711     
   3290323636.9188976        36217271.173354387        1149180795.5729120     
   3199508062.7287197        27905214.824003220        1145873886.6075234     
   3108442617.5973463        18760255.337339997        1146410960.0746028     
   3017127301.5247808        8782392.7133691311        1150792015.9741492     
   2962147864.6217542        51092066.422141552        1227942283.1344125     
   2880692025.0144467        40491427.210085750        1219928460.1844804     
   2799405949.4782953        30456668.235214829        1215798585.1418359     
   2718289638.0132980        20987789.497524381        1215552658.0064797     
   2637343090.6194549        12084790.997015834        1219190678.7784142     
   2541017288.2700090        57770978.217194676        1297056382.5565529     
   2468785499.3753004        44083109.126410246        1288669202.2356160     
   2397143109.5640931        32359903.647296309        1284205935.2967882     
   2326090118.8363886        22601361.779852509        1283666581.7400703     
   2255626527.1921830        14807483.524082184        1287051141.5654595     
   2117497611.1126568        63733159.770566821        1363673985.2371907     
   2054604060.0014601        46992316.922323823        1355403021.7263236     
   1992719542.9861116        33614921.060242414        1351095937.0723839     
   1931844060.0666108        23600972.184320211        1350752731.2753747     
   1871977611.2429600        16950470.294561505        1354373404.3352931     
   1691588833.1496954        68978611.082254410        1427795091.1763301     
   1638147706.8929269        49219050.597832561        1420129918.6566000     
   1586135249.7443528        34221720.474059999        1416468590.4686198     
   1535551461.7039719        23986620.710929573        1416811106.6123867     
   1486396342.7717879        18513751.308456123        1421157467.0879061     
   3017127301.5247808        8782392.7133691311        1150792015.9741492     
   2920830337.1801825       -1117121.3587138653        1142139224.7700450     
   2825820283.1395197       -6726934.4176881313        1139248122.8403001     
   2732097139.4027910       -8047046.4635469913        1142118710.1849079     
   2639660905.9699945       -5077457.4962908030        1150750986.8038757     
   2637343090.6194549        12084790.997015834        1219190678.7784142     
   2556335134.5049219        5027878.0369607210        1211021057.4196398     
   2476386760.3565850        1502904.9642254114        1208194537.4760916     
   2397497968.1744509        1509871.7788335085        1210711118.9477661     
   2319668757.9585133        5048778.4807652235        1218570801.8346663     
   2255626527.1921830        14807483.524082184        1287051141.5654595     
   2188711613.9959035        10234382.082504869        1279099473.6579931     
   2122628954.4280896        8435459.4024757147        1276072319.3066180     
   2057378548.4887409        9410715.4839963913        1277969678.5113339     
   1992960396.1778543        13160150.327066183        1284791551.2721419     
   1871977611.2429600        16950470.294561505        1354373404.3352931     
   1817959775.6531296        14502390.777925611        1346374473.4851069     
   1764546865.3540308        14070728.897056222        1342881468.3318813     
   1711738880.3456600        15655484.651949644        1343894388.8756154     
   1659535820.6280212        19256658.042617381        1349413235.1163082     
   1486396342.7717879        18513751.308456123        1421157467.0879061     
   1444079619.4765999        17831904.123216212        1412846056.9009781     
   1402140493.1344097        18408713.447966158        1408621984.5518789     
   1360578963.7452133        20244179.282696009        1408485250.0406053     
   1319395031.3090129        23338301.627412736        1412435853.3671606     
   2639660905.9699945       -5077457.4962908030        1150750986.8038757     
   2535260234.2653065       -4140206.7474086285        1146402796.7203474     
   2430599241.2214217       -4070693.7958414555        1144179949.2356021     
   2325677926.8383498       -4868918.6415643692        1144082444.3496406     
   2220496291.1160784       -6534881.2846207619        1146110282.0624740     
   2319668757.9585133        5048778.4807652235        1218570801.8346663     
   2221778368.7801285        3926134.7623749971        1212240133.0978997     
   2123722993.1971314        2253536.3619413376        1209267391.6596406     
   2025502631.2095253        30983.279482126236        1209652577.5198951     
   1927117282.8173101       -2741524.4850127697        1213395690.6786585     
   1992960396.1778543        13160150.327066183        1284791551.2721419     
   1905101960.0964127        11034113.312599778        1276589627.9724844     
   1817173872.5449414        8675904.7313607931        1272978216.6710615     
   1729176133.5234416        6085524.5833674669        1273957317.3678696     
   1641108743.0319133        3262972.8686065674        1279526930.0629120     
   1659535820.6280212        19256658.042617381        1349413235.1163082     
   1585231008.2141588        17183728.903260231        1339451281.3441048     
   1510951879.2648478        15196411.312405944        1335312424.2698593     
   1436698433.7800894        13294705.270067215        1336996663.8935704     
   1362470671.7598858        11478610.776238263        1344504000.2152338     
   1319395031.3090129        23338301.627412736        1412435853.3671606     
   1262165513.1333663        22374981.534358978        1400825093.2127602     
   1205057013.3568525        21815056.105081379        1396270014.4560373     
   1148069531.9794745        21658525.339590192        1398770617.0969944     
   1091203069.0012312        21905389.237878621        1408326901.1356311     
   2220496291.1160784       -6534881.2846207619        1146110282.0624740     
   2135725800.0172877       -1672571.1467134953        1135262424.8684196     
   2051482616.6712484        4947431.5003727674        1132899771.7692468     
   1967766741.0779676        13325126.656648755        1139022322.7649515     
   1884578173.2374449        23460514.322118521        1153630077.8555355     
   1927117282.8173101       -2741524.4850127697        1213395690.6786585     
   1862018048.3453221        4559805.6257282495        1204364421.7563808     
   1797141824.6949811        12604505.141959667        1201416833.8430302     
   1732488611.8662903        21392574.063688159        1204552926.9386153     
   1668058409.8592441        30924012.390899181        1213772701.0431325     
   1641108743.0319133        3262972.8686065674        1279526930.0629120     
   1588819270.6554480        10944874.592803240        1271957236.3261130     
   1536448512.1695240        18355822.618795991        1268069700.5122983     
   1483996467.5741370        25495816.946581364        1267864322.6214659     
   1431463136.8692870        32364857.576157987        1271341102.6536145     
   1362470671.7598858        11478610.776238263        1344504000.2152338     
   1316129466.9476635        17482635.754498780        1338040868.5776238     
   1269402679.0948732        22201383.930871010        1332858371.7770467     
   1222290308.2015100        25634855.305330813        1328956509.8135030     
   1174792354.2675760        27783049.877888024        1326335282.6869929     
   1091203069.0012312        21905389.237878621        1408326901.1356311     
   1043948637.2219688        24173089.110827982        1402615318.5109088     
   996004325.47103035        24141189.078185976        1395782847.6372747     
   947370133.74840868        21809689.139935732        1387829488.5147259     
   898046062.05410862        17178589.296087980        1378755241.1432681     
   1884578173.2374449        23460514.322118521        1153630077.8555355     
   1770075775.8884621        19762588.716543436        1155189876.6283405     
   1652119149.1921053        4550565.2863785028        1154539379.4009295     
   1530708293.1483569       -22175555.968403161        1151678586.1733022     
   1405843207.7572408       -60415775.047767222        1146607496.9454517     
   1668058409.8592441        30924012.390899181        1213772701.0431325     
   1551990587.9473128        27184763.430411339        1208628068.8126500     
   1437163886.2140062        27582581.732005179        1204499096.0004804     
   1323578304.6593390        32117467.295724154        1201385782.6066265     
   1211233843.2832887        40789420.121517718        1199288128.6310871     
   1431463136.8692870        32364857.576157987        1271341102.6536145     
   1323046905.8759248        31349389.905206025        1264969947.2001927     
   1220567144.5871975        50122154.583042681        1262840406.5836146     
   1124023853.0031147        88683151.609679937        1264952480.8038845     
   1033417031.1236622        147032380.98510039        1271306169.8610036     
   1174792354.2675760        27783049.877888024        1326335282.6869929     
   1083244729.6743023        32256468.140924633        1324215511.7909710     
   1002328924.3116781        72169283.839465141        1329563311.1503277     
   932044938.17969382        147521496.97347817        1342378680.7650626     
   872392771.27835953        258313107.54298016        1362661620.6351721     
   898046062.05410862        17178589.296087980        1378755241.1432681     
   832584059.34244299        29905998.137582034        1386364762.5849855     
   782449225.38743281        93723969.501257390        1404667809.7006176     
   747641560.18907857        208632503.38712505        1433664382.4901597     
   728161063.74737394        374631599.79515505        1473354480.9536121     
   1756378067.1348462        526913420.14045388        680481499.68001807     
   1784336257.3427341        500044896.92851913        806966867.73624337     
   1809395846.1300397        463514368.98131025        926367359.36495471     
   1831556833.4967632        417321836.29882807        1038682974.5661523     
   1850819219.4429052        361467298.88107169        1143913713.3398354     
   1326881719.1141195        398064515.73423582        670078901.69303465     
   1340079702.2349949        375486643.18745732        792316896.17631078     
   1351099536.2984118        345648273.78248417        909295611.48205543     
   1359941221.3043704        308549407.51931638        1021015047.6102682     
   1366604757.2528708        264190044.39795396        1127475204.5609493     
   891103272.75315452        267330981.82594636        662609390.90112376     
   894757040.92982423        250608557.58716619        781440539.56842852     
   896953112.41215920        229027144.36727050        896838006.30818427     
   897691487.20015943        202586742.16625935        1008801791.1203904     
   896972165.29382527        171287350.98413238        1117331894.0050473     
   449042728.05195206        134712818.41558564        658072967.30428576     
   448368273.42722255        125410640.12764572        774337797.91259694     
   446956574.47128206        113650980.73566939        888994543.84334111     
   444807631.18413067        99433840.239656761        1002043205.0965184     
   441921443.56576824        82759218.639607161        1113483781.6721284     
   700085.01051169715        210025.50315350914        656469630.90252042     
   913399.72718963749       -107109.19110407453        771008671.20881581     
   1109922.4757803800       -480217.11231889721        885765224.08752620     
   1289653.2562840534       -909298.26049066032        1000739289.5386518     
   1452592.0687003750       -1394352.6356204376        1115930867.5621932     
   1850819219.4429052        361467298.88107169        1143913713.3398354     
   1835549250.3472881        295958258.26714402        1191704148.5391579     
   1823642851.8918304        241661119.78707933        1241823649.9810920     
   1815100024.0765307        198575883.44087362        1294272217.6656373     
   1809920766.9013889        166702549.22852910        1349049851.5927958     
   1366604757.2528708        264190044.39795396        1127475204.5609493     
   1361044800.3592632        216673896.54979226        1183127670.0367744     
   1357999429.7489386        177539702.97924054        1239768103.4025102     
   1357468645.4218972        146787463.68629891        1297396504.6581566     
   1359452447.3781381        124417178.67096627        1356012873.8037136     
   896972165.29382527        171287350.98413238        1117331894.0050473     
   897290511.02308035        140614583.02799213        1179855908.0076869     
   899274458.67874300        115493821.49321187        1242026791.5475357     
   902924008.26081300        95925066.379788369        1303844544.6245949     
   908239159.76929069        81908317.687723577        1365309167.2388625     
   441921443.56576824        82759218.639607161        1113483781.6721284     
   444286382.33873975        67780317.701745823        1181888862.4518952     
   447467938.68124330        55523475.328991339        1248599714.4161704     
   451466112.59327859        45988691.521342844        1313616337.5649526     
   456280904.07484591        39175966.278801680        1376938731.8982446     
   1452592.0687003750       -1394352.6356204376        1115930867.5621932     
   2032414.3062410080       -1828899.4289500725        1189226533.3693988     
   2579869.7564390535       -2371335.5134212314        1259486872.0084114     
   3094958.4192934074       -3021660.8890380701        1326711883.4792306     
   3577680.2948045926       -3779875.5557991574        1390901567.7818573     
   1809920766.9013889        166702549.22852910        1349049851.5927958     
   1777948814.5416715        134308334.95264775        1367456215.2885811     
   1747569508.1298156        107222940.50297004        1386715876.4510980     
   1718782847.6658239        85446365.879508495        1406828835.0803480     
   1691588833.1496954        68978611.082254410        1427795091.1763301     
   1359452447.3781381        124417178.67096627        1356012873.8037136     
   1332762583.8309338        98945175.407676458        1376115789.9475858     
   1307184759.1013739        77179968.203203797        1397831120.5545220     
   1282718973.1894608        59121557.057552218        1421158865.6245234     
   1259365226.0951934        44769941.970719635        1446099025.1575859     
   908239159.76929069        81908317.687723577        1365309167.2388625     
   889000290.73840415        64009197.148169458        1386547927.5122361     
   870392853.39494467        48214848.900039732        1410158219.2450039     
   852416847.73891544        34525272.943342954        1436140042.4371679     
   835072273.77031362        22940469.278072476        1464493397.0887284     
   456280904.07484591        39175966.278801680        1376938731.8982446     
   446661935.26408207        29500400.174123406        1398752627.9825308     
   437193791.01052904        20327582.593482271        1423697172.5225434     
   427876471.31418705        11657513.536876753        1451772365.5182848     
   418709976.17505723        3490193.0043134689        1482978206.9697528     
   3577680.2948045926       -3779875.5557991574        1390901567.7818573     
   5747517.4079683637       -4581215.5144587047        1412729891.3584700     
   7587571.9481247030       -6481830.7164761918        1438447980.3871424     
   9097843.9152765181       -9481721.1618422642        1468055834.8678741     
   10278333.309422031       -13580886.850562502        1501553454.8006637     
   1691588833.1496954        68978611.082254410        1427795091.1763301     
   1638147706.8929269        49219050.597832561        1420129918.6566000     
   1586135249.7443528        34221720.474059999        1416468590.4686198     
   1535551461.7039719        23986620.710929573        1416811106.6123867     
   1486396342.7717879        18513751.308456123        1421157467.0879061     
   1259365226.0951934        44769941.970719635        1446099025.1575859     
   1218346494.2073903        28418458.676047802        1443044130.1728578     
   1178391301.8954928        15612107.301059842        1444754599.4810252     
   1139499649.1594987        6350887.8457523584        1451230433.0820904     
   1101671535.9994113        634800.31013119221        1462471630.9760530     
   835072273.77031362        22940469.278072476        1464493397.0887284     
   808651707.56904197        10649794.568419725        1465622795.1846607     
   782929551.41138530        687153.33748409152        1472279077.5346379     
   757905805.29734421       -6947454.4147341549        1484462244.1386607     
   733580469.22691894       -12254028.688231647        1502172294.9967284     
   418709976.17505723        3490193.0043134689        1482978206.9697528     
   409063346.97788227       -4086941.7250519097        1487865913.6920104     
   399749998.29203266       -10553141.416665345        1499042024.6294601     
   390769930.11751056       -15908406.070521146        1516506539.7821043     
   382123142.45431405       -20152735.686624050        1540259459.1499414     
   10278333.309422031       -13580886.850562502        1501553454.8006637     
   19581412.433910508       -15791750.204367554        1509773485.6949072     
   28852642.537434969       -18108776.961384937        1525043440.7654917     
   38092023.619996108       -20531967.121614441        1547363320.0124178     
   47299555.681593232       -23061320.685056288        1576733123.4356854     
   1486396342.7717879        18513751.308456123        1421157467.0879061     
   1444079619.4765999        17831904.123216212        1412846056.9009781     
   1402140493.1344097        18408713.447966158        1408621984.5518789     
   1360578963.7452133        20244179.282696009        1408485250.0406053     
   1319395031.3090129        23338301.627412736        1412435853.3671606     
   1101671535.9994113        634800.31013119221        1462471630.9760530     
   1069039930.6971114       -1624599.3885214329        1460131527.6878479     
   1036596039.9813027       -3258283.7988709807        1461518227.9055922     
   1004339863.8519851       -4266252.9209166765        1466631731.6292896     
   972271402.30916095       -4648506.7546513081        1475472038.8589368     
   733580469.22691894       -12254028.688231647        1502172294.9967284     
   709603883.82643139       -16400010.327619702        1505581969.1796601     
   685625130.64593172       -20553217.900382340        1512357912.5366621     
   661644209.68541861       -24713651.406524181        1522500125.0677402     
   637661120.94489133       -28881310.846044034        1536008606.7728930     
   382123142.45431405       -20152735.686624050        1540259459.1499414     
   365771478.86456186       -26494328.694074124        1549197381.3764172     
   349227765.12829435       -33476088.856576100        1561141038.4450896     
   332492001.24550825       -41098016.174139872        1576090430.3559599     
   315564187.21620613       -49360110.646758109        1594045557.1090281     
   47299555.681593232       -23061320.685056288        1576733123.4356854     
   37542715.811503321       -31907554.487882718        1590977764.2781169     
   27403943.428392425       -42026896.667446777        1607867605.6308711     
   16883238.532258168       -53419347.223755226        1627402647.4939458     
   5980601.1231024973       -66084906.156801008        1649582889.8673413     
   1319395031.3090129        23338301.627412736        1412435853.3671606     
   1262165513.1333663        22374981.534358978        1400825093.2127602     
   1205057013.3568525        21815056.105081379        1396270014.4560373     
   1148069531.9794745        21658525.339590192        1398770617.0969944     
   1091203069.0012312        21905389.237878621        1408326901.1356311     
   972271402.30916095       -4648506.7546513081        1475472038.8589368     
   931882335.70289731       -7014115.9005491138        1467982503.0592935     
   891643681.67950785       -8878349.7701976895        1466715084.5429173     
   851555440.23899817       -10241208.363580465        1471669783.3098176     
   811617611.38135755       -11102691.680733502        1482846599.3599839     
   637661120.94489133       -28881310.846044034        1536008606.7728930     
   611730894.15256286       -33363692.571416855        1532674588.5423706     
   585980474.12685037       -37246718.408070952        1534729123.4807107     
   560409860.86775458       -40530388.356001407        1542172211.5879169     
   535019054.37527740       -43214702.415204257        1555003852.8639908     
   315564187.21620613       -49360110.646758109        1594045557.1090281     
   301711188.48236305       -56673748.478247553        1594901349.6619904     
   288067390.69887900       -63290049.808539867        1600312131.2694113     
   274632793.86575502       -69209014.637632430        1610277901.9312921     
   261407397.98298579       -74430642.965541735        1624798661.6476281     
   5980601.1231024973       -66084906.156801008        1649582889.8673413     
   1823218.6922999695       -76944283.621030539        1654662786.4181569     
  -2095568.6044049487       -87008343.971601725        1663464107.9090228     
  -5775760.7670085244       -96277087.208501592        1675986854.3399413     
  -9217357.7955119982       -104750513.33173446        1692231025.7109103     
   1091203069.0012312        21905389.237878621        1408326901.1356311     
   1043948637.2219688        24173089.110827982        1402615318.5109088     
   996004325.47103035        24141189.078185976        1395782847.6372747     
   947370133.74840868        21809689.139935732        1387829488.5147259     
   898046062.05410862        17178589.296087980        1378755241.1432681     
   811617611.38135755       -11102691.680733502        1482846599.3599839     
   764050534.33885789       -15333730.553561628        1479025070.7961366     
   715620441.79025924       -22441487.780050188        1477583643.0661969     
   666327333.73555911       -32425963.360209823        1478522316.1701677     
   616171210.17476010       -45287157.294036508        1481841090.1080496     
   535019054.37527740       -43214702.415204257        1555003852.8639908     
   497142158.02046913       -50943632.248524696        1552870386.9041817     
   458229110.62513804       -62126398.883588493        1556618010.8611081     
   418279912.18928730       -76763002.320385516        1566246724.7347722     
   377294562.71291465       -94853442.558921680        1581756528.5251696     
   261407397.98298579       -74430642.965541735        1624798661.6476281     
   243223508.26679701       -82656615.974084377        1624151266.8350410     
   223830331.97566515       -94913544.232437089        1632885951.0220146     
   203227869.10959247       -111201427.74059302        1651002714.2085474     
   181416119.66857773       -131520266.49855515        1678501556.3946438     
  -9217357.7955119982       -104750513.33173446        1692231025.7109103     
   2294585.0778498054       -110472681.73021157        1692867710.5887182     
   12424105.841843039       -120802923.82658462        1706387463.5489109     
   21171204.496480606       -135741239.62080920        1732790284.5914891     
   28535881.041749738       -155287629.11292928        1772076173.7164526     
   898046062.05410862        17178589.296087980        1378755241.1432681     
   832584059.34244299        29905998.137582034        1386364762.5849855     
   782449225.38743281        93723969.501257390        1404667809.7006176     
   747641560.18907857        208632503.38712505        1433664382.4901597     
   728161063.74737394        374631599.79515505        1473354480.9536121     
   616171210.17476010       -45287157.294036508        1481841090.1080496     
   569860201.83644938       -51561456.763683468        1514898757.2537766     
   527994644.10145438       -43017587.555611134        1556379442.4692101     
   490574536.96977222       -19655549.669830978        1606283145.7543406     
   457599880.44140220        18524656.893653631        1664609867.1091826     
   377294562.71291465       -94853442.558921680        1581756528.5251696     
   343647384.16451830       -122075599.71473190        1627567003.5293412     
   303563938.06609249       -170751982.03730512        1679529988.9990084     
   257044224.41763866       -240882589.52663529        1737645484.9341691     
   204088243.21915609       -332467422.18273014        1801913491.3348360     
   181416119.66857773       -131520266.49855515        1678501556.3946438     
   153945606.32664692       -181636430.71556824        1724369501.4116888     
   109157107.28135073       -289479213.94380111        1774119449.2900245     
   47050622.532677799       -455048616.18328780        1827751400.0296526     
  -32373847.919361144       -678344637.43399525        1885265353.6305764     
   28535881.041749738       -155287629.11292928        1772076173.7164526     
   754868.32284298539       -230243949.76617104        1805306250.9008093     
  -55225848.252777949       -399199283.27512825        1840147823.3422525     
  -139406268.68510669       -662153629.63977766        1876600891.0407808     
  -251786392.97415006       -1019106988.8601418        1914665453.9963944     
   700085.01051169715        210025.50315350914        656469630.90252042     
   913399.72718963749       -107109.19110407453        771008671.20881581     
   1109922.4757803800       -480217.11231889721        885765224.08752620     
   1289653.2562840534       -909298.26049066032        1000739289.5386518     
   1452592.0687003750       -1394352.6356204376        1115930867.5621932     
  -447698085.80674070       -134309425.74202222        657824112.28907335     
  -446579520.21345001       -125494446.82024306        774005733.35137475     
  -444748573.47111213       -114304864.06830685        888558777.83495438     
  -442205245.57972711       -100740677.48621333        1001483245.7398130     
  -438949536.53929514       -84801887.073963374        1112779137.0659497     
  -889925213.83537948       -266977564.15061387        662161142.05718994     
  -893175937.79729581       -250612833.74234393        780836045.84548771     
  -894985107.49303079       -229442922.44680262        896036283.90392697     
  -895352722.92258406       -203467830.26398969        1007761856.2325078     
  -894278784.08595598       -172687557.19390547        1116012762.8312294     
  -1325981299.0754049       -397794389.72262150        669480720.20687044     
  -1338875853.0243480       -375462269.95740670        791499608.69115460     
  -1349599679.5899751       -345894392.24780607        908197742.29444313     
  -1358152778.7722871       -309090756.59381974        1019575121.0167363     
  -1364535150.5712829       -265051362.99544758        1125631744.8580341     
  -1755866341.5268166       -526759902.45804501        679782846.73811471     
  -1783679265.8946061       -500042755.46543121        805996421.88837528     
  -1808592289.7619457       -463659273.47131753        925043153.00650322     
  -1830605413.1288354       -417609456.47570348        1036923040.0924987     
  -1849718635.9952745       -361893304.47858912        1141636083.1463618     
   1452592.0687003750       -1394352.6356204376        1115930867.5621932     
   2032414.3062410080       -1828899.4289500725        1189226533.3693988     
   2579869.7564390535       -2371335.5134212314        1259486872.0084114     
   3094958.4192934074       -3021660.8890380701        1326711883.4792306     
   3577680.2948045926       -3779875.5557991574        1390901567.7818573     
  -438949536.53929514       -84801887.073963374        1112779137.0659497     
  -440168121.35638011       -70405520.679833725        1180971272.5505381     
  -442231045.03297257       -58823617.150729343        1247392826.7334249     
  -445138307.56907332       -50056176.486652017        1312043799.6146100     
  -448889908.96468151       -44103198.687599972        1374924191.1940935     
  -894278784.08595598       -172687557.19390547        1116012762.8312294     
  -893682216.33912003       -142376209.72675309        1178154067.2423422     
  -894741959.52395678       -117585898.69850963        1239789536.2182446     
  -897458013.64046514       -98316624.109172314        1300919169.7589371     
  -901830378.68864644       -84568385.958744049        1361542967.8644180     
  -1364535150.5712829       -265051362.99544758        1125631744.8580341     
  -1358509870.6419792       -217740966.56970939        1180774917.4448125     
  -1354952873.7165127       -178658180.15676019        1236677000.4628720     
  -1353864159.7948835       -147803003.75660133        1293337993.9122117     
  -1355243728.8770905       -125175437.36923152        1350757897.7928331     
  -1849718635.9952745       -361893304.47858912        1141636083.1463618     
  -1834651084.2649577       -296499791.20870060        1188833823.1579475     
  -1822863787.6106412       -242040461.52548349        1238055219.4673052     
  -1814356746.0323272       -198515315.42893833        1289300272.0744355     
  -1809129959.5300140       -165924352.91906464        1342568980.9793375     
   3577680.2948045926       -3779875.5557991574        1390901567.7818573     
   5747517.4079683637       -4581215.5144587047        1412729891.3584700     
   7587571.9481247030       -6481830.7164761918        1438447980.3871424     
   9097843.9152765181       -9481721.1618422642        1468055834.8678741     
   10278333.309422031       -13580886.850562502        1501553454.8006637     
  -448889908.96468151       -44103198.687599972        1374924191.1940935     
  -434986231.76049709       -35086215.565148398        1395518847.0322363     
  -421710245.31650281       -28161534.976664498        1418984001.3926961     
  -409061949.63269597       -23329156.922138840        1445319654.2754714     
  -397041344.70907938       -20589081.401580706        1474525805.6805632     
  -901830378.68864644       -84568385.958744049        1361542967.8644180     
  -879105052.62127900       -66606737.123535424        1380556396.4123788     
  -857305325.50128329       -51730418.112898558        1401421056.5529125     
  -836431197.32866061       -39939428.926838011        1424136948.2860186     
  -816482668.10340881       -31233769.565349013        1448704071.6116991     
  -1355243728.8770905       -125175437.36923152        1350757897.7928331     
  -1326608945.1743774       -99142780.189614832        1367842539.4988968     
  -1299197668.6062183       -77188480.125180721        1385759145.8677905     
  -1273009899.1726160       -59312537.175933659        1404507716.8995132     
  -1248045636.8735678       -45514951.341867805        1424088252.5940673     
  -1809129959.5300140       -165924352.91906464        1342568980.9793375     
  -1777497909.4197915       -132694344.76339078        1357377276.2917907     
  -1747387274.6313062       -104535721.01350689        1371998269.3373306     
  -1718798055.1645615       -81448481.669424117        1386431960.1159575     
  -1691730251.0195532       -63432626.731131196        1400678348.6276710     
   10278333.309422031       -13580886.850562502        1501553454.8006637     
   19581412.433910508       -15791750.204367554        1509773485.6949072     
   28852642.537434969       -18108776.961384937        1525043440.7654917     
   38092023.619996108       -20531967.121614441        1547363320.0124178     
   47299555.681593232       -23061320.685056288        1576733123.4356854     
  -397041344.70907938       -20589081.401580706        1474525805.6805632     
  -369559705.39748240       -14121309.350255683        1477441047.7032461     
  -342050780.01951635       -7562583.7443676889        1485287111.3692563     
  -314514568.57518226       -912904.58391903341        1498063996.6785927     
  -286951071.06448025        5827728.1310886890        1515771703.6312587     
  -816482668.10340881       -31233769.565349013        1448704071.6116991     
  -776877047.27045774       -17903735.708621681        1446383515.6980419     
  -737185005.28380549       -4285631.3395568132        1446874678.8946965     
  -697406542.14345241        9620543.5418438613        1450177561.2016666     
  -657541657.84939861        23814788.935580224        1456292162.6189497     
  -1248045636.8735678       -45514951.341867805        1424088252.5940673     
  -1202370613.1850152       -27139029.279460728        1416600889.6792908     
  -1156550033.2554300       -8277919.7469440103        1409806143.3418138     
  -1110583897.0848124        11068377.255681396        1403704013.5816374     
  -1064472204.6731617        30899861.728416622        1398294500.3987603     
  -1691730251.0195532       -63432626.731131196        1400678348.6276710     
  -1646040403.1411552       -41827190.062775254        1388093169.6469965     
  -1600145863.9343913       -19539448.966531754        1374081504.7106087     
  -1554046633.3992622        3430596.5575921535        1358643353.8185055     
  -1507742711.5357678        27082946.509603500        1341778716.9706895     
   47299555.681593232       -23061320.685056288        1576733123.4356854     
   37542715.811503321       -31907554.487882718        1590977764.2781169     
   27403943.428392425       -42026896.667446777        1607867605.6308711     
   16883238.532258168       -53419347.223755226        1627402647.4939458     
   5980601.1231024973       -66084906.156801008        1649582889.8673413     
  -286951071.06448025        5827728.1310886890        1515771703.6312587     
  -286405429.89315391        3646904.6420585066        1517292969.6675849     
  -286425162.24021322       -418497.24159157276        1522555848.9991877     
  -287010268.10565901       -6368477.5198626071        1531560341.6260674     
  -288160747.48949295       -14203036.192762583        1544306447.5482225     
  -657541657.84939861        23814788.935580224        1456292162.6189497     
  -643560927.67963958        29239158.147452414        1444876039.3429115     
  -630329012.03363359        32167478.946816266        1438297942.1471043     
  -617845910.91137648        32599751.333681703        1436557871.0315311     
  -606111624.31287253        30535975.308040649        1439655825.9961870     
  -1064472204.6731617        30899861.728416622        1398294500.3987603     
  -1033923777.5479548        44869206.028297663        1373726973.3040996     
  -1004307605.9518659        55731031.897787035        1355093885.0746233     
  -975623689.88489246        63485339.336890519        1342395235.7103355     
  -947872029.34703434        68132128.345609069        1335631025.2112365     
  -1507742711.5357678        27082946.509603500        1341778716.9706895     
  -1457493979.4980996        50537048.284593284        1303845771.5511446     
  -1408360943.9949152        70272161.611301780        1272943677.7817430     
  -1360343605.0262065        86288286.489758968        1249072435.6624844     
  -1313441962.5919814        98585422.919938743        1232232045.1933672     
   5980601.1231024973       -66084906.156801008        1649582889.8673413     
   1823218.6922999695       -76944283.621030539        1654662786.4181569     
  -2095568.6044049487       -87008343.971601725        1663464107.9090228     
  -5775760.7670085244       -96277087.208501592        1675986854.3399413     
  -9217357.7955119982       -104750513.33173446        1692231025.7109103     
  -288160747.48949295       -14203036.192762583        1544306447.5482225     
  -280066107.81702083       -19829842.387511134        1541691515.0313485     
  -271779138.51984394       -24815549.833243214        1543572273.5147524     
  -263299839.59796050       -29160158.529954106        1549948722.9984365     
  -254628211.05137181       -32863668.477646708        1560820863.4824002     
  -606111624.31287253        30535975.308040649        1439655825.9961870     
  -583552773.79361701        30805397.005824000        1429292087.9839957     
  -560847859.15904880        31561699.087988466        1424198307.0323129     
  -537996880.40916979        32804881.554519415        1424374483.1411364     
  -514999837.54397953        34534944.405421674        1429820616.3104677     
  -947872029.34703434        68132128.345609069        1335631025.2112365     
  -908636779.23748684        74961434.558984518        1317464505.2761028     
  -869301730.52201986        82123402.792088807        1305342208.4617023     
  -829866883.20063853        89618033.044908464        1299264134.7680409     
  -790332237.27333558        97445325.317467988        1299230284.1951118     
  -1313441962.5919814        98585422.919938743        1232232045.1933672     
  -1255318124.1486328        112638270.27195215        1206208766.9076638     
  -1197140752.6087584        126869561.27905726        1187003977.8029239     
  -1138909847.9723623        141279295.94123065        1174617677.8791461     
  -1080625410.2394459        155867474.25847477        1169049867.1363323     
  -9217357.7955119982       -104750513.33173446        1692231025.7109103     
   2294585.0778498054       -110472681.73021157        1692867710.5887182     
   12424105.841843039       -120802923.82658462        1706387463.5489109     
   21171204.496480606       -135741239.62080920        1732790284.5914891     
   28535881.041749738       -155287629.11292928        1772076173.7164526     
  -254628211.05137181       -32863668.477646708        1560820863.4824002     
  -212144348.90600145       -26232712.109118231        1552979903.7277083     
  -169727016.66891542       -19823522.101536095        1553229708.0767128     
  -127376214.34010562       -13636098.454874765        1561570276.5294144     
  -85091941.919576332       -7670441.1691498905        1578001609.0858095     
  -514999837.54397953        34534944.405421674        1429820616.3104677     
  -455236353.20857269        49411336.416364938        1415037219.4912052     
  -394223506.58036584        68452269.403308570        1403552282.7969491     
  -331961297.65935540        91657743.366264045        1395365806.2276988     
  -268449726.44554251        119027758.30522749        1390477789.7834547     
  -790332237.27333558        97445325.317467988        1299230284.1951118     
  -726981427.82986569        116459463.84622869        1279039657.8792088     
  -661065363.89250791        144024450.68795058        1257355187.7096219     
  -592584045.46126914        180140285.84260857        1234176873.6863530     
  -521537472.53614503        224806969.31021562        1209504715.8093936     
  -1080625410.2394459        155867474.25847477        1169049867.1363323     
  -1027379572.7698801        174911670.18047929        1144987218.8917174     
  -970252588.60534763        206893021.75237072        1114638422.8147299     
  -909244457.74584973        251811528.97414827        1078003478.9053652     
  -844355180.19138336        309667191.84581965        1035082387.1636285     
   28535881.041749738       -155287629.11292928        1772076173.7164526     
   754868.32284298539       -230243949.76617104        1805306250.9008093     
  -55225848.252777949       -399199283.27512825        1840147823.3422525     
  -139406268.68510669       -662153629.63977766        1876600891.0407808     
  -251786392.97415006       -1019106988.8601418        1914665453.9963944     
  -85091941.919576332       -7670441.1691498905        1578001609.0858095     
  -92434065.930621937       -38376180.149165913        1563180700.5094981     
  -114072392.34301400       -116735927.13366880        1552258846.0652461     
  -150006921.15674469       -242749682.12263578        1545236045.7530534     
  -200237652.37182322       -416417445.11609417        1542112299.5729303     
  -268449726.44554251        119027758.30522749        1390477789.7834547     
  -248817079.24879909        134533365.74841222        1343826647.1444063     
  -229577132.99802837        148729970.03835797        1303362117.5123909     
  -210729887.69323078        161617571.17505521        1269084200.8874114     
  -192275343.33441454        173196169.15848467        1240992897.2694776     
  -521537472.53614503        224806969.31021562        1209504715.8093936     
  -468394171.63167709        288484687.92660344        1147244090.8055344     
  -401740070.21782142        397198408.24095070        1093457637.6836870     
  -321575168.29457128        550948130.25327826        1048145356.4438555     
  -227899465.86192673        749733853.96358728        1011307247.0860338     
  -844355180.19138336        309667191.84581965        1035082387.1636285     
  -751165343.07927203        423477786.38535291        973433031.49289036     
  -630561204.00239480        628669387.47410440        922545406.57913852     
  -482542762.96075428        925241995.11206698        882419512.42237425     
  -307110019.95436120        1313195609.2992067        853055349.02259374     
  -1755866341.5268166       -526759902.45804501        679782846.73811471     
  -1783679265.8946061       -500042755.46543121        805996421.88837528     
  -1808592289.7619457       -463659273.47131753        925043153.00650322     
  -1830605413.1288354       -417609456.47570348        1036923040.0924987     
  -1849718635.9952745       -361893304.47858912        1141636083.1463618     
  -2201749867.2170134       -660524960.16510403        696154615.73509634     
  -2238311894.2150211       -613931666.82565057        813398454.91402960     
  -2272835540.2030368       -560543770.11956060        926492256.17565703     
  -2305320805.1810622       -500361270.04683363        1035436019.5199790     
  -2335767689.1490960       -433384166.60747027        1140229744.9469953     
  -2685801402.1733947       -805740420.65201843        721683121.28198874     
  -2722493085.7592578       -736685147.15301669        828952118.41739237     
  -2758007907.8255882       -663707001.92224169        935087883.75031745     
  -2792345868.3723869       -586805984.95969391        1040090417.2807633     
  -2825506967.3996530       -505982096.26537275        1143959719.0087304     
  -3208020946.3959608       -962406283.91878831        756368363.37879181     
  -3236222840.5273156       -868303196.44752908        852657412.39846373     
  -3264109392.6295991       -773148968.87936091        950830035.73048389     
  -3291680602.7028093       -676943601.21428323        1050886233.3748513     
  -3318936470.7469459       -579687093.45229566        1152826005.3315673     
  -3768408499.8847113       -1130522549.9654133        800210342.02550542     
  -3779501158.5191975       -1008785814.7091887        884514336.85724354     
  -3791139994.6150699       -888869670.99091792        973718712.11615634     
  -3803325008.1723285       -770774118.81060123        1067823467.8022437     
  -3816056199.1909738       -654499158.16823876        1166828603.9155061     
  -1849718635.9952745       -361893304.47858912        1141636083.1463618     
  -1834651084.2649577       -296499791.20870060        1188833823.1579475     
  -1822863787.6106412       -242040461.52548349        1238055219.4673052     
  -1814356746.0323272       -198515315.42893833        1289300272.0744355     
  -1809129959.5300140       -165924352.91906464        1342568980.9793375     
  -2335767689.1490960       -433384166.60747027        1140229744.9469953     
  -2312990226.5351443       -352579278.29244715        1181373934.9567220     
  -2293661816.8645463       -283271233.12194014        1222868698.1841338     
  -2277782460.1373038       -225460031.09594977        1264714034.6292303     
  -2265352156.3534164       -179145672.21447861        1306909944.2920122     
  -2825506967.3996530       -505982096.26537275        1143959719.0087304     
  -2799799831.2737427       -411199904.11671716        1178853428.1713519     
  -2777710545.9585423       -328477214.67042482        1212424627.4715717     
  -2759239111.4540491       -257814027.92649412        1244673316.9093890     
  -2744385527.7602658       -199210343.88492787        1275599496.4848051     
  -3318936470.7469459       -579687093.45229566        1152826005.3315673     
  -3295079898.4807558       -472361668.68151164        1181272302.8018377     
  -3275009974.8926277       -377658406.17093587        1206723007.3296194     
  -3258726699.9825616       -295577305.92056823        1229178118.9149115     
  -3246230073.7505584       -226118367.93040931        1248637637.5577149     
  -3816056199.1909738       -654499158.16823876        1166828603.9155061     
  -3798830428.1561799       -536064571.98682952        1188630558.8481798     
  -3785560103.6668038       -430814807.62347353        1205763837.7582769     
  -3776245225.7228427       -338749865.07817173        1218228440.6457982     
  -3770885794.3242993       -259869744.35092568        1226024367.5107434     
  -1809129959.5300140       -165924352.91906464        1342568980.9793375     
  -1777497909.4197915       -132694344.76339078        1357377276.2917907     
  -1747387274.6313062       -104535721.01350689        1371998269.3373306     
  -1718798055.1645615       -81448481.669424117        1386431960.1159575     
  -1691730251.0195532       -63432626.731131196        1400678348.6276710     
  -2265352156.3534164       -179145672.21447861        1306909944.2920122     
  -2227245728.3783674       -134731302.47654796        1312552333.3500111     
  -2192021781.3506579       -99925202.563085794        1320781308.8211923     
  -2159680315.2702909       -74727372.474090934        1331596870.7055559     
  -2130221330.1372650       -59137812.209573865        1344999019.0031023     
  -2744385527.7602658       -199210343.88492787        1275599496.4848051     
  -2691879325.6915455       -141233993.69608653        1270488069.3918133     
  -2643616670.1957650       -97402798.750387669        1270737117.3920991     
  -2599597561.2729301       -67716759.047836900        1276346640.4856641     
  -2559821998.9230390       -52175874.588429332        1287316638.6725066     
  -3246230073.7505584       -226118367.93040931        1248637637.5577149     
  -3171398701.3593216       -152202418.42200470        1231184484.4171970     
  -3102171941.1666284       -96968509.575419188        1221865695.0500519     
  -3038549793.1724834       -60416641.390653849        1220681269.4562812     
  -2980532257.3768821       -42546813.867708564        1227631207.6358836     
  -3770885794.3242993       -259869744.35092568        1226024367.5107434     
  -3665803855.3816986       -167636576.65430200        1194641578.4261611     
  -3567687594.2632475       -98622335.038176894        1174167041.7950492     
  -3476537010.9689436       -52827019.502543449        1164600757.6174052     
  -3392352105.4987888       -30250630.047405243        1165942725.8932331     
  -1691730251.0195532       -63432626.731131196        1400678348.6276710     
  -1646040403.1411552       -41827190.062775254        1388093169.6469965     
  -1600145863.9343913       -19539448.966531754        1374081504.7106087     
  -1554046633.3992622        3430596.5575921535        1358643353.8185055     
  -1507742711.5357678        27082946.509603500        1341778716.9706895     
  -2130221330.1372650       -59137812.209573865        1344999019.0031023     
  -2086680808.5975606       -44377757.802261353        1336772174.5347910     
  -2043590091.8990107       -31117052.865463018        1329898191.6680541     
  -2000949180.0416121       -19355697.399169803        1324377070.4028926     
  -1958758073.0253694       -9093691.4033932686        1320208810.7393055     
  -2559821998.9230390       -52175874.588429332        1287316638.6725066     
  -2510489810.7012048       -41878904.535921216        1282684549.8521190     
  -2462261923.4900417       -35262937.852317929        1282184670.1905961     
  -2415138337.2895494       -32327974.537613153        1285816999.6879377     
  -2369119052.0997257       -33074014.591813087        1293581538.3441446     
  -2980532257.3768821       -42546813.867708564        1227631207.6358836     
  -2917467409.4520884       -34330630.263749838        1225830295.5989833     
  -2856161358.7074857       -31977103.927094936        1230940940.2782362     
  -2796614105.1430688       -35486234.857727051        1242963141.6736438     
  -2738825648.7588439       -44858023.055662036        1261896899.7852051     
  -3392352105.4987888       -30250630.047405243        1165942725.8932331     
  -3307613604.8502107       -21732934.985753179        1166209411.7753811     
  -3225288397.5513401       -21259551.089793682        1176167001.9309733     
  -3145376483.6021767       -28830478.359522820        1195815496.3600085     
  -3067877863.0027180       -44445716.794939756        1225154895.0624869     
  -1507742711.5357678        27082946.509603500        1341778716.9706895     
  -1457493979.4980996        50537048.284593284        1303845771.5511446     
  -1408360943.9949152        70272161.611301780        1272943677.7817430     
  -1360343605.0262065        86288286.489758968        1249072435.6624844     
  -1313441962.5919814        98585422.919938743        1232232045.1933672     
  -1958758073.0253694       -9093691.4033932686        1320208810.7393055     
  -1894196497.3424604        6302667.5514408350        1294913833.3285913     
  -1830224757.0212231        19732908.634037852        1275457363.1071854     
  -1766842852.0616529        31197031.844406724        1261839400.0750864     
  -1704050782.4637542        40695037.182543755        1254059944.2322991     
  -2369119052.0997257       -33074014.591813087        1293581538.3441446     
  -2293651331.2311049       -26757407.994993806        1281538033.6438713     
  -2218247584.5513415       -20654048.694373965        1274140691.6720746     
  -2142907812.0604360       -14763936.689946294        1271389512.4287503     
  -2067632013.7583909       -9087071.9817185402        1273284495.9139035     
  -2738825648.7588439       -44858023.055662036        1261896899.7852051     
  -2655858481.1640329       -48643178.354715943        1263718372.4969864     
  -2572429426.5852718       -50888710.373925209        1268993663.4764104     
  -2488538485.0225573       -51594619.113302588        1277722772.7234714     
  -2404185656.4758949       -50760904.572842121        1289905700.2381763     
  -3067877863.0027180       -44445716.794939756        1225154895.0624869     
  -2980817947.1412473       -59354643.527721167        1241454849.8879356     
  -2892770283.1230116       -70971076.404625177        1260016278.5201910     
  -2803734870.9480143       -79295015.425656796        1280839180.9592533     
  -2713711710.6162562       -84326460.590816021        1303923557.2051196     
  -1313441962.5919814        98585422.919938743        1232232045.1933672     
  -1255318124.1486328        112638270.27195215        1206208766.9076638     
  -1197140752.6087584        126869561.27905726        1187003977.8029239     
  -1138909847.9723623        141279295.94123065        1174617677.8791461     
  -1080625410.2394459        155867474.25847477        1169049867.1363323     
  -1704050782.4637542        40695037.182543755        1254059944.2322991     
  -1629900399.7750368        52306173.848750830        1237001090.5933480     
  -1556013607.6142128        63038675.421977401        1226015330.4281356     
  -1482390405.9812818        72892541.902228355        1221102663.7366595     
  -1409030794.8762405        81867773.289514065        1222263090.5189235     
  -2067632013.7583909       -9087071.9817185402        1273284495.9139035     
  -1979584788.8449469       -556556.60751247406        1264820089.3598852     
  -1892118278.0838127        6038244.9256572723        1261683380.5723808     
  -1805232481.4749887        10697332.617799878        1263874369.5513890     
  -1718927399.0184712        13420706.468910813        1271393056.2969122     
  -2404185656.4758949       -50760904.572842121        1289905700.2381763     
  -2304371291.3583674       -45949921.096833944        1289665763.2072713     
  -2205454764.0175633       -44131730.209909678        1294008128.2356579     
  -2107436074.4534848       -45306331.912067056        1302932795.3233306     
  -2010315222.6661377       -49473726.203323960        1316439764.4702942     
  -2713711710.6162562       -84326460.590816021        1303923557.2051196     
  -2604259907.3152843       -83873919.619185805        1311538112.1355131     
  -2496023065.4154625       -87471249.984723687        1322989573.4179673     
  -2389001184.9167747       -95118451.687376142        1338277941.0524879     
  -2283194265.8192325       -106815524.72717738        1357403215.0390701     
  -1080625410.2394459        155867474.25847477        1169049867.1363323     
  -1027379572.7698801        174911670.18047929        1144987218.8917174     
  -970252588.60534763        206893021.75237072        1114638422.8147299     
  -909244457.74584973        251811528.97414827        1078003478.9053652     
  -844355180.19138336        309667191.84581965        1035082387.1636285     
  -1409030794.8762405        81867773.289514065        1222263090.5189235     
  -1371059122.5863914        83250301.117683768        1210708585.6343591     
  -1330830225.8661418        92156910.380514503        1197766640.3117309     
  -1288344104.7155073        108587601.07796210        1183437254.5510447     
  -1243600759.1344807        132542373.21005535        1167720428.3522961     
  -1718927399.0184712        13420706.468910813        1271393056.2969122     
  -1682233585.0674353        1340458.2555270195        1270452118.7970569     
  -1644906468.9505832       -8628782.7384629846        1273022448.2534549     
  -1606946050.6679101       -16487016.513051033        1279104044.6661072     
  -1568352330.2194233       -22234243.068262756        1288696908.0350137     
  -2010315222.6661377       -49473726.203323960        1316439764.4702942     
  -1960902960.2130179       -70817858.405987382        1324217818.3798144     
  -1912481317.8586574       -95464057.604511619        1340405846.6399000     
  -1865050295.6030512       -123412323.79888737        1365003849.2505538     
  -1818609893.4462080       -154662656.98913008        1398011826.2117765     
  -2283194265.8192325       -106815524.72717738        1357403215.0390701     
  -2207067248.0231395       -133224648.86686850        1372005684.3826268     
  -2133554772.5903749       -168348914.21766514        1399916835.4710655     
  -2062656839.5209353       -212188320.77954197        1441136668.3043873     
  -1994373448.8148375       -264742868.55255407        1495665182.8825889     
  -844355180.19138336        309667191.84581965        1035082387.1636285     
  -751165343.07927203        423477786.38535291        973433031.49289036     
  -630561204.00239480        628669387.47410440        922545406.57913852     
  -482542762.96075428        925241995.11206698        882419512.42237425     
  -307110019.95436120        1313195609.2992067        853055349.02259374     
  -1243600759.1344807        132542373.21005535        1167720428.3522961     
  -1140341978.9101086        195231447.02733368        1153974541.4242487     
  -1025375804.6817273        296945167.52464372        1149009538.6076262     
  -898702236.44933367        437683534.70200139        1152825419.9024220     
  -760321274.21292901        617446548.55938768        1165422185.3086486     
  -1568352330.2194233       -22234243.068262756        1288696908.0350137     
  -1460684168.7272601       -12364558.526593328        1304529763.8954461     
  -1357015521.1918337       -15826587.174049914        1327162657.2217436     
  -1257346387.6131477       -32620329.010630012        1356595588.0138991     
  -1161676767.9911962       -62745784.036340833        1392828556.2719252     
  -1818609893.4462080       -154662656.98913008        1398011826.2117765     
  -1712191912.5307157       -199310230.27640831        1425098698.9064867     
  -1625480353.5327089       -309645876.62196708        1457004762.4214935     
  -1558475216.4521947       -485669596.02583361        1493730016.7568059     
  -1511176501.2891622       -727381388.48797905        1535274461.9124117     
  -1994373448.8148375       -264742868.55255407        1495665182.8825889     
  -1894865210.3204837       -365605568.22211689        1515681346.4573653     
  -1830770301.7043602       -584512700.81912959        1538535854.2068796     
  -1802088722.9664767       -921464266.34360075        1564228706.1311336     
  -1808820474.1068316       -1376460264.7955282        1592759902.2301223     
  -3768408499.8847113       -1130522549.9654133        800210342.02550542     
  -3779501158.5191975       -1008785814.7091887        884514336.85724354     
  -3791139994.6150699       -888869670.99091792        973718712.11615634     
  -3803325008.1723285       -770774118.81060123        1067823467.8022437     
  -3816056199.1909738       -654499158.16823876        1166828603.9155061     
  -4339885709.3923006       -1301965712.8176901        858382122.93328571     
  -4335604593.5581694       -1125756252.9095547        942046533.04361582     
  -4332428027.3281403       -953228625.01509178        1020065914.3214207     
  -4330356010.7022142       -784382829.13430154        1092440266.7666998     
  -4329388543.6803885       -619218865.26718485        1159169590.3794539     
  -4895374221.6713858       -1468612266.5014157        936056771.81328821     
  -4905849072.1106377       -1246969004.1639688        1018430163.0357085     
  -4917986844.2967072       -1030868814.3159140        1084613116.1659038     
  -4931787538.2295933       -820311696.95725048        1134605631.2038734     
  -4947251153.9092970       -615297652.08797824        1168407708.1496177     
  -5434874036.7219648       -1630462211.0165896        1033234288.6655128     
  -5490234594.1766005       -1372424068.4724321        1113665226.8335223     
  -5547816445.5207672       -1121790238.8933845        1167360317.6496062     
  -5607619590.7544689       -878560722.27944803        1194319561.1137645     
  -5669644029.8777027       -642735518.63062119        1194542957.2259977     
  -5958385154.5440397       -1787515546.3632121        1149914673.4899597     
  -6088761159.7560568       -1502121445.8349433        1227751724.4370565     
  -6221916831.0003242       -1225992898.7475042        1268307518.7725279     
  -6357852168.2768402       -959129905.10089421        1271582056.4963734     
  -6496567171.5856037       -701532464.89511251        1237575337.6085935     
  -3816056199.1909738       -654499158.16823876        1166828603.9155061     
  -3798830428.1561799       -536064571.98682952        1188630558.8481798     
  -3785560103.6668038       -430814807.62347353        1205763837.7582769     
  -3776245225.7228427       -338749865.07817173        1218228440.6457982     
  -3770885794.3242993       -259869744.35092568        1226024367.5107434     
  -4329388543.6803885       -619218865.26718485        1159169590.3794539     
  -4298866387.4355440       -463068837.98787761        1141276762.6201005     
  -4279028918.9633341       -342534436.61734867        1129577036.1761551     
  -4269876138.2637577       -257615661.15559936        1124070411.0476174     
  -4271408045.3368134       -208312511.60262799        1124756887.2344887     
  -4947251153.9092970       -615297652.08797824        1168407708.1496177     
  -4872398962.9173040       -412122088.84964442        1102969316.2664835     
  -4814960700.9251623       -266992955.61081266        1054585803.0367416     
  -4774936367.9328709       -179910252.37148595        1023257168.4603924     
  -4752325963.9404306       -150873979.13166165        1008983412.5374360     
  -5669644029.8777027       -642735518.63062119        1194542957.2259977     
  -5519428154.6014633       -383224324.57213140        1073708219.7873288     
  -5393355449.5522900       -204190364.60386729        980790138.34003735     
  -5291425914.7301884       -105633638.72583365        915788712.88412213     
  -5213639550.1351538       -87554146.938027620        878703943.41958463     
  -6496567171.5856037       -701532464.89511251        1237575337.6085935     
  -6239953962.4880180       -376375545.15533710        1053493473.1826376     
  -6014213164.8447180       -154126663.59651160        908190042.08604217     
  -5819344778.6557045       -34785820.218641281        801665044.31880784     
  -5655348803.9209766       -18353015.021722078        733918479.88093615     
  -3770885794.3242993       -259869744.35092568        1226024367.5107434     
  -3665803855.3816986       -167636576.65430200        1194641578.4261611     
  -3567687594.2632475       -98622335.038176894        1174167041.7950492     
  -3476537010.9689436       -52827019.502543449        1164600757.6174052     
  -3392352105.4987888       -30250630.047405243        1165942725.8932331     
  -4271408045.3368134       -208312511.60262799        1124756887.2344887     
  -4149231615.1338844       -144204919.75856495        1092736824.9419594     
  -4031079107.4165907       -93510402.866617918        1069448636.3621879     
  -3916950522.1849298       -56228960.926778793        1054892321.4951749     
  -3806845859.4389009       -32360593.939053297        1049067880.3409200     
  -4752325963.9404306       -150873979.13166165        1008983412.5374360     
  -4619273267.4506359       -116757430.63220119        979758124.93189228     
  -4487302738.1079569       -86248105.956469059        957088332.29839659     
  -4356414375.9123983       -59346005.104463339        940974034.63694823     
  -4226608180.8639569       -36051128.076185226        931415231.94754708     
  -5213639550.1351538       -87554146.938027620        878703943.41958463     
  -5075928812.3319502       -85294109.275205374        855705478.39596283     
  -4936358486.3373489       -76835444.307726860        837086129.60367692     
  -4794928572.1513510       -62178152.035591602        822845897.04272711     
  -4651639069.7739592       -41322232.458800316        812984780.71311343     
  -5655348803.9209766       -18353015.021722078        733918479.88093615     
  -5519198249.7778254       -49814955.687575579        720578885.33416855     
  -5378246352.1047640       -65272417.920391560        709442028.27802658     
  -5232493110.9017868       -64725401.720163345        700507908.71251047     
  -5081938526.1689014       -48173907.086898088        693776526.63761961     
  -3392352105.4987888       -30250630.047405243        1165942725.8932331     
  -3307613604.8502107       -21732934.985753179        1166209411.7753811     
  -3225288397.5513401       -21259551.089793682        1176167001.9309733     
  -3145376483.6021767       -28830478.359522820        1195815496.3600085     
  -3067877863.0027180       -44445716.794939756        1225154895.0624869     
  -3806845859.4389009       -32360593.939053297        1049067880.3409200     
  -3697414981.6709499       -17973358.386042118        1043990165.8504690     
  -3590078200.7193222       -10566445.554099560        1046861173.9880848     
  -3484835516.5840116       -10139855.443221092        1057680904.7537688     
  -3381686929.2650185       -16693588.053400278        1076449358.1475205     
  -4226608180.8639569       -36051128.076185226        931415231.94754708     
  -4097462587.8205671       -17287650.584996223        921365513.04011524     
  -3970091895.0601077       -4440507.3702466488        917522335.11537468     
  -3844496102.5825791        2490301.5680642128        919885698.17332637     
  -3720675210.3879833        3504776.2299401760        928455602.21396923     
  -4651639069.7739592       -41322232.458800316        812984780.71311343     
  -4507756423.2990561       -19675811.582611084        798335453.34431994     
  -4365329480.5736980       -2881736.5382320881        788150485.31284130     
  -4224358241.5978842        9059992.6743280888        782429876.61867988     
  -4084842706.3716164        16149376.055076838        781173627.26183474     
  -5081938526.1689014       -48173907.086898088        693776526.63761961     
  -4928296488.1064205       -25137841.378889322        674899986.76308179     
  -4775790957.2600946       -5890133.0580658913        658745624.58048630     
  -4624421933.6299267        9569217.8755683899        645313440.08982825     
  -4474189417.2159128        21240211.422020912        634603433.29111516     
  -3067877863.0027180       -44445716.794939756        1225154895.0624869     
  -2980817947.1412473       -59354643.527721167        1241454849.8879356     
  -2892770283.1230116       -70971076.404625177        1260016278.5201910     
  -2803734870.9480143       -79295015.425656796        1280839180.9592533     
  -2713711710.6162562       -84326460.590816021        1303923557.2051196     
  -3381686929.2650185       -16693588.053400278        1076449358.1475205     
  -3286810076.9909296       -28115908.344754457        1085158967.3706989     
  -3191413018.3407583       -37804207.382497787        1096815529.3102922     
  -3095495753.3145075       -45758485.166646004        1111419043.9662998     
  -2999058281.9121799       -51978741.697195649        1128969511.3387251     
  -3720675210.3879833        3504776.2299401760        928455602.21396923     
  -3616022910.5309649       -3843384.2688837051        929029400.42408168     
  -3511317946.0785470       -11015996.116380215        933235630.26021707     
  -3406560317.0307312       -18013059.312547922        941074291.72237718     
  -3301750023.3875189       -24834573.857391834        952545384.81056142     
  -4084842706.3716164        16149376.055076838        781173627.26183474     
  -3968456447.7613549        13462928.699875593        773066149.04808378     
  -3852485066.3363795        9393557.3937230110        769276581.36996567     
  -3736928562.0966883        3941262.1366288662        769804924.22748220     
  -3621786935.0422783       -2893957.0714130402        774651177.62063324     
  -4474189417.2159128        21240211.422020912        634603433.29111516     
  -4344110688.6821051        23803030.561525106        617269213.24270725     
  -4214914379.1142578        23424453.147810459        604938382.63954055     
  -4086600488.5123739        20104479.180888176        597610941.48161912     
  -3959169016.8764615        13843108.660732031        595286889.76893592     
  -2713711710.6162562       -84326460.590816021        1303923557.2051196     
  -2604259907.3152843       -83873919.619185805        1311538112.1355131     
  -2496023065.4154625       -87471249.984723687        1322989573.4179673     
  -2389001184.9167747       -95118451.687376142        1338277941.0524879     
  -2283194265.8192325       -106815524.72717738        1357403215.0390701     
  -2999058281.9121799       -51978741.697195649        1128969511.3387251     
  -2879253727.8548603       -51524687.076095104        1129516662.6188185     
  -2760190795.7636414       -53542705.675312281        1134190212.6710808     
  -2641869485.6385112       -58032797.494835496        1142990161.4955144     
  -2524289797.4794784       -64994962.534679413        1155916509.0921144     
  -3301750023.3875189       -24834573.857391834        952545384.81056142     
  -3170765597.3735566       -24130869.226732731        946577361.78124857     
  -3040049453.8906393       -24321439.699560404        945025229.94421065     
  -2909601592.9387646       -25406285.275859714        947888989.29944956     
  -2779422014.5179324       -27385405.955639243        955168639.84696174     
  -3621786935.0422783       -2893957.0714130402        774651177.62063324     
  -3478795515.8713660       -1692466.0711083412        762720209.62280476     
  -3335599039.7964482        192547.94255328178        755494625.23735642     
  -3192197506.8175244        2761084.9695655107        752974424.46429276     
  -3048590916.9345927        6013145.0099383593        755159607.30360854     
  -3959169016.8764615        13843108.660732031        595286889.76893592     
  -3803343483.3482957        15790522.390780449        577945206.14348364     
  -3646839553.4810724        19999257.251023293        565598398.55051982     
  -3489657227.2747965        26469313.241435289        558246466.99004066     
  -3331796504.7294598        35200690.362053871        555889411.46205163     
  -2283194265.8192325       -106815524.72717738        1357403215.0390701     
  -2207067248.0231395       -133224648.86686850        1372005684.3826268     
  -2133554772.5903749       -168348914.21766514        1399916835.4710655     
  -2062656839.5209353       -212188320.77954197        1441136668.3043873     
  -1994373448.8148375       -264742868.55255407        1495665182.8825889     
  -2524289797.4794784       -64994962.534679413        1155916509.0921144     
  -2414493130.4339614       -77979311.981290698        1161187588.6672521     
  -2306386013.7779965       -96595496.059746504        1175951691.7601964     
  -2199968447.5115809       -120843514.77003133        1200208818.3709543     
  -2095240431.6347148       -150723368.11214322        1233958968.4995189     
  -2779422014.5179324       -27385405.955639243        955168639.84696174     
  -2646857578.8717690       -30215544.903816223        952187486.95642066     
  -2515057701.6413817       -35594211.904559493        954883699.35661781     
  -2384022382.8267603       -43521406.957867146        963257277.04755104     
  -2253751622.4279037       -53997130.063734293        977308220.02922571     
  -3048590916.9345927        6013145.0099383593        755159607.30360854     
  -2904160593.3365631        10066652.365569711        745005379.25013387     
  -2759569836.1805220        14654938.247902393        736712858.26032352     
  -2614818645.4664664        19778002.656952143        730282044.33418202     
  -2469907021.1944036        25435845.592688799        725712937.47170711     
  -3331796504.7294598        35200690.362053871        555889411.46205163     
  -3186402173.8283405        42867279.826851726        539641265.54838598     
  -3039922417.3954234        54151954.397635698        521439168.47131896     
  -2892357235.4307194        69054714.074378848        501283120.23084593     
  -2743706627.9342198        87575558.857107282        479173120.82696706     
  -1994373448.8148375       -264742868.55255407        1495665182.8825889     
  -1894865210.3204837       -365605568.22211689        1515681346.4573653     
  -1830770301.7043602       -584512700.81912959        1538535854.2068796     
  -1802088722.9664767       -921464266.34360075        1564228706.1311336     
  -1808820474.1068316       -1376460264.7955282        1592759902.2301223     
  -2095240431.6347148       -150723368.11214322        1233958968.4995189     
  -1975500371.1100349       -208637760.67386740        1201600332.4394829     
  -1875524487.1940024       -332432741.93108487        1172055144.4339206     
  -1795312779.8866155       -522108311.88380498        1145323404.4828300     
  -1734865249.1878991       -777664470.53205419        1121405112.5862141     
  -2253751622.4279037       -53997130.063734293        977308220.02922571     
  -2113850871.6450779       -68984555.049248815        910832129.81555784     
  -1978065144.2013242       -97688724.498331070        847144591.53609836     
  -1846394440.0966430       -140109638.41098428        786245605.19084060     
  -1718838759.3310277       -196247296.78719854        728135170.77979100     
  -2469907021.1944036        25435845.592688799        725712937.47170711     
  -2309916711.9256353        53354048.651697159        643376738.58558977     
  -2138392272.7263453        119719351.47910976        563804195.51341248     
  -1955333703.5965400        224531754.07488310        486995308.25517493     
  -1760741004.5362291        367791256.43903196        412950076.81088156     
  -2743706627.9342198        87575558.857107282        479173120.82696706     
  -2563697891.9516859        158378050.42900527        399234158.74957931     
  -2356505872.7690506        319791486.00123608        322033956.36586553     
  -2122130570.3863215        571815865.57378125        247572513.67582607     
  -1860571984.8034959        914451189.14664960        175849830.67946252     
  -5958385154.5440397       -1787515546.3632121        1149914673.4899597     
  -6088761159.7560568       -1502121445.8349433        1227751724.4370565     
  -6221916831.0003242       -1225992898.7475042        1268307518.7725279     
  -6357852168.2768402       -959129905.10089421        1271582056.4963734     
  -6496567171.5856037       -701532464.89511251        1237575337.6085935     
  -6811117261.9274330       -2043335178.5782297        1353701923.5892279     
  -6828905372.0243921       -1395590255.2652047        1202683804.5009832     
  -6898049272.4070406       -919031299.57114434        1091933594.5471582     
  -7018548963.0753794       -613658311.49605155        1021451293.7277527     
  -7190404444.0294075       -479471291.03992343        991236902.04276609     
  -8338280045.6619654       -2501484013.6985898        1712200036.2659154     
  -8021911215.6551676       -1424917554.1041982        1275654602.1799819     
  -7805474300.1874990       -681457476.30690765        956926242.97451293     
  -7688969299.2589607       -271103780.30672169        756014958.64950812     
  -7672396212.8695545       -193856466.10363722        672920749.20496619     
  -10539873505.747641       -3161962051.7242923        2225409011.5200233     
  -9667778690.6483860       -1590103342.3519235        1446664117.4740527     
  -8944191914.3416977       -513271428.95479298        863285464.05459130     
  -8369113176.8275862        68533688.467096806        475273051.26163882     
  -7942542478.1060457        155312009.91374588        282626879.09519565     
  -13415897642.184460       -4024769292.6553378        2893328849.3515506     
  -11766507797.004045       -1891147620.0083826        1715712350.3831954     
  -10314202114.869640       -414473157.51480198        811011257.78739393     
  -9058980595.7812538        405254094.82539845        179225571.56414694     
  -8000843239.7388773        568034137.01222706       -179644708.28654727     
  -6496567171.5856037       -701532464.89511251        1237575337.6085935     
  -6239953962.4880180       -376375545.15533710        1053493473.1826376     
  -6014213164.8447180       -154126663.59651160        908190042.08604217     
  -5819344778.6557045       -34785820.218641281        801665044.31880784     
  -5655348803.9209766       -18353015.021722078        733918479.88093615     
  -7190404444.0294075       -479471291.03992343        991236902.04276609     
  -6901019822.8237667       -304316995.33037400        846920185.09370637     
  -6624502326.9771442       -172053117.48422837        723649803.52076435     
  -6360851956.4895468       -82679657.501487255        621425757.32394159     
  -6110068711.3609695       -36196615.382150650        540248046.50323772     
  -7672396212.8695545       -193856466.10363722        672920749.20496619     
  -7400903316.5651207       -183903735.52709293        589375346.84394467     
  -7124272259.5244427       -156823802.49640512        509144181.90579844     
  -6842503041.7475233       -112616667.01157379        432227254.39052892     
  -6555595663.2343616       -51282329.072600842        358624564.29813600     
  -7942542478.1060457        155312009.91374588        282626879.09519565     
  -7739604443.7120790       -15135765.745491028        280858958.43335342     
  -7513522962.4866142       -108438718.63304090        264673177.24114335     
  -7264298034.4296370       -124596848.74890232        234069535.51856926     
  -6991929659.5411530       -63610156.093067169        189048033.26562753     
  -8000843239.7388773        568034137.01222706       -179644708.28654727     
  -7917123204.2646494        201986914.01442289       -78628980.138068914     
  -7792254435.8636532       -26897865.894142628       -9763210.4732020739     
  -7626236934.5358839       -118620202.71346664        26952600.708063554     
  -7419070700.2813435       -73180096.443557262        31518453.405713867     
  -5655348803.9209766       -18353015.021722078        733918479.88093615     
  -5519198249.7778254       -49814955.687575579        720578885.33416855     
  -5378246352.1047640       -65272417.920391560        709442028.27802658     
  -5232493110.9017868       -64725401.720163345        700507908.71251047     
  -5081938526.1689014       -48173907.086898088        693776526.63761961     
  -6110068711.3609695       -36196615.382150650        540248046.50323772     
  -5959078814.8991709       -37983940.292786837        533462392.36685890     
  -5807309065.0101824       -37171753.779447794        529040891.19529879     
  -5654759461.6939974       -33760055.842125654        526983542.98856276     
  -5501430004.9506226       -27748846.480828285        527290347.74664932     
  -6555595663.2343616       -51282329.072600842        358624564.29813600     
  -6389305237.3847866       -23256682.107282162        353701112.11897016     
  -6226256448.2107334       -6036490.7270433903        351303228.37882477     
  -6066449295.7122030        378245.06810927391        351430913.07769543     
  -5909883779.8892031       -4012474.7218170166        354084166.21558917     
  -6991929659.5411530       -63610156.093067169        189048033.26562753     
  -6809877517.2346630       -5633181.1310563087        181295044.59050477     
  -6635088501.7064171        28133371.236819744        176229039.82860231     
  -6467562612.9564114        37689501.010546923        173850018.97991046     
  -6307299850.9846516        23035208.190132618        174157982.04443699     
  -7419070700.2813435       -73180096.443557262        31518453.405713867     
  -7220795654.4488077        14886562.635893822        16244189.781465311     
  -7033805225.4972305        65337832.112147331        3818325.5446300190     
  -6858099413.4266167        78173711.985188007       -5759139.3047971306     
  -6693678218.2369652        53394202.255025864       -12488204.766805891     
  -5081938526.1689014       -48173907.086898088        693776526.63761961     
  -4928296488.1064205       -25137841.378889322        674899986.76308179     
  -4775790957.2600946       -5890133.0580658913        658745624.58048630     
  -4624421933.6299267        9569217.8755683899        645313440.08982825     
  -4474189417.2159128        21240211.422020912        634603433.29111516     
  -5501430004.9506226       -27748846.480828285        527290347.74664932     
  -5344240694.1643257       -19416097.015209436        511945353.90176493     
  -5187064038.6350460       -11125531.739636421        499999926.66996455     
  -5029900038.3627748       -2877150.6541016102        491454066.05124718     
  -4872748693.3475199        5329046.2413942814        486307772.04560918     
  -5909883779.8892031       -4012474.7218170166        354084166.21558917     
  -5747211799.4615469       -9802422.4233293533        343581879.01935977     
  -5583428622.3317642       -11888381.117736578        337156547.35735410     
  -5418534248.4998455       -10270350.805034637        334808171.22957480     
  -5252528677.9657974       -4948331.4852352142        336536750.63601786     
  -6307299850.9846516        23035208.190132618        174157982.04443699     
  -6137209803.9980879        3703182.3967597485        169809562.11586180     
  -5964884708.3502464       -8178681.1923649311        170215486.64265320     
  -5790324564.0411320       -12610382.577237844        175375755.62481382     
  -5613529371.0707445       -9591921.7578647137        185290369.06234062     
  -6693678218.2369652        53394202.255025864       -12488204.766805891     
  -6514234707.7739429        21100717.445049286       -9371596.8087256290     
  -6331432296.6905031        3568.0364689826965       -823255.47413619317     
  -6145270984.9866390       -9897245.9707047939        13156819.236965697     
  -5955750772.6623611       -8601724.5764915943        32568627.324572116     
  -4474189417.2159128        21240211.422020912        634603433.29111516     
  -4344110688.6821051        23803030.561525106        617269213.24270725     
  -4214914379.1142578        23424453.147810459        604938382.63954055     
  -4086600488.5123739        20104479.180888176        597610941.48161912     
  -3959169016.8764615        13843108.660732031        595286889.76893592     
  -4872748693.3475199        5329046.2413942814        486307772.04560918     
  -4730242714.6681604        8001679.9092903137        474364149.51815009     
  -4588475698.3099098        8211105.8401458263        466951218.92008513     
  -4447447644.2727747        5957324.0339453220        464068980.25142312     
  -4307158552.5567598        1240334.4906973839        465717433.51215494     
  -5252528677.9657974       -4948331.4852352142        336536750.63601786     
  -5098946013.4718666       -2571052.5882337093        330151091.71516263     
  -4945958854.6542015       -2178792.6121139526        327823427.20786285     
  -4793567201.5128021       -3771551.5568737984        329553757.11411744     
  -4641771054.0476656       -7349329.4225142002        335342081.43391877     
  -5613529371.0707445       -9591921.7578647137        185290369.06234062     
  -5450220585.0932283       -7915166.9310605526        184630039.83375141     
  -5287363848.1471291       -7745242.2089626789        187555007.50287217     
  -5124959160.2324438       -9082147.5915765762        194065272.06969720     
  -4963006521.3491697       -11925883.078911304        204160833.53423965     
  -5955750772.6623611       -8601724.5764915943        32568627.324572116     
  -5784066429.5322495       -8030663.1191802025        37800993.873905621     
  -5612690678.7886963       -8488242.9504046440        46145959.805109963     
  -5441623520.4317093       -9974464.0701799393        57603525.118172802     
  -5270864954.4612837       -12489326.478491545        72173689.813104242     
  -3959169016.8764615        13843108.660732031        595286889.76893592     
  -3803343483.3482957        15790522.390780449        577945206.14348364     
  -3646839553.4810724        19999257.251023293        565598398.55051982     
  -3489657227.2747965        26469313.241435289        558246466.99004066     
  -3331796504.7294598        35200690.362053871        555889411.46205163     
  -4307158552.5567598        1240334.4906973839        465717433.51215494     
  -4138774777.0245614        4327728.7174880505        453348177.01849145     
  -3970063481.8359656        8506855.1322495937        445381158.22696799     
  -3801024666.9909854        13777713.734979391        441816377.13757741     
  -3631658332.4896045        20140304.525692701        442653833.75032723     
  -4641771054.0476656       -7349329.4225142002        335342081.43391877     
  -4462522288.8838673       -3629930.4107344151        327535895.94227803     
  -4283296880.7463403        11611.846821308136        323539309.82241917     
  -4104094829.6350822        3575297.3501443863        323352323.07434452     
  -3924916135.5500898        7061126.0992376804        326974935.69805396     
  -4963006521.3491697       -11925883.078911304        204160833.53423965     
  -4774586018.9262056       -8082454.9938495159        200508362.91483834     
  -4586539750.2121763       -5486472.6052241325        200072853.33687320     
  -4398867715.2070827       -4137935.9130682945        202854304.80033842     
  -4211569913.9109192       -4036844.9173262119        208852717.30523974     
  -5270864954.4612837       -12489326.478491545        72173689.813104242     
  -5074965967.1515894       -9029845.0318880081        72265577.936174974     
  -4879792090.2334929       -7987398.2239451408        74981788.770323873     
  -4685343323.7069883       -9361986.0546302795        80322322.315563753     
  -4491619667.5720806       -13153608.523986578        88287178.571876660     
  -3331796504.7294598        35200690.362053871        555889411.46205163     
  -3186402173.8283405        42867279.826851726        539641265.54838598     
  -3039922417.3954234        54151954.397635698        521439168.47131896     
  -2892357235.4307194        69054714.074378848        501283120.23084593     
  -2743706627.9342198        87575558.857107282        479173120.82696706     
  -3631658332.4896045        20140304.525692701        442653833.75032723     
  -3490400186.0954771        19916689.420492649        431142823.79031521     
  -3348252251.3118563        22659035.613600731        420224901.04294872     
  -3205214528.1387439        28367343.105015159        409900065.50822729     
  -3061287016.5761304        37041611.894752741        400168317.18614346     
  -3924916135.5500898        7061126.0992376804        326974935.69805396     
  -3780516921.1599588        1130482.1749408245        319972818.35901386     
  -3635423555.5226355       -2486324.2587246895        316110826.60866815     
  -3489636038.6381202       -3789293.2017438412        315388960.44701165     
  -3343154370.5064106       -2778424.6541178226        317807219.87404436     
  -4211569913.9109192       -4036844.9173262119        208852717.30523974     
  -4056752379.0217881       -13491341.909827232        206131249.25448760     
  -3901436330.0277719       -21284125.219360590        209096945.16847891     
  -3745621766.9288549       -27415194.845905542        217749805.04720560     
  -3589308689.7250504       -31884550.789483786        232089828.89066470     
  -4491619667.5720806       -13153608.523986578        88287178.571876660     
  -4319106559.6809587       -23948782.833777666        89618116.476738796     
  -4146290574.8272548       -33734367.268297195        99183256.722376168     
  -3973171713.0109520       -42510361.827497005        116982599.30880785     
  -3799749974.2320614       -50276766.511381149        143016144.23601636     
  -2743706627.9342198        87575558.857107282        479173120.82696706     
  -2563697891.9516859        158378050.42900527        399234158.74957931     
  -2356505872.7690506        319791486.00123608        322033956.36586553     
  -2122130570.3863215        571815865.57378125        247572513.67582607     
  -1860571984.8034959        914451189.14664960        175849830.67946252     
  -3061287016.5761304        37041611.894752741        400168317.18614346     
  -2880636561.1440210        81389870.956641912        358110758.88850093     
  -2684618460.8412094        176963612.92088401        319912894.12993568     
  -2473232715.6676822        323762837.78750825        285574722.91045380     
  -2246479325.6234417        521787545.55650783        255096245.23003709     
  -3343154370.5064106       -2778424.6541178226        317807219.87404436     
  -3158659527.4950085        16076402.336658001        299846153.97186506     
  -2970612677.9422836        46771251.131863594        286865715.45416331     
  -2779013821.8482313        89306121.731491685        278865904.32094485     
  -2583862959.2128582        143681014.13551795        275846720.57220668     
  -3589308689.7250504       -31884550.789483786        232089828.89066470     
  -3397766791.0046349       -37562355.430888414        224440343.99966624     
  -3214488524.0722661       -70785599.365819216        222892420.33854067     
  -3039473888.9279690       -131554282.59429121        227446057.90731221     
  -2872722885.5717273       -219868405.11629438        238101256.70596114     
  -3799749974.2320614       -50276766.511381149        143016144.23601636     
  -3597958351.6729026       -79526402.346073866        131893328.97190358     
  -3416245999.2311835       -175706938.57222247        127993008.78308512     
  -3254612916.9068985       -338818375.18982160        131315183.66955906     
  -3113059104.7000775       -568860712.19897079        141859853.63130811     
 </DataArray>
 <DataArray  type="Float64" Name="VM" NumberOfComponents="1" format="ascii">
   12935564766.914057     
   11340629203.067032     
   10210086852.893509     
   9272599345.0026264     
   8303726815.8580170     
   10130224852.041533     
   9321882652.7513123     
   8826187050.2618523     
   8443307644.9328766     
   8035436464.4725370     
   7982236577.2878885     
   7734795286.7491426     
   7668920262.5373468     
   7669308057.7002649     
   7666028781.6511230     
   6491513036.6193237     
   6586656384.0847597     
   6757125484.8727455     
   6960841682.0717659     
   7171147020.9247828     
   5657607503.0306835     
   5890630708.2343769     
   6116002549.0035973     
   6331264549.1635399     
   6536194662.8773193     
   8303726815.8580170     
   8020687814.4909277     
   7779762625.3480053     
   7570265295.2186546     
   7387226933.4496164     
   8035436464.4725370     
   7746750978.5990038     
   7473742116.9071379     
   7214451970.0698605     
   6968890625.7104225     
   7666028781.6511230     
   7380868897.3029432     
   7101107941.9644327     
   6826826332.7384501     
   6558230529.9101114     
   7171147020.9247828     
   6910487143.4994316     
   6657732465.4810658     
   6409028399.9627876     
   6161230727.5088615     
   6536194662.8773193     
   6327964946.6853580     
   6141927111.2819147     
   5964177633.6445484     
   5785704152.9810371     
   7387226933.4496164     
   7229354531.0230894     
   7063967563.7298450     
   6890371482.6095428     
   6708378604.3447495     
   6968890625.7104225     
   6815104879.4474859     
   6656704109.8961020     
   6493405131.3630819     
   6325156654.7699614     
   6558230529.9101114     
   6407717459.2166386     
   6255574152.3512087     
   6101768480.0460577     
   5946329195.9780750     
   6161230727.5088615     
   6012187929.8191700     
   5864474961.9756546     
   5718129949.1392174     
   5573208484.1686440     
   5785704152.9810371     
   5634978373.0290508     
   5488435580.4709625     
   5345989691.1052637     
   5207687616.8306208     
   6708378604.3447495     
   6515554404.2394266     
   6326281357.8399506     
   6140445587.8911324     
   5958030397.6806850     
   6325156654.7699614     
   6141020614.9789352     
   5959184232.5293512     
   5779623522.6946497     
   5602363667.3914862     
   5946329195.9780750     
   5773309310.3537636     
   5601685456.7145357     
   5431480299.0071783     
   5262750673.8254099     
   5573208484.1686440     
   5414243070.9146137     
   5256154892.0346413     
   5098982028.1487436     
   4942824787.9873877     
   5207687616.8306208     
   5066241873.5275898     
   4925598042.1741486     
   4785791267.3662786     
   4647001526.4868755     
   5958030397.6806850     
   5785329816.6289244     
   5611200370.2384968     
   5435611317.5607433     
   5258581942.9911337     
   5602363667.3914862     
   5438874417.7674513     
   5274842772.6825924     
   5110295037.4259510     
   4945298722.3231153     
   5262750673.8254099     
   5108278811.0178490     
   4954180514.2756987     
   4800527918.3757000     
   4647428847.2161264     
   4942824787.9873877     
   4797050216.9926825     
   4652570641.7290249     
   4509489733.7425508     
   4367945286.2672472     
   4647001526.4868755     
   4509442512.0629005     
   4374075766.4938536     
   4241019091.5657210     
   4110427803.6642022     
   5258581942.9911337     
   5061786916.1257181     
   4865871305.6323528     
   4670835745.3267593     
   4476709241.9089909     
   4945298722.3231153     
   4757994330.5721064     
   4571659106.9524746     
   4386336675.8009539     
   4202113553.2024117     
   4647428847.2161264     
   4471817801.5877752     
   4297518021.9445915     
   4124644345.6563096     
   3953379743.2749305     
   4367945286.2672472     
   4206423445.7646446     
   4046853408.4579158     
   3889453479.9971337     
   3734545753.4332829     
   4110427803.6642022     
   3965538349.9257412     
   3823575054.3799772     
   3684887834.4890952     
   3549972502.2849760     
   4476709241.9089909     
   4308136360.2312956     
   4138998237.2956324     
   3969267695.4397144     
   3799029444.1087995     
   4202113553.2024117     
   4047936570.0292478     
   3894033086.5414410     
   3740463748.6689281     
   3587369732.2065167     
   3953379743.2749305     
   3810687143.1627436     
   3668834044.6073370     
   3527923287.3638086     
   3388107936.5268354     
   3734545753.4332829     
   3600523134.3239851     
   3467556473.3305669     
   3335746657.0119629     
   3205220212.6128664     
   3549972502.2849760     
   3422014288.3313661     
   3294920128.2575221     
   3168747049.7493205     
   3043562782.2587390     
   3799029444.1087995     
   3599513348.4162583     
   3402110816.6596560     
   3206938698.8559251     
   3014225328.0147719     
   3587369732.2065167     
   3392187115.4053121     
   3198474510.0989928     
   3006331184.5569448     
   2815926403.3302574     
   3388107936.5268354     
   3202510213.1176372     
   3018494153.9727435     
   2836281630.5946412     
   2656232818.3758116     
   3205220212.6128664     
   3035137999.5602503     
   2867682867.6863604     
   2703410982.1783862     
   2543215814.3239045     
   3043562782.2587390     
   2895394083.2802687     
   2751952112.1578012     
   2614340801.2051377     
   2484292011.8462873     
   5657607503.0306835     
   5890630708.2343769     
   6116002549.0035973     
   6331264549.1635399     
   6536194662.8773193     
   5151198239.1773710     
   5311008730.3278151     
   5467435001.9615240     
   5617583284.2981052     
   5759989679.7715673     
   4643240086.7492676     
   4755239712.3135490     
   4868345383.5800762     
   4979925502.0617361     
   5088057824.9835548     
   4134000079.0939775     
   4224165147.6105089     
   4320233339.7683001     
   4420552956.5367851     
   4523673942.2826300     
   3625004433.0604348     
   3719615254.9475961     
   3825462632.9608626     
   3942489285.1264477     
   4070607956.4239044     
   6536194662.8773193     
   6327964946.6853580     
   6141927111.2819147     
   5964177633.6445484     
   5785704152.9810371     
   5759989679.7715673     
   5651267238.4699192     
   5558540366.6441927     
   5472748838.3935423     
   5388349923.9548759     
   5088057824.9835548     
   5053163300.4516029     
   5028768782.7605715     
   5009666902.7180014     
   4992656725.8610401     
   4523673942.2826300     
   4538258587.7298517     
   4557499106.7635565     
   4578911817.4320574     
   4600773162.6563387     
   4070607956.4239044     
   4111889678.9336748     
   4150513574.1685538     
   4185571990.5550814     
   4216325755.9013634     
   5785704152.9810371     
   5634978373.0290508     
   5488435580.4709625     
   5345989691.1052637     
   5207687616.8306208     
   5388349923.9548759     
   5246914785.9532261     
   5108695087.6309433     
   4973733101.9782457     
   4842123225.4914360     
   4992656725.8610401     
   4864881186.4680614     
   4740291392.8137074     
   4618858711.6666536     
   4500624727.0198727     
   4600773162.6563387     
   4491572491.8908205     
   4386583817.0616922     
   4285498291.1727967     
   4188225843.3141713     
   4216325755.9013634     
   4130983665.3703756     
   4052115674.6012115     
   3978886379.8884735     
   3910997090.6962929     
   5207687616.8306208     
   5066241873.5275898     
   4925598042.1741486     
   4785791267.3662786     
   4647001526.4868755     
   4842123225.4914360     
   4717896977.5489111     
   4595420029.9850721     
   4474819467.5333776     
   4356339001.6826124     
   4500624727.0198727     
   4392351019.2447844     
   4286712594.6152678     
   4183896683.9277797     
   4084178172.2955217     
   4188225843.3141713     
   4094486865.0206223     
   4004147775.1894445     
   3917422927.6980071     
   3834587474.8254881     
   3910997090.6962929     
   3830172879.3532062     
   3753322325.1788507     
   3680655722.1513786     
   3612423491.1329679     
   4647001526.4868755     
   4509442512.0629005     
   4374075766.4938536     
   4241019091.5657210     
   4110427803.6642022     
   4356339001.6826124     
   4228988609.6353025     
   4104240210.1060977     
   3982280421.1178708     
   3863345645.1976738     
   4084178172.2955217     
   3969108803.7333488     
   3857310892.8973546     
   3749045905.8896585     
   3644642795.0140748     
   3834587474.8254881     
   3733913841.6754394     
   3637457150.6118598     
   3545551925.5074420     
   3458620900.5886416     
   3612423491.1329679     
   3528166670.4936190     
   3449343921.4081960     
   3376345700.7801661     
   3309670942.2578435     
   4110427803.6642022     
   3965538349.9257412     
   3823575054.3799772     
   3684887834.4890952     
   3549972502.2849760     
   3863345645.1976738     
   3735131967.3995576     
   3610331700.7038140     
   3489316416.7353697     
   3372571502.1211553     
   3644642795.0140748     
   3531448460.0236435     
   3421961326.9340544     
   3316542940.6413112     
   3215636160.2336230     
   3458620900.5886416     
   3358875615.0786881     
   3262889425.3779845     
   3170984798.9856539     
   3083535990.7207360     
   3309670942.2578435     
   3221921199.4199882     
   3137700867.8208799     
   3057269857.3680515     
   2980916553.5346708     
   3549972502.2849760     
   3422014288.3313661     
   3294920128.2575221     
   3168747049.7493205     
   3043562782.2587390     
   3372571502.1211553     
   3250432389.2148714     
   3130738211.0823660     
   3013732895.4639659     
   2899709752.9107652     
   3215636160.2336230     
   3104401607.7359643     
   2997816279.3174410     
   2896345607.5391059     
   2800557519.4766665     
   3083535990.7207360     
   2987645777.7175803     
   2899162585.3154268     
   2818742224.9916410     
   2747186147.3740120     
   2980916553.5346708     
   2903680761.3197594     
   2837048027.8780994     
   2781758134.7967715     
   2738714878.0312567     
   3043562782.2587390     
   2895394083.2802687     
   2751952112.1578012     
   2614340801.2051377     
   2484292011.8462873     
   2899709752.9107652     
   2778910175.4839625     
   2663626771.9222436     
   2554785511.5696015     
   2453605101.0316110     
   2800557519.4766665     
   2701511719.8296227     
   2607660620.6954708     
   2519588453.1456404     
   2437970454.9231086     
   2747186147.3740120     
   2663856518.6771374     
   2584255871.8688221     
   2508611815.7606001     
   2437197106.8362222     
   2738714878.0312567     
   2664951873.0997229     
   2592466750.1213679     
   2521228795.4432225     
   2451347905.5039549     
   3625004433.0604348     
   3719615254.9475961     
   3825462632.9608626     
   3942489285.1264477     
   4070607956.4239044     
   3138184003.2358599     
   3255626923.2700801     
   3382482673.4649730     
   3518285800.4476261     
   3662581632.9798331     
   2695149916.3321104     
   2830847768.4647837     
   2973865904.7793059     
   3123123182.0372491     
   3277709207.9713712     
   2299381823.9885111     
   2450060351.8032637     
   2605485015.2776303     
   2763732104.6329622     
   2923369644.4706631     
   1956069453.4814062     
   2120197895.2907894     
   2285726881.7334261     
   2449693093.6957693     
   2610133237.5860081     
   4070607956.4239044     
   4111889678.9336748     
   4150513574.1685538     
   4185571990.5550814     
   4216325755.9013634     
   3662581632.9798331     
   3701946779.6062531     
   3739938269.5223150     
   3775651439.5253768     
   3808332800.3500280     
   3277709207.9713712     
   3321036727.2211576     
   3364631046.1170774     
   3407667880.2885990     
   3449468732.4852266     
   2923369644.4706631     
   2976530829.7980733     
   3031956357.7776632     
   3088967233.6984582     
   3147033503.7496872     
   2610133237.5860081     
   2678444084.7116795     
   2751317449.3958554     
   2828251599.1926494     
   2908898592.7466979     
   4216325755.9013634     
   4130983665.3703756     
   4052115674.6012115     
   3978886379.8884735     
   3910997090.6962929     
   3808332800.3500280     
   3754265709.0478034     
   3706131852.6955357     
   3663464504.8836732     
   3626170827.1689444     
   3449468732.4852266     
   3422353511.6631179     
   3400270521.4429970     
   3382993381.8186851     
   3370515549.4958267     
   3147033503.7496872     
   3142869535.7260065     
   3142271572.3338780     
   3145137778.4195318     
   3151463699.4890738     
   2908898592.7466979     
   2924065128.0793786     
   2940588235.2557950     
   2958403948.8284497     
   2977472728.3641648     
   3910997090.6962929     
   3830172879.3532062     
   3753322325.1788507     
   3680655722.1513786     
   3612423491.1329679     
   3626170827.1689444     
   3556410987.3744946     
   3490965382.1334567     
   3430042703.2155719     
   3373889537.8234558     
   3370515549.4958267     
   3312101804.0255160     
   3258423788.2440786     
   3209678011.4869680     
   3166097291.9539852     
   3151463699.4890738     
   3104578485.0767226     
   3062916375.4997449     
   3026645652.1238604     
   2995970385.3107362     
   2977472728.3641648     
   2942045089.2633896     
   2912364277.1527495     
   2888550171.7091527     
   2870760128.1430883     
   3612423491.1329679     
   3528166670.4936190     
   3449343921.4081960     
   3376345700.7801661     
   3309670942.2578435     
   3373889537.8234558     
   3304805238.2440500     
   3241600529.4913239     
   3184626055.4769545     
   3134313567.6503716     
   3166097291.9539852     
   3110699206.1958637     
   3061503091.1436186     
   3018799951.4323468     
   2982935578.0072188     
   2995970385.3107362     
   2952455921.8899236     
   2915302227.7015209     
   2884727607.9850926     
   2860982537.9299970     
   2870760128.1430883     
   2836958790.0379291     
   2809479120.1848674     
   2788464315.2919035     
   2774072927.1939516     
   3309670942.2578435     
   3221921199.4199882     
   3137700867.8208799     
   3057269857.3680515     
   2980916553.5346708     
   3134313567.6503716     
   3055514679.0852013     
   2982012980.6669836     
   2914168188.0399656     
   2852377794.6440797     
   2982935578.0072188     
   2915057006.9658685     
   2854444104.7849364     
   2801511365.3013120     
   2756712018.7668214     
   2860982537.9299970     
   2805067139.1843009     
   2758518311.9509168     
   2721738211.9452481     
   2695160818.7936230     
   2774072927.1939516     
   2729881740.5916739     
   2697231872.7844648     
   2676442595.4410429     
   2667855831.4305887     
   2980916553.5346708     
   2903680761.3197594     
   2837048027.8780994     
   2781758134.7967715     
   2738714878.0312567     
   2852377794.6440797     
   2794659647.4341488     
   2745438535.8575988     
   2705134987.9288402     
   2674233460.9569702     
   2756712018.7668214     
   2713061494.0588975     
   2675221577.0832348     
   2643387915.5161490     
   2617771894.8680029     
   2695160818.7936230     
   2660930871.3674512     
   2629301786.5107660     
   2600325695.5745130     
   2574056235.8333292     
   2667855831.4305887     
   2639539131.5766559     
   2610209178.9545302     
   2579832562.8448224     
   2548382372.0101724     
   2738714878.0312567     
   2664951873.0997229     
   2592466750.1213679     
   2521228795.4432225     
   2451347905.5039549     
   2674233460.9569702     
   2597993211.2354774     
   2525671071.4376264     
   2457715295.4126248     
   2394623502.8154087     
   2617771894.8680029     
   2551549742.4191208     
   2493073726.7932162     
   2443752581.9538946     
   2405469111.6740394     
   2574056235.8333292     
   2529853383.1026621     
   2498149337.5043898     
   2481716192.8888068     
   2484549133.7899766     
   2548382372.0101724     
   2536772179.7748489     
   2543020191.0836968     
   2571515852.2777395     
   2628706051.6042538     
   1956069453.4814062     
   2120197895.2907894     
   2285726881.7334261     
   2449693093.6957693     
   2610133237.5860081     
   1654661031.6716325     
   1821241332.2945261     
   1989571057.0136240     
   2156953635.6928444     
   2321629294.5497012     
   1394440747.5662303     
   1571976141.8844819     
   1750573316.7829077     
   1928230837.2531624     
   2103699151.4715436     
   1207673463.5102780     
   1399760286.9485505     
   1591484705.8014903     
   1782072877.5917695     
   1971067977.8546686     
   1137038924.6133580     
   1335426544.9070938     
   1534191022.0531926     
   1733332351.1627214     
   1932850533.0735996     
   2610133237.5860081     
   2678444084.7116795     
   2751317449.3958554     
   2828251599.1926494     
   2908898592.7466979     
   2321629294.5497012     
   2409120357.4288936     
   2499131615.6960535     
   2591277942.2905350     
   2685286594.5285883     
   2103699151.4715436     
   2207919944.6654859     
   2312155787.0949354     
   2416173033.3871717     
   2519806018.0596194     
   1971067977.8546686     
   2088648974.4371648     
   2203512917.5765667     
   2315585870.0847650     
   2424815990.6785045     
   1932850533.0735996     
   2059803494.4313962     
   2181499470.3142715     
   2297938494.9149485     
   2409120612.2184682     
   2908898592.7466979     
   2924065128.0793786     
   2940588235.2557950     
   2958403948.8284497     
   2977472728.3641648     
   2685286594.5285883     
   2708368480.6524072     
   2734153578.0836711     
   2762626385.1191416     
   2793784276.5673223     
   2519806018.0596194     
   2550501904.5755086     
   2585262296.3440394     
   2624094361.2845869     
   2667009139.1029530     
   2424815990.6785045     
   2461041892.1780992     
   2502679653.0443492     
   2549736300.1725016     
   2602218656.0717206     
   2409120612.2184682     
   2446936368.1798120     
   2491494841.1694474     
   2542798210.6113157     
   2600849477.8391891     
   2977472728.3641648     
   2942045089.2633896     
   2912364277.1527495     
   2888550171.7091527     
   2870760128.1430883     
   2793784276.5673223     
   2774469560.8568568     
   2762679891.8793030     
   2758527190.2683611     
   2762146094.7964520     
   2667009139.1029530     
   2662624562.5341845     
   2667444134.0799265     
   2681533042.0635862     
   2704966652.9797602     
   2602218656.0717206     
   2609646771.9547887     
   2627833903.2380075     
   2656792614.7898483     
   2696539015.0982518     
   2600849477.8391891     
   2615184500.2185369     
   2641771257.6069942     
   2680607095.5053196     
   2731688468.7531643     
   2870760128.1430883     
   2836958790.0379291     
   2809479120.1848674     
   2788464315.2919035     
   2774072927.1939516     
   2762146094.7964520     
   2746004007.4278693     
   2736060321.3566370     
   2732403235.1722445     
   2735124514.6990848     
   2704966652.9797602     
   2704768999.5746927     
   2710401340.0388155     
   2721902893.4962487     
   2739311892.5326004     
   2696539015.0982518     
   2710021987.6197162     
   2728782784.6698413     
   2752832699.8656416     
   2782182088.6474566     
   2731688468.7531643     
   2756312061.9908891     
   2785567024.9644184     
   2819460709.6381888     
   2858000934.4828415     
   2774072927.1939516     
   2729881740.5916739     
   2697231872.7844648     
   2676442595.4410429     
   2667855831.4305887     
   2735124514.6990848     
   2709226477.0576000     
   2693841684.7185316     
   2689127806.5885053     
   2695247608.0444193     
   2739311892.5326004     
   2728188337.9675627     
   2726310094.4650702     
   2733733883.2482409     
   2750517139.6550703     
   2782182088.6474566     
   2782529713.1373196     
   2790737716.7979279     
   2806814010.3271861     
   2830767129.5456452     
   2858000934.4828415     
   2867017761.2696815     
   2882486951.6234050     
   2904400518.3981776     
   2932751206.6152401     
   2667855831.4305887     
   2639539131.5766559     
   2610209178.9545302     
   2579832562.8448224     
   2548382372.0101724     
   2695247608.0444193     
   2675494266.0132151     
   2660533046.4498615     
   2650421585.8485956     
   2645218625.8184943     
   2750517139.6550703     
   2740308581.4909940     
   2740708052.1246505     
   2751789503.8617105     
   2773625280.6293206     
   2830767129.5456452     
   2828373355.1181288     
   2842411426.1733541     
   2872924718.9037185     
   2919960908.9573655     
   2932751206.6152401     
   2934257354.7932053     
   2958297331.3028059     
   3004901699.0078402     
   3074105025.8464808     
   2548382372.0101724     
   2536772179.7748489     
   2543020191.0836968     
   2571515852.2777395     
   2628706051.6042538     
   2645218625.8184943     
   2691010365.9789414     
   2751416511.4887209     
   2826858479.3260298     
   2917883130.2409992     
   2773625280.6293206     
   2849889469.8099337     
   2938639889.4394536     
   3040435680.5531044     
   3156060199.1593065     
   2919960908.9573655     
   3000833835.0072427     
   3093511219.3161926     
   3201986706.0586243     
   3331953668.3205590     
   3074105025.8464808     
   3135375356.9100661     
   3209173706.4695539     
   3306125509.2562070     
   3441396456.6484246     
   1137038924.6133580     
   1335426544.9070938     
   1534191022.0531926     
   1733332351.1627214     
   1932850533.0735996     
   1206872078.2230351     
   1398711371.2230823     
   1590169825.9373801     
   1780464035.5209651     
   1969130907.3594656     
   1393207082.3338516     
   1570300444.8096678     
   1748409981.9272225     
   1925521242.9819562     
   2100375723.0096469     
   1653363893.5604320     
   1819416937.0104027     
   1987136805.0827315     
   2153816119.9431062     
   2317687851.2329154     
   1954977436.5732388     
   2118614944.2930582     
   2283534521.3414435     
   2446766004.0020828     
   2606343002.3049526     
   1932850533.0735996     
   2059803494.4313962     
   2181499470.3142715     
   2297938494.9149485     
   2409120612.2184682     
   1969130907.3594656     
   2086095416.4176564     
   2200223051.8741674     
   2311438644.7203617     
   2419689929.7746944     
   2100375723.0096469     
   2203597245.5767436     
   2306602450.0638089     
   2409156296.5863600     
   2511091647.9328775     
   2317687851.2329154     
   2404130853.7238016     
   2492760042.8309851     
   2583187604.7029724     
   2675135870.1244135     
   2606343002.3049526     
   2673922332.6433845     
   2745642249.1098552     
   2820993921.5296574     
   2899616834.9530010     
   2409120612.2184682     
   2446936368.1798120     
   2491494841.1694474     
   2542798210.6113157     
   2600849477.8391891     
   2419689929.7746944     
   2453079819.5156651     
   2491446042.7348070     
   2534793791.7888012     
   2583131835.1894255     
   2511091647.9328775     
   2537028916.4406438     
   2566172758.7210579     
   2598519552.3432188     
   2634074434.3085341     
   2675135870.1244135     
   2692800869.6930737     
   2711931927.8371758     
   2732488337.3911338     
   2754444924.0471926     
   2899616834.9530010     
   2910096544.3254833     
   2920404658.4440517     
   2930441580.6849227     
   2940129853.5522242     
   2600849477.8391891     
   2615184500.2185369     
   2641771257.6069942     
   2680607095.5053196     
   2731688468.7531643     
   2583131835.1894255     
   2584579514.8579445     
   2594745180.3048048     
   2613660333.6859527     
   2641351685.2204547     
   2634074434.3085341     
   2620310155.7725277     
   2611635465.5214539     
   2608107119.5267320     
   2609779297.2766008     
   2754444924.0471926     
   2726549960.8489895     
   2700141248.2373614     
   2675250705.3025470     
   2651910716.7193575     
   2940129853.5522242     
   2902198687.3180113     
   2862495860.6517172     
   2821017423.4536004     
   2777762779.8885503     
   2731688468.7531643     
   2756312061.9908891     
   2785567024.9644184     
   2819460709.6381888     
   2858000934.4828415     
   2641351685.2204547     
   2643788896.8080592     
   2652630509.6128383     
   2667886593.0149412     
   2689571117.6546164     
   2609779297.2766008     
   2587825937.5291786     
   2573854777.6615205     
   2567885022.1423674     
   2569949152.8984432     
   2651910716.7193575     
   2603609101.6069837     
   2564478334.2059188     
   2534538356.4203968     
   2513844588.7147655     
   2777762779.8885503     
   2701951429.0812712     
   2636009126.2256203     
   2579904641.5384192     
   2533677672.0169024     
   2858000934.4828415     
   2867017761.2696815     
   2882486951.6234050     
   2904400518.3981776     
   2932751206.6152401     
   2689571117.6546164     
   2683973688.9879823     
   2686183436.3243036     
   2696205182.6757674     
   2714043631.3924317     
   2569949152.8984432     
   2547172354.8826494     
   2533430525.3151603     
   2528773167.4060974     
   2533251659.4868999     
   2513844588.7147655     
   2471131501.5000982     
   2438354898.6382751     
   2415645534.6604905     
   2403150601.3520708     
   2533677672.0169024     
   2468750008.1996465     
   2414137096.1833239     
   2370054836.9796724     
   2336774074.5854888     
   2932751206.6152401     
   2934257354.7932053     
   2958297331.3028059     
   3004901699.0078402     
   3074105025.8464808     
   2714043631.3924317     
   2697289009.8158355     
   2695070170.3491669     
   2707430315.6649466     
   2734394634.3469009     
   2533251659.4868999     
   2497832350.5957408     
   2469202383.6935925     
   2447481045.4954495     
   2432790842.5665288     
   2403150601.3520708     
   2352563710.0243268     
   2301257534.0058408     
   2249429327.5140972     
   2197382474.6702337     
   2336774074.5854888     
   2280085689.2162628     
   2216346033.2063565     
   2146011945.1620734     
   2069899800.0485682     
   3074105025.8464808     
   3135375356.9100661     
   3209173706.4695539     
   3306125509.2562070     
   3441396456.6484246     
   2734394634.3469009     
   2708702868.2964344     
   2691067820.8587618     
   2684823767.6656113     
   2695263843.8360739     
   2432790842.5665288     
   2351827701.4438491     
   2281497247.9042449     
   2221780615.7064242     
   2172661544.4598293     
   2197382474.6702337     
   2094337144.1296387     
   2016353389.7041111     
   1969759308.5210927     
   1962939124.6807292     
   2069899800.0485682     
   1975955527.1579769     
   1934558667.5585568     
   1967582700.6874897     
   2098858043.7712123     
   1954977436.5732388     
   2118614944.2930582     
   2283534521.3414435     
   2446766004.0020828     
   2606343002.3049526     
   2298603642.3189726     
   2449006495.4169154     
   2604060408.4243360     
   2761839137.4183784     
   2920910716.5358701     
   2694655382.1303444     
   2830289425.5576134     
   2973175658.3253326     
   3122232482.2665405     
   3276550485.2407498     
   3137910775.2528548     
   3255478469.6599431     
   3382419239.9010324     
   3518269082.1886263     
   3662574938.8641133     
   3624875562.8071384     
   3719767130.9012551     
   3825883790.9767838     
   3943172612.6889977     
   4071549516.6189299     
   2606343002.3049526     
   2673922332.6433845     
   2745642249.1098552     
   2820993921.5296574     
   2899616834.9530010     
   2920910716.5358701     
   2974164863.1749492     
   3029459072.0827608     
   3086110987.1816030     
   3143584949.8277998     
   3276550485.2407498     
   3320507980.6430759     
   3364681109.1526275     
   3408244855.5401335     
   3450520095.2392187     
   3662574938.8641133     
   3702758485.8084550     
   3741660381.3470082     
   3778372206.9563007     
   3812137826.9433169     
   4071549516.6189299     
   4113464143.0293045     
   4152925552.7242317     
   4189011639.5116663     
   4220969092.4843998     
   2899616834.9530010     
   2910096544.3254833     
   2920404658.4440517     
   2930441580.6849227     
   2940129853.5522242     
   3143584949.8277998     
   3138005293.7932787     
   3135170826.7163191     
   3134942852.3080268     
   3137264835.9002380     
   3450520095.2392187     
   3424674624.0696182     
   3403677306.4136162     
   3387276038.1154604     
   3375411444.7107248     
   3812137826.9433169     
   3761075172.2132225     
   3716305690.4740267     
   3677369212.8677964     
   3644146781.2558985     
   4220969092.4843998     
   4139227297.6577425     
   4064759793.6542931     
   3996789957.9632316     
   3935049483.8002200     
   2940129853.5522242     
   2902198687.3180113     
   2862495860.6517172     
   2821017423.4536004     
   2777762779.8885503     
   3137264835.9002380     
   3102335169.9411492     
   3069124603.9168501     
   3037658040.5170445     
   3007965667.0707655     
   3375411444.7107248     
   3336917040.0905895     
   3302899219.0022998     
   3273505433.8690495     
   3248926327.9426088     
   3644146781.2558985     
   3594525827.3204575     
   3551477899.2566767     
   3515386256.9688768     
   3486756548.6418514     
   3935049483.8002200     
   3866397432.2826076     
   3805847537.8972621     
   3754126504.9863715     
   3712210867.4036522     
   2777762779.8885503     
   2701951429.0812712     
   2636009126.2256203     
   2579904641.5384192     
   2533677672.0169024     
   3007965667.0707655     
   2937748132.8731713     
   2875169936.2158775     
   2820379971.9439664     
   2773588036.5338464     
   3248926327.9426088     
   3182326101.8789730     
   3121784209.2290120     
   3067560592.1461477     
   3019959638.9453983     
   3486756548.6418514     
   3423114577.0988331     
   3364537108.3387289     
   3311316513.5161490     
   3263773406.3618040     
   3712210867.4036522     
   3651780888.0003862     
   3595938938.6123734     
   3544931839.7736607     
   3499021924.1632113     
   2533677672.0169024     
   2468750008.1996465     
   2414137096.1833239     
   2370054836.9796724     
   2336774074.5854888     
   2773588036.5338464     
   2708335318.4315453     
   2651901587.4984045     
   2604635289.1236167     
   2566944782.0746818     
   3019959638.9453983     
   2952450519.5400367     
   2892595369.3335109     
   2840849377.1108384     
   2797727944.1221828     
   3263773406.3618040     
   3193127950.3077683     
   3129220174.2483950     
   3072582119.4451079     
   3023805238.3701730     
   3499021924.1632113     
   3425079805.1812491     
   3357135138.6644039     
   3295769960.1336899     
   3241625438.3920135     
   2336774074.5854888     
   2280085689.2162628     
   2216346033.2063565     
   2146011945.1620734     
   2069899800.0485682     
   2566944782.0746818     
   2529490196.2757764     
   2491220978.1546054     
   2452160517.0410447     
   2412395722.3331604     
   2797727944.1221828     
   2770254925.8004746     
   2748337073.2522998     
   2732100868.6798763     
   2721685402.2240982     
   3023805238.3701730     
   2995320872.9284625     
   2978957611.6279960     
   2975429303.6835513     
   2985515473.5060768     
   3241625438.3920135     
   3200321496.2177482     
   3178131075.6288662     
   3176874268.8639350     
   3198540465.5630603     
   2069899800.0485682     
   1975955527.1579769     
   1934558667.5585568     
   1967582700.6874897     
   2098858043.7712123     
   2412395722.3331604     
   2357137562.4234486     
   2324805609.6959591     
   2319396280.1042852     
   2345935428.9784870     
   2721685402.2240982     
   2687207495.3103700     
   2665398063.5818882     
   2657446846.0762587     
   2664667669.4477310     
   2985515473.5060768     
   2953436515.9487357     
   2933143755.9016986     
   2932832081.2637510     
   2963906115.3839664     
   3198540465.5630603     
   3150123514.5420570     
   3118420148.9589496     
   3126738577.4718609     
   3207391023.5281110     
   3624875562.8071384     
   3719767130.9012551     
   3825883790.9767838     
   3943172612.6889977     
   4071549516.6189299     
   4133981120.3824458     
   4224489952.9487171     
   4320924255.3811216     
   4421635434.1569242     
   4525176297.3078375     
   4643351264.8338680     
   4755675038.7919455     
   4869152152.2006798     
   4981147098.1052628     
   5089733085.2041979     
   5151468272.6286535     
   5311501137.7747498     
   5468215856.3080454     
   5618703564.1329927     
   5761483264.4395924     
   5658071283.7800388     
   5891132783.4746065     
   6116624369.2730742     
   6332058985.9008045     
   6537182740.4285965     
   4071549516.6189299     
   4113464143.0293045     
   4152925552.7242317     
   4189011639.5116663     
   4220969092.4843998     
   4525176297.3078375     
   4539994697.1041164     
   4559554409.3185635     
   4581356127.5624275     
   4603668886.9203787     
   5089733085.2041979     
   5054870618.4753284     
   5030509402.5366411     
   5011435992.6193295     
   4994447444.6266851     
   5761483264.4395924     
   5652814956.6296749     
   5560085735.0337067     
   5474248898.5453901     
   5389767080.7437010     
   6537182740.4285965     
   6329270370.6430893     
   6143451136.6983232     
   5965865700.3609390     
   5787523065.2630320     
   4220969092.4843998     
   4139227297.6577425     
   4064759793.6542931     
   3996789957.9632316     
   3935049483.8002200     
   4603668886.9203787     
   4496754357.1493587     
   4394605362.4670229     
   4296953625.6836739     
   4203755590.5654521     
   4994447444.6266851     
   4867418339.2232199     
   4743875785.1215219     
   4623811066.0764265     
   4507299125.6890440     
   5389767080.7437010     
   5247482935.9815054     
   5108462690.3503342     
   4972755015.8543978     
   4840461776.7730312     
   5787523065.2630320     
   5634429343.2330341     
   5485313768.9067240     
   5340096656.9124680     
   5198805697.6042919     
   3935049483.8002200     
   3866397432.2826076     
   3805847537.8972621     
   3754126504.9863715     
   3712210867.4036522     
   4203755590.5654521     
   4107857351.8205862     
   4017286861.0568509     
   3932545276.8880424     
   3854330335.7249851     
   4507299125.6890440     
   4389237547.2065372     
   4274290801.6785431     
   4162727415.0679989     
   4054943384.8743553     
   4840461776.7730312     
   4705696529.8996534     
   4572425353.2892504     
   4440737194.0954132     
   4310784743.7472019     
   5198805697.6042919     
   5052852800.8208923     
   4907333421.5876102     
   4762237940.2001190     
   4617577218.5754042     
   3712210867.4036522     
   3651780888.0003862     
   3595938938.6123734     
   3544931839.7736607     
   3499021924.1632113     
   3854330335.7249851     
   3774150141.2947268     
   3697960287.5302463     
   3626058393.7816458     
   3558775290.0009451     
   4054943384.8743553     
   3956137709.4426575     
   3860515591.2815423     
   3768352101.1782045     
   3679972900.5191598     
   4310784743.7472019     
   4194657159.6311331     
   4080842724.3373642     
   3969531167.6449866     
   3860974102.8509569     
   4617577218.5754042     
   4485346263.5702028     
   4354610813.0390511     
   4225432904.3744445     
   4097940651.8580847     
   3499021924.1632113     
   3425079805.1812491     
   3357135138.6644039     
   3295769960.1336899     
   3241625438.3920135     
   3558775290.0009451     
   3460032925.9711761     
   3366436436.7266307     
   3278537270.7492208     
   3196971400.2435365     
   3679972900.5191598     
   3558911286.8781552     
   3442059251.4869175     
   3329862662.1768370     
   3222865570.6836343     
   3860974102.8509569     
   3720397790.1308289     
   3583180101.5837307     
   3449617069.5267301     
   3320101271.5725012     
   4097940651.8580847     
   3940531659.2144852     
   3785825857.9650273     
   3633964002.6270561     
   3485172547.8042898     
   3241625438.3920135     
   3200321496.2177482     
   3178131075.6288662     
   3176874268.8639350     
   3198540465.5630603     
   3196971400.2435365     
   3113301653.4122863     
   3042128823.2691007     
   2984981746.7807450     
   2943622345.5145125     
   3222865570.6836343     
   3105925757.1464100     
   2995441425.1681266     
   2892281897.0007224     
   2797500673.2749887     
   3320101271.5725012     
   3182543685.4536090     
   3046985277.3012753     
   2913643629.7214532     
   2782784514.1238060     
   3485172547.8042898     
   3341440841.4832225     
   3197557645.6595197     
   3053536332.2978611     
   2909415374.1138024     
   3198540465.5630603     
   3150123514.5420570     
   3118420148.9589496     
   3126738577.4718609     
   3207391023.5281110     
   2943622345.5145125     
   2804549435.2127452     
   2669411483.2519560     
   2548272835.6125374     
   2457239238.6003079     
   2797500673.2749887     
   2610775137.9010282     
   2425285966.1477594     
   2241573540.3673897     
   2060617553.7257464     
   2782784514.1238060     
   2589132318.4475155     
   2407630927.6773796     
   2241488835.1420431     
   2096341512.6130316     
   2909415374.1138024     
   2735292982.9561076     
   2592314534.3293729     
   2495547218.4351482     
   2468222202.4797177     
   5658071283.7800388     
   5891132783.4746065     
   6116624369.2730742     
   6332058985.9008045     
   6537182740.4285965     
   6492046533.6295109     
   6587155072.5754309     
   6757598392.2931328     
   6961300410.1888723     
   7171601499.9221325     
   7982552790.1339788     
   7735164605.3193312     
   7669278846.6972466     
   7669674918.4080458     
   7666444245.1806288     
   10130034219.301573     
   9322023248.6277351     
   8826494421.5118885     
   8443812636.9535971     
   8036249680.7530565     
   12934575371.169733     
   11340456271.653198     
   10210426588.916815     
   9273452146.5312843     
   8305282901.6468658     
   6537182740.4285965     
   6329270370.6430893     
   6143451136.6983232     
   5965865700.3609390     
   5787523065.2630320     
   7171601499.9221325     
   6911469251.2673359     
   6659194710.5209818     
   6410918061.6007061     
   6163496564.5050430     
   7666444245.1806288     
   7381614092.9539595     
   7102131853.2540808     
   6828060610.5796003     
   6559581762.3822222     
   8036249680.7530565     
   7747335442.6090574     
   7473967161.6413460     
   7214208709.6678381     
   6968040352.6055374     
   8305282901.6468658     
   8021180797.0144186     
   7778858761.6972313     
   7567768105.0036325     
   7382954511.0095119     
   5787523065.2630320     
   5634429343.2330341     
   5485313768.9067240     
   5340096656.9124680     
   5198805697.6042919     
   6163496564.5050430     
   6011610448.1415329     
   5860887752.4495306     
   5711363609.4657822     
   5563088089.6944256     
   6559581762.3822222     
   6407064981.6499949     
   6252916354.2782469     
   6097098725.2170458     
   5939625907.6451082     
   6968040352.6055374     
   6814301573.7867165     
   6656202246.2886629     
   6493474982.3136091     
   6326044973.3116627     
   7382954511.0095119     
   7228305191.4643040     
   7066703779.4363670     
   6897525736.4547491     
   6720569209.8604221     
   5198805697.6042919     
   5052852800.8208923     
   4907333421.5876102     
   4762237940.2001190     
   4617577218.5754042     
   5563088089.6944256     
   5407752344.7676096     
   5253384437.9380760     
   5100001195.1809578     
   4947641971.4667349     
   5939625907.6451082     
   5773070974.8202610     
   5607982007.7413778     
   5444378584.3066177     
   5282315940.8908215     
   6326044973.3116627     
   6146103721.9786196     
   5968086085.1731043     
   5792000460.7795792     
   5617913939.6154785     
   6720569209.8604221     
   6524830846.4406242     
   6331434241.2772779     
   6140370630.6361275     
   5951721908.3554935     
   4617577218.5754042     
   4485346263.5702028     
   4354610813.0390511     
   4225432904.3744445     
   4097940651.8580847     
   4947641971.4667349     
   4805015514.4070911     
   4663258886.0577269     
   4522433081.9032383     
   4382651804.1288166     
   5282315940.8908215     
   5129634161.4533281     
   4977362968.3534365     
   4825560961.2419853     
   4674327926.1300182     
   5617913939.6154785     
   5455647754.8616018     
   5293472884.6323080     
   5131444945.9612970     
   4969651160.7955236     
   5951721908.3554935     
   5780426092.3612804     
   5609020874.6947870     
   5437558574.2205296     
   5266115354.1018677     
   4097940651.8580847     
   3940531659.2144852     
   3785825857.9650273     
   3633964002.6270561     
   3485172547.8042898     
   4382651804.1288166     
   4214731377.8515320     
   4048498771.1012526     
   3884063968.0046477     
   3721601514.1547275     
   4674327926.1300182     
   4496638633.3801861     
   4319804967.9047470     
   4143905245.9329252     
   3969063955.6562362     
   4969651160.7955236     
   4783174407.4817562     
   4596879430.3193102     
   4410816440.5966034     
   4225067378.6169291     
   5266115354.1018677     
   5072001763.6911392     
   4877532635.0217886     
   4682736445.2120657     
   4487663437.3014421     
   3485172547.8042898     
   3341440841.4832225     
   3197557645.6595197     
   3053536332.2978611     
   2909415374.1138024     
   3721601514.1547275     
   3579170260.4919715     
   3437577873.9812298     
   3296844322.8187690     
   3157000052.3716459     
   3969063955.6562362     
   3821482839.1115389     
   3675193863.2102079     
   3530263641.1325841     
   3386798554.5595036     
   4225067378.6169291     
   4065730084.9139290     
   3907657148.3818307     
   3750998799.7911363     
   3596012662.0357757     
   4487663437.3014421     
   4309978177.8388481     
   4133098475.0700278     
   3957278662.2164168     
   3782981539.7656531     
   2909415374.1138024     
   2735292982.9561076     
   2592314534.3293729     
   2495547218.4351482     
   2468222202.4797177     
   3157000052.3716459     
   2987285706.6865201     
   2832067259.4809213     
   2695756304.0102086     
   2585795587.3586226     
   3386798554.5595036     
   3209032796.7957520     
   3035217013.6529756     
   2865724154.5284715     
   2701206825.8342357     
   3596012662.0357757     
   3401429460.7956419     
   3203037725.1559167     
   3001840663.9251423     
   2799881161.5850902     
   3782981539.7656531     
   3566186144.3599963     
   3339236164.2272348     
   3107460619.5850348     
   2881703512.5146518     
 </DataArray>
 <DataArray  type="Float64" Name="strain" NumberOfComponents="3" format="ascii">
  0.20348442114314966        0.0000000000000000       0.12540667608332767     
  0.18665398945528514       -2.7324612368415435E-002   7.4352653320419432E-002
  0.16982355776742064       -4.4675803043161967E-002   3.5132488406828477E-002
  0.15299312607955612       -5.2053572024239589E-002   7.7461813425547532E-003
  0.13616269439169160       -4.9457919311648280E-002  -7.8062678724016982E-003
  0.15985381600040960        0.0000000000000000        9.6450245269964499E-002
  0.15317561819262648       -2.1844251459023498E-002   6.2691231941458786E-002
  0.14649742038484334       -3.6173929013141086E-002   3.7402828523798559E-002
  0.13981922257706020       -4.2989032662352752E-002   2.0585035016983833E-002
  0.13314102476927706       -4.2289562406658529E-002   1.2237851421014585E-002
  0.12645584646202054        0.0000000000000000        7.4203599260374759E-002
  0.12656663459584699       -1.6363890549631558E-002   5.5280747577508581E-002
  0.12667742272967344       -2.7672054983120205E-002   4.1465257867016075E-002
  0.12678821086349992       -3.3924493300465951E-002   3.2757130128897284E-002
  0.12689899899732637       -3.5121205501668765E-002   2.9156364363152228E-002
  0.10329051252798249        0.0000000000000000        5.8666738054558472E-002
  0.10682703866494678       -1.0883529640239616E-002   5.2121200228568795E-002
  0.11036356480191103       -1.9170180953099324E-002   4.7319776436481054E-002
  0.11390009093887532       -2.4859953938579125E-002   4.4262466678295233E-002
  0.11743661707583959       -2.7952848596679011E-002   4.2949270954011361E-002
   9.0357814198295416E-002   0.0000000000000000        4.9839661652515625E-002
   9.3956830399925750E-002  -5.4031687308476739E-003   5.3212589894639457E-002
   9.7555846601556070E-002  -1.0668306923078442E-002   5.4966384232193431E-002
  0.10115486280318639       -1.5795414576692309E-002   5.5101044665177588E-002
  0.10475387900481670       -2.0784491691689267E-002   5.3616571193591908E-002
  0.13616269439169160       -4.9457919311648280E-002  -7.8062678724016982E-003
  0.13296051808759313       -4.2924286917674546E-002  -3.3916227444437050E-003
  0.12975834178349463       -3.8488116854604876E-002  -3.9177128039402306E-004
  0.12655616547939613       -3.6149409122439129E-002   1.1932865197474551E-003
  0.12335398917529766       -3.5908163721177472E-002   1.3635506559806776E-003
  0.13314102476927706       -4.2289562406658529E-002   1.2237851421014585E-002
  0.12891191993639670       -3.8424082373976563E-002   1.2179997193645604E-002
  0.12468281510351632       -3.5741156692225003E-002   1.1483079572621006E-002
  0.12045371027063596       -3.4240785361403854E-002   1.0147098557940956E-002
  0.11622460543775559       -3.3922968381513152E-002   8.1720541496054649E-003
  0.12689899899732637       -3.5121205501668765E-002   2.9156364363152228E-002
  0.12241869590591690       -3.3923877830278559E-002   2.5540918760429847E-002
  0.11793839281450738       -3.2994196529845157E-002   2.2062140034304720E-002
  0.11345808972309786       -3.2332161600368586E-002   1.8720028184776746E-002
  0.10897778663168839       -3.1937773041848846E-002   1.5514583211846088E-002
  0.11743661707583959       -2.7952848596679011E-002   4.2949270954011361E-002
  0.11348084599615371       -2.9423673286580562E-002   3.6691141955909209E-002
  0.10952507491646779       -3.0247236367465326E-002   3.1345410104657009E-002
  0.10556930383678191       -3.0423537839333305E-002   2.6912075400254858E-002
  0.10161353275709598       -2.9952577702184520E-002   2.3391137842702574E-002
  0.10475387900481670       -2.0784491691689267E-002   5.3616571193591908E-002
  0.10209837020710714       -2.4923468742882565E-002   4.5630666780083567E-002
   9.9442861409397579E-002  -2.7500276205085505E-002   3.9332889783678000E-002
   9.6787352611688013E-002  -2.8514914078298054E-002   3.4723240204375054E-002
   9.4131843813978433E-002  -2.7967382362520221E-002   3.1801718042174881E-002
  0.12335398917529766       -3.5908163721177472E-002   1.3635506559806776E-003
  0.12042663217513960       -3.6408154419694708E-002   6.3403538455386599E-004
  0.11749927517498152       -3.6293154986865563E-002   9.6627758882902870E-005
  0.11457191817482346       -3.5563165422690328E-002  -2.4867222103259340E-004
  0.11164456117466537       -3.4218185727168504E-002  -4.0186455519219955E-004
  0.11622460543775559       -3.3922968381513152E-002   8.1720541496054649E-003
  0.11347508466226343       -3.3999836973189049E-002   7.8149190581354167E-003
  0.11072556388677127       -3.3683522357067883E-002   7.6213487702414193E-003
  0.10797604311127908       -3.2974024533149404E-002   7.5913432859233930E-003
  0.10522652233578689       -3.1871343501433835E-002   7.7249026051813829E-003
  0.10897778663168839       -3.1937773041848846E-002   1.5514583211846088E-002
  0.10637755923868242       -3.1591519526683522E-002   1.5308021376783512E-002
  0.10377733184567645       -3.1073889727270116E-002   1.5236481503117582E-002
  0.10117710445267047       -3.0384883643608748E-002   1.5299963590847855E-002
   9.8576877059664517E-002  -2.9524501275699278E-002   1.5498467639974520E-002
  0.10161353275709598       -2.9952577702184520E-002   2.3391137842702574E-002
   9.9134055904396584E-002  -2.9183202080177929E-002   2.3113342340498572E-002
   9.6654579051697193E-002  -2.8464257097472391E-002   2.2942025957511328E-002
   9.4175102198997801E-002  -2.7795742754067987E-002   2.2877188693740627E-002
   9.1695625346298368E-002  -2.7177659049964692E-002   2.2918830549186881E-002
   9.4131843813978433E-002  -2.7967382362520221E-002   3.1801718042174881E-002
   9.1744574659405942E-002  -2.6774884633672308E-002   3.1230881949280240E-002
   8.9357305504833409E-002  -2.5854624467674683E-002   3.0737982133422603E-002
   8.6970036350260904E-002  -2.5206601864527219E-002   3.0323018594601951E-002
   8.4582767195688385E-002  -2.4830816824230079E-002   2.9985991332818429E-002
  0.11164456117466537       -3.4218185727168504E-002  -4.0186455519219955E-004
  0.10856493398414380       -3.2694729396110622E-002  -1.5118484671211574E-004
  0.10548530679362214       -3.1429309925326873E-002   1.5330589247161686E-004
  0.10240567960310053       -3.0421927314817434E-002   5.1160766235958111E-004
   9.9326052412578913E-002  -2.9672581564581912E-002   9.2372046295130517E-004
  0.10522652233578689       -3.1871343501433835E-002   7.7249026051813829E-003
  0.10223044315224189       -3.0649457943300790E-002   7.5673073450722994E-003
   9.9234363968696920E-002  -2.9582346540129770E-002   7.5229970682125225E-003
   9.6238284785151923E-002  -2.8670009291921195E-002   7.5919717746022186E-003
   9.3242205601606953E-002  -2.7912446198674667E-002   7.7742314642412214E-003
   9.8576877059664517E-002  -2.9524501275699278E-002   1.5498467639974520E-002
   9.5723819835641738E-002  -2.8604186490490957E-002   1.5035860116588015E-002
   9.2870762611618890E-002  -2.7735383154932840E-002   1.4746011528996614E-002
   9.0017705387596084E-002  -2.6918091269024960E-002   1.4628921877200014E-002
   8.7164648163573291E-002  -2.6152310832767395E-002   1.4684591161198232E-002
   9.1695625346298368E-002  -2.7177659049964692E-002   2.2918830549186881E-002
   8.9045064034343202E-002  -2.6558915037681124E-002   2.2254473467835153E-002
   8.6394502722388064E-002  -2.5888419769735823E-002   2.1822349274823717E-002
   8.3743941410432871E-002  -2.5166173246128833E-002   2.1622457970152716E-002
   8.1093380098477677E-002  -2.4392175466860136E-002   2.1654799553822119E-002
   8.4582767195688385E-002  -2.4830816824230079E-002   2.9985991332818429E-002
   8.2194175748346393E-002  -2.4513643584871306E-002   2.9223147398813321E-002
   7.9805584301004387E-002  -2.4041456384538758E-002   2.8752010305694034E-002
   7.7416992853662381E-002  -2.3414255223232705E-002   2.8572580053460639E-002
   7.5028401406320389E-002  -2.2632040100952877E-002   2.8684856642113177E-002
   9.9326052412578913E-002  -2.9672581564581912E-002   9.2372046295130517E-004
   9.6404819619622439E-002  -2.8996101553951714E-002   6.2882537903496960E-004
   9.3483586826665993E-002  -2.8207316162258231E-002   5.1721367291604481E-004
   9.0562354033709533E-002  -2.7306225389500918E-002   5.8888534459457242E-004
   8.7641121240753073E-002  -2.6292829235680659E-002   8.4384039407026101E-004
   9.3242205601606953E-002  -2.7912446198674667E-002   7.7742314642412214E-003
   9.0496966632917036E-002  -2.7197136356803819E-002   7.5696227163693786E-003
   8.7751727664227036E-002  -2.6411558862722354E-002   7.5337182392328644E-003
   8.5006488695537105E-002  -2.5555713716430079E-002   7.6665180328323590E-003
   8.2261249726847119E-002  -2.4629600917927652E-002   7.9680220971670157E-003
   8.7164648163573291E-002  -2.6152310832767395E-002   1.4684591161198232E-002
   8.4580823912088030E-002  -2.5398171159655925E-002   1.4528231020517771E-002
   8.1996999660602810E-002  -2.4615801563186650E-002   1.4525996043511465E-002
   7.9413175409117548E-002  -2.3805202043359355E-002   1.4677886230178658E-002
   7.6829351157632286E-002  -2.2966372600174367E-002   1.4983901580519876E-002
   8.1093380098477677E-002  -2.4392175466860136E-002   2.1654799553822119E-002
   7.8656391457135433E-002  -2.3599205962508057E-002   2.1504650291480628E-002
   7.6219402815793175E-002  -2.2820044263650804E-002   2.1494047085751214E-002
   7.3782414174450917E-002  -2.2054690370288461E-002   2.1622989936633939E-002
   7.1345425533108631E-002  -2.1303144282421110E-002   2.1891478844128481E-002
   7.5028401406320389E-002  -2.2632040100952877E-002   2.8684856642113177E-002
   7.2723669268059316E-002  -2.1800240765360079E-002   2.8498880529257753E-002
   7.0418937129798242E-002  -2.1024286964115096E-002   2.8437871365952466E-002
   6.8114204991537211E-002  -2.0304178697217574E-002   2.8501829152197622E-002
   6.5809472853276124E-002  -1.9639915964667964E-002   2.8690753887993137E-002
   8.7641121240753073E-002  -2.6292829235680659E-002   8.4384039407026101E-004
   8.4374375071171792E-002  -2.5255473020835084E-002   6.7967318387884834E-004
   8.1107628901590567E-002  -2.4282502065003042E-002   6.4956218079142980E-004
   7.7840882732009342E-002  -2.3373916368184422E-002   7.5350738480700619E-004
   7.4574136562428062E-002  -2.2529715930378891E-002   9.9150879592635466E-004
   8.2261249726847119E-002  -2.4629600917927652E-002   7.9680220971670157E-003
   7.9145232111856118E-002  -2.3688409361560664E-002   7.7162524814058664E-003
   7.6029214496865116E-002  -2.2787327941676816E-002   7.6318837677213924E-003
   7.2913196881874087E-002  -2.1926356658275553E-002   7.7149159561141073E-003
   6.9797179266883058E-002  -2.1105495511356986E-002   7.9653490465837473E-003
   7.6829351157632286E-002  -2.2966372600174367E-002   1.4983901580519876E-002
   7.3897406792205092E-002  -2.2121345702286355E-002   1.4668804681718939E-002
   7.0965462426777787E-002  -2.1292153818350257E-002   1.4554453379968774E-002
   6.8033518061350565E-002  -2.0478796948366684E-002   1.4640847675268777E-002
   6.5101573695923315E-002  -1.9681275092334805E-002   1.4927987567619455E-002
   7.1345425533108631E-002  -2.1303144282421110E-002   2.1891478844128481E-002
   6.8630899112218605E-002  -2.0554282043011879E-002   2.1537329784818815E-002
   6.5916372691328690E-002  -1.9796979695024086E-002   2.1417271017533060E-002
   6.3201846270438677E-002  -1.9031237238457704E-002   2.1531302542271296E-002
   6.0487319849548679E-002  -1.8257054673312650E-002   2.1879424359033582E-002
   6.5809472853276124E-002  -1.9639915964667964E-002   2.8690753887993137E-002
   6.3345709071896905E-002  -1.8987218383737486E-002   2.8321827790705106E-002
   6.0881945290517700E-002  -1.8301805571697721E-002   2.8220336680414682E-002
   5.8418181509138488E-002  -1.7583677528548870E-002   2.8386280557121710E-002
   5.5954417727759276E-002  -1.6832834254290718E-002   2.8819659420826260E-002
   7.4574136562428062E-002  -2.2529715930378891E-002   9.9150879592635466E-004
   7.1765171666181515E-002  -2.1692968600744378E-002   5.7358566244003484E-004
   6.8956206769935025E-002  -2.0806742228438063E-002   4.5144062630930737E-004
   6.6147241873688478E-002  -1.9871036813460231E-002   6.2507368753442205E-004
   6.3338276977441987E-002  -1.8885852355810862E-002   1.0944848461150736E-003
   6.9797179266883058E-002  -2.1105495511356986E-002   7.9653490465837473E-003
   6.7248422433249133E-002  -2.0289056853940057E-002   7.6335797030152031E-003
   6.4699665599615236E-002  -1.9441353039043541E-002   7.5264483873157262E-003
   6.2150908765981297E-002  -1.8562384066667978E-002   7.6439550994859690E-003
   5.9602151932347303E-002  -1.7652149936812744E-002   7.9860998395251404E-003
   6.5101573695923315E-002  -1.9681275092334805E-002   1.4927987567619455E-002
   6.2741884855415667E-002  -1.8885145107135598E-002   1.4664158128776000E-002
   6.0382196014908046E-002  -1.8075963849649115E-002   1.4553826648315851E-002
   5.8022507174400412E-002  -1.7253731319875610E-002   1.4596993126238821E-002
   5.5662818333892805E-002  -1.6418447517814627E-002   1.4793657562545026E-002
   6.0487319849548679E-002  -1.8257054673312650E-002   2.1879424359033582E-002
   5.8245558932681157E-002  -1.7481233360331208E-002   2.1665320939723287E-002
   5.6003798015813629E-002  -1.6710574660254530E-002   2.1533575409309776E-002
   5.3762037098946100E-002  -1.5945078573083186E-002   2.1484187767793338E-002
   5.1520276182078571E-002  -1.5184745098816954E-002   2.1517158015174107E-002
   5.5954417727759276E-002  -1.6832834254290718E-002   2.8819659420826260E-002
   5.3759444665045508E-002  -1.6077321613526763E-002   2.8637068135856925E-002
   5.1564471602331824E-002  -1.5345185470860112E-002   2.8465694670297914E-002
   4.9369498539618181E-002  -1.4636425826291058E-002   2.8305539024149950E-002
   4.7174525476904428E-002  -1.3951042679818948E-002   2.8156601197412368E-002
   6.3338276977441987E-002  -1.8885852355810862E-002   1.0944848461150736E-003
   5.9997285568861636E-002  -1.7954782756348542E-002   1.0841500902791790E-003
   5.6656294160281395E-002  -1.7181421915933359E-002   1.0986769786232031E-003
   5.3315302751701016E-002  -1.6565769834565133E-002   1.1380655111483118E-003
   4.9974311343120803E-002  -1.6107826512243406E-002   1.2023156878533392E-003
   5.9602151932347303E-002  -1.7652149936812744E-002   7.9860998395251404E-003
   5.6332693945105428E-002  -1.6764731973677061E-002   7.7019251825054535E-003
   5.3063235957863580E-002  -1.5954211501459648E-002   7.5359557239820796E-003
   4.9793777970621692E-002  -1.5220588520160436E-002   7.4881914639550184E-003
   4.6524319983379803E-002  -1.4563863029779966E-002   7.5586324024254914E-003
   5.5662818333892805E-002  -1.6418447517814627E-002   1.4793657562545026E-002
   5.2558237322305745E-002  -1.5574681191005524E-002   1.4316454272469276E-002
   4.9453656310718727E-002  -1.4727001086985853E-002   1.4050799735206593E-002
   4.6349075299131730E-002  -1.3875407205755967E-002   1.3996693950756880E-002
   4.3244494287544621E-002  -1.3019899547316305E-002   1.4154136919120486E-002
   5.1520276182078571E-002  -1.5184745098816954E-002   2.1517158015174107E-002
   4.8673915700462790E-002  -1.4384630408333793E-002   2.0927737360171256E-002
   4.5827555218846946E-002  -1.3499790672511988E-002   2.0643209012297548E-002
   4.2981194737231151E-002  -1.2530225891351717E-002   2.0663572971553874E-002
   4.0134834255615384E-002  -1.1475936064852754E-002   2.0988829237939238E-002
   4.7174525476904428E-002  -1.3951042679818948E-002   2.8156601197412368E-002
   4.4679729079576347E-002  -1.3194579625662173E-002   2.7535774445610672E-002
   4.2184932682248266E-002  -1.2272580258038401E-002   2.7313183555255249E-002
   3.9690136284920186E-002  -1.1185044576947314E-002   2.7488828526345321E-002
   3.7195339887592049E-002  -9.9319725823892036E-003   2.8062709358881444E-002
   9.0357814198295416E-002   0.0000000000000000        4.9839661652515625E-002
   9.3956830399925750E-002  -5.4031687308476739E-003   5.3212589894639457E-002
   9.7555846601556070E-002  -1.0668306923078442E-002   5.4966384232193431E-002
  0.10115486280318639       -1.5795414576692309E-002   5.5101044665177588E-002
  0.10475387900481670       -2.0784491691689267E-002   5.3616571193591908E-002
   8.2419922641100124E-002   0.0000000000000000        4.4789653681689093E-002
   8.4628871260109512E-002  -4.5723495213255199E-003   4.8273123875874249E-002
   8.6837819879118872E-002  -9.0337342023081961E-003   5.0595592809387323E-002
   8.9046768498128231E-002  -1.3384154042948029E-002   5.1757060482228334E-002
   9.1255717117137619E-002  -1.7623609043245024E-002   5.1757526894397290E-002
   7.4239009024537395E-002   0.0000000000000000        4.0583997769521742E-002
   7.5516022704823577E-002  -3.7415303118033651E-003   4.4150944217494145E-002
   7.6793036385109772E-002  -7.3991614815379480E-003   4.7015022048692276E-002
   7.8070050065395968E-002  -1.0972893509203755E-002   4.9176231263116099E-002
   7.9347063745682150E-002  -1.4462726394800772E-002   5.0634571860765643E-002
   6.5815073348607228E-002   0.0000000000000000        3.7222693916013586E-002
   6.6618284734068015E-002  -2.9107111022812098E-003   4.0846050919499180E-002
   6.7421496119528801E-002  -5.7645887607677007E-003   4.4224671950108277E-002
   6.8224707504989587E-002  -8.5616329754594749E-003   4.7358557007840869E-002
   6.9027918890450402E-002  -1.1301843746356524E-002   5.0247706092696923E-002
   5.7148115613309611E-002   0.0000000000000000        3.4705742121164604E-002
   5.7935657347842770E-002  -2.0798918927590563E-003   3.8358443981889347E-002
   5.8723199082375929E-002  -4.1300160399974552E-003   4.2224542513635346E-002
   5.9510740816909095E-002  -6.1503724417152020E-003   4.6304037716402610E-002
   6.0298282551442262E-002  -8.1409610979122846E-003   5.0596929590191152E-002
  0.10475387900481670       -2.0784491691689267E-002   5.3616571193591908E-002
  0.10209837020710714       -2.4923468742882565E-002   4.5630666780083567E-002
   9.9442861409397579E-002  -2.7500276205085505E-002   3.9332889783678000E-002
   9.6787352611688013E-002  -2.8514914078298054E-002   3.4723240204375054E-002
   9.4131843813978433E-002  -2.7967382362520221E-002   3.1801718042174881E-002
   9.1255717117137619E-002  -1.7623609043245024E-002   5.1757526894397290E-002
   9.0050771286703954E-002  -2.1197158398219673E-002   4.6515074566932040E-002
   8.8845825456270303E-002  -2.3549861302892466E-002   4.2485620756915789E-002
   8.7640879625836665E-002  -2.4681717757263449E-002   3.9669165464348767E-002
   8.6435933795402986E-002  -2.4592727761332575E-002   3.8065708689230926E-002
   7.9347063745682150E-002  -1.4462726394800772E-002   5.0634571860765643E-002
   7.9117551982870848E-002  -1.7470848053556746E-002   4.7794248480654784E-002
   7.8888040220059588E-002  -1.9599446400699432E-002   4.5691794718339486E-002
   7.8658528457248300E-002  -2.0848521436228819E-002   4.4327210573819831E-002
   7.8429016694437054E-002  -2.1218073160144915E-002   4.3700496047095694E-002
   6.9027918890450402E-002  -1.1301843746356524E-002   5.0247706092696923E-002
   6.9298712295607870E-002  -1.3744537708893844E-002   4.9468188521251968E-002
   6.9569505700765394E-002  -1.5649031498506414E-002   4.8951411667949064E-002
   6.9840299105922904E-002  -1.7015325115194206E-002   4.8697375532788148E-002
   7.0111092511080400E-002  -1.7843418558957248E-002   4.8706080115769268E-002
   6.0298282551442262E-002  -8.1409610979122846E-003   5.0596929590191152E-002
   6.0594252224915005E-002  -1.0018227364230921E-002   5.1536894688723578E-002
   6.0890221898387761E-002  -1.1698616596313370E-002   5.2264471605744434E-002
   6.1186191571860511E-002  -1.3182128794159590E-002   5.2779660341253802E-002
   6.1482161245333254E-002  -1.4468763957769609E-002   5.3082460895251565E-002
   9.4131843813978433E-002  -2.7967382362520221E-002   3.1801718042174881E-002
   9.1744574659405942E-002  -2.6774884633672308E-002   3.1230881949280240E-002
   8.9357305504833409E-002  -2.5854624467674683E-002   3.0737982133422603E-002
   8.6970036350260904E-002  -2.5206601864527219E-002   3.0323018594601951E-002
   8.4582767195688385E-002  -2.4830816824230079E-002   2.9985991332818429E-002
   8.6435933795402986E-002  -2.4592727761332575E-002   3.8065708689230926E-002
   8.4172688550491009E-002  -2.3947819601590644E-002   3.7039329303804103E-002
   8.1909443305579033E-002  -2.3411921564528444E-002   3.6183061460661331E-002
   7.9646198060667056E-002  -2.2985033650145970E-002   3.5496905159802507E-002
   7.7382952815755079E-002  -2.2667155858443255E-002   3.4980860401227623E-002
   7.8429016694437054E-002  -2.1218073160144915E-002   4.3700496047095694E-002
   7.6381970624432458E-002  -2.1120754569508959E-002   4.2381800809307313E-002
   7.4334924554427931E-002  -2.0969218661382232E-002   4.1325392379049856E-002
   7.2287878484423390E-002  -2.0763465435764711E-002   4.0531270756323345E-002
   7.0240832414418808E-002  -2.0503494892656418E-002   3.9999435941127627E-002
   7.0111092511080400E-002  -1.7843418558957248E-002   4.8706080115769268E-002
   6.8372420881230259E-002  -1.8293689537427299E-002   4.7258296465789780E-002
   6.6633749251380076E-002  -1.8526515758236006E-002   4.6164974888588180E-002
   6.4895077621529920E-002  -1.8541897221383420E-002   4.5426115384164391E-002
   6.3156405991679779E-002  -1.8339833926869546E-002   4.5041717952518441E-002
   6.1482161245333254E-002  -1.4468763957769609E-002   5.3082460895251565E-002
   6.0144039320884385E-002  -1.5466624505345621E-002   5.1668816273251553E-002
   5.8805917396435509E-002  -1.6083812855089766E-002   5.0701808989276301E-002
   5.7467795471986653E-002  -1.6320329007002182E-002   5.0181439043325837E-002
   5.6129673547537784E-002  -1.6176172961082730E-002   5.0107706435400079E-002
   8.4582767195688385E-002  -2.4830816824230079E-002   2.9985991332818429E-002
   8.2194175748346393E-002  -2.4513643584871306E-002   2.9223147398813321E-002
   7.9805584301004387E-002  -2.4041456384538758E-002   2.8752010305694034E-002
   7.7416992853662381E-002  -2.3414255223232705E-002   2.8572580053460639E-002
   7.5028401406320389E-002  -2.2632040100952877E-002   2.8684856642113177E-002
   7.7382952815755079E-002  -2.2667155858443255E-002   3.4980860401227623E-002
   7.5270426425697437E-002  -2.2347231938246420E-002   3.4394126832538743E-002
   7.3157900035639822E-002  -2.1914205638381652E-002   3.4067816537532762E-002
   7.1045373645582194E-002  -2.1368076958848889E-002   3.4001929516209783E-002
   6.8932847255524565E-002  -2.0708845899648276E-002   3.4196465768569467E-002
   7.0240832414418808E-002  -2.0503494892656418E-002   3.9999435941127627E-002
   6.8373087514442515E-002  -2.0180820291621611E-002   3.9546901156449481E-002
   6.6505342614466181E-002  -1.9786954892224515E-002   3.9323506078251122E-002
   6.4637597714489875E-002  -1.9321898694465198E-002   3.9329250706532613E-002
   6.2769852814513555E-002  -1.8785651698343647E-002   3.9564135041293663E-002
   6.3156405991679779E-002  -1.8339833926869546E-002   4.5041717952518441E-002
   6.1502159014581691E-002  -1.8014408644996750E-002   4.4681470370545283E-002
   5.9847912037483623E-002  -1.7659704146067420E-002   4.4519078927848864E-002
   5.8193665060385535E-002  -1.7275720430081486E-002   4.4554543624429066E-002
   5.6539418083287461E-002  -1.6862457497039074E-002   4.4787864460286035E-002
   5.6129673547537784E-002  -1.6176172961082730E-002   5.0107706435400079E-002
   5.4657640926114859E-002  -1.5847996998371916E-002   4.9797834474826191E-002
   5.3185608304691975E-002  -1.5532453399910211E-002   4.9654535086326015E-002
   5.1713575683269071E-002  -1.5229542165697730E-002   4.9677808269899461E-002
   5.0241543061846167E-002  -1.4939263295734417E-002   4.9867654025546465E-002
   7.5028401406320389E-002  -2.2632040100952877E-002   2.8684856642113177E-002
   7.2723669268059316E-002  -2.1800240765360079E-002   2.8498880529257753E-002
   7.0418937129798242E-002  -2.1024286964115096E-002   2.8437871365952466E-002
   6.8114204991537211E-002  -2.0304178697217574E-002   2.8501829152197622E-002
   6.5809472853276124E-002  -1.9639915964667964E-002   2.8690753887993137E-002
   6.8932847255524565E-002  -2.0708845899648276E-002   3.4196465768569467E-002
   6.6768670348356124E-002  -2.0005873167823235E-002   3.3917905362657486E-002
   6.4604493441187683E-002  -1.9328519470417714E-002   3.3795488469380630E-002
   6.2440316534019248E-002  -1.8676784807431505E-002   3.3829215088738707E-002
   6.0276139626850828E-002  -1.8050669178864637E-002   3.4019085220731549E-002
   6.2769852814513555E-002  -1.8785651698343647E-002   3.9564135041293663E-002
   6.0777407701522394E-002  -1.8211505570286474E-002   3.9223216842253820E-002
   5.8784962588531178E-002  -1.7632751976720387E-002   3.9069618718933413E-002
   5.6792517475540004E-002  -1.7049390917645350E-002   3.9103340671332691E-002
   5.4800072362548809E-002  -1.6461422393061365E-002   3.9324382699451307E-002
   5.6539418083287461E-002  -1.6862457497039074E-002   4.4787864460286035E-002
   5.4749881327558134E-002  -1.6417137972749699E-002   4.4414814968046404E-002
   5.2960344571828785E-002  -1.5936984483023088E-002   4.4260262114610913E-002
   5.1170807816099423E-002  -1.5421997027859210E-002   4.4324205899979520E-002
   4.9381271060370116E-002  -1.4872175607258092E-002   4.4606646324152420E-002
   5.0241543061846167E-002  -1.4939263295734417E-002   4.9867654025546465E-002
   4.8686091226463279E-002  -1.4622770375212812E-002   4.9492699740035284E-002
   4.7130639391080434E-002  -1.4241216989325733E-002   4.9367418656413004E-002
   4.5575187555697581E-002  -1.3794603138073069E-002   4.9491810774679346E-002
   4.4019735720314701E-002  -1.3282928821454820E-002   4.9865876094834616E-002
   6.5809472853276124E-002  -1.9639915964667964E-002   2.8690753887993137E-002
   6.3345709071896905E-002  -1.8987218383737486E-002   2.8321827790705106E-002
   6.0881945290517700E-002  -1.8301805571697721E-002   2.8220336680414682E-002
   5.8418181509138488E-002  -1.7583677528548870E-002   2.8386280557121710E-002
   5.5954417727759276E-002  -1.6832834254290718E-002   2.8819659420826260E-002
   6.0276139626850828E-002  -1.8050669178864637E-002   3.4019085220731549E-002
   5.8057893731504523E-002  -1.7426739942082228E-002   3.3712488725582149E-002
   5.5839647836158246E-002  -1.6781564454449498E-002   3.3629493015500986E-002
   5.3621401940811955E-002  -1.6115142715966119E-002   3.3770098090488219E-002
   5.1403156045465664E-002  -1.5427474726632417E-002   3.4134303950543676E-002
   5.4800072362548809E-002  -1.6461422393061365E-002   3.9324382699451307E-002
   5.2783510151306286E-002  -1.5866261500427067E-002   3.9068646826181670E-002
   5.0766947940063756E-002  -1.5261323337201108E-002   3.8992677536051193E-002
   4.8750385728821219E-002  -1.4646607903383364E-002   3.9096474829059896E-002
   4.6733823517578696E-002  -1.4022115198974061E-002   3.9380038705207648E-002
   4.9381271060370116E-002  -1.4872175607258092E-002   4.4606646324152420E-002
   4.7522558331302152E-002  -1.4305783058771913E-002   4.4390302092503664E-002
   4.5663845602234202E-002  -1.3741082219952801E-002   4.4309890242064970E-002
   4.3805132873166217E-002  -1.3178073090800721E-002   4.4365410772836372E-002
   4.1946420144098287E-002  -1.2616755671315677E-002   4.4556863684817566E-002
   4.4019735720314701E-002  -1.3282928821454820E-002   4.9865876094834616E-002
   4.2275038271492149E-002  -1.2745304617116676E-002   4.9677454524548387E-002
   4.0530340822669569E-002  -1.2220841102704466E-002   4.9581131133542761E-002
   3.8785643373846990E-002  -1.1709538278217822E-002   4.9576905921817765E-002
   3.7040945925024410E-002  -1.1211396143657404E-002   4.9664778889373873E-002
   5.5954417727759276E-002  -1.6832834254290718E-002   2.8819659420826260E-002
   5.3759444665045508E-002  -1.6077321613526763E-002   2.8637068135856925E-002
   5.1564471602331824E-002  -1.5345185470860112E-002   2.8465694670297914E-002
   4.9369498539618181E-002  -1.4636425826291058E-002   2.8305539024149950E-002
   4.7174525476904428E-002  -1.3951042679818948E-002   2.8156601197412368E-002
   5.1403156045465664E-002  -1.5427474726632417E-002   3.4134303950543676E-002
   4.9263960096916942E-002  -1.4734617506611314E-002   3.3861078970948616E-002
   4.7124764148368178E-002  -1.4052628076065873E-002   3.3688190400272683E-002
   4.4985568199819463E-002  -1.3381506434996273E-002   3.3615638238515752E-002
   4.2846372251270665E-002  -1.2721252583402232E-002   3.3643422485678254E-002
   4.6733823517578696E-002  -1.4022115198974061E-002   3.9380038705207648E-002
   4.4739523272703460E-002  -1.3391913399695893E-002   3.9028688739608325E-002
   4.2745223027828190E-002  -1.2760070681271746E-002   3.8866793772436820E-002
   4.0750922782952934E-002  -1.2126587043701655E-002   3.8894353803692897E-002
   3.8756622538077684E-002  -1.1491462486985460E-002   3.9111368833376903E-002
   4.1946420144098287E-002  -1.2616755671315677E-002   4.4556863684817566E-002
   4.0186134192405021E-002  -1.2049209292780569E-002   4.4139897441835829E-002
   3.8425848240711727E-002  -1.1467513286477618E-002   4.4001504786790567E-002
   3.6665562289018482E-002  -1.0871667652406953E-002   4.4141685719681550E-002
   3.4905276337325174E-002  -1.0261672390568660E-002   4.4560440240508800E-002
   3.7040945925024410E-002  -1.1211396143657404E-002   4.9664778889373873E-002
   3.5603792856021693E-002  -1.0706505185864995E-002   4.9194705077631518E-002
   3.4166639787018949E-002  -1.0174955891683365E-002   4.9092323443334029E-002
   3.2729486718016218E-002  -9.6167482611123588E-003   4.9357633986481228E-002
   3.1292333649013487E-002  -9.0318822941519161E-003   4.9990636707073210E-002
   4.7174525476904428E-002  -1.3951042679818948E-002   2.8156601197412368E-002
   4.4679729079576347E-002  -1.3194579625662173E-002   2.7535774445610672E-002
   4.2184932682248266E-002  -1.2272580258038401E-002   2.7313183555255249E-002
   3.9690136284920186E-002  -1.1185044576947314E-002   2.7488828526345321E-002
   3.7195339887592049E-002  -9.9319725823892036E-003   2.8062709358881444E-002
   4.2846372251270665E-002  -1.2721252583402232E-002   3.3643422485678254E-002
   4.0688059796039955E-002  -1.2026185319454902E-002   3.3322262790793339E-002
   3.8529747340809162E-002  -1.1250623441325810E-002   3.3275835118657116E-002
   3.6371434885578313E-002  -1.0394566949014316E-002   3.3504139469269598E-002
   3.4213122430347687E-002  -9.4580158425208172E-003   3.4007175842630910E-002
   3.8756622538077684E-002  -1.1491462486985460E-002   3.9111368833376903E-002
   3.6811290186247084E-002  -1.0857791013247742E-002   3.9004834496123617E-002
   3.4865957834416414E-002  -1.0228666624612998E-002   3.9049528342921747E-002
   3.2920625482585772E-002  -9.6040893210812897E-003   3.9245450373771515E-002
   3.0975293130755088E-002  -8.9840591026524308E-003   3.9592600588673033E-002
   3.4905276337325174E-002  -1.0261672390568660E-002   4.4560440240508800E-002
   3.3049420250197581E-002  -9.6893967070406373E-003   4.4583489561601922E-002
   3.1193564163069933E-002  -9.2067098079003512E-003   4.4634263228049607E-002
   2.9337708075942267E-002  -8.8136116931482218E-003   4.4712761239851920E-002
   2.7481851988814698E-002  -8.5101023627840444E-003   4.4818983597008435E-002
   3.1292333649013487E-002  -9.0318822941519161E-003   4.9990636707073210E-002
   2.9402449987891655E-002  -8.5210024008332552E-003   5.0058227987228088E-002
   2.7512566326769863E-002  -8.1847529911875522E-003   5.0030039774040275E-002
   2.5622682665647968E-002  -8.0231340652151713E-003   4.9906072067509757E-002
   2.3732799004526184E-002  -8.0361456229156580E-003   4.9686324867636245E-002
   5.7148115613309611E-002   0.0000000000000000        3.4705742121164604E-002
   5.7935657347842770E-002  -2.0798918927590563E-003   3.8358443981889347E-002
   5.8723199082375929E-002  -4.1300160399974552E-003   4.2224542513635346E-002
   5.9510740816909095E-002  -6.1503724417152020E-003   4.6304037716402610E-002
   6.0298282551442262E-002  -8.1409610979122846E-003   5.0596929590191152E-002
   4.8649906856546660E-002   0.0000000000000000        3.2808522142752330E-002
   4.9585794264241062E-002  -1.7068188373788795E-003   3.6984422248740441E-002
   5.0521681671935464E-002  -3.4279469669051821E-003   4.1243617030029767E-002
   5.1457569079629860E-002  -5.1633843885789035E-003   4.5586106486620322E-002
   5.2393456487324248E-002  -6.9131311024000480E-003   5.0011890618512071E-002
   4.0732218116220492E-002   0.0000000000000000        3.1306413738554265E-002
   4.1686349201356082E-002  -1.3337457819987035E-003   3.5961435052137669E-002
   4.2640480286491665E-002  -2.7258778938129080E-003   4.0569649045302240E-002
   4.3594611371627255E-002  -4.1763963354426075E-003   4.5131055718047965E-002
   4.4548742456762831E-002  -5.6853011068878079E-003   4.9645655070374883E-002
   3.3395049392331108E-002   0.0000000000000000        3.0199416908570417E-002
   3.4237322159187830E-002  -9.6067272661852846E-004   3.5289482392081038E-002
   3.5079594926044552E-002  -2.0238088207206327E-003   4.0202638559452782E-002
   3.5921867692901274E-002  -3.1894082823063119E-003   4.4938885410685629E-002
   3.6764140459757996E-002  -4.4574711113755678E-003   4.9498222945779560E-002
   2.6638400684878501E-002   0.0000000000000000        2.9487531652800783E-002
   2.7238713137736306E-002  -5.8759967123835164E-004   3.4968564268570548E-002
   2.7839025590594112E-002  -1.3217397476283609E-003   4.0142585572481369E-002
   2.8439338043451917E-002  -2.2024202291700164E-003   4.5009595564533267E-002
   2.9039650496309726E-002  -3.2296411158633312E-003   4.9569594244726206E-002
   6.0298282551442262E-002  -8.1409610979122846E-003   5.0596929590191152E-002
   6.0594252224915005E-002  -1.0018227364230921E-002   5.1536894688723578E-002
   6.0890221898387761E-002  -1.1698616596313370E-002   5.2264471605744434E-002
   6.1186191571860511E-002  -1.3182128794159590E-002   5.2779660341253802E-002
   6.1482161245333254E-002  -1.4468763957769609E-002   5.3082460895251565E-002
   5.2393456487324248E-002  -6.9131311024000480E-003   5.0011890618512071E-002
   5.2516202277455216E-002  -8.5749476766608778E-003   5.1244655351522929E-002
   5.2638948067586178E-002  -1.0046594679653657E-002   5.2343360499361793E-002
   5.2761693857717146E-002  -1.1328072111378384E-002   5.3308006062028644E-002
   5.2884439647848107E-002  -1.2419379971835065E-002   5.4138592039523412E-002
   4.4548742456762831E-002  -5.6853011068878079E-003   4.9645655070374883E-002
   4.4576592959891526E-002  -7.1316679890908140E-003   5.1164511974896049E-002
   4.4604443463020213E-002  -8.3945727629939279E-003   5.2627637890584743E-002
   4.4632293966148914E-002  -9.4740154285971757E-003   5.4035032817440869E-002
   4.4660144469277616E-002  -1.0369995985900535E-002   5.5386696755464565E-002
   3.6764140459757996E-002  -4.4574711113755678E-003   4.9498222945779560E-002
   3.6775424272223925E-002  -5.6883883015207536E-003   5.1296464558842909E-002
   3.6786708084689868E-002  -6.7425508463342127E-003   5.3117303779413226E-002
   3.6797991897155796E-002  -7.6199587458159581E-003   5.4960740607490573E-002
   3.6809275709621732E-002  -8.3206119999659836E-003   5.6826775043074887E-002
   2.9039650496309726E-002  -3.2296411158633312E-003   4.9569594244726206E-002
   2.9112696214452415E-002  -4.2451086139507063E-003   5.1640513103363511E-002
   2.9185741932595113E-002  -5.0905289296744975E-003   5.3812358165847320E-002
   2.9258787650737809E-002  -5.7659020630347604E-003   5.6085129432177611E-002
   2.9331833368880504E-002  -6.2712280140314602E-003   5.8458826902354488E-002
   6.1482161245333254E-002  -1.4468763957769609E-002   5.3082460895251565E-002
   6.0144039320884385E-002  -1.5466624505345621E-002   5.1668816273251553E-002
   5.8805917396435509E-002  -1.6083812855089766E-002   5.0701808989276301E-002
   5.7467795471986653E-002  -1.6320329007002182E-002   5.0181439043325837E-002
   5.6129673547537784E-002  -1.6176172961082730E-002   5.0107706435400079E-002
   5.2884439647848107E-002  -1.2419379971835065E-002   5.4138592039523412E-002
   5.1941747422115714E-002  -1.3262786334883585E-002   5.3390319007819785E-002
   5.0999055196383314E-002  -1.3800559274383898E-002   5.2986268035524330E-002
   5.0056362970650914E-002  -1.4032698790335946E-002   5.2926439122636934E-002
   4.9113670744918528E-002  -1.3959204882739745E-002   5.3210832269157876E-002
   4.4660144469277616E-002  -1.0369995985900535E-002   5.5386696755464565E-002
   4.4010466663645074E-002  -1.1058948164421592E-002   5.5228756539773688E-002
   4.3360788858012568E-002  -1.1517305693678002E-002   5.5312623104874406E-002
   4.2711111052380041E-002  -1.1745068573669739E-002   5.5638296450766705E-002
   4.2061433246747514E-002  -1.1742236804396802E-002   5.6205776577450621E-002
   3.6809275709621732E-002  -8.3206119999659836E-003   5.6826775043074887E-002
   3.6350197045472495E-002  -8.8551099939596124E-003   5.7184128869113289E-002
   3.5891118381323264E-002  -9.2340521129721485E-003   5.7680874197326613E-002
   3.5432039717174027E-002  -9.4574383570035538E-003   5.8317011027714985E-002
   3.4972961053024783E-002  -9.5252687260538385E-003   5.9092539360278265E-002
   2.9331833368880504E-002  -6.2712280140314602E-003   5.8458826902354488E-002
   2.8960938567597953E-002  -6.6512718234975621E-003   5.9256435995838512E-002
   2.8590043766315413E-002  -6.9507985322662461E-003   6.0091021312880910E-002
   2.8219148965032859E-002  -7.1698081403373127E-003   6.0962582853481752E-002
   2.7848254163750315E-002  -7.3083006477109025E-003   6.1871120617640968E-002
   5.6129673547537784E-002  -1.6176172961082730E-002   5.0107706435400079E-002
   5.4657640926114859E-002  -1.5847996998371916E-002   4.9797834474826191E-002
   5.3185608304691975E-002  -1.5532453399910211E-002   4.9654535086326015E-002
   5.1713575683269071E-002  -1.5229542165697730E-002   4.9677808269899461E-002
   5.0241543061846167E-002  -1.4939263295734417E-002   4.9867654025546465E-002
   4.9113670744918528E-002  -1.3959204882739745E-002   5.3210832269157876E-002
   4.7809076614190350E-002  -1.3728603004904139E-002   5.2863566607994156E-002
   4.6504482483462180E-002  -1.3489418610137895E-002   5.2684605356146219E-002
   4.5199888352734016E-002  -1.3241651698441085E-002   5.2673948513614122E-002
   4.3895294222005832E-002  -1.2985302269813676E-002   5.2831596080397947E-002
   4.2061433246747514E-002  -1.1742236804396802E-002   5.6205776577450621E-002
   4.0926009443956295E-002  -1.1609209011436333E-002   5.5842332096876689E-002
   3.9790585641165069E-002  -1.1446383820365526E-002   5.5648923862860827E-002
   3.8655161838373878E-002  -1.1253761231184399E-002   5.5625551875403051E-002
   3.7519738035582638E-002  -1.1031341243892878E-002   5.5772216134503241E-002
   3.4972961053024783E-002  -9.5252687260538385E-003   5.9092539360278265E-002
   3.4008439415412720E-002  -9.4898150179685697E-003   5.8734130941474026E-002
   3.3043917777800649E-002  -9.4033490305931843E-003   5.8547490606469972E-002
   3.2079396140188579E-002  -9.2658707639277187E-003   5.8532618355266235E-002
   3.1114874502576523E-002  -9.0773802179721086E-003   5.8689514187862696E-002
   2.7848254163750315E-002  -7.3083006477109025E-003   6.1871120617640968E-002
   2.7056366528559618E-002  -7.3704210245007576E-003   6.1538963141786002E-002
   2.6264478893368918E-002  -7.3603142408207659E-003   6.1380305586973521E-002
   2.5472591258178218E-002  -7.2779802966710331E-003   6.1395147953203423E-002
   2.4680703622987521E-002  -7.1234191920513390E-003   6.1583490240475935E-002
   5.0241543061846167E-002  -1.4939263295734417E-002   4.9867654025546465E-002
   4.8686091226463279E-002  -1.4622770375212812E-002   4.9492699740035284E-002
   4.7130639391080434E-002  -1.4241216989325733E-002   4.9367418656413004E-002
   4.5575187555697581E-002  -1.3794603138073069E-002   4.9491810774679346E-002
   4.4019735720314701E-002  -1.3282928821454820E-002   4.9865876094834616E-002
   4.3895294222005832E-002  -1.2985302269813676E-002   5.2831596080397947E-002
   4.2580446184897223E-002  -1.2697877705241931E-002   5.2477579154851059E-002
   4.1265598147788622E-002  -1.2356885385712502E-002   5.2355096623963968E-002
   3.9950750110680014E-002  -1.1962325311225028E-002   5.2464148487736534E-002
   3.8635902073571399E-002  -1.1514197481779814E-002   5.2804734746168869E-002
   3.7519738035582638E-002  -1.1031341243892878E-002   5.5772216134503241E-002
   3.6427354989519205E-002  -1.0772985035271104E-002   5.5427643858513037E-002
   3.5334971943455779E-002  -1.0472553782099187E-002   5.5296467169953442E-002
   3.4242588897392366E-002  -1.0130047484377097E-002   5.5378686068824470E-002
   3.3150205851328912E-002  -9.7454661421048361E-003   5.5674300555126149E-002
   3.1114874502576523E-002  -9.0773802179721086E-003   5.8689514187862696E-002
   3.0226817640329199E-002  -8.8480923653002225E-003   5.8342893851021302E-002
   2.9338760778081899E-002  -8.5882221784858853E-003   5.8191530294381524E-002
   2.8450703915834586E-002  -8.2977696575291388E-003   5.8235423517943335E-002
   2.7562647053587269E-002  -7.9767348024298163E-003   5.8474573521706687E-002
   2.4680703622987521E-002  -7.1234191920513390E-003   6.1583490240475935E-002
   2.3978834137327251E-002  -6.9231996953293962E-003   6.1223329132375715E-002
   2.3276964651666995E-002  -6.7038905748726119E-003   6.1040285997248089E-002
   2.2575095166006739E-002  -6.4654918306811318E-003   6.1034360835092893E-002
   2.1873225680346484E-002  -6.2080034627548519E-003   6.1205553645910293E-002
   4.4019735720314701E-002  -1.3282928821454820E-002   4.9865876094834616E-002
   4.2275038271492149E-002  -1.2745304617116676E-002   4.9677454524548387E-002
   4.0530340822669569E-002  -1.2220841102704466E-002   4.9581131133542761E-002
   3.8785643373846990E-002  -1.1709538278217822E-002   4.9576905921817765E-002
   3.7040945925024410E-002  -1.1211396143657404E-002   4.9664778889373873E-002
   3.8635902073571399E-002  -1.1514197481779814E-002   5.2804734746168869E-002
   3.7010008805856934E-002  -1.1043456264527726E-002   5.2530405767575658E-002
   3.5384115538142483E-002  -1.0581056026619969E-002   5.2401586971917755E-002
   3.3758222270428011E-002  -1.0126996768056258E-002   5.2418278359195457E-002
   3.2132329002713567E-002  -9.6812784888367642E-003   5.2580479929408536E-002
   3.3150205851328912E-002  -9.7454661421048361E-003   5.5674300555126149E-002
   3.1696528768377211E-002  -9.3416079119387346E-003   5.5318883878807658E-002
   3.0242851685425551E-002  -8.9412709505353599E-003   5.5162389389079330E-002
   2.8789174602473856E-002  -8.5444552578944170E-003   5.5204817085941014E-002
   2.7335497519522189E-002  -8.1511608340161246E-003   5.5446166969392849E-002
   2.7562647053587269E-002  -7.9767348024298163E-003   5.8474573521706687E-002
   2.6334598159053015E-002  -7.6397595593497916E-003   5.8042888858244546E-002
   2.5106549264518767E-002  -7.3014858744508068E-003   5.7863538385027238E-002
   2.3878500369984484E-002  -6.9619137477326589E-003   5.7936522102054716E-002
   2.2650451475450237E-002  -6.6210431791954572E-003   5.8261840009326799E-002
   2.1873225680346484E-002  -6.2080034627548519E-003   6.1205553645910293E-002
   2.0924216977884311E-002  -5.9379112067608486E-003   6.0702420705886273E-002
   1.9975208275422138E-002  -5.6617007983662399E-003   6.0505033959761617E-002
   1.9026199572959958E-002  -5.3793722375708695E-003   6.0613393407536423E-002
   1.8077190870497792E-002  -5.0909255243748452E-003   6.1027499049210676E-002
   3.7040945925024410E-002  -1.1211396143657404E-002   4.9664778889373873E-002
   3.5603792856021693E-002  -1.0706505185864995E-002   4.9194705077631518E-002
   3.4166639787018949E-002  -1.0174955891683365E-002   4.9092323443334029E-002
   3.2729486718016218E-002  -9.6167482611123588E-003   4.9357633986481228E-002
   3.1292333649013487E-002  -9.0318822941519161E-003   4.9990636707073210E-002
   3.2132329002713567E-002  -9.6812784888367642E-003   5.2580479929408536E-002
   3.1010835110960061E-002  -9.2340934812978059E-003   5.2189124942776499E-002
   2.9889341219206556E-002  -8.7756340377755787E-003   5.2061396133197976E-002
   2.8767847327453064E-002  -8.3059001582699819E-003   5.2197293500673335E-002
   2.7646353435699572E-002  -7.8248918427812342E-003   5.2596817045202415E-002
   2.7335497519522189E-002  -8.1511608340161246E-003   5.5446166969392849E-002
   2.6425596804626784E-002  -7.7616817767305196E-003   5.5118146907464902E-002
   2.5515696089731421E-002  -7.3763121838676879E-003   5.4949687022199593E-002
   2.4605795374836044E-002  -6.9950520554276623E-003   5.4940787313596862E-002
   2.3695894659940660E-002  -6.6179013914104690E-003   5.5091447781656630E-002
   2.2650451475450237E-002  -6.6210431791954572E-003   5.8261840009326799E-002
   2.1848077937021898E-002  -6.2892700721633374E-003   5.7981770971697030E-002
   2.1045704398593532E-002  -5.9769903299598491E-003   5.7757196110338693E-002
   2.0243330860165179E-002  -5.6842039525853696E-003   5.7588115425251801E-002
   1.9440957321736826E-002  -5.4109109400397454E-003   5.7474528916436354E-002
   1.8077190870497792E-002  -5.0909255243748452E-003   6.1027499049210676E-002
   1.7278278508145339E-002  -4.8168583675960441E-003   6.0779997135472719E-002
   1.6479366145792908E-002  -4.5776684760520520E-003   6.0483923397615241E-002
   1.5680453783440466E-002  -4.3733558497431151E-003   6.0139277835638119E-002
   1.4881541421088038E-002  -4.2039204886690773E-003   5.9746060449541616E-002
   3.1292333649013487E-002  -9.0318822941519161E-003   4.9990636707073210E-002
   2.9402449987891655E-002  -8.5210024008332552E-003   5.0058227987228088E-002
   2.7512566326769863E-002  -8.1847529911875522E-003   5.0030039774040275E-002
   2.5622682665647968E-002  -8.0231340652151713E-003   4.9906072067509757E-002
   2.3732799004526184E-002  -8.0361456229156580E-003   4.9686324867636245E-002
   2.7646353435699572E-002  -7.8248918427812342E-003   5.2596817045202415E-002
   2.5730585981969825E-002  -7.3068735492297088E-003   5.2373882981881503E-002
   2.3814818528240078E-002  -6.7261097355366117E-003   5.2194960826687481E-002
   2.1899051074510359E-002  -6.0826004017012908E-003   5.2060050579620487E-002
   1.9983283620780556E-002  -5.3763455477244815E-003   5.1969152240680438E-002
   2.3695894659940660E-002  -6.6179013914104690E-003   5.5091447781656630E-002
   2.1894034815072717E-002  -6.0927446976261901E-003   5.4815364378675013E-002
   2.0092174970204744E-002  -5.2674664798852758E-003   5.4723084285289970E-002
   1.8290315125336847E-002  -4.1420667381875751E-003   5.4814607501501661E-002
   1.6488455280468869E-002  -2.7165454725333049E-003   5.5089934027310161E-002
   1.9440957321736826E-002  -5.4109109400397454E-003   5.7474528916436354E-002
   1.7892796487200418E-002  -4.8786158460227685E-003   5.7382672177608743E-002
   1.6344635652663975E-002  -3.8088232242339710E-003   5.7614410149847535E-002
   1.4796474818127505E-002  -2.2015330746738325E-003   5.8169742833152717E-002
   1.3248313983591092E-002  -5.6745397342128356E-005   5.9048670227524122E-002
   1.4881541421088038E-002  -4.2039204886690773E-003   5.9746060449541616E-002
   1.3726870998352805E-002  -3.6644869944191805E-003   6.0075806378682706E-002
   1.2572200575617594E-002  -2.3501799685828745E-003   6.0868938420360091E-002
   1.1417530152882351E-002  -2.6099941115997546E-004   6.2125456574573593E-002
   1.0262859730147122E-002   2.6030546778490482E-003   6.3845360841323195E-002
   2.6638400684878501E-002   0.0000000000000000        2.9487531652800783E-002
   2.7238713137736306E-002  -5.8759967123835164E-004   3.4968564268570548E-002
   2.7839025590594112E-002  -1.3217397476283609E-003   4.0142585572481369E-002
   2.8439338043451917E-002  -2.2024202291700164E-003   4.5009595564533267E-002
   2.9039650496309726E-002  -3.2296411158633312E-003   4.9569594244726206E-002
   2.0124372739897478E-002   0.0000000000000000        2.9036752406698167E-002
   2.0457228487979293E-002  -4.4228779138401862E-004   3.4333732167640137E-002
   2.0790084236061109E-002  -9.9469311845065602E-004   3.9402809830889070E-002
   2.1122939984142924E-002  -1.6572159811999113E-003   4.4243985396444960E-002
   2.1455795732224746E-002  -2.4298563796317889E-003   4.8857258864307807E-002
   1.3515066303422843E-002   0.0000000000000000        2.8713073605715365E-002
   1.3659574560894573E-002  -2.9697591152968430E-004   3.3862423381298572E-002
   1.3804082818366302E-002  -6.6764648927295465E-004   3.8862980273354650E-002
   1.3948591075838027E-002  -1.1120117332298080E-003   4.3714744281883586E-002
   1.4093099333309760E-002  -1.6300716434002535E-003   4.8417715406885387E-002
   6.8104813754546068E-003   0.0000000000000000        2.8516495249852385E-002
   6.8457513564821474E-003  -1.5166403167535107E-004   3.3554637909545867E-002
   6.8810213375096879E-003  -3.4059986009525416E-004   3.8523096899878116E-002
   6.9162913185372267E-003  -5.6680748525970732E-004   4.3421872220849131E-002
   6.9515612995647682E-003  -8.3028690716872161E-004   4.8250963872458898E-002
   1.0617955992760740E-005   0.0000000000000000        2.8447017339109218E-002
   1.5758874742014331E-005  -6.3521518210160957E-006   3.3410375752382017E-002
   2.0899793491267488E-005  -1.3553230917550188E-005   3.8383159710459469E-002
   2.6040712240520862E-005  -2.1603237289597940E-005   4.3365369213341581E-002
   3.1181630989775104E-005  -3.0502170937175832E-005   4.8357004261028368E-002
   2.9039650496309726E-002  -3.2296411158633312E-003   4.9569594244726206E-002
   2.9112696214452415E-002  -4.2451086139507063E-003   5.1640513103363511E-002
   2.9185741932595113E-002  -5.0905289296744975E-003   5.3812358165847320E-002
   2.9258787650737809E-002  -5.7659020630347604E-003   5.6085129432177611E-002
   2.9331833368880504E-002  -6.2712280140314602E-003   5.8458826902354488E-002
   2.1455795732224746E-002  -2.4298563796317889E-003   4.8857258864307807E-002
   2.1600710523238760E-002  -3.1939923926331123E-003   5.1268865701593558E-002
   2.1745625314252774E-002  -3.8310020990906845E-003   5.3723284480775443E-002
   2.1890540105266792E-002  -4.3408854990045044E-003   5.6220515201853456E-002
   2.2035454896280806E-002  -4.7236425923745870E-003   5.8760557864827589E-002
   1.4093099333309760E-002  -1.6300716434002535E-003   4.8417715406885387E-002
   1.4251768935244711E-002  -2.1428761713155327E-003   5.1127089346999763E-002
   1.4410438537179658E-002  -2.5714752685068506E-003   5.3821160967059883E-002
   1.4569108139114609E-002  -2.9158689349742593E-003   5.6499930267065776E-002
   1.4727777741049561E-002  -3.1760571707177276E-003   5.9163397247017378E-002
   6.9515612995647682E-003  -8.3028690716872161E-004   4.8250963872458898E-002
   7.0658714504702675E-003  -1.0917599499979354E-003   5.1215184039582126E-002
   7.1801816013757642E-003  -1.3119484379230271E-003   5.4105987624700716E-002
   7.2944917522812626E-003  -1.4908523709440122E-003   5.6923374627814612E-002
   7.4088019031867576E-003  -1.6284717490608683E-003   5.9667345048923931E-002
   3.1181630989775104E-005  -3.0502170937175832E-005   4.8357004261028368E-002
   4.3018068915433826E-005  -4.0643728680372915E-005   5.1533149779340613E-002
   5.4854506841090379E-005  -5.2421607339215789E-005   5.4577764453697830E-002
   6.6690944766747149E-005  -6.5835806913768207E-005   5.7490848284099998E-002
   7.8527382692405653E-005  -8.0886327404008918E-005   6.0272401270547143E-002
   2.9331833368880504E-002  -6.2712280140314602E-003   5.8458826902354488E-002
   2.8960938567597953E-002  -6.6512718234975621E-003   5.9256435995838512E-002
   2.8590043766315413E-002  -6.9507985322662461E-003   6.0091021312880910E-002
   2.8219148965032859E-002  -7.1698081403373127E-003   6.0962582853481752E-002
   2.7848254163750315E-002  -7.3083006477109025E-003   6.1871120617640968E-002
   2.2035454896280806E-002  -4.7236425923745870E-003   5.8760557864827589E-002
   2.1717983853477178E-002  -5.0147266623600598E-003   5.9631684231062056E-002
   2.1400512810673546E-002  -5.2495909921201397E-003   6.0572681890695951E-002
   2.1083041767869921E-002  -5.4282355816547678E-003   6.1583550843729344E-002
   2.0765570725066289E-002  -5.5506604309639718E-003   6.2664291090162055E-002
   1.4727777741049561E-002  -3.1760571707177276E-003   5.9163397247017378E-002
   1.4496625526565889E-002  -3.3781815012225297E-003   6.0083743525530232E-002
   1.4265473312082212E-002  -3.5483834519740610E-003   6.1106856167283508E-002
   1.4034321097598543E-002  -3.6866630229721942E-003   6.2232735172277273E-002
   1.3803168883114865E-002  -3.7930202142170272E-003   6.3461380540511564E-002
   7.4088019031867576E-003  -1.6284717490608683E-003   5.9667345048923931E-002
   7.2968635868640840E-003  -1.7416363400850204E-003   6.0612613879243007E-002
   7.1849252705414070E-003  -1.8471759118279408E-003   6.1693544142643546E-002
   7.0729869542187334E-003  -1.9450904642896558E-003   6.2910135839125678E-002
   6.9610486378960529E-003  -2.0353799974700618E-003   6.4262388968689285E-002
   7.8527382692405653E-005  -8.0886327404008918E-005   6.0272401270547143E-002
   1.1869803437176626E-004  -1.0509117894748690E-004   6.1218295292200367E-002
   1.5886868605112601E-004  -1.4596837168189339E-004   6.2332745816776176E-002
   1.9903933773048662E-004  -2.0351790560708700E-004   6.3615752844274551E-002
   2.3920998940984636E-004  -2.7773978072315186E-004   6.5067316374695428E-002
   2.7848254163750315E-002  -7.3083006477109025E-003   6.1871120617640968E-002
   2.7056366528559618E-002  -7.3704210245007576E-003   6.1538963141786002E-002
   2.6264478893368918E-002  -7.3603142408207659E-003   6.1380305586973521E-002
   2.5472591258178218E-002  -7.2779802966710331E-003   6.1395147953203423E-002
   2.4680703622987521E-002  -7.1234191920513390E-003   6.1583490240475935E-002
   2.0765570725066289E-002  -5.5506604309639718E-003   6.2664291090162055E-002
   2.0163682610076266E-002  -5.6180914931028211E-003   6.2531912307490500E-002
   1.9561794495086247E-002  -5.6317547211264668E-003   6.2606032644177759E-002
   1.8959906380096217E-002  -5.5916501150349539E-003   6.2886652100223914E-002
   1.8358018265106198E-002  -5.4977776748282026E-003   6.3373770675628965E-002
   1.3803168883114865E-002  -3.7930202142170272E-003   6.3461380540511564E-002
   1.3424279486641934E-002  -3.8657619617048812E-003   6.3510321124668631E-002
   1.3045390090169001E-002  -3.9031952014321920E-003   6.3798760026500978E-002
   1.2666500693696073E-002  -3.9053199333989571E-003   6.4326697246008632E-002
   1.2287611297223139E-002  -3.8721361576051216E-003   6.5094132783191566E-002
   6.9610486378960529E-003  -2.0353799974700618E-003   6.4262388968689285E-002
   6.8381571582566310E-003  -2.1134324303069430E-003   6.4474189593320450E-002
   6.7152656786172039E-003  -2.1746356817379190E-003   6.4958487733943276E-002
   6.5923741989777811E-003  -2.2189897517629052E-003   6.5715283390557849E-002
   6.4694827193383549E-003  -2.2464946403819713E-003   6.6744576563164126E-002
   2.3920998940984636E-004  -2.7773978072315186E-004   6.5067316374695428E-002
   4.0531562492034622E-004  -3.6110289890901176E-004   6.5423517713445983E-002
   5.7142126043084086E-004  -4.4607616204359046E-004   6.6085215766504640E-002
   7.3752689594134072E-004  -5.3265957012688797E-004   6.7052410533871440E-002
   9.0363253145183536E-004  -6.2085312315890429E-004   6.8325102015546368E-002
   2.4680703622987521E-002  -7.1234191920513390E-003   6.1583490240475935E-002
   2.3978834137327251E-002  -6.9231996953293962E-003   6.1223329132375715E-002
   2.3276964651666995E-002  -6.7038905748726119E-003   6.1040285997248089E-002
   2.2575095166006739E-002  -6.4654918306811318E-003   6.1034360835092893E-002
   2.1873225680346484E-002  -6.2080034627548519E-003   6.1205553645910293E-002
   1.8358018265106198E-002  -5.4977776748282026E-003   6.3373770675628965E-002
   1.7825455175227795E-002  -5.3722763099609133E-003   6.3272366199806737E-002
   1.7292892085349402E-002  -5.2372849298876964E-003   6.3332456542575660E-002
   1.6760328995471002E-002  -5.0928035346085362E-003   6.3554041703935887E-002
   1.6227765905592606E-002  -4.9388321241233268E-003   6.3937121683887266E-002
   1.2287611297223139E-002  -3.8721361576051216E-003   6.5094132783191566E-002
   1.1908731448745290E-002  -3.8213529245924860E-003   6.5241885331118604E-002
   1.1529851600267441E-002  -3.7706792849026977E-003   6.5535509543255363E-002
   1.1150971751789598E-002  -3.7201152385358295E-003   6.5975005419602079E-002
   1.0772091903311742E-002  -3.6696607854918573E-003   6.6560372960158695E-002
   6.4694827193383549E-003  -2.2464946403819713E-003   6.6744576563164126E-002
   6.2286629578797350E-003  -2.2704295392240448E-003   6.7131886526311413E-002
   5.9878431964211203E-003  -2.3040736399177406E-003   6.7649444999287212E-002
   5.7470234349625039E-003  -2.3474269424632061E-003   6.8297251982091592E-002
   5.5062036735038927E-003  -2.4004894468603322E-003   6.9075307474724554E-002
   9.0363253145183536E-004  -6.2085312315890429E-004   6.8325102015546368E-002
   7.8524970263113558E-004  -7.1950615385556194E-004   6.8942369785385066E-002
   6.6686687381044100E-004  -8.3746799493274182E-004   6.9674262910671081E-002
   5.4848404498974556E-004  -9.7473864639054456E-004   7.0520781391404316E-002
   4.3010121616904665E-004  -1.1313181082288626E-003   7.1481925227584786E-002
   2.1873225680346484E-002  -6.2080034627548519E-003   6.1205553645910293E-002
   2.0924216977884311E-002  -5.9379112067608486E-003   6.0702420705886273E-002
   1.9975208275422138E-002  -5.6617007983662399E-003   6.0505033959761617E-002
   1.9026199572959958E-002  -5.3793722375708695E-003   6.0613393407536423E-002
   1.8077190870497792E-002  -5.0909255243748452E-003   6.1027499049210676E-002
   1.6227765905592606E-002  -4.9388321241233268E-003   6.3937121683887266E-002
   1.5566442841217699E-002  -4.7763136101903053E-003   6.3612575132569391E-002
   1.4905119776842786E-002  -4.6061909045675004E-003   6.3557653663526420E-002
   1.4243796712467872E-002  -4.4284640072546656E-003   6.3772357276758757E-002
   1.3582473648092959E-002  -4.2431329182523458E-003   6.4256685972265970E-002
   1.0772091903311742E-002  -3.6696607854918573E-003   6.6560372960158695E-002
   1.0362333365399799E-002  -3.6147160136197620E-003   6.6415898836836060E-002
   9.9525748274878617E-003  -3.5506810107687678E-003   6.6504928684164133E-002
   9.5428162895759162E-003  -3.4775557769387965E-003   6.6827462502143067E-002
   9.1330577516639776E-003  -3.3953403121297909E-003   6.7383500290772932E-002
   5.5062036735038927E-003  -2.4004894468603322E-003   6.9075307474724554E-002
   5.3118885504306211E-003  -2.4531184170492742E-003   6.9112391818686253E-002
   5.1175734273573494E-003  -2.4951711169700595E-003   6.9346859021674492E-002
   4.9232583042840795E-003  -2.5266475466226490E-003   6.9778709083689328E-002
   4.7289431812108053E-003  -2.5475477060072915E-003   7.0407942004730550E-002
   4.3010121616904665E-004  -1.1313181082288626E-003   7.1481925227584786E-002
   4.1510839631015220E-004  -1.2915208204786754E-003   7.1702054078120137E-002
   4.0011557645125949E-004  -1.4396612231713374E-003   7.2083444676057651E-002
   3.8512275659236591E-004  -1.5757393163066506E-003   7.2626097021397454E-002
   3.7012993673347233E-004  -1.6997550998846811E-003   7.3330011114139448E-002
   1.8077190870497792E-002  -5.0909255243748452E-003   6.1027499049210676E-002
   1.7278278508145339E-002  -4.8168583675960441E-003   6.0779997135472719E-002
   1.6479366145792908E-002  -4.5776684760520520E-003   6.0483923397615241E-002
   1.5680453783440466E-002  -4.3733558497431151E-003   6.0139277835638119E-002
   1.4881541421088038E-002  -4.2039204886690773E-003   5.9746060449541616E-002
   1.3582473648092959E-002  -4.2431329182523458E-003   6.4256685972265970E-002
   1.2810844225082108E-002  -4.0758148475869838E-003   6.4091086401165925E-002
   1.2039214802071239E-002  -3.9521270052854662E-003   6.4028624532868533E-002
   1.1267585379060368E-002  -3.8720693913479598E-003   6.4069300367373933E-002
   1.0495955956049519E-002  -3.8356420057744089E-003   6.4213113904682151E-002
   9.1330577516639776E-003  -3.3953403121297909E-003   6.7383500290772932E-002
   8.5404207949171078E-003  -3.3347713275777568E-003   6.7291050099181210E-002
   7.9477838381702432E-003  -3.3265855345188319E-003   6.7453447137314687E-002
   7.3551468814233830E-003  -3.3707829329528618E-003   6.7870691405173461E-002
   6.7625099246765193E-003  -3.4673635228799349E-003   6.8542782902757352E-002
   4.7289431812108053E-003  -2.5475477060072915E-003   7.0407942004730550E-002
   4.4670082176503714E-003  -2.5937278075687242E-003   7.0379888229518447E-002
   4.2050732540899385E-003  -2.7010440637522774E-003   7.0758391210953966E-002
   3.9431382905295064E-003  -2.8694964745578462E-003   7.1543450949037052E-002
   3.6812033269690717E-003  -3.0990850399854747E-003   7.2735067443767898E-002
   3.7012993673347233E-004  -1.6997550998846811E-003   7.3330011114139448E-002
   5.9060649328188802E-004  -1.8526842875594418E-003   7.3357600792177791E-002
   8.1108304983030718E-004  -2.0755025929856258E-003   7.3943456753786135E-002
   1.0315596063787229E-003  -2.3682100161625565E-003   7.5087578998964524E-002
   1.2520361629271420E-003  -2.7308065570909035E-003   7.6789967527712943E-002
   1.4881541421088038E-002  -4.2039204886690773E-003   5.9746060449541616E-002
   1.3726870998352805E-002  -3.6644869944191805E-003   6.0075806378682706E-002
   1.2572200575617594E-002  -2.3501799685828745E-003   6.0868938420360091E-002
   1.1417530152882351E-002  -2.6099941115997546E-004   6.2125456574573593E-002
   1.0262859730147122E-002   2.6030546778490482E-003   6.3845360841323195E-002
   1.0495955956049519E-002  -3.8356420057744089E-003   6.4213113904682151E-002
   9.7554773144259074E-003  -3.7086586219103046E-003   6.5645612814330317E-002
   9.0149986728022963E-003  -3.3569330131007907E-003   6.7443109173665777E-002
   8.2745200311786921E-003  -2.7804651793460443E-003   6.9605602982688100E-002
   7.5340413895551017E-003  -1.9792551206461173E-003   7.2133094241397910E-002
   6.7625099246765193E-003  -3.4673635228799349E-003   6.8542782902757352E-002
   6.3378344013156306E-003  -3.7528302494014565E-003   7.0527903486271457E-002
   5.9131588779547332E-003  -4.3636860576188805E-003   7.2779632856623699E-002
   5.4884833545938210E-003  -5.2999309475321148E-003   7.5297971013813997E-002
   5.0638078312329193E-003  -6.5615649191412828E-003   7.8082917957842890E-002
   3.6812033269690717E-003  -3.0990850399854747E-003   7.2735067443767898E-002
   3.4739422590219565E-003  -3.7970018768927055E-003   7.4722678394506512E-002
   3.2666811910748513E-003  -5.3704391021367724E-003   7.6878509469234399E-002
   3.0594201231277356E-003  -7.8193967157181854E-003   7.9202560667951616E-002
   2.8521590551806239E-003  -1.1143874717636448E-002   8.1694831990658315E-002
   1.2520361629271420E-003  -2.7308065570909035E-003   7.6789967527712943E-002
   1.1638008875449052E-003  -3.8411735043837325E-003   7.8229937539035066E-002
   1.0755656121626753E-003  -6.3771921466549142E-003   7.9739739011497612E-002
   9.8733033678044362E-004  -1.0338862483904095E-002   8.1319371945100499E-002
   8.9909506139820849E-004  -1.5726184516131614E-002   8.2968836339843755E-002
   1.0617955992760740E-005   0.0000000000000000        2.8447017339109218E-002
   1.5758874742014331E-005  -6.3521518210160957E-006   3.3410375752382017E-002
   2.0899793491267488E-005  -1.3553230917550188E-005   3.8383159710459469E-002
   2.6040712240520862E-005  -2.1603237289597940E-005   4.3365369213341581E-002
   3.1181630989775104E-005  -3.0502170937175832E-005   4.8357004261028368E-002
  -6.7900876347355673E-003   0.0000000000000000        2.8505711532526512E-002
  -6.8155197694562851E-003   1.4132348739653248E-004   3.3540248445226239E-002
  -6.8409519041770011E-003   3.1866179955044628E-004   3.8504213706181359E-002
  -6.8663840388977181E-003   5.3201493646174661E-004   4.3397607315391898E-002
  -6.8918161736184359E-003   7.8138289813041960E-004   4.8220429272857815E-002
  -1.3497199076503257E-002   0.0000000000000000        2.8693649489144900E-002
  -1.3633201461243211E-002   2.8899912661408062E-004   3.3836228653304469E-002
  -1.3769203845983168E-002   6.5087683001844362E-004   3.8828238969170169E-002
  -1.3905206230723119E-002   1.0856331102130920E-003   4.3669680436742006E-002
  -1.4041208615463072E-002   1.5932679671980220E-003   4.8360553056019946E-002
  -2.0110716369310309E-002   0.0000000000000000        2.9010831208964388E-002
  -2.0437286200618767E-002   4.3667476583162854E-004   3.4298316376616698E-002
  -2.0763856031927225E-002   9.8309186048644226E-004   3.9355235499425871E-002
  -2.1090425863235684E-002   1.6392512839644388E-003   4.4181588577391906E-002
  -2.1416995694544142E-002   2.4051530362656209E-003   4.8777375610514810E-002
  -2.6630639513156720E-002   0.0000000000000000        2.9457256691984974E-002
  -2.7227773987582946E-002   5.8435040504917733E-004   3.4926511615162928E-002
  -2.7824908462009176E-002   1.3153068909544374E-003   4.0085203296948473E-002
  -2.8422042936435406E-002   2.1928694577157855E-003   4.4933331737341611E-002
  -2.9019177410861630E-002   3.2170381053332198E-003   4.9470896936342351E-002
   3.1181630989775104E-005  -3.0502170937175832E-005   4.8357004261028368E-002
   4.3018068915433826E-005  -4.0643728680372915E-005   5.1533149779340613E-002
   5.4854506841090379E-005  -5.2421607339215789E-005   5.4577764453697830E-002
   6.6690944766747149E-005  -6.5835806913768207E-005   5.7490848284099998E-002
   7.8527382692405653E-005  -8.0886327404008918E-005   6.0272401270547143E-002
  -6.8918161736184359E-003   7.8138289813041960E-004   4.8220429272857815E-002
  -6.9841077525405002E-003   1.0274152621180051E-003   5.1175421810523314E-002
  -7.0763993314625637E-003   1.2307616059860408E-003   5.4053689158448416E-002
  -7.1686909103846281E-003   1.3914219297344993E-003   5.6855231316633101E-002
  -7.2609824893066924E-003   1.5093962333634081E-003   5.9580048285077389E-002
  -1.4041208615463072E-002   1.5932679671980220E-003   4.8360553056019946E-002
  -1.4182822557018237E-002   2.0954742529163822E-003   5.1053342913834829E-002
  -1.4324436498573399E-002   2.5139448193112904E-003   5.3724213236123933E-002
  -1.4466050440128558E-002   2.8486796663827873E-003   5.6373164022887279E-002
  -1.4607664381683722E-002   3.0996787941308321E-003   5.9000195274124784E-002
  -2.1416995694544142E-002   2.4051530362656209E-003   4.8777375610514810E-002
  -2.1553126344517771E-002   3.1635332437147390E-003   5.1166913089275214E-002
  -2.1689256994491413E-002   3.7971280326365609E-003   5.3589336686724456E-002
  -2.1825387644465052E-002   4.3059374030310618E-003   5.6044646402862504E-002
  -2.1961518294438681E-002   4.6899613548982595E-003   5.8532842237689432E-002
  -2.9019177410861630E-002   3.2170381053332198E-003   4.9470896936342351E-002
  -2.9095019115039124E-002   4.2315922345131105E-003   5.1516132336844392E-002
  -2.9170860819216604E-002   5.0803112459618140E-003   5.3649059510249890E-002
  -2.9246702523394095E-002   5.7631951396793302E-003   5.5869678456558866E-002
  -2.9322544227571579E-002   6.2802439156656592E-003   5.8177989175771286E-002
   7.8527382692405653E-005  -8.0886327404008918E-005   6.0272401270547143E-002
   1.1869803437176626E-004  -1.0509117894748690E-004   6.1218295292200367E-002
   1.5886868605112601E-004  -1.4596837168189339E-004   6.2332745816776176E-002
   1.9903933773048662E-004  -2.0351790560708700E-004   6.3615752844274551E-002
   2.3920998940984636E-004  -2.7773978072315186E-004   6.5067316374695428E-002
  -7.2609824893066924E-003   1.5093962333634081E-003   5.9580048285077389E-002
  -7.0743394515158766E-003   1.5901608993833458E-003   6.0472483371396914E-002
  -6.8876964137250581E-003   1.6391923103047726E-003   6.1489306727016836E-002
  -6.7010533759342388E-003   1.6564904661278326E-003   6.2630518351937101E-002
  -6.5144103381434195E-003   1.6420553668523852E-003   6.3896118246157735E-002
  -1.4607664381683722E-002   3.0996787941308321E-003   5.9000195274124784E-002
  -1.4318717191403641E-002   3.2854129777141385E-003   5.9824110511203087E-002
  -1.4029770001123563E-002   3.4243529922914403E-003   6.0728245783959543E-002
  -1.3740822810843488E-002   3.5164988378626693E-003   6.1712601092394140E-002
  -1.3451875620563403E-002   3.5618505144278945E-003   6.2777176436506960E-002
  -2.1961518294438681E-002   4.6899613548982595E-003   5.8532842237689432E-002
  -2.1614435185291547E-002   4.9806650560449721E-003   5.9273176711618865E-002
  -2.1267352076144403E-002   5.2095136742780794E-003   6.0049562987604256E-002
  -2.0920268966997266E-002   5.3765072095975199E-003   6.0862001065645578E-002
  -2.0573185857850125E-002   5.4816456620033760E-003   6.1710490945742914E-002
  -2.9322544227571579E-002   6.2802439156656592E-003   5.8177989175771286E-002
  -2.8961493433179573E-002   6.6759171343757778E-003   5.8819681972644269E-002
  -2.8600442638787568E-002   6.9946743562647497E-003   5.9453258337950989E-002
  -2.8239391844395570E-002   7.2365155813324056E-003   6.0078718271691492E-002
  -2.7878341050003565E-002   7.4014408095789130E-003   6.0696061773865745E-002
   2.3920998940984636E-004  -2.7773978072315186E-004   6.5067316374695428E-002
   4.0531562492034622E-004  -3.6110289890901176E-004   6.5423517713445983E-002
   5.7142126043084086E-004  -4.4607616204359046E-004   6.6085215766504640E-002
   7.3752689594134072E-004  -5.3265957012688797E-004   6.7052410533871440E-002
   9.0363253145183536E-004  -6.2085312315890429E-004   6.8325102015546368E-002
  -6.5144103381434195E-003   1.6420553668523852E-003   6.3896118246157735E-002
  -6.0887218765400949E-003   1.6124433711498173E-003   6.4022445400473998E-002
  -5.6630334149367668E-003   1.5842108376914535E-003   6.4362441492667774E-002
  -5.2373449533334423E-003   1.5573577664772607E-003   6.4916106522739020E-002
  -4.8116564917301142E-003   1.5318841575072129E-003   6.5683440490687875E-002
  -1.3451875620563403E-002   3.5618505144278945E-003   6.2777176436506960E-002
  -1.2858432109297855E-002   3.5859896412085944E-003   6.2676619013581819E-002
  -1.2264988598032309E-002   3.6144978374264142E-003   6.2697902752103518E-002
  -1.1671545086766759E-002   3.6473751030813260E-003   6.2841027652072223E-002
  -1.1078101575501211E-002   3.6846214381733300E-003   6.3105993713487823E-002
  -2.0573185857850125E-002   5.4816456620033760E-003   6.1710490945742914E-002
  -1.9903815073352950E-002   5.5595359112673975E-003   6.1386038552769272E-002
  -1.9234444288855779E-002   5.6447848371614165E-003   6.1091599544811928E-002
  -1.8565073504358615E-002   5.7373924396854192E-003   6.0827173921870953E-002
  -1.7895702719861448E-002   5.8373587188394194E-003   6.0592761683946283E-002
  -2.7878341050003565E-002   7.4014408095789130E-003   6.0696061773865745E-002
  -2.7224870768705375E-002   7.5330821813261867E-003   6.0150704018036516E-002
  -2.6571400487407193E-002   7.6750718368964257E-003   5.9543531870793046E-002
  -2.5917930206109000E-002   7.8274097762895140E-003   5.8874545332135243E-002
  -2.5264459924810814E-002   7.9900959995055643E-003   5.8143744402063213E-002
   9.0363253145183536E-004  -6.2085312315890429E-004   6.8325102015546368E-002
   7.8524970263113558E-004  -7.1950615385556194E-004   6.8942369785385066E-002
   6.6686687381044100E-004  -8.3746799493274182E-004   6.9674262910671081E-002
   5.4848404498974556E-004  -9.7473864639054456E-004   7.0520781391404316E-002
   4.3010121616904665E-004  -1.1313181082288626E-003   7.1481925227584786E-002
  -4.8116564917301142E-003   1.5318841575072129E-003   6.5683440490687875E-002
  -4.7916583547628570E-003   1.4928088935000777E-003   6.5749362018928684E-002
  -4.7716602177955954E-003   1.4251508571745397E-003   6.5977420123298131E-002
  -4.7516620808283373E-003   1.3289100485305849E-003   6.6367614803796257E-002
  -4.7316639438610697E-003   1.2040864675680885E-003   6.6919946060422980E-002
  -1.1078101575501211E-002   3.6846214381733300E-003   6.3105993713487823E-002
  -1.0872211252064588E-002   3.7051239408557382E-003   6.2611295038192835E-002
  -1.0666320928627975E-002   3.6877697092817727E-003   6.2326244159707854E-002
  -1.0460430605191350E-002   3.6325587434515774E-003   6.2250841078033012E-002
  -1.0254540281754744E-002   3.5394910433650395E-003   6.2385085793168107E-002
  -1.7895702719861448E-002   5.8373587188394194E-003   6.0592761683946283E-002
  -1.7456408989274069E-002   5.9174389882114022E-003   5.9528168843177645E-002
  -1.7017115258686700E-002   5.9503885613891132E-003   5.8720735019900348E-002
  -1.6577821528099328E-002   5.9362074383726383E-003   5.8170460214114539E-002
  -1.6138527797511952E-002   5.8748956191619905E-003   5.7877344425820251E-002
  -2.5264459924810814E-002   7.9900959995055643E-003   5.8143744402063213E-002
  -2.4544251566391291E-002   8.1297540355670522E-003   5.6499983433882933E-002
  -2.3824043207971764E-002   8.2130074134962733E-003   5.5160892703875530E-002
  -2.3103834849552238E-002   8.2398561332936819E-003   5.4126472212040991E-002
  -2.2383626491132715E-002   8.2103001949588861E-003   5.3396721958379245E-002
   4.3010121616904665E-004  -1.1313181082288626E-003   7.1481925227584786E-002
   4.1510839631015220E-004  -1.2915208204786754E-003   7.1702054078120137E-002
   4.0011557645125949E-004  -1.4396612231713374E-003   7.2083444676057651E-002
   3.8512275659236591E-004  -1.5757393163066506E-003   7.2626097021397454E-002
   3.7012993673347233E-004  -1.6997550998846811E-003   7.3330011114139448E-002
  -4.7316639438610697E-003   1.2040864675680885E-003   6.6919946060422980E-002
  -4.5686192516794580E-003   1.0698331659599186E-003   6.6806632318025097E-002
  -4.4055745594978497E-003   9.4530319537849961E-004   6.6888131852305938E-002
  -4.2425298673162380E-003   8.3049655582390081E-004   6.7164444663265585E-002
  -4.0794851751346298E-003   7.2541324729608059E-004   6.7635570750904012E-002
  -1.0254540281754744E-002   3.5394910433650395E-003   6.2385085793168107E-002
  -9.8799065482560698E-003   3.4311871523984849E-003   6.1935990479306480E-002
  -9.5052728147574234E-003   3.3302676139283852E-003   6.1715259971400226E-002
  -9.1306390812587613E-003   3.2367324279545060E-003   6.1722894269449241E-002
  -8.7560053477601010E-003   3.1505815944769255E-003   6.1958893373453602E-002
  -1.6138527797511952E-002   5.8748956191619905E-003   5.7877344425820251E-002
  -1.5518753493419704E-002   5.7925411388371761E-003   5.7090128561964451E-002
  -1.4898979189327442E-002   5.7152320324782464E-003   5.6564829033340432E-002
  -1.4279204885235186E-002   5.6429683000850011E-003   5.6301445839948436E-002
  -1.3659430581142934E-002   5.5757499416578121E-003   5.6299978981788179E-002
  -2.2383626491132715E-002   8.2103001949588861E-003   5.3396721958379245E-002
  -2.1485160087170309E-002   8.1538951252757008E-003   5.2269046565998761E-002
  -2.0586693683207927E-002   8.1001964510280799E-003   5.1436839038126708E-002
  -1.9688227279245525E-002   8.0492041722156557E-003   5.0900099374763003E-002
  -1.8789760875283140E-002   8.0009182888384767E-003   5.0658827575907728E-002
   3.7012993673347233E-004  -1.6997550998846811E-003   7.3330011114139448E-002
   5.9060649328188802E-004  -1.8526842875594418E-003   7.3357600792177791E-002
   8.1108304983030718E-004  -2.0755025929856258E-003   7.3943456753786135E-002
   1.0315596063787229E-003  -2.3682100161625565E-003   7.5087578998964524E-002
   1.2520361629271420E-003  -2.7308065570909035E-003   7.6789967527712943E-002
  -4.0794851751346298E-003   7.2541324729608059E-004   6.7635570750904012E-002
  -3.4045755878877662E-003   6.2350987604470332E-004   6.7295795828200694E-002
  -2.7296660006409096E-003   5.1824304831897539E-004   6.7306620683324228E-002
  -2.0547564133940530E-003   4.0961276411928191E-004   6.7668045316274628E-002
  -1.3798468261471894E-003   2.9761902344538349E-004   6.8380069727051740E-002
  -8.7560053477601010E-003   3.1505815944769255E-003   6.1958893373453602E-002
  -7.8343292355580359E-003   3.0997040396489456E-003   6.1318279511285559E-002
  -6.9126531233559734E-003   3.1119886896236390E-003   6.0820598921201126E-002
  -5.9909770111539100E-003   3.1874355444011775E-003   6.0465851603200282E-002
  -5.0693008989518458E-003   3.3260446039815039E-003   6.0254037557283036E-002
  -1.3659430581142934E-002   5.5757499416578121E-003   5.6299978981788179E-002
  -1.2698654449728904E-002   5.5758982032531393E-003   5.5425051841432385E-002
  -1.1737878318314885E-002   5.7057343309283824E-003   5.4485391467416946E-002
  -1.0777102186900861E-002   5.9652583246831556E-003   5.3480997859741967E-002
  -9.8163260554868289E-003   6.3544701845176521E-003   5.2411871018407059E-002
  -1.8789760875283140E-002   8.0009182888384767E-003   5.0658827575907728E-002
  -1.7997551230400397E-002   8.0520923668573885E-003   4.9616112818641089E-002
  -1.7205341585517647E-002   8.2994799722329177E-003   4.8300998321971628E-002
  -1.6413131940634904E-002   8.7430811049650538E-003   4.6713484085899162E-002
  -1.5620922295752154E-002   9.3828957650539113E-003   4.4853570110423902E-002
   1.2520361629271420E-003  -2.7308065570909035E-003   7.6789967527712943E-002
   1.1638008875449052E-003  -3.8411735043837325E-003   7.8229937539035066E-002
   1.0755656121626753E-003  -6.3771921466549142E-003   7.9739739011497612E-002
   9.8733033678044362E-004  -1.0338862483904095E-002   8.1319371945100499E-002
   8.9909506139820849E-004  -1.5726184516131614E-002   8.2968836339843755E-002
  -1.3798468261471894E-003   2.9761902344538349E-004   6.8380069727051740E-002
  -1.3486868647645360E-003  -1.7743267283298891E-004   6.7737830355411588E-002
  -1.3175269033818895E-003  -1.3752368238460766E-003   6.7264549996160661E-002
  -1.2863669419992327E-003  -3.2957934295935395E-003   6.6960228649298986E-002
  -1.2552069806165828E-003  -5.9391024900757872E-003   6.6824866314826981E-002
  -5.0693008989518458E-003   3.3260446039815039E-003   6.0254037557283036E-002
  -4.8196181495553797E-003   3.4863081587175326E-003   5.8232488042924274E-002
  -4.5699354001589292E-003   3.6267184989627749E-003   5.6479025092203608E-002
  -4.3202526507624562E-003   3.7472756247170745E-003   5.4993648705121155E-002
  -4.0705699013659988E-003   3.8479795359801505E-003   5.3776358881677366E-002
  -9.8163260554868289E-003   6.3544701845176521E-003   5.2411871018407059E-002
  -9.2489929668276346E-003   7.1500489902684428E-003   4.9713910601573159E-002
  -8.6816598781684438E-003   8.6286738217716194E-003   4.7383164299626440E-002
  -8.1143267895092460E-003   1.0790344679027493E-002   4.5419632112567075E-002
  -7.5469937008500482E-003   1.3635061562036088E-002   4.3823314040394801E-002
  -1.5620922295752154E-002   9.3828957650539113E-003   4.4853570110423902E-002
  -1.4636811316581299E-002   1.0813789821818909E-002   4.2182098031358584E-002
  -1.3652700337410437E-002   1.3630629144580381E-002   3.9976967618429338E-002
  -1.2668589358239574E-002   1.7833413733338223E-002   3.8238178871636219E-002
  -1.1684478379068719E-002   2.3422143588091915E-002   3.6965731790979062E-002
  -2.6630639513156720E-002   0.0000000000000000        2.9457256691984974E-002
  -2.7227773987582946E-002   5.8435040504917733E-004   3.4926511615162928E-002
  -2.7824908462009176E-002   1.3153068909544374E-003   4.0085203296948473E-002
  -2.8422042936435406E-002   2.1928694577157855E-003   4.4933331737341611E-002
  -2.9019177410861630E-002   3.2170381053332198E-003   4.9470896936342351E-002
  -3.3393206319458038E-002   0.0000000000000000        3.0166700015187509E-002
  -3.4235539902788763E-002   9.5936502398092770E-004   3.5247266379607949E-002
  -3.5077873486119480E-002   2.0217815323558428E-003   4.0147997767611805E-002
  -3.5920207069450198E-002   3.1872495251247489E-003   4.4868894179199093E-002
  -3.6762540652780923E-002   4.4557690022876441E-003   4.9409955614369797E-002
  -4.0734654599629820E-002   0.0000000000000000        3.1272935255552844E-002
  -4.1691459026889213E-002   1.3343796429126768E-003   3.5921258464753671E-002
  -4.2648263454148592E-002   2.7282561737572448E-003   4.0520474962513757E-002
  -4.3605067881407979E-002   4.1816295925337036E-003   4.5070584748833076E-002
  -4.4561872308667358E-002   5.6944998992420545E-003   4.9571587823711655E-002
  -4.8654984353672076E-002   0.0000000000000000        3.2775962413080978E-002
  -4.9595531359884287E-002   1.7093942618444278E-003   3.6948487870600094E-002
  -5.0536078366096512E-002   3.4347308151586476E-003   4.1202634881654300E-002
  -5.1476625372308737E-002   5.1760096599426592E-003   4.5538403446243561E-002
  -5.2417172378520956E-002   6.9332307961964684E-003   4.9955793564367919E-002
  -5.7154195581584785E-002   0.0000000000000000        3.4675781487771902E-002
  -5.7947756901774020E-002   2.0844088807761780E-003   3.8328954597147219E-002
  -5.8741318221963240E-002   4.1412054565600504E-003   4.2194477525033441E-002
  -5.9534879542152468E-002   6.1703897273516200E-003   4.6272350271430562E-002
  -6.0328440862341702E-002   8.1719616931508875E-003   5.0562572836338596E-002
  -2.9019177410861630E-002   3.2170381053332198E-003   4.9470896936342351E-002
  -2.9095019115039124E-002   4.2315922345131105E-003   5.1516132336844392E-002
  -2.9170860819216604E-002   5.0803112459618140E-003   5.3649059510249890E-002
  -2.9246702523394095E-002   5.7631951396793302E-003   5.5869678456558866E-002
  -2.9322544227571579E-002   6.2802439156656592E-003   5.8177989175771286E-002
  -3.6762540652780923E-002   4.4557690022876441E-003   4.9409955614369797E-002
  -3.6786940717456834E-002   5.6886298278016013E-003   5.1192870514791287E-002
  -3.6811340782132738E-002   6.7471218656237298E-003   5.2990976921312459E-002
  -3.6835740846808650E-002   7.6312451157540236E-003   5.4804274833933311E-002
  -3.6860140911484554E-002   8.3409995781924401E-003   5.6632764252653858E-002
  -4.4561872308667358E-002   5.6944998992420545E-003   4.9571587823711655E-002
  -4.4607331000645463E-002   7.1456674210900947E-003   5.1083648554091921E-002
  -4.4652789692623582E-002   8.4139324852856318E-003   5.2538400523768111E-002
  -4.4698248384601687E-002   9.4992950918286780E-003   5.3935843732740192E-002
  -4.4743707076579799E-002   1.0401755240719200E-002   5.5275978181008226E-002
  -5.2417172378520956E-002   6.9332307961964684E-003   4.9955793564367919E-002
  -5.2556189964605038E-002   8.6027050143785838E-003   5.1188466454746298E-002
  -5.2695207550689113E-002   1.0080743104947540E-002   5.2291330317616846E-002
  -5.2834225136773189E-002   1.1367345067903338E-002   5.3264385152979501E-002
  -5.2973242722857264E-002   1.2462510903245971E-002   5.4107630960834312E-002
  -6.0328440862341702E-002   8.1719616931508875E-003   5.0562572836338596E-002
  -6.0633517609335524E-002   1.0059742607667076E-002   5.1507324216754455E-002
  -6.0938594356329361E-002   1.1747553724609458E-002   5.2249766302858672E-002
  -6.1243671103323190E-002   1.3235395043978021E-002   5.2789899094651260E-002
  -6.1548747850317026E-002   1.4523266565772734E-002   5.3127722592132214E-002
  -2.9322544227571579E-002   6.2802439156656592E-003   5.8177989175771286E-002
  -2.8961493433179573E-002   6.6759171343757778E-003   5.8819681972644269E-002
  -2.8600442638787568E-002   6.9946743562647497E-003   5.9453258337950989E-002
  -2.8239391844395570E-002   7.2365155813324056E-003   6.0078718271691492E-002
  -2.7878341050003565E-002   7.4014408095789130E-003   6.0696061773865745E-002
  -3.6860140911484554E-002   8.3409995781924401E-003   5.6632764252653858E-002
  -3.6447105627256719E-002   8.8907069339493709E-003   5.6877267778500482E-002
  -3.6034070343028878E-002   9.2946888640351964E-003   5.7233856715585001E-002
  -3.5621035058801057E-002   9.5529453684499374E-003   5.7702531063907422E-002
  -3.5207999774573215E-002   9.6654764471934274E-003   5.8283290823467768E-002
  -4.4743707076579799E-002   1.0401755240719200E-002   5.5275978181008226E-002
  -4.4158485459711988E-002   1.1105496733522950E-002   5.5054483006978572E-002
  -4.3573263842844143E-002   1.1594703371805697E-002   5.5065275086990960E-002
  -4.2988042225976318E-002   1.1869375155567369E-002   5.5308354421045446E-002
  -4.2402820609108501E-002   1.1929512084808039E-002   5.5783721009141952E-002
  -5.2973242722857264E-002   1.2462510903245971E-002   5.4107630960834312E-002
  -5.2095632930545338E-002   1.3320286533096529E-002   5.3351327658078533E-002
  -5.1218023138233378E-002   1.3894717879576156E-002   5.2947513452168922E-002
  -5.0340413345921452E-002   1.4185804942684852E-002   5.2896188343105520E-002
  -4.9462803553609491E-002   1.4193547722422602E-002   5.3197352330888292E-002
  -6.1548747850317026E-002   1.4523266565772734E-002   5.3127722592132214E-002
  -6.0258548039756804E-002   1.5535076332670126E-002   5.1767801731800317E-002
  -5.8968348229196575E-002   1.6194732387346623E-002   5.0880571811118797E-002
  -5.7678148418636346E-002   1.6502234729802327E-002   5.0466032830087562E-002
  -5.6387948608076124E-002   1.6457583360037192E-002   5.0524184788706766E-002
  -2.7878341050003565E-002   7.4014408095789130E-003   6.0696061773865745E-002
  -2.7224870768705375E-002   7.5330821813261867E-003   6.0150704018036516E-002
  -2.6571400487407193E-002   7.6750718368964257E-003   5.9543531870793046E-002
  -2.5917930206109000E-002   7.8274097762895140E-003   5.8874545332135243E-002
  -2.5264459924810814E-002   7.9900959995055643E-003   5.8143744402063213E-002
  -3.5207999774573215E-002   9.6654764471934274E-003   5.8283290823467768E-002
  -3.4556124687614702E-002   9.6937747462834470E-003   5.7926794229840949E-002
  -3.3904249600656196E-002   9.6993329117373364E-003   5.7628921638949011E-002
  -3.3252374513697683E-002   9.6821509435552292E-003   5.7389673050792012E-002
  -3.2600499426739191E-002   9.6422288417369606E-003   5.7209048465369908E-002
  -4.2402820609108501E-002   1.1929512084808039E-002   5.5783721009141952E-002
  -4.1632102322340478E-002   1.1854467311240673E-002   5.5582997160258489E-002
  -4.0861384035572441E-002   1.1723593986578244E-002   5.5561335708259163E-002
  -4.0090665748804419E-002   1.1536892110820859E-002   5.5718736653143967E-002
  -3.9319947462036368E-002   1.1294361683968412E-002   5.6055199994912930E-002
  -4.9462803553609491E-002   1.4193547722422602E-002   5.3197352330888292E-002
  -4.8452803672882717E-002   1.4015159876197943E-002   5.3119312809289276E-002
  -4.7442803792155951E-002   1.3747855061419180E-002   5.3340774078723563E-002
  -4.6432803911429184E-002   1.3391633278086561E-002   5.3861736139191228E-002
  -4.5422804030702417E-002   1.2946494526199850E-002   5.4682198990692224E-002
  -5.6387948608076124E-002   1.6457583360037192E-002   5.0524184788706766E-002
  -5.5018228739241407E-002   1.6175852441155165E-002   5.0535741176933185E-002
  -5.3648508870406696E-002   1.5772116136260138E-002   5.0967236750342176E-002
  -5.2278789001571999E-002   1.5246374445352170E-002   5.1818671508933704E-002
  -5.0909069132737267E-002   1.4598627368431261E-002   5.3090045452707763E-002
  -2.5264459924810814E-002   7.9900959995055643E-003   5.8143744402063213E-002
  -2.4544251566391291E-002   8.1297540355670522E-003   5.6499983433882933E-002
  -2.3824043207971764E-002   8.2130074134962733E-003   5.5160892703875530E-002
  -2.3103834849552238E-002   8.2398561332936819E-003   5.4126472212040991E-002
  -2.2383626491132715E-002   8.2103001949588861E-003   5.3396721958379245E-002
  -3.2600499426739191E-002   9.6422288417369606E-003   5.7209048465369908E-002
  -3.1601454960131545E-002   9.5760269459029823E-003   5.6112932777572289E-002
  -3.0602410493523906E-002   9.4800055956734131E-003   5.5269819067978031E-002
  -2.9603366026916249E-002   9.3541647910483777E-003   5.4679707336587072E-002
  -2.8604321560308624E-002   9.1985045320278347E-003   5.4342597583399627E-002
  -3.9319947462036368E-002   1.1294361683968412E-002   5.6055199994912930E-002
  -3.8093735147210116E-002   1.1022299856238961E-002   5.5533314791234425E-002
  -3.6867522832383828E-002   1.0747003777850477E-002   5.5212763305789898E-002
  -3.5641310517557534E-002   1.0468473448803075E-002   5.5093545538579175E-002
  -3.4415098202731254E-002   1.0186708869096645E-002   5.5175661489602484E-002
  -4.5422804030702417E-002   1.2946494526199850E-002   5.4682198990692224E-002
  -4.4021092127626976E-002   1.2468572766574901E-002   5.4761129474869413E-002
  -4.2619380224551570E-002   1.2014001960027606E-002   5.4989725417311119E-002
  -4.1217668321476109E-002   1.1582782106557745E-002   5.5367986818017093E-002
  -3.9815956418400709E-002   1.1174913206165440E-002   5.5895913676987645E-002
  -5.0909069132737267E-002   1.4598627368431261E-002   5.3090045452707763E-002
  -4.9383525901382182E-002   1.3914845676910884E-002   5.3796376828477210E-002
  -4.7857982670027069E-002   1.3281000142204638E-002   5.4600705402541611E-002
  -4.6332439438671956E-002   1.2697090764312458E-002   5.5503031174900977E-002
  -4.4806896207316857E-002   1.2163117543234347E-002   5.6503354145555185E-002
  -2.2383626491132715E-002   8.2103001949588861E-003   5.3396721958379245E-002
  -2.1485160087170309E-002   8.1538951252757008E-003   5.2269046565998761E-002
  -2.0586693683207927E-002   8.1001964510280799E-003   5.1436839038126708E-002
  -1.9688227279245525E-002   8.0492041722156557E-003   5.0900099374763003E-002
  -1.8789760875283140E-002   8.0009182888384767E-003   5.0658827575907728E-002
  -2.8604321560308624E-002   9.1985045320278347E-003   5.4342597583399627E-002
  -2.7426537532161035E-002   9.0212715630210299E-003   5.3603380592378416E-002
  -2.6248753504013435E-002   8.8307126284373552E-003   5.3127330985219212E-002
  -2.5070969475865838E-002   8.6268277282768816E-003   5.2914448761921917E-002
  -2.3893185447718249E-002   8.4096168625397705E-003   5.2964733922486684E-002
  -3.4415098202731254E-002   1.0186708869096645E-002   5.5175661489602484E-002
  -3.2990297031044884E-002   9.8886480007661925E-003   5.4808870538928363E-002
  -3.1565495859358500E-002   9.5612288058466860E-003   5.4672946491469837E-002
  -3.0140694687672144E-002   9.2044512843382741E-003   5.4767889347226852E-002
  -2.8715893515985743E-002   8.8183154362408700E-003   5.5093699106199531E-002
  -3.9815956418400709E-002   1.1174913206165440E-002   5.5895913676987645E-002
  -3.8176438583821956E-002   1.0756024438511272E-002   5.5885516405648421E-002
  -3.6536920749243175E-002   1.0291744983255989E-002   5.6073685556878514E-002
  -3.4897402914664408E-002   9.7820748403996387E-003   5.6460421130677667E-002
  -3.3257885080085675E-002   9.2270140099419556E-003   5.7045723127046088E-002
  -4.4806896207316857E-002   1.2163117543234347E-002   5.6503354145555185E-002
  -4.2984962190492138E-002   1.1623400876256657E-002   5.6833318192538895E-002
  -4.1163028173667425E-002   1.1022261160665250E-002   5.7329548181445256E-002
  -3.9341094156842699E-002   1.0359698396460938E-002   5.7992044112274474E-002
  -3.7519160140017993E-002   9.6357125836432078E-003   5.8820805985026370E-002
  -1.8789760875283140E-002   8.0009182888384767E-003   5.0658827575907728E-002
  -1.7997551230400397E-002   8.0520923668573885E-003   4.9616112818641089E-002
  -1.7205341585517647E-002   8.2994799722329177E-003   4.8300998321971628E-002
  -1.6413131940634904E-002   8.7430811049650538E-003   4.6713484085899162E-002
  -1.5620922295752154E-002   9.3828957650539113E-003   4.4853570110423902E-002
  -2.3893185447718249E-002   8.4096168625397705E-003   5.2964733922486684E-002
  -2.3267236882028280E-002   8.2428006315600211E-003   5.2464038710822225E-002
  -2.2641288316338271E-002   8.1900996356726180E-003   5.1903221080175005E-002
  -2.2015339750648268E-002   8.2515138748769055E-003   5.1282281030545274E-002
  -2.1389391184958285E-002   8.4270433491733243E-003   5.0601218561932837E-002
  -2.8715893515985743E-002   8.8183154362408700E-003   5.5093699106199531E-002
  -2.8043928709068220E-002   8.4335088962626259E-003   5.5052925147872467E-002
  -2.7371963902150742E-002   8.0807192991118673E-003   5.5164306090983044E-002
  -2.6699999095233247E-002   7.7599466447887001E-003   5.5427841935531311E-002
  -2.6028034288315741E-002   7.4711909332927373E-003   5.5843532681517261E-002
  -3.3257885080085675E-002   9.2270140099419556E-003   5.7045723127046088E-002
  -3.2327626711520362E-002   8.6242171609653001E-003   5.7382772129791954E-002
  -3.1397368342955062E-002   7.9713389625514254E-003   5.8084253354395668E-002
  -3.0467109974389752E-002   7.2683794147004677E-003   5.9150166800857336E-002
  -2.9536851605824484E-002   6.5153385174122058E-003   6.0580512469176985E-002
  -3.7519160140017993E-002   9.6357125836432078E-003   5.8820805985026370E-002
  -3.6118330889384653E-002   8.8149254256678911E-003   5.9453579656580491E-002
  -3.4717501638751258E-002   7.8619586259907892E-003   6.0663062870412843E-002
  -3.3316672388117884E-002   6.7768121846123117E-003   6.2449255626523453E-002
  -3.1915843137484523E-002   5.5594861015316188E-003   6.4812157924912184E-002
  -1.5620922295752154E-002   9.3828957650539113E-003   4.4853570110423902E-002
  -1.4636811316581299E-002   1.0813789821818909E-002   4.2182098031358584E-002
  -1.3652700337410437E-002   1.3630629144580381E-002   3.9976967618429338E-002
  -1.2668589358239574E-002   1.7833413733338223E-002   3.8238178871636219E-002
  -1.1684478379068719E-002   2.3422143588091915E-002   3.6965731790979062E-002
  -2.1389391184958285E-002   8.4270433491733243E-003   5.0601218561932837E-002
  -1.9981856883638478E-002   8.9555673450061046E-003   5.0005563461717445E-002
  -1.8574322582318673E-002   1.0075965148819366E-002   4.9790413339663803E-002
  -1.7166788280998900E-002   1.1788236760613358E-002   4.9955768195771619E-002
  -1.5759253979679089E-002   1.4092382180387775E-002   5.0501628030041434E-002
  -2.6028034288315741E-002   7.4711909332927373E-003   5.5843532681517261E-002
  -2.4282913352821369E-002   7.0973448681930784E-003   5.6529623102135995E-002
  -2.2537792417326979E-002   6.5213011530583370E-003   5.7510381812942227E-002
  -2.0792671481832645E-002   5.7430597878885721E-003   5.8785808813935629E-002
  -1.9047550546338235E-002   4.7626207726836345E-003   6.0355904105116764E-002
  -2.9536851605824484E-002   6.5153385174122058E-003   6.0580512469176985E-002
  -2.7539980724129887E-002   5.2391223913801077E-003   6.1754276952614429E-002
  -2.5543109842435314E-002   2.9666371572974262E-003   6.3136873038264721E-002
  -2.3546238960740744E-002  -3.0211718483625326E-004   6.4728300726128257E-002
  -2.1549368079046144E-002  -4.5671406350205057E-003   6.6528560016204510E-002
  -3.1915843137484523E-002   5.5594861015316188E-003   6.4812157924912184E-002
  -2.9753058997564141E-002   3.3808999145671370E-003   6.5679525013152495E-002
  -2.7590274857643690E-002  -5.8802683846369275E-004   6.6669887015631452E-002
  -2.5427490717723274E-002  -6.3472941575609641E-003   6.7783243932349121E-002
  -2.3264706577802885E-002  -1.3896902042724646E-002   6.9019595763305297E-002
  -5.7154195581584785E-002   0.0000000000000000        3.4675781487771902E-002
  -5.7947756901774020E-002   2.0844088807761780E-003   3.8328954597147219E-002
  -5.8741318221963240E-002   4.1412054565600504E-003   4.2194477525033441E-002
  -5.9534879542152468E-002   6.1703897273516200E-003   4.6272350271430562E-002
  -6.0328440862341702E-002   8.1719616931508875E-003   5.0562572836338596E-002
  -6.5821599925783222E-002   0.0000000000000000        3.7196558660442379E-002
  -6.6631295294755061E-002   2.9154187526316058E-003   4.0822016431890019E-002
  -6.7440990663726885E-002   5.7749963863891751E-003   4.4202856287261560E-002
  -6.8250686032698724E-002   8.5787329012727079E-003   4.7339078226556995E-002
  -6.9060381401670548E-002   1.1326628297282194E-002   5.0230682249776337E-002
  -7.4246509028682683E-002   0.0000000000000000        4.0562460111909157E-002
  -7.5529306181024103E-002   3.7464286244870367E-003   4.4131973731547369E-002
  -7.6812103333365550E-002   7.4087873162183016E-003   4.6999901700522498E-002
  -7.8094900485706970E-002   1.0987076075193791E-002   4.9166244018834515E-002
  -7.9377697638048389E-002   1.4481294901413512E-002   5.0631000686483428E-002
  -8.2428922890283141E-002   0.0000000000000000        4.4773485842172223E-002
  -8.4641789560581174E-002   4.5774384963424650E-003   4.8258826496119296E-002
  -8.6854656230879207E-002   9.0425782460474280E-003   5.0585613764816267E-002
  -8.9067522901177240E-002   1.3395419249114875E-002   5.1753847648263129E-002
  -9.1280389571475273E-002   1.7635961505544827E-002   5.1763528146459896E-002
  -9.0368841510584608E-002   0.0000000000000000        4.9829635851231589E-002
  -9.3968745433426232E-002   5.4084483681978955E-003   5.3202574725605786E-002
  -9.7568649356267884E-002   1.0676369175876551E-002   5.4959992480142876E-002
 -0.10116855327910954        1.5803762423035966E-002   5.5101889114842852E-002
 -0.10476845720195116        2.0790628109676142E-002   5.3628264629705720E-002
  -6.0328440862341702E-002   8.1719616931508875E-003   5.0562572836338596E-002
  -6.0633517609335524E-002   1.0059742607667076E-002   5.1507324216754455E-002
  -6.0938594356329361E-002   1.1747553724609458E-002   5.2249766302858672E-002
  -6.1243671103323190E-002   1.3235395043978021E-002   5.2789899094651260E-002
  -6.1548747850317026E-002   1.4523266565772734E-002   5.3127722592132214E-002
  -6.9060381401670548E-002   1.1326628297282194E-002   5.0230682249776337E-002
  -6.9332428933986348E-002   1.3776517970713094E-002   4.9455326380204355E-002
  -6.9604476466302162E-002   1.5686237317860861E-002   4.8948338234300059E-002
  -6.9876523998617962E-002   1.7055786338725468E-002   4.8709717812063423E-002
  -7.0148571530933748E-002   1.7885165033306935E-002   4.8739465113494515E-002
  -7.9377697638048389E-002   1.4481294901413512E-002   5.0631000686483428E-002
  -7.9146038937706845E-002   1.7493293333759111E-002   4.7795337038214286E-002
  -7.8914380237365300E-002   1.9624920911112263E-002   4.5698718131592139E-002
  -7.8682721537023742E-002   2.0876177633472919E-002   4.4341143966617001E-002
  -7.8451062836682212E-002   2.1247063500841126E-002   4.3722614543288893E-002
  -9.1280389571475273E-002   1.7635961505544827E-002   5.1763528146459896E-002
  -9.0074347620497056E-002   2.1210068696805123E-002   4.6527356190784248E-002
  -8.8868305669518838E-002   2.3563604504363667E-002   4.2500905994734953E-002
  -8.7662263718540634E-002   2.4696568928220378E-002   3.9684177558311960E-002
  -8.6456221767562430E-002   2.4608961968375309E-002   3.8077170881515333E-002
 -0.10476845720195116        2.0790628109676142E-002   5.3628264629705720E-002
 -0.10211735498235695        2.4926844059851141E-002   4.5651383837914297E-002
  -9.9466252762762747E-002   2.7502288097615065E-002   3.9354901823728493E-002
  -9.6815150543168541E-002   2.8516960222967836E-002   3.4738818587148342E-002
  -9.4164048323574334E-002   2.7970860435909517E-002   3.1803134128173899E-002
  -6.1548747850317026E-002   1.4523266565772734E-002   5.3127722592132214E-002
  -6.0258548039756804E-002   1.5535076332670126E-002   5.1767801731800317E-002
  -5.8968348229196575E-002   1.6194732387346623E-002   5.0880571811118797E-002
  -5.7678148418636346E-002   1.6502234729802327E-002   5.0466032830087562E-002
  -5.6387948608076124E-002   1.6457583360037192E-002   5.0524184788706766E-002
  -7.0148571530933748E-002   1.7885165033306935E-002   4.8739465113494515E-002
  -6.8432835653438578E-002   1.8342742746360007E-002   4.7351929080818242E-002
  -6.6717099775943423E-002   1.8596888822639320E-002   4.6342774242361474E-002
  -6.5001363898448267E-002   1.8647603262145002E-002   4.5712000598124247E-002
  -6.3285628020953083E-002   1.8494886064876953E-002   4.5459608148106533E-002
  -7.8451062836682212E-002   2.1247063500841126E-002   4.3722614543288893E-002
  -7.6404100637682937E-002   2.1150409160049830E-002   4.2456185413715333E-002
  -7.4357138438683607E-002   2.0999045257931965E-002   4.1473827732930520E-002
  -7.2310176239684332E-002   2.0792971794487605E-002   4.0775541500934424E-002
  -7.0263214040685029E-002   2.0532188769716700E-002   4.0361326717727040E-002
  -8.6456221767562430E-002   2.4608961968375309E-002   3.8077170881515333E-002
  -8.4172342992489810E-002   2.3958075573739662E-002   3.7080570730491723E-002
  -8.1888464217417190E-002   2.3401201693224634E-002   3.6273732282826002E-002
  -7.9604585442344569E-002   2.2938340326830231E-002   3.5656655538518177E-002
  -7.7320706667271977E-002   2.2569491474556454E-002   3.5229340497568248E-002
  -9.4164048323574334E-002   2.7970860435909517E-002   3.1803134128173899E-002
  -9.1737562717859211E-002   2.6765741987429533E-002   3.1225085031147307E-002
  -8.9311077112144102E-002   2.5803358128517292E-002   3.0742487892047816E-002
  -8.6884591506428965E-002   2.5083708859172878E-002   3.0355342710875456E-002
  -8.4458105900713870E-002   2.4606794179396208E-002   3.0063649487630184E-002
  -5.6387948608076124E-002   1.6457583360037192E-002   5.0524184788706766E-002
  -5.5018228739241407E-002   1.6175852441155165E-002   5.0535741176933185E-002
  -5.3648508870406696E-002   1.5772116136260138E-002   5.0967236750342176E-002
  -5.2278789001571999E-002   1.5246374445352170E-002   5.1818671508933704E-002
  -5.0909069132737267E-002   1.4598627368431261E-002   5.3090045452707763E-002
  -6.3285628020953083E-002   1.8494886064876953E-002   4.5459608148106533E-002
  -6.1533716235918953E-002   1.8187518935254048E-002   4.5239573853520322E-002
  -5.9781804450884865E-002   1.7774283577694949E-002   4.5363984206150343E-002
  -5.8029892665850756E-002   1.7255179992199707E-002   4.5832839205996651E-002
  -5.6277980880816640E-002   1.6630208178768424E-002   4.6646138853059224E-002
  -7.0263214040685029E-002   2.0532188769716700E-002   4.0361326717727040E-002
  -6.8204604877417807E-002   2.0199185429352898E-002   3.9925838898404994E-002
  -6.6145995714150571E-002   1.9776451019129764E-002   3.9759301188332902E-002
  -6.4087386550883307E-002   1.9263985539047301E-002   3.9861713587510811E-002
  -6.2028777387616092E-002   1.8661788989105588E-002   4.0233076095938666E-002
  -7.7320706667271977E-002   2.2569491474556454E-002   3.5229340497568248E-002
  -7.5030894663737885E-002   2.2210851923451763E-002   3.4594536311587196E-002
  -7.2741082660203807E-002   2.1778618460564621E-002   3.4153187696889790E-002
  -7.0451270656669715E-002   2.1272791085894891E-002   3.3905294653476130E-002
  -6.8161458653135651E-002   2.0693369799442696E-002   3.3850857181346172E-002
  -8.4458105900713870E-002   2.4606794179396208E-002   3.0063649487630184E-002
  -8.2012585594879242E-002   2.4222518417550618E-002   2.9245666093066877E-002
  -7.9567065289044586E-002   2.3780785901999377E-002   2.8545643731821072E-002
  -7.7121544983209958E-002   2.3281596632742440E-002   2.7963582403892559E-002
  -7.4676024677375330E-002   2.2724950609779915E-002   2.7499482109281659E-002
  -5.0909069132737267E-002   1.4598627368431261E-002   5.3090045452707763E-002
  -4.9383525901382182E-002   1.3914845676910884E-002   5.3796376828477210E-002
  -4.7857982670027069E-002   1.3281000142204638E-002   5.4600705402541611E-002
  -4.6332439438671956E-002   1.2697090764312458E-002   5.5503031174900977E-002
  -4.4806896207316857E-002   1.2163117543234347E-002   5.6503354145555185E-002
  -5.6277980880816640E-002   1.6630208178768424E-002   4.6646138853059224E-002
  -5.4639588408125057E-002   1.5965451912542075E-002   4.7023555252730290E-002
  -5.3001195935433482E-002   1.5326994968662161E-002   4.7528672936779336E-002
  -5.1362803462741899E-002   1.4714837347128439E-002   4.8161491905206327E-002
  -4.9724410990050351E-002   1.4128979047940970E-002   4.8922012158011424E-002
  -6.2028777387616092E-002   1.8661788989105588E-002   4.0233076095938666E-002
  -6.0247831587504991E-002   1.8016058148173426E-002   4.0257940685043542E-002
  -5.8466885787393882E-002   1.7372989795119732E-002   4.0440210644609405E-002
  -5.6685939987282788E-002   1.6732583929944526E-002   4.0779885974636346E-002
  -5.4904994187171693E-002   1.6094840552647732E-002   4.1276966675124330E-002
  -6.8161458653135651E-002   2.0693369799442696E-002   3.3850857181346172E-002
  -6.6208255439521954E-002   2.0066664383804698E-002   3.3499533125416966E-002
  -6.4255052225908271E-002   1.9418984621577279E-002   3.3335318526031846E-002
  -6.2301849012294616E-002   1.8750330512760590E-002   3.3358213383190893E-002
  -6.0348645798680906E-002   1.8060702057354508E-002   3.3568217696894109E-002
  -7.4676024677375330E-002   2.2724950609779915E-002   2.7499482109281659E-002
  -7.2520859964176038E-002   2.2117270619435941E-002   2.6748332573850647E-002
  -7.0365695250976690E-002   2.1464979448034799E-002   2.6213996581046756E-002
  -6.8210530537777342E-002   2.0768077095576674E-002   2.5896474130870165E-002
  -6.6055365824578022E-002   2.0026563562061173E-002   2.5795765223320555E-002
  -4.4806896207316857E-002   1.2163117543234347E-002   5.6503354145555185E-002
  -4.2984962190492138E-002   1.1623400876256657E-002   5.6833318192538895E-002
  -4.1163028173667425E-002   1.1022261160665250E-002   5.7329548181445256E-002
  -3.9341094156842699E-002   1.0359698396460938E-002   5.7992044112274474E-002
  -3.7519160140017993E-002   9.6357125836432078E-003   5.8820805985026370E-002
  -4.9724410990050351E-002   1.4128979047940970E-002   4.8922012158011424E-002
  -4.7729938695533866E-002   1.3537523854672717E-002   4.8945722046815465E-002
  -4.5735466401017458E-002   1.2908575550896334E-002   4.9148242549080165E-002
  -4.3740994106501015E-002   1.2242134136611967E-002   4.9529573664805628E-002
  -4.1746521811984572E-002   1.1538199611819400E-002   5.0089715393991624E-002
  -5.4904994187171693E-002   1.6094840552647732E-002   4.1276966675124330E-002
  -5.2725438943425608E-002   1.5451646833088903E-002   4.1018352343854106E-002
  -5.0545883699679515E-002   1.4794889941127189E-002   4.0951093297582460E-002
  -4.8366328455933444E-002   1.4124569876762827E-002   4.1075189536309481E-002
  -4.6186773212187344E-002   1.3440686639995675E-002   4.1390641060035011E-002
  -6.0348645798680906E-002   1.8060702057354508E-002   3.3568217696894109E-002
  -5.7971462934167231E-002   1.7365769811505026E-002   3.3051209083654873E-002
  -5.5594280069653570E-002   1.6681204331358130E-002   3.2738100426952112E-002
  -5.3217097205139903E-002   1.6007005616913716E-002   3.2628891726786020E-002
  -5.0839914340626235E-002   1.5343173668171936E-002   3.2723582983156370E-002
  -6.6055365824578022E-002   2.0026563562061173E-002   2.5795765223320555E-002
  -6.3468010667758826E-002   1.9279892789921149E-002   2.5044292266217627E-002
  -6.0880655510939657E-002   1.8567518721589085E-002   2.4509263937189191E-002
  -5.8293300354120448E-002   1.7889441357064568E-002   2.4190680236235093E-002
  -5.5705945197301265E-002   1.7245660696348197E-002   2.4088541163355570E-002
  -3.7519160140017993E-002   9.6357125836432078E-003   5.8820805985026370E-002
  -3.6118330889384653E-002   8.8149254256678911E-003   5.9453579656580491E-002
  -3.4717501638751258E-002   7.8619586259907892E-003   6.0663062870412843E-002
  -3.3316672388117884E-002   6.7768121846123117E-003   6.2449255626523453E-002
  -3.1915843137484523E-002   5.5594861015316188E-003   6.4812157924912184E-002
  -4.1746521811984572E-002   1.1538199611819400E-002   5.0089715393991624E-002
  -3.9851655613992905E-002   1.0772810452481629E-002   5.0318128842247595E-002
  -3.7956789416001210E-002   9.9220051345608740E-003   5.0957906642941850E-002
  -3.6061923218009530E-002   8.9857836580573835E-003   5.2009048796074688E-002
  -3.4167057020017863E-002   7.9641460229711858E-003   5.3471555301645823E-002
  -4.6186773212187344E-002   1.3440686639995675E-002   4.1390641060035011E-002
  -4.3963215256677075E-002   1.2730695479295243E-002   4.1261457768111562E-002
  -4.1739657301166896E-002   1.1982051643130917E-002   4.1378293638786770E-002
  -3.9516099345656669E-002   1.1194755131502681E-002   4.1741148672060545E-002
  -3.7292541390146393E-002   1.0368805944410614E-002   4.2350022867933115E-002
  -5.0839914340626235E-002   1.5343173668171936E-002   3.2723582983156370E-002
  -4.8453009817437227E-002   1.4688580506108974E-002   3.2283566434172468E-002
  -4.6066105294248205E-002   1.4042098151700981E-002   3.1924223857947354E-002
  -4.3679200771059197E-002   1.3403726604948199E-002   3.1645555254481220E-002
  -4.1292296247870175E-002   1.2773465865850167E-002   3.1447560623773976E-002
  -5.5705945197301265E-002   1.7245660696348197E-002   2.4088541163355570E-002
  -5.3321039296273270E-002   1.6646465532922566E-002   2.3384454840430058E-002
  -5.0936133395245234E-002   1.6102144660271045E-002   2.2595697300423823E-002
  -4.8551227494217218E-002   1.5612698078393245E-002   2.1722268543336656E-002
  -4.6166321593189202E-002   1.5178125787289554E-002   2.0764168569168573E-002
  -3.1915843137484523E-002   5.5594861015316188E-003   6.4812157924912184E-002
  -2.9753058997564141E-002   3.3808999145671370E-003   6.5679525013152495E-002
  -2.7590274857643690E-002  -5.8802683846369275E-004   6.6669887015631452E-002
  -2.5427490717723274E-002  -6.3472941575609641E-003   6.7783243932349121E-002
  -2.3264706577802885E-002  -1.3896902042724646E-002   6.9019595763305297E-002
  -3.4167057020017863E-002   7.9641460229711858E-003   5.3471555301645823E-002
  -3.1881817381797913E-002   6.4002058443190513E-003   5.2069347739044258E-002
  -2.9596577743577948E-002   3.8370767371185971E-003   5.0789056258803228E-002
  -2.7311338105357900E-002   2.7475870136966021E-004   4.9630680860922635E-002
  -2.5026098467138047E-002  -4.2867482629280751E-003   4.8594221545402605E-002
  -3.7292541390146393E-002   1.0368805944410614E-002   4.2350022867933115E-002
  -3.4885925085505053E-002   9.4195117740712431E-003   3.9469392292007507E-002
  -3.2479308780863747E-002   8.2621803127011020E-003   3.6709598966564262E-002
  -3.0072692476222462E-002   6.8968115603001440E-003   3.4070642891603095E-002
  -2.7666076171581136E-002   5.3234055168684957E-003   3.1552524067124277E-002
  -4.1292296247870175E-002   1.2773465865850167E-002   3.1447560623773976E-002
  -3.8765382108685742E-002   1.2438817703823130E-002   2.7879658672042226E-002
  -3.6238467969501302E-002   1.2687283888283555E-002   2.4431515138914540E-002
  -3.3711553830316751E-002   1.3518864419230753E-002   2.1103130024390914E-002
  -3.1184639691132311E-002   1.4933559296665011E-002   1.7894503328471534E-002
  -4.6166321593189202E-002   1.5178125787289554E-002   2.0764168569168573E-002
  -4.3520188451339786E-002   1.5458123633575183E-002   1.7300146879148437E-002
  -4.0874055309490356E-002   1.7112387463865855E-002   1.3954804775854174E-002
  -3.8227922167640933E-002   2.0140917278161297E-002   1.0728142259285797E-002
  -3.5581789025791510E-002   2.4543713076461637E-002   7.6201593294433767E-003
  -9.0368841510584608E-002   0.0000000000000000        4.9829635851231589E-002
  -9.3968745433426232E-002   5.4084483681978955E-003   5.3202574725605786E-002
  -9.7568649356267884E-002   1.0676369175876551E-002   5.4959992480142876E-002
 -0.10116855327910954        1.5803762423035966E-002   5.5101889114842852E-002
 -0.10476845720195116        2.0790628109676142E-002   5.3628264629705720E-002
 -0.10330194513923273        0.0000000000000000        5.8660416688866540E-002
 -0.10683713825741384        1.0884689272368547E-002   5.2116298195042612E-002
 -0.11037233137559495        1.9173058035849462E-002   4.7317122430376862E-002
 -0.11390752449377606        2.4865106290442703E-002   4.4262889394869283E-002
 -0.11744271761195718        2.7960834036148317E-002   4.2953599088519867E-002
 -0.12646391402587315        0.0000000000000000        7.4195334904856330E-002
 -0.12657393249039847        1.6360930176539203E-002   5.5278366094465889E-002
 -0.12668395095492377        2.7669746895822363E-002   4.1466803862228896E-002
 -0.12679396941944907        3.3926450157849439E-002   3.2760648208145352E-002
 -0.12690398788397439        3.5131039962620479E-002   2.9159899132215204E-002
 -0.15985474817050588        0.0000000000000000        9.6434390499201009E-002
 -0.15317912813238013        2.1837171080709868E-002   6.2688778423875616E-002
 -0.14650350809425433        3.6166435755795270E-002   3.7409036775698956E-002
 -0.13982788805612859        4.2987794025256217E-002   2.0595165554671016E-002
 -0.13315226801800281        4.2301245889092662E-002   1.2247164760791811E-002
 -0.20347444757313096        0.0000000000000000       0.12537758347190053     
 -0.18665272518335885        2.7313411984880517E-002   7.4347535183271807E-002
 -0.16983100279358668        4.4663124615768178E-002   3.5143821170787071E-002
 -0.15300928040381456        5.2049137892662911E-002   7.7664414344463667E-003
 -0.13618755801404242        4.9471451815564838E-002  -7.7846040257503815E-003
 -0.10476845720195116        2.0790628109676142E-002   5.3628264629705720E-002
 -0.10211735498235695        2.4926844059851141E-002   4.5651383837914297E-002
  -9.9466252762762747E-002   2.7502288097615065E-002   3.9354901823728493E-002
  -9.6815150543168541E-002   2.8516960222967836E-002   3.4738818587148342E-002
  -9.4164048323574334E-002   2.7970860435909517E-002   3.1803134128173899E-002
 -0.11744271761195718        2.7960834036148317E-002   4.2953599088519867E-002
 -0.11349541207041090        2.9433149191945930E-002   3.6699874687393941E-002
 -0.10954810652886461        3.0254959676815255E-002   3.1358158152566457E-002
 -0.10560080098731835        3.0426265490756280E-002   2.6928449484037470E-002
 -0.10165349544577207        2.9947066633769004E-002   2.3410748681806971E-002
 -0.12690398788397439        3.5131039962620479E-002   2.9159899132215204E-002
 -0.12242886993178320        3.3939454324040719E-002   2.5539598363237603E-002
 -0.11795375197959203        3.3007631256015461E-002   2.2062914549251265E-002
 -0.11347863402740085        3.2335570758544721E-002   1.8729847690256252E-002
 -0.10900351607520969        3.1923272831628463E-002   1.5540397786252561E-002
 -0.13315226801800281        4.2301245889092662E-002   1.2247164760791811E-002
 -0.12891772856647388        3.8445759456135549E-002   1.2170554865445314E-002
 -0.12468318911494503        3.5760302835215717E-002   1.1469171013782878E-002
 -0.12044864966341610        3.4244876026333144E-002   1.0143013205804668E-002
 -0.11621411021188721        3.3899479029487978E-002   8.1920814415105264E-003
 -0.13618755801404242        4.9471451815564838E-002  -7.7846040257503815E-003
 -0.13296198797448294        4.2952064588230296E-002  -3.4072558059829866E-003
 -0.12973641793492352        3.8512974414415896E-002  -4.2307245383875654E-004
 -0.12651084789536407        3.6154181294121644E-002   1.1679460306827541E-003
 -0.12328527785580462        3.5875685227347437E-002   1.3657996475809342E-003
  -9.4164048323574334E-002   2.7970860435909517E-002   3.1803134128173899E-002
  -9.1737562717859211E-002   2.6765741987429533E-002   3.1225085031147307E-002
  -8.9311077112144102E-002   2.5803358128517292E-002   3.0742487892047816E-002
  -8.6884591506428965E-002   2.5083708859172878E-002   3.0355342710875456E-002
  -8.4458105900713870E-002   2.4606794179396208E-002   3.0063649487630184E-002
 -0.10165349544577207        2.9947066633769004E-002   2.3410748681806971E-002
  -9.9128060546855579E-002   2.9162328402949408E-002   2.3116703669230552E-002
  -9.6602625647939130E-002   2.8417016095393450E-002   2.2925105285129616E-002
  -9.4077190749022654E-002   2.7711129711101224E-002   2.2835953529504387E-002
  -9.1551755850106220E-002   2.7044669250072637E-002   2.2849248402354805E-002
 -0.10900351607520969        3.1923272831628463E-002   1.5540397786252561E-002
 -0.10637213721254336        3.1558914818469230E-002   1.5327048191822040E-002
 -0.10374075834987700        3.1030674062269607E-002   1.5223139896415740E-002
 -0.10110937948721060        3.0338550563029504E-002   1.5228672900033470E-002
  -9.8478000624544301E-002   2.9482544320749066E-002   1.5343647202675531E-002
 -0.11621411021188721        3.3899479029487978E-002   8.1920814415105264E-003
 -0.11346979271492244        3.3955501233989049E-002   7.8561185989218726E-003
 -0.11072547521795771        3.3644332029145740E-002   7.6365917259061007E-003
 -0.10798115772099293        3.2965971414957836E-002   7.5335008224627865E-003
 -0.10523684022402818        3.1920419391425467E-002   7.5468458885922692E-003
 -0.12328527785580462        3.5875685227347437E-002   1.3657996475809342E-003
 -0.12042102705399294        3.6352087649508938E-002   7.0391489053016343E-004
 -0.11755677625218125        3.6257989996021943E-002   1.6546077360063416E-004
 -0.11469252545036955        3.5593392266886216E-002  -2.4956270320787566E-004
 -0.11182827464855788        3.4358294462101924E-002  -5.4115553989492193E-004
  -8.4458105900713870E-002   2.4606794179396208E-002   3.0063649487630184E-002
  -8.2012585594879242E-002   2.4222518417550618E-002   2.9245666093066877E-002
  -7.9567065289044586E-002   2.3780785901999377E-002   2.8545643731821072E-002
  -7.7121544983209958E-002   2.3281596632742440E-002   2.7963582403892559E-002
  -7.4676024677375330E-002   2.2724950609779915E-002   2.7499482109281659E-002
  -9.1551755850106220E-002   2.7044669250072637E-002   2.2849248402354805E-002
  -8.8973597750996045E-002   2.6397601853901470E-002   2.2184298669076480E-002
  -8.6395439651885925E-002   2.5749894664181292E-002   2.1666663489031797E-002
  -8.3817281552775749E-002   2.5101547680912183E-002   2.1296342862220711E-002
  -8.1239123453665643E-002   2.4452560904094173E-002   2.1073336788643066E-002
  -9.8478000624544301E-002   2.9482544320749066E-002   1.5343647202675531E-002
  -9.5737851212242472E-002   2.8572685290252246E-002   1.4888548090838925E-002
  -9.2997701799940713E-002   2.7719003426363208E-002   1.4610117052152011E-002
  -9.0257552387638926E-002   2.6921498729081984E-002   1.4508354086614907E-002
  -8.7517402975337125E-002   2.6180171198408403E-002   1.4583259194227441E-002
 -0.10523684022402818        3.1920419391425467E-002   7.5468458885922692E-003
 -0.10230534597861859        3.0747768726603102E-002   7.3584143583540111E-003
  -9.9373851733208951E-002   2.9688112188545151E-002   7.3760044211816384E-003
  -9.6442357487799349E-002   2.8741449777251699E-002   7.5996160770752655E-003
  -9.3510863242389761E-002   2.7907781492722647E-002   8.0292493260347604E-003
 -0.11182827464855788        3.4358294462101924E-002  -5.4115553989492193E-004
 -0.10867608205012430        3.2922852162953875E-002  -4.0610252837811056E-004
 -0.10552388945169072        3.1657220950726997E-002  -3.5674403879235039E-005
 -0.10237169685325712        3.0561400825421445E-002   5.7012883360184688E-004
  -9.9219504254823565E-002   2.9635391787036947E-002   1.4113071840647917E-003
  -7.4676024677375330E-002   2.2724950609779915E-002   2.7499482109281659E-002
  -7.2520859964176038E-002   2.2117270619435941E-002   2.6748332573850647E-002
  -7.0365695250976690E-002   2.1464979448034799E-002   2.6213996581046756E-002
  -6.8210530537777342E-002   2.0768077095576674E-002   2.5896474130870165E-002
  -6.6055365824578022E-002   2.0026563562061173E-002   2.5795765223320555E-002
  -8.1239123453665643E-002   2.4452560904094173E-002   2.1073336788643066E-002
  -7.8877386977349126E-002   2.3784574905162309E-002   2.0555779812453170E-002
  -7.6515650501032567E-002   2.3079230255551982E-002   2.0234552819870355E-002
  -7.4153914024715967E-002   2.2336526955262961E-002   2.0109655810895001E-002
  -7.1792177548399477E-002   2.1556465004295422E-002   2.0181088785526713E-002
  -8.7517402975337125E-002   2.6180171198408403E-002   1.4583259194227441E-002
  -8.4969578294923284E-002   2.5451879190888774E-002   1.4306547307657048E-002
  -8.2421753614509458E-002   2.4693481063069109E-002   1.4205681845674056E-002
  -7.9873928934095659E-002   2.3904976814949446E-002   1.4280662808278423E-002
  -7.7326104253681846E-002   2.3086366446529755E-002   1.4531490195469815E-002
  -9.3510863242389761E-002   2.7907781492722647E-002   8.0292493260347604E-003
  -9.0797433916898512E-002   2.7119183476615134E-002   8.0006350594625606E-003
  -8.8084004591407333E-002   2.6307731870586264E-002   8.1273836584577937E-003
  -8.5370575265916182E-002   2.5473426674635945E-002   8.4094951230202115E-003
  -8.2657145940424934E-002   2.4616267888763990E-002   8.8469694531503849E-003
  -9.9219504254823565E-002   2.9635391787036947E-002   1.4113071840647917E-003
  -9.6360953843274921E-002   2.8786487762341578E-002   1.6380430678692437E-003
  -9.3502403431726250E-002   2.7921982678103405E-002   1.9996582582214317E-003
  -9.0643853020177592E-002   2.7041876534322214E-002   2.4961527551208215E-003
  -8.7785302608628935E-002   2.6146169330998226E-002   3.1275265585678502E-003
  -6.6055365824578022E-002   2.0026563562061173E-002   2.5795765223320555E-002
  -6.3468010667758826E-002   1.9279892789921149E-002   2.5044292266217627E-002
  -6.0880655510939657E-002   1.8567518721589085E-002   2.4509263937189191E-002
  -5.8293300354120448E-002   1.7889441357064568E-002   2.4190680236235093E-002
  -5.5705945197301265E-002   1.7245660696348197E-002   2.4088541163355570E-002
  -7.1792177548399477E-002   2.1556465004295422E-002   2.0181088785526713E-002
  -6.9001218260663466E-002   2.0766002697080940E-002   1.9645087670801295E-002
  -6.6210258972927344E-002   1.9992098328050656E-002   1.9299850189835280E-002
  -6.3419299685191319E-002   1.9234751897204583E-002   1.9145376342628355E-002
  -6.0628340397455210E-002   1.8493963404542901E-002   1.9181666129180847E-002
  -7.7326104253681846E-002   2.3086366446529755E-002   1.4531490195469815E-002
  -7.4357221829344108E-002   2.2252112604240426E-002   1.4193222157498714E-002
  -7.1388339405006440E-002   2.1416677934512053E-002   1.4020036758971496E-002
  -6.8419456980668758E-002   2.0580062437344483E-002   1.4011933999888263E-002
  -6.5450574556331020E-002   1.9742266112737744E-002   1.4168913880249004E-002
  -8.2657145940424934E-002   2.4616267888763990E-002   8.8469694531503849E-003
  -7.9536021373800850E-002   2.3738222511400203E-002   8.6886957263096615E-003
  -7.6414896807176821E-002   2.2841257540973815E-002   8.6698236445978388E-003
  -7.3293772240552710E-002   2.1925372977484276E-002   8.7903532080146653E-003
  -7.0172647673928681E-002   2.0990568820932490E-002   9.0502844165603891E-003
  -8.7785302608628935E-002   2.6146169330998226E-002   3.1275265585678502E-003
  -8.4537616894033718E-002   2.5224332418559814E-002   3.1315083772342489E-003
  -8.1289931179438502E-002   2.4265837147435049E-002   3.2492108467140346E-003
  -7.8042245464843313E-002   2.3270683517624437E-002   3.4806339670077624E-003
  -7.4794559750248069E-002   2.2238871529127291E-002   3.8257777381146552E-003
  -5.5705945197301265E-002   1.7245660696348197E-002   2.4088541163355570E-002
  -5.3321039296273270E-002   1.6646465532922566E-002   2.3384454840430058E-002
  -5.0936133395245234E-002   1.6102144660271045E-002   2.2595697300423823E-002
  -4.8551227494217218E-002   1.5612698078393245E-002   2.1722268543336656E-002
  -4.6166321593189202E-002   1.5178125787289554E-002   2.0764168569168573E-002
  -6.0628340397455210E-002   1.8493963404542901E-002   1.9181666129180847E-002
  -5.8272919882027083E-002   1.7783945754152264E-002   1.8682855697580325E-002
  -5.5917499366598941E-002   1.7118911850119295E-002   1.8209745711861111E-002
  -5.3562078851170807E-002   1.6498861692443974E-002   1.7762336172023184E-002
  -5.1206658335742603E-002   1.5923795281126529E-002   1.7340627078066218E-002
  -6.5450574556331020E-002   1.9742266112737744E-002   1.4168913880249004E-002
  -6.3014267763540688E-002   1.8921425975382142E-002   1.3865488795557268E-002
  -6.0577960970750300E-002   1.8135679039967767E-002   1.3698135819708954E-002
  -5.8141654177959953E-002   1.7385025306494870E-002   1.3666854952703839E-002
  -5.5705347385169586E-002   1.6669464774963422E-002   1.3771646194541923E-002
  -7.0172647673928681E-002   2.0990568820932490E-002   9.0502844165603891E-003
  -6.7545082940814002E-002   2.0058906196611818E-002   8.9323541343611298E-003
  -6.4917518207699393E-002   1.9152446229816183E-002   9.0608676239674196E-003
  -6.2289953474584721E-002   1.8271188920545849E-002   9.4358248853789097E-003
  -5.9662388741470090E-002   1.7415134268800522E-002   1.0057225918595470E-002
  -7.4794559750248069E-002   2.2238871529127291E-002   3.8257777381146552E-003
  -7.1865365413847082E-002   2.1196386417841828E-002   3.8834517139920144E-003
  -6.8936171077446096E-002   2.0169213419664656E-002   4.2979411246363008E-003
  -6.6006976741045054E-002   1.9157352534596481E-002   5.0692459700483403E-003
  -6.3077782404644123E-002   1.8160803762637290E-002   6.1973662502273763E-003
  -4.6166321593189202E-002   1.5178125787289554E-002   2.0764168569168573E-002
  -4.3520188451339786E-002   1.5458123633575183E-002   1.7300146879148437E-002
  -4.0874055309490356E-002   1.7112387463865855E-002   1.3954804775854174E-002
  -3.8227922167640933E-002   2.0140917278161297E-002   1.0728142259285797E-002
  -3.5581789025791510E-002   2.4543713076461637E-002   7.6201593294433767E-003
  -5.1206658335742603E-002   1.5923795281126529E-002   1.7340627078066218E-002
  -4.8417558707183561E-002   1.5759680654997471E-002   1.5518132885168373E-002
  -4.5628459078624582E-002   1.6372485852887447E-002   1.3862892078963879E-002
  -4.2839359450065576E-002   1.7762210874796881E-002   1.2374904659452998E-002
  -4.0050259821506562E-002   1.9928855720725669E-002   1.1054170626634940E-002
  -5.5705347385169586E-002   1.6669464774963422E-002   1.3771646194541923E-002
  -5.2724707469933428E-002   1.6061237676419343E-002   1.2993333338780819E-002
  -4.9744067554697374E-002   1.5632584241909143E-002   1.2430847669680410E-002
  -4.6763427639461314E-002   1.5383504471432686E-002   1.2084189187240944E-002
  -4.3782787724225225E-002   1.5313998364989589E-002   1.1953357891462291E-002
  -5.9662388741470090E-002   1.7415134268800522E-002   1.0057225918595470E-002
  -5.6441634739589470E-002   1.6362794697841701E-002   9.7257482399855377E-003
  -5.3220880737708670E-002   1.4892682630931010E-002   9.6586715480034297E-003
  -5.0000126735828022E-002   1.3004798068068323E-002   9.8559958426501955E-003
  -4.6779372733947319E-002   1.0699141009253732E-002   1.0317721123924983E-002
  -6.3077782404644123E-002   1.8160803762637290E-002   6.1973662502273763E-003
  -5.9568340516151341E-002   1.6664351719263282E-002   5.7153775887824887E-003
  -5.6058898627658615E-002   1.4152781019952210E-002   5.5463637139336885E-003
  -5.2549456739165862E-002   1.0626091664704129E-002   5.6903246256808926E-003
  -4.9040014850673108E-002   6.0842836535175415E-003   6.1472603240233514E-003
 </DataArray>
 </PointData>
 </Piece>
 <Piece  NumberOfPoints="          1600 "  NumberOfCells="         1024 ">
 <Points>
 <DataArray  type="Float64" NumberOfComponents="3"  format="ascii" >
  0.50000000000000000        0.0000000000000000        0.0000000000000000     
  0.53125000000000000        0.0000000000000000        0.0000000000000000     
  0.56250000000000000        0.0000000000000000        0.0000000000000000     
  0.59375000000000000        0.0000000000000000        0.0000000000000000     
  0.62500000000000000        0.0000000000000000        0.0000000000000000     
  0.50000000000000000        3.1250000000000000E-002   0.0000000000000000     
  0.53125000000000000        3.1250000000000000E-002   0.0000000000000000     
  0.56250000000000000        3.1250000000000000E-002   0.0000000000000000     
  0.59375000000000000        3.1250000000000000E-002   0.0000000000000000     
  0.62500000000000000        3.1250000000000000E-002   0.0000000000000000     
  0.50000000000000000        6.2500000000000000E-002   0.0000000000000000     
  0.53125000000000000        6.2500000000000000E-002   0.0000000000000000     
  0.56250000000000000        6.2500000000000000E-002   0.0000000000000000     
  0.59375000000000000        6.2500000000000000E-002   0.0000000000000000     
  0.62500000000000000        6.2500000000000000E-002   0.0000000000000000     
  0.50000000000000000        9.3750000000000000E-002   0.0000000000000000     
  0.53125000000000000        9.3750000000000000E-002   0.0000000000000000     
  0.56250000000000000        9.3750000000000000E-002   0.0000000000000000     
  0.59375000000000000        9.3750000000000000E-002   0.0000000000000000     
  0.62500000000000000        9.3750000000000000E-002   0.0000000000000000     
  0.50000000000000000       0.12500000000000000        0.0000000000000000     
  0.53125000000000000       0.12500000000000000        0.0000000000000000     
  0.56250000000000000       0.12500000000000000        0.0000000000000000     
  0.59375000000000000       0.12500000000000000        0.0000000000000000     
  0.62500000000000000       0.12500000000000000        0.0000000000000000     
  0.62500000000000000        0.0000000000000000        0.0000000000000000     
  0.65625000000000000        0.0000000000000000        0.0000000000000000     
  0.68750000000000000        0.0000000000000000        0.0000000000000000     
  0.71875000000000000        0.0000000000000000        0.0000000000000000     
  0.75000000000000000        0.0000000000000000        0.0000000000000000     
  0.62500000000000000        3.1250000000000000E-002   0.0000000000000000     
  0.65625000000000000        3.1250000000000000E-002   0.0000000000000000     
  0.68750000000000000        3.1250000000000000E-002   0.0000000000000000     
  0.71875000000000000        3.1250000000000000E-002   0.0000000000000000     
  0.75000000000000000        3.1250000000000000E-002   0.0000000000000000     
  0.62500000000000000        6.2500000000000000E-002   0.0000000000000000     
  0.65625000000000000        6.2500000000000000E-002   0.0000000000000000     
  0.68750000000000000        6.2500000000000000E-002   0.0000000000000000     
  0.71875000000000000        6.2500000000000000E-002   0.0000000000000000     
  0.75000000000000000        6.2500000000000000E-002   0.0000000000000000     
  0.62500000000000000        9.3750000000000000E-002   0.0000000000000000     
  0.65625000000000000        9.3750000000000000E-002   0.0000000000000000     
  0.68750000000000000        9.3750000000000000E-002   0.0000000000000000     
  0.71875000000000000        9.3750000000000000E-002   0.0000000000000000     
  0.75000000000000000        9.3750000000000000E-002   0.0000000000000000     
  0.62500000000000000       0.12500000000000000        0.0000000000000000     
  0.65625000000000000       0.12500000000000000        0.0000000000000000     
  0.68750000000000000       0.12500000000000000        0.0000000000000000     
  0.71875000000000000       0.12500000000000000        0.0000000000000000     
  0.75000000000000000       0.12500000000000000        0.0000000000000000     
  0.75000000000000000        0.0000000000000000        0.0000000000000000     
  0.78125000000000000        0.0000000000000000        0.0000000000000000     
  0.81250000000000000        0.0000000000000000        0.0000000000000000     
  0.84375000000000000        0.0000000000000000        0.0000000000000000     
  0.87500000000000000        0.0000000000000000        0.0000000000000000     
  0.75000000000000000        3.1250000000000000E-002   0.0000000000000000     
  0.78125000000000000        3.1250000000000000E-002   0.0000000000000000     
  0.81250000000000000        3.1250000000000000E-002   0.0000000000000000     
  0.84375000000000000        3.1250000000000000E-002   0.0000000000000000     
  0.87500000000000000        3.1250000000000000E-002   0.0000000000000000     
  0.75000000000000000        6.2500000000000000E-002   0.0000000000000000     
  0.78125000000000000        6.2500000000000000E-002   0.0000000000000000     
  0.81250000000000000        6.2500000000000000E-002   0.0000000000000000     
  0.84375000000000000        6.2500000000000000E-002   0.0000000000000000     
  0.87500000000000000        6.2500000000000000E-002   0.0000000000000000     
  0.75000000000000000        9.3750000000000000E-002   0.0000000000000000     
  0.78125000000000000        9.3750000000000000E-002   0.0000000000000000     
  0.81250000000000000        9.3750000000000000E-002   0.0000000000000000     
  0.84375000000000000        9.3750000000000000E-002   0.0000000000000000     
  0.87500000000000000        9.3750000000000000E-002   0.0000000000000000     
  0.75000000000000000       0.12500000000000000        0.0000000000000000     
  0.78125000000000000       0.12500000000000000        0.0000000000000000     
  0.81250000000000000       0.12500000000000000        0.0000000000000000     
  0.84375000000000000       0.12500000000000000        0.0000000000000000     
  0.87500000000000000       0.12500000000000000        0.0000000000000000     
  0.87500000000000000        0.0000000000000000        0.0000000000000000     
  0.90625000000000000        0.0000000000000000        0.0000000000000000     
  0.93750000000000000        0.0000000000000000        0.0000000000000000     
  0.96875000000000000        0.0000000000000000        0.0000000000000000     
   1.0000000000000000        0.0000000000000000        0.0000000000000000     
  0.87500000000000000        3.1250000000000000E-002   0.0000000000000000     
  0.90625000000000000        3.1250000000000000E-002   0.0000000000000000     
  0.93750000000000000        3.1250000000000000E-002   0.0000000000000000     
  0.96875000000000000        3.1250000000000000E-002   0.0000000000000000     
   1.0000000000000000        3.1250000000000000E-002   0.0000000000000000     
  0.87500000000000000        6.2500000000000000E-002   0.0000000000000000     
  0.90625000000000000        6.2500000000000000E-002   0.0000000000000000     
  0.93750000000000000        6.2500000000000000E-002   0.0000000000000000     
  0.96875000000000000        6.2500000000000000E-002   0.0000000000000000     
   1.0000000000000000        6.2500000000000000E-002   0.0000000000000000     
  0.87500000000000000        9.3750000000000000E-002   0.0000000000000000     
  0.90625000000000000        9.3750000000000000E-002   0.0000000000000000     
  0.93750000000000000        9.3750000000000000E-002   0.0000000000000000     
  0.96875000000000000        9.3750000000000000E-002   0.0000000000000000     
   1.0000000000000000        9.3750000000000000E-002   0.0000000000000000     
  0.87500000000000000       0.12500000000000000        0.0000000000000000     
  0.90625000000000000       0.12500000000000000        0.0000000000000000     
  0.93750000000000000       0.12500000000000000        0.0000000000000000     
  0.96875000000000000       0.12500000000000000        0.0000000000000000     
   1.0000000000000000       0.12500000000000000        0.0000000000000000     
   1.0000000000000000        0.0000000000000000        0.0000000000000000     
   1.0312500000000000        0.0000000000000000        0.0000000000000000     
   1.0625000000000000        0.0000000000000000        0.0000000000000000     
   1.0937500000000000        0.0000000000000000        0.0000000000000000     
   1.1250000000000000        0.0000000000000000        0.0000000000000000     
   1.0000000000000000        3.1250000000000000E-002   0.0000000000000000     
   1.0312500000000000        3.1250000000000000E-002   0.0000000000000000     
   1.0625000000000000        3.1250000000000000E-002   0.0000000000000000     
   1.0937500000000000        3.1250000000000000E-002   0.0000000000000000     
   1.1250000000000000        3.1250000000000000E-002   0.0000000000000000     
   1.0000000000000000        6.2500000000000000E-002   0.0000000000000000     
   1.0312500000000000        6.2500000000000000E-002   0.0000000000000000     
   1.0625000000000000        6.2500000000000000E-002   0.0000000000000000     
   1.0937500000000000        6.2500000000000000E-002   0.0000000000000000     
   1.1250000000000000        6.2500000000000000E-002   0.0000000000000000     
   1.0000000000000000        9.3750000000000000E-002   0.0000000000000000     
   1.0312500000000000        9.3750000000000000E-002   0.0000000000000000     
   1.0625000000000000        9.3750000000000000E-002   0.0000000000000000     
   1.0937500000000000        9.3750000000000000E-002   0.0000000000000000     
   1.1250000000000000        9.3750000000000000E-002   0.0000000000000000     
   1.0000000000000000       0.12500000000000000        0.0000000000000000     
   1.0312500000000000       0.12500000000000000        0.0000000000000000     
   1.0625000000000000       0.12500000000000000        0.0000000000000000     
   1.0937500000000000       0.12500000000000000        0.0000000000000000     
   1.1250000000000000       0.12500000000000000        0.0000000000000000     
   1.1250000000000000        0.0000000000000000        0.0000000000000000     
   1.1562500000000000        0.0000000000000000        0.0000000000000000     
   1.1875000000000000        0.0000000000000000        0.0000000000000000     
   1.2187500000000000        0.0000000000000000        0.0000000000000000     
   1.2500000000000000        0.0000000000000000        0.0000000000000000     
   1.1250000000000000        3.1250000000000000E-002   0.0000000000000000     
   1.1562500000000000        3.1250000000000000E-002   0.0000000000000000     
   1.1875000000000000        3.1250000000000000E-002   0.0000000000000000     
   1.2187500000000000        3.1250000000000000E-002   0.0000000000000000     
   1.2500000000000000        3.1250000000000000E-002   0.0000000000000000     
   1.1250000000000000        6.2500000000000000E-002   0.0000000000000000     
   1.1562500000000000        6.2500000000000000E-002   0.0000000000000000     
   1.1875000000000000        6.2500000000000000E-002   0.0000000000000000     
   1.2187500000000000        6.2500000000000000E-002   0.0000000000000000     
   1.2500000000000000        6.2500000000000000E-002   0.0000000000000000     
   1.1250000000000000        9.3750000000000000E-002   0.0000000000000000     
   1.1562500000000000        9.3750000000000000E-002   0.0000000000000000     
   1.1875000000000000        9.3750000000000000E-002   0.0000000000000000     
   1.2187500000000000        9.3750000000000000E-002   0.0000000000000000     
   1.2500000000000000        9.3750000000000000E-002   0.0000000000000000     
   1.1250000000000000       0.12500000000000000        0.0000000000000000     
   1.1562500000000000       0.12500000000000000        0.0000000000000000     
   1.1875000000000000       0.12500000000000000        0.0000000000000000     
   1.2187500000000000       0.12500000000000000        0.0000000000000000     
   1.2500000000000000       0.12500000000000000        0.0000000000000000     
   1.2500000000000000        0.0000000000000000        0.0000000000000000     
   1.2812500000000000        0.0000000000000000        0.0000000000000000     
   1.3125000000000000        0.0000000000000000        0.0000000000000000     
   1.3437500000000000        0.0000000000000000        0.0000000000000000     
   1.3750000000000000        0.0000000000000000        0.0000000000000000     
   1.2500000000000000        3.1250000000000000E-002   0.0000000000000000     
   1.2812500000000000        3.1250000000000000E-002   0.0000000000000000     
   1.3125000000000000        3.1250000000000000E-002   0.0000000000000000     
   1.3437500000000000        3.1250000000000000E-002   0.0000000000000000     
   1.3750000000000000        3.1250000000000000E-002   0.0000000000000000     
   1.2500000000000000        6.2500000000000000E-002   0.0000000000000000     
   1.2812500000000000        6.2500000000000000E-002   0.0000000000000000     
   1.3125000000000000        6.2500000000000000E-002   0.0000000000000000     
   1.3437500000000000        6.2500000000000000E-002   0.0000000000000000     
   1.3750000000000000        6.2500000000000000E-002   0.0000000000000000     
   1.2500000000000000        9.3750000000000000E-002   0.0000000000000000     
   1.2812500000000000        9.3750000000000000E-002   0.0000000000000000     
   1.3125000000000000        9.3750000000000000E-002   0.0000000000000000     
   1.3437500000000000        9.3750000000000000E-002   0.0000000000000000     
   1.3750000000000000        9.3750000000000000E-002   0.0000000000000000     
   1.2500000000000000       0.12500000000000000        0.0000000000000000     
   1.2812500000000000       0.12500000000000000        0.0000000000000000     
   1.3125000000000000       0.12500000000000000        0.0000000000000000     
   1.3437500000000000       0.12500000000000000        0.0000000000000000     
   1.3750000000000000       0.12500000000000000        0.0000000000000000     
   1.3750000000000000        0.0000000000000000        0.0000000000000000     
   1.4062500000000000        0.0000000000000000        0.0000000000000000     
   1.4375000000000000        0.0000000000000000        0.0000000000000000     
   1.4687500000000000        0.0000000000000000        0.0000000000000000     
   1.5000000000000000        0.0000000000000000        0.0000000000000000     
   1.3750000000000000        3.1250000000000000E-002   0.0000000000000000     
   1.4062500000000000        3.1250000000000000E-002   0.0000000000000000     
   1.4375000000000000        3.1250000000000000E-002   0.0000000000000000     
   1.4687500000000000        3.1250000000000000E-002   0.0000000000000000     
   1.5000000000000000        3.1250000000000000E-002   0.0000000000000000     
   1.3750000000000000        6.2500000000000000E-002   0.0000000000000000     
   1.4062500000000000        6.2500000000000000E-002   0.0000000000000000     
   1.4375000000000000        6.2500000000000000E-002   0.0000000000000000     
   1.4687500000000000        6.2500000000000000E-002   0.0000000000000000     
   1.5000000000000000        6.2500000000000000E-002   0.0000000000000000     
   1.3750000000000000        9.3750000000000000E-002   0.0000000000000000     
   1.4062500000000000        9.3750000000000000E-002   0.0000000000000000     
   1.4375000000000000        9.3750000000000000E-002   0.0000000000000000     
   1.4687500000000000        9.3750000000000000E-002   0.0000000000000000     
   1.5000000000000000        9.3750000000000000E-002   0.0000000000000000     
   1.3750000000000000       0.12500000000000000        0.0000000000000000     
   1.4062500000000000       0.12500000000000000        0.0000000000000000     
   1.4375000000000000       0.12500000000000000        0.0000000000000000     
   1.4687500000000000       0.12500000000000000        0.0000000000000000     
   1.5000000000000000       0.12500000000000000        0.0000000000000000     
  0.50000000000000000       0.12500000000000000        0.0000000000000000     
  0.53125000000000000       0.12500000000000000        0.0000000000000000     
  0.56250000000000000       0.12500000000000000        0.0000000000000000     
  0.59375000000000000       0.12500000000000000        0.0000000000000000     
  0.62500000000000000       0.12500000000000000        0.0000000000000000     
  0.50000000000000000       0.15625000000000000        0.0000000000000000     
  0.53125000000000000       0.15625000000000000        0.0000000000000000     
  0.56250000000000000       0.15625000000000000        0.0000000000000000     
  0.59375000000000000       0.15625000000000000        0.0000000000000000     
  0.62500000000000000       0.15625000000000000        0.0000000000000000     
  0.50000000000000000       0.18750000000000000        0.0000000000000000     
  0.53125000000000000       0.18750000000000000        0.0000000000000000     
  0.56250000000000000       0.18750000000000000        0.0000000000000000     
  0.59375000000000000       0.18750000000000000        0.0000000000000000     
  0.62500000000000000       0.18750000000000000        0.0000000000000000     
  0.50000000000000000       0.21875000000000000        0.0000000000000000     
  0.53125000000000000       0.21875000000000000        0.0000000000000000     
  0.56250000000000000       0.21875000000000000        0.0000000000000000     
  0.59375000000000000       0.21875000000000000        0.0000000000000000     
  0.62500000000000000       0.21875000000000000        0.0000000000000000     
  0.50000000000000000       0.25000000000000000        0.0000000000000000     
  0.53125000000000000       0.25000000000000000        0.0000000000000000     
  0.56250000000000000       0.25000000000000000        0.0000000000000000     
  0.59375000000000000       0.25000000000000000        0.0000000000000000     
  0.62500000000000000       0.25000000000000000        0.0000000000000000     
  0.62500000000000000       0.12500000000000000        0.0000000000000000     
  0.65625000000000000       0.12500000000000000        0.0000000000000000     
  0.68750000000000000       0.12500000000000000        0.0000000000000000     
  0.71875000000000000       0.12500000000000000        0.0000000000000000     
  0.75000000000000000       0.12500000000000000        0.0000000000000000     
  0.62500000000000000       0.15625000000000000        0.0000000000000000     
  0.65625000000000000       0.15625000000000000        0.0000000000000000     
  0.68750000000000000       0.15625000000000000        0.0000000000000000     
  0.71875000000000000       0.15625000000000000        0.0000000000000000     
  0.75000000000000000       0.15625000000000000        0.0000000000000000     
  0.62500000000000000       0.18750000000000000        0.0000000000000000     
  0.65625000000000000       0.18750000000000000        0.0000000000000000     
  0.68750000000000000       0.18750000000000000        0.0000000000000000     
  0.71875000000000000       0.18750000000000000        0.0000000000000000     
  0.75000000000000000       0.18750000000000000        0.0000000000000000     
  0.62500000000000000       0.21875000000000000        0.0000000000000000     
  0.65625000000000000       0.21875000000000000        0.0000000000000000     
  0.68750000000000000       0.21875000000000000        0.0000000000000000     
  0.71875000000000000       0.21875000000000000        0.0000000000000000     
  0.75000000000000000       0.21875000000000000        0.0000000000000000     
  0.62500000000000000       0.25000000000000000        0.0000000000000000     
  0.65625000000000000       0.25000000000000000        0.0000000000000000     
  0.68750000000000000       0.25000000000000000        0.0000000000000000     
  0.71875000000000000       0.25000000000000000        0.0000000000000000     
  0.75000000000000000       0.25000000000000000        0.0000000000000000     
  0.75000000000000000       0.12500000000000000        0.0000000000000000     
  0.78125000000000000       0.12500000000000000        0.0000000000000000     
  0.81250000000000000       0.12500000000000000        0.0000000000000000     
  0.84375000000000000       0.12500000000000000        0.0000000000000000     
  0.87500000000000000       0.12500000000000000        0.0000000000000000     
  0.75000000000000000       0.15625000000000000        0.0000000000000000     
  0.78125000000000000       0.15625000000000000        0.0000000000000000     
  0.81250000000000000       0.15625000000000000        0.0000000000000000     
  0.84375000000000000       0.15625000000000000        0.0000000000000000     
  0.87500000000000000       0.15625000000000000        0.0000000000000000     
  0.75000000000000000       0.18750000000000000        0.0000000000000000     
  0.78125000000000000       0.18750000000000000        0.0000000000000000     
  0.81250000000000000       0.18750000000000000        0.0000000000000000     
  0.84375000000000000       0.18750000000000000        0.0000000000000000     
  0.87500000000000000       0.18750000000000000        0.0000000000000000     
  0.75000000000000000       0.21875000000000000        0.0000000000000000     
  0.78125000000000000       0.21875000000000000        0.0000000000000000     
  0.81250000000000000       0.21875000000000000        0.0000000000000000     
  0.84375000000000000       0.21875000000000000        0.0000000000000000     
  0.87500000000000000       0.21875000000000000        0.0000000000000000     
  0.75000000000000000       0.25000000000000000        0.0000000000000000     
  0.78125000000000000       0.25000000000000000        0.0000000000000000     
  0.81250000000000000       0.25000000000000000        0.0000000000000000     
  0.84375000000000000       0.25000000000000000        0.0000000000000000     
  0.87500000000000000       0.25000000000000000        0.0000000000000000     
  0.87500000000000000       0.12500000000000000        0.0000000000000000     
  0.90625000000000000       0.12500000000000000        0.0000000000000000     
  0.93750000000000000       0.12500000000000000        0.0000000000000000     
  0.96875000000000000       0.12500000000000000        0.0000000000000000     
   1.0000000000000000       0.12500000000000000        0.0000000000000000     
  0.87500000000000000       0.15625000000000000        0.0000000000000000     
  0.90625000000000000       0.15625000000000000        0.0000000000000000     
  0.93750000000000000       0.15625000000000000        0.0000000000000000     
  0.96875000000000000       0.15625000000000000        0.0000000000000000     
   1.0000000000000000       0.15625000000000000        0.0000000000000000     
  0.87500000000000000       0.18750000000000000        0.0000000000000000     
  0.90625000000000000       0.18750000000000000        0.0000000000000000     
  0.93750000000000000       0.18750000000000000        0.0000000000000000     
  0.96875000000000000       0.18750000000000000        0.0000000000000000     
   1.0000000000000000       0.18750000000000000        0.0000000000000000     
  0.87500000000000000       0.21875000000000000        0.0000000000000000     
  0.90625000000000000       0.21875000000000000        0.0000000000000000     
  0.93750000000000000       0.21875000000000000        0.0000000000000000     
  0.96875000000000000       0.21875000000000000        0.0000000000000000     
   1.0000000000000000       0.21875000000000000        0.0000000000000000     
  0.87500000000000000       0.25000000000000000        0.0000000000000000     
  0.90625000000000000       0.25000000000000000        0.0000000000000000     
  0.93750000000000000       0.25000000000000000        0.0000000000000000     
  0.96875000000000000       0.25000000000000000        0.0000000000000000     
   1.0000000000000000       0.25000000000000000        0.0000000000000000     
   1.0000000000000000       0.12500000000000000        0.0000000000000000     
   1.0312500000000000       0.12500000000000000        0.0000000000000000     
   1.0625000000000000       0.12500000000000000        0.0000000000000000     
   1.0937500000000000       0.12500000000000000        0.0000000000000000     
   1.1250000000000000       0.12500000000000000        0.0000000000000000     
   1.0000000000000000       0.15625000000000000        0.0000000000000000     
   1.0312500000000000       0.15625000000000000        0.0000000000000000     
   1.0625000000000000       0.15625000000000000        0.0000000000000000     
   1.0937500000000000       0.15625000000000000        0.0000000000000000     
   1.1250000000000000       0.15625000000000000        0.0000000000000000     
   1.0000000000000000       0.18750000000000000        0.0000000000000000     
   1.0312500000000000       0.18750000000000000        0.0000000000000000     
   1.0625000000000000       0.18750000000000000        0.0000000000000000     
   1.0937500000000000       0.18750000000000000        0.0000000000000000     
   1.1250000000000000       0.18750000000000000        0.0000000000000000     
   1.0000000000000000       0.21875000000000000        0.0000000000000000     
   1.0312500000000000       0.21875000000000000        0.0000000000000000     
   1.0625000000000000       0.21875000000000000        0.0000000000000000     
   1.0937500000000000       0.21875000000000000        0.0000000000000000     
   1.1250000000000000       0.21875000000000000        0.0000000000000000     
   1.0000000000000000       0.25000000000000000        0.0000000000000000     
   1.0312500000000000       0.25000000000000000        0.0000000000000000     
   1.0625000000000000       0.25000000000000000        0.0000000000000000     
   1.0937500000000000       0.25000000000000000        0.0000000000000000     
   1.1250000000000000       0.25000000000000000        0.0000000000000000     
   1.1250000000000000       0.12500000000000000        0.0000000000000000     
   1.1562500000000000       0.12500000000000000        0.0000000000000000     
   1.1875000000000000       0.12500000000000000        0.0000000000000000     
   1.2187500000000000       0.12500000000000000        0.0000000000000000     
   1.2500000000000000       0.12500000000000000        0.0000000000000000     
   1.1250000000000000       0.15625000000000000        0.0000000000000000     
   1.1562500000000000       0.15625000000000000        0.0000000000000000     
   1.1875000000000000       0.15625000000000000        0.0000000000000000     
   1.2187500000000000       0.15625000000000000        0.0000000000000000     
   1.2500000000000000       0.15625000000000000        0.0000000000000000     
   1.1250000000000000       0.18750000000000000        0.0000000000000000     
   1.1562500000000000       0.18750000000000000        0.0000000000000000     
   1.1875000000000000       0.18750000000000000        0.0000000000000000     
   1.2187500000000000       0.18750000000000000        0.0000000000000000     
   1.2500000000000000       0.18750000000000000        0.0000000000000000     
   1.1250000000000000       0.21875000000000000        0.0000000000000000     
   1.1562500000000000       0.21875000000000000        0.0000000000000000     
   1.1875000000000000       0.21875000000000000        0.0000000000000000     
   1.2187500000000000       0.21875000000000000        0.0000000000000000     
   1.2500000000000000       0.21875000000000000        0.0000000000000000     
   1.1250000000000000       0.25000000000000000        0.0000000000000000     
   1.1562500000000000       0.25000000000000000        0.0000000000000000     
   1.1875000000000000       0.25000000000000000        0.0000000000000000     
   1.2187500000000000       0.25000000000000000        0.0000000000000000     
   1.2500000000000000       0.25000000000000000        0.0000000000000000     
   1.2500000000000000       0.12500000000000000        0.0000000000000000     
   1.2812500000000000       0.12500000000000000        0.0000000000000000     
   1.3125000000000000       0.12500000000000000        0.0000000000000000     
   1.3437500000000000       0.12500000000000000        0.0000000000000000     
   1.3750000000000000       0.12500000000000000        0.0000000000000000     
   1.2500000000000000       0.15625000000000000        0.0000000000000000     
   1.2812500000000000       0.15625000000000000        0.0000000000000000     
   1.3125000000000000       0.15625000000000000        0.0000000000000000     
   1.3437500000000000       0.15625000000000000        0.0000000000000000     
   1.3750000000000000       0.15625000000000000        0.0000000000000000     
   1.2500000000000000       0.18750000000000000        0.0000000000000000     
   1.2812500000000000       0.18750000000000000        0.0000000000000000     
   1.3125000000000000       0.18750000000000000        0.0000000000000000     
   1.3437500000000000       0.18750000000000000        0.0000000000000000     
   1.3750000000000000       0.18750000000000000        0.0000000000000000     
   1.2500000000000000       0.21875000000000000        0.0000000000000000     
   1.2812500000000000       0.21875000000000000        0.0000000000000000     
   1.3125000000000000       0.21875000000000000        0.0000000000000000     
   1.3437500000000000       0.21875000000000000        0.0000000000000000     
   1.3750000000000000       0.21875000000000000        0.0000000000000000     
   1.2500000000000000       0.25000000000000000        0.0000000000000000     
   1.2812500000000000       0.25000000000000000        0.0000000000000000     
   1.3125000000000000       0.25000000000000000        0.0000000000000000     
   1.3437500000000000       0.25000000000000000        0.0000000000000000     
   1.3750000000000000       0.25000000000000000        0.0000000000000000     
   1.3750000000000000       0.12500000000000000        0.0000000000000000     
   1.4062500000000000       0.12500000000000000        0.0000000000000000     
   1.4375000000000000       0.12500000000000000        0.0000000000000000     
   1.4687500000000000       0.12500000000000000        0.0000000000000000     
   1.5000000000000000       0.12500000000000000        0.0000000000000000     
   1.3750000000000000       0.15625000000000000        0.0000000000000000     
   1.4062500000000000       0.15625000000000000        0.0000000000000000     
   1.4375000000000000       0.15625000000000000        0.0000000000000000     
   1.4687500000000000       0.15625000000000000        0.0000000000000000     
   1.5000000000000000       0.15625000000000000        0.0000000000000000     
   1.3750000000000000       0.18750000000000000        0.0000000000000000     
   1.4062500000000000       0.18750000000000000        0.0000000000000000     
   1.4375000000000000       0.18750000000000000        0.0000000000000000     
   1.4687500000000000       0.18750000000000000        0.0000000000000000     
   1.5000000000000000       0.18750000000000000        0.0000000000000000     
   1.3750000000000000       0.21875000000000000        0.0000000000000000     
   1.4062500000000000       0.21875000000000000        0.0000000000000000     
   1.4375000000000000       0.21875000000000000        0.0000000000000000     
   1.4687500000000000       0.21875000000000000        0.0000000000000000     
   1.5000000000000000       0.21875000000000000        0.0000000000000000     
   1.3750000000000000       0.25000000000000000        0.0000000000000000     
   1.4062500000000000       0.25000000000000000        0.0000000000000000     
   1.4375000000000000       0.25000000000000000        0.0000000000000000     
   1.4687500000000000       0.25000000000000000        0.0000000000000000     
   1.5000000000000000       0.25000000000000000        0.0000000000000000     
  0.50000000000000000       0.25000000000000000        0.0000000000000000     
  0.53125000000000000       0.25000000000000000        0.0000000000000000     
  0.56250000000000000       0.25000000000000000        0.0000000000000000     
  0.59375000000000000       0.25000000000000000        0.0000000000000000     
  0.62500000000000000       0.25000000000000000        0.0000000000000000     
  0.50000000000000000       0.28125000000000000        0.0000000000000000     
  0.53125000000000000       0.28125000000000000        0.0000000000000000     
  0.56250000000000000       0.28125000000000000        0.0000000000000000     
  0.59375000000000000       0.28125000000000000        0.0000000000000000     
  0.62500000000000000       0.28125000000000000        0.0000000000000000     
  0.50000000000000000       0.31250000000000000        0.0000000000000000     
  0.53125000000000000       0.31250000000000000        0.0000000000000000     
  0.56250000000000000       0.31250000000000000        0.0000000000000000     
  0.59375000000000000       0.31250000000000000        0.0000000000000000     
  0.62500000000000000       0.31250000000000000        0.0000000000000000     
  0.50000000000000000       0.34375000000000000        0.0000000000000000     
  0.53125000000000000       0.34375000000000000        0.0000000000000000     
  0.56250000000000000       0.34375000000000000        0.0000000000000000     
  0.59375000000000000       0.34375000000000000        0.0000000000000000     
  0.62500000000000000       0.34375000000000000        0.0000000000000000     
  0.50000000000000000       0.37500000000000000        0.0000000000000000     
  0.53125000000000000       0.37500000000000000        0.0000000000000000     
  0.56250000000000000       0.37500000000000000        0.0000000000000000     
  0.59375000000000000       0.37500000000000000        0.0000000000000000     
  0.62500000000000000       0.37500000000000000        0.0000000000000000     
  0.62500000000000000       0.25000000000000000        0.0000000000000000     
  0.65625000000000000       0.25000000000000000        0.0000000000000000     
  0.68750000000000000       0.25000000000000000        0.0000000000000000     
  0.71875000000000000       0.25000000000000000        0.0000000000000000     
  0.75000000000000000       0.25000000000000000        0.0000000000000000     
  0.62500000000000000       0.28125000000000000        0.0000000000000000     
  0.65625000000000000       0.28125000000000000        0.0000000000000000     
  0.68750000000000000       0.28125000000000000        0.0000000000000000     
  0.71875000000000000       0.28125000000000000        0.0000000000000000     
  0.75000000000000000       0.28125000000000000        0.0000000000000000     
  0.62500000000000000       0.31250000000000000        0.0000000000000000     
  0.65625000000000000       0.31250000000000000        0.0000000000000000     
  0.68750000000000000       0.31250000000000000        0.0000000000000000     
  0.71875000000000000       0.31250000000000000        0.0000000000000000     
  0.75000000000000000       0.31250000000000000        0.0000000000000000     
  0.62500000000000000       0.34375000000000000        0.0000000000000000     
  0.65625000000000000       0.34375000000000000        0.0000000000000000     
  0.68750000000000000       0.34375000000000000        0.0000000000000000     
  0.71875000000000000       0.34375000000000000        0.0000000000000000     
  0.75000000000000000       0.34375000000000000        0.0000000000000000     
  0.62500000000000000       0.37500000000000000        0.0000000000000000     
  0.65625000000000000       0.37500000000000000        0.0000000000000000     
  0.68750000000000000       0.37500000000000000        0.0000000000000000     
  0.71875000000000000       0.37500000000000000        0.0000000000000000     
  0.75000000000000000       0.37500000000000000        0.0000000000000000     
  0.75000000000000000       0.25000000000000000        0.0000000000000000     
  0.78125000000000000       0.25000000000000000        0.0000000000000000     
  0.81250000000000000       0.25000000000000000        0.0000000000000000     
  0.84375000000000000       0.25000000000000000        0.0000000000000000     
  0.87500000000000000       0.25000000000000000        0.0000000000000000     
  0.75000000000000000       0.28125000000000000        0.0000000000000000     
  0.78125000000000000       0.28125000000000000        0.0000000000000000     
  0.81250000000000000       0.28125000000000000        0.0000000000000000     
  0.84375000000000000       0.28125000000000000        0.0000000000000000     
  0.87500000000000000       0.28125000000000000        0.0000000000000000     
  0.75000000000000000       0.31250000000000000        0.0000000000000000     
  0.78125000000000000       0.31250000000000000        0.0000000000000000     
  0.81250000000000000       0.31250000000000000        0.0000000000000000     
  0.84375000000000000       0.31250000000000000        0.0000000000000000     
  0.87500000000000000       0.31250000000000000        0.0000000000000000     
  0.75000000000000000       0.34375000000000000        0.0000000000000000     
  0.78125000000000000       0.34375000000000000        0.0000000000000000     
  0.81250000000000000       0.34375000000000000        0.0000000000000000     
  0.84375000000000000       0.34375000000000000        0.0000000000000000     
  0.87500000000000000       0.34375000000000000        0.0000000000000000     
  0.75000000000000000       0.37500000000000000        0.0000000000000000     
  0.78125000000000000       0.37500000000000000        0.0000000000000000     
  0.81250000000000000       0.37500000000000000        0.0000000000000000     
  0.84375000000000000       0.37500000000000000        0.0000000000000000     
  0.87500000000000000       0.37500000000000000        0.0000000000000000     
  0.87500000000000000       0.25000000000000000        0.0000000000000000     
  0.90625000000000000       0.25000000000000000        0.0000000000000000     
  0.93750000000000000       0.25000000000000000        0.0000000000000000     
  0.96875000000000000       0.25000000000000000        0.0000000000000000     
   1.0000000000000000       0.25000000000000000        0.0000000000000000     
  0.87500000000000000       0.28125000000000000        0.0000000000000000     
  0.90625000000000000       0.28125000000000000        0.0000000000000000     
  0.93750000000000000       0.28125000000000000        0.0000000000000000     
  0.96875000000000000       0.28125000000000000        0.0000000000000000     
   1.0000000000000000       0.28125000000000000        0.0000000000000000     
  0.87500000000000000       0.31250000000000000        0.0000000000000000     
  0.90625000000000000       0.31250000000000000        0.0000000000000000     
  0.93750000000000000       0.31250000000000000        0.0000000000000000     
  0.96875000000000000       0.31250000000000000        0.0000000000000000     
   1.0000000000000000       0.31250000000000000        0.0000000000000000     
  0.87500000000000000       0.34375000000000000        0.0000000000000000     
  0.90625000000000000       0.34375000000000000        0.0000000000000000     
  0.93750000000000000       0.34375000000000000        0.0000000000000000     
  0.96875000000000000       0.34375000000000000        0.0000000000000000     
   1.0000000000000000       0.34375000000000000        0.0000000000000000     
  0.87500000000000000       0.37500000000000000        0.0000000000000000     
  0.90625000000000000       0.37500000000000000        0.0000000000000000     
  0.93750000000000000       0.37500000000000000        0.0000000000000000     
  0.96875000000000000       0.37500000000000000        0.0000000000000000     
   1.0000000000000000       0.37500000000000000        0.0000000000000000     
   1.0000000000000000       0.25000000000000000        0.0000000000000000     
   1.0312500000000000       0.25000000000000000        0.0000000000000000     
   1.0625000000000000       0.25000000000000000        0.0000000000000000     
   1.0937500000000000       0.25000000000000000        0.0000000000000000     
   1.1250000000000000       0.25000000000000000        0.0000000000000000     
   1.0000000000000000       0.28125000000000000        0.0000000000000000     
   1.0312500000000000       0.28125000000000000        0.0000000000000000     
   1.0625000000000000       0.28125000000000000        0.0000000000000000     
   1.0937500000000000       0.28125000000000000        0.0000000000000000     
   1.1250000000000000       0.28125000000000000        0.0000000000000000     
   1.0000000000000000       0.31250000000000000        0.0000000000000000     
   1.0312500000000000       0.31250000000000000        0.0000000000000000     
   1.0625000000000000       0.31250000000000000        0.0000000000000000     
   1.0937500000000000       0.31250000000000000        0.0000000000000000     
   1.1250000000000000       0.31250000000000000        0.0000000000000000     
   1.0000000000000000       0.34375000000000000        0.0000000000000000     
   1.0312500000000000       0.34375000000000000        0.0000000000000000     
   1.0625000000000000       0.34375000000000000        0.0000000000000000     
   1.0937500000000000       0.34375000000000000        0.0000000000000000     
   1.1250000000000000       0.34375000000000000        0.0000000000000000     
   1.0000000000000000       0.37500000000000000        0.0000000000000000     
   1.0312500000000000       0.37500000000000000        0.0000000000000000     
   1.0625000000000000       0.37500000000000000        0.0000000000000000     
   1.0937500000000000       0.37500000000000000        0.0000000000000000     
   1.1250000000000000       0.37500000000000000        0.0000000000000000     
   1.1250000000000000       0.25000000000000000        0.0000000000000000     
   1.1562500000000000       0.25000000000000000        0.0000000000000000     
   1.1875000000000000       0.25000000000000000        0.0000000000000000     
   1.2187500000000000       0.25000000000000000        0.0000000000000000     
   1.2500000000000000       0.25000000000000000        0.0000000000000000     
   1.1250000000000000       0.28125000000000000        0.0000000000000000     
   1.1562500000000000       0.28125000000000000        0.0000000000000000     
   1.1875000000000000       0.28125000000000000        0.0000000000000000     
   1.2187500000000000       0.28125000000000000        0.0000000000000000     
   1.2500000000000000       0.28125000000000000        0.0000000000000000     
   1.1250000000000000       0.31250000000000000        0.0000000000000000     
   1.1562500000000000       0.31250000000000000        0.0000000000000000     
   1.1875000000000000       0.31250000000000000        0.0000000000000000     
   1.2187500000000000       0.31250000000000000        0.0000000000000000     
   1.2500000000000000       0.31250000000000000        0.0000000000000000     
   1.1250000000000000       0.34375000000000000        0.0000000000000000     
   1.1562500000000000       0.34375000000000000        0.0000000000000000     
   1.1875000000000000       0.34375000000000000        0.0000000000000000     
   1.2187500000000000       0.34375000000000000        0.0000000000000000     
   1.2500000000000000       0.34375000000000000        0.0000000000000000     
   1.1250000000000000       0.37500000000000000        0.0000000000000000     
   1.1562500000000000       0.37500000000000000        0.0000000000000000     
   1.1875000000000000       0.37500000000000000        0.0000000000000000     
   1.2187500000000000       0.37500000000000000        0.0000000000000000     
   1.2500000000000000       0.37500000000000000        0.0000000000000000     
   1.2500000000000000       0.25000000000000000        0.0000000000000000     
   1.2812500000000000       0.25000000000000000        0.0000000000000000     
   1.3125000000000000       0.25000000000000000        0.0000000000000000     
   1.3437500000000000       0.25000000000000000        0.0000000000000000     
   1.3750000000000000       0.25000000000000000        0.0000000000000000     
   1.2500000000000000       0.28125000000000000        0.0000000000000000     
   1.2812500000000000       0.28125000000000000        0.0000000000000000     
   1.3125000000000000       0.28125000000000000        0.0000000000000000     
   1.3437500000000000       0.28125000000000000        0.0000000000000000     
   1.3750000000000000       0.28125000000000000        0.0000000000000000     
   1.2500000000000000       0.31250000000000000        0.0000000000000000     
   1.2812500000000000       0.31250000000000000        0.0000000000000000     
   1.3125000000000000       0.31250000000000000        0.0000000000000000     
   1.3437500000000000       0.31250000000000000        0.0000000000000000     
   1.3750000000000000       0.31250000000000000        0.0000000000000000     
   1.2500000000000000       0.34375000000000000        0.0000000000000000     
   1.2812500000000000       0.34375000000000000        0.0000000000000000     
   1.3125000000000000       0.34375000000000000        0.0000000000000000     
   1.3437500000000000       0.34375000000000000        0.0000000000000000     
   1.3750000000000000       0.34375000000000000        0.0000000000000000     
   1.2500000000000000       0.37500000000000000        0.0000000000000000     
   1.2812500000000000       0.37500000000000000        0.0000000000000000     
   1.3125000000000000       0.37500000000000000        0.0000000000000000     
   1.3437500000000000       0.37500000000000000        0.0000000000000000     
   1.3750000000000000       0.37500000000000000        0.0000000000000000     
   1.3750000000000000       0.25000000000000000        0.0000000000000000     
   1.4062500000000000       0.25000000000000000        0.0000000000000000     
   1.4375000000000000       0.25000000000000000        0.0000000000000000     
   1.4687500000000000       0.25000000000000000        0.0000000000000000     
   1.5000000000000000       0.25000000000000000        0.0000000000000000     
   1.3750000000000000       0.28125000000000000        0.0000000000000000     
   1.4062500000000000       0.28125000000000000        0.0000000000000000     
   1.4375000000000000       0.28125000000000000        0.0000000000000000     
   1.4687500000000000       0.28125000000000000        0.0000000000000000     
   1.5000000000000000       0.28125000000000000        0.0000000000000000     
   1.3750000000000000       0.31250000000000000        0.0000000000000000     
   1.4062500000000000       0.31250000000000000        0.0000000000000000     
   1.4375000000000000       0.31250000000000000        0.0000000000000000     
   1.4687500000000000       0.31250000000000000        0.0000000000000000     
   1.5000000000000000       0.31250000000000000        0.0000000000000000     
   1.3750000000000000       0.34375000000000000        0.0000000000000000     
   1.4062500000000000       0.34375000000000000        0.0000000000000000     
   1.4375000000000000       0.34375000000000000        0.0000000000000000     
   1.4687500000000000       0.34375000000000000        0.0000000000000000     
   1.5000000000000000       0.34375000000000000        0.0000000000000000     
   1.3750000000000000       0.37500000000000000        0.0000000000000000     
   1.4062500000000000       0.37500000000000000        0.0000000000000000     
   1.4375000000000000       0.37500000000000000        0.0000000000000000     
   1.4687500000000000       0.37500000000000000        0.0000000000000000     
   1.5000000000000000       0.37500000000000000        0.0000000000000000     
  0.50000000000000000       0.37500000000000000        0.0000000000000000     
  0.53125000000000000       0.37500000000000000        0.0000000000000000     
  0.56250000000000000       0.37500000000000000        0.0000000000000000     
  0.59375000000000000       0.37500000000000000        0.0000000000000000     
  0.62500000000000000       0.37500000000000000        0.0000000000000000     
  0.50000000000000000       0.40625000000000000        0.0000000000000000     
  0.53125000000000000       0.40625000000000000        0.0000000000000000     
  0.56250000000000000       0.40625000000000000        0.0000000000000000     
  0.59375000000000000       0.40625000000000000        0.0000000000000000     
  0.62500000000000000       0.40625000000000000        0.0000000000000000     
  0.50000000000000000       0.43750000000000000        0.0000000000000000     
  0.53125000000000000       0.43750000000000000        0.0000000000000000     
  0.56250000000000000       0.43750000000000000        0.0000000000000000     
  0.59375000000000000       0.43750000000000000        0.0000000000000000     
  0.62500000000000000       0.43750000000000000        0.0000000000000000     
  0.50000000000000000       0.46875000000000000        0.0000000000000000     
  0.53125000000000000       0.46875000000000000        0.0000000000000000     
  0.56250000000000000       0.46875000000000000        0.0000000000000000     
  0.59375000000000000       0.46875000000000000        0.0000000000000000     
  0.62500000000000000       0.46875000000000000        0.0000000000000000     
  0.50000000000000000       0.50000000000000000        0.0000000000000000     
  0.53125000000000000       0.50000000000000000        0.0000000000000000     
  0.56250000000000000       0.50000000000000000        0.0000000000000000     
  0.59375000000000000       0.50000000000000000        0.0000000000000000     
  0.62500000000000000       0.50000000000000000        0.0000000000000000     
  0.62500000000000000       0.37500000000000000        0.0000000000000000     
  0.65625000000000000       0.37500000000000000        0.0000000000000000     
  0.68750000000000000       0.37500000000000000        0.0000000000000000     
  0.71875000000000000       0.37500000000000000        0.0000000000000000     
  0.75000000000000000       0.37500000000000000        0.0000000000000000     
  0.62500000000000000       0.40625000000000000        0.0000000000000000     
  0.65625000000000000       0.40625000000000000        0.0000000000000000     
  0.68750000000000000       0.40625000000000000        0.0000000000000000     
  0.71875000000000000       0.40625000000000000        0.0000000000000000     
  0.75000000000000000       0.40625000000000000        0.0000000000000000     
  0.62500000000000000       0.43750000000000000        0.0000000000000000     
  0.65625000000000000       0.43750000000000000        0.0000000000000000     
  0.68750000000000000       0.43750000000000000        0.0000000000000000     
  0.71875000000000000       0.43750000000000000        0.0000000000000000     
  0.75000000000000000       0.43750000000000000        0.0000000000000000     
  0.62500000000000000       0.46875000000000000        0.0000000000000000     
  0.65625000000000000       0.46875000000000000        0.0000000000000000     
  0.68750000000000000       0.46875000000000000        0.0000000000000000     
  0.71875000000000000       0.46875000000000000        0.0000000000000000     
  0.75000000000000000       0.46875000000000000        0.0000000000000000     
  0.62500000000000000       0.50000000000000000        0.0000000000000000     
  0.65625000000000000       0.50000000000000000        0.0000000000000000     
  0.68750000000000000       0.50000000000000000        0.0000000000000000     
  0.71875000000000000       0.50000000000000000        0.0000000000000000     
  0.75000000000000000       0.50000000000000000        0.0000000000000000     
  0.75000000000000000       0.37500000000000000        0.0000000000000000     
  0.78125000000000000       0.37500000000000000        0.0000000000000000     
  0.81250000000000000       0.37500000000000000        0.0000000000000000     
  0.84375000000000000       0.37500000000000000        0.0000000000000000     
  0.87500000000000000       0.37500000000000000        0.0000000000000000     
  0.75000000000000000       0.40625000000000000        0.0000000000000000     
  0.78125000000000000       0.40625000000000000        0.0000000000000000     
  0.81250000000000000       0.40625000000000000        0.0000000000000000     
  0.84375000000000000       0.40625000000000000        0.0000000000000000     
  0.87500000000000000       0.40625000000000000        0.0000000000000000     
  0.75000000000000000       0.43750000000000000        0.0000000000000000     
  0.78125000000000000       0.43750000000000000        0.0000000000000000     
  0.81250000000000000       0.43750000000000000        0.0000000000000000     
  0.84375000000000000       0.43750000000000000        0.0000000000000000     
  0.87500000000000000       0.43750000000000000        0.0000000000000000     
  0.75000000000000000       0.46875000000000000        0.0000000000000000     
  0.78125000000000000       0.46875000000000000        0.0000000000000000     
  0.81250000000000000       0.46875000000000000        0.0000000000000000     
  0.84375000000000000       0.46875000000000000        0.0000000000000000     
  0.87500000000000000       0.46875000000000000        0.0000000000000000     
  0.75000000000000000       0.50000000000000000        0.0000000000000000     
  0.78125000000000000       0.50000000000000000        0.0000000000000000     
  0.81250000000000000       0.50000000000000000        0.0000000000000000     
  0.84375000000000000       0.50000000000000000        0.0000000000000000     
  0.87500000000000000       0.50000000000000000        0.0000000000000000     
  0.87500000000000000       0.37500000000000000        0.0000000000000000     
  0.90625000000000000       0.37500000000000000        0.0000000000000000     
  0.93750000000000000       0.37500000000000000        0.0000000000000000     
  0.96875000000000000       0.37500000000000000        0.0000000000000000     
   1.0000000000000000       0.37500000000000000        0.0000000000000000     
  0.87500000000000000       0.40625000000000000        0.0000000000000000     
  0.90625000000000000       0.40625000000000000        0.0000000000000000     
  0.93750000000000000       0.40625000000000000        0.0000000000000000     
  0.96875000000000000       0.40625000000000000        0.0000000000000000     
   1.0000000000000000       0.40625000000000000        0.0000000000000000     
  0.87500000000000000       0.43750000000000000        0.0000000000000000     
  0.90625000000000000       0.43750000000000000        0.0000000000000000     
  0.93750000000000000       0.43750000000000000        0.0000000000000000     
  0.96875000000000000       0.43750000000000000        0.0000000000000000     
   1.0000000000000000       0.43750000000000000        0.0000000000000000     
  0.87500000000000000       0.46875000000000000        0.0000000000000000     
  0.90625000000000000       0.46875000000000000        0.0000000000000000     
  0.93750000000000000       0.46875000000000000        0.0000000000000000     
  0.96875000000000000       0.46875000000000000        0.0000000000000000     
   1.0000000000000000       0.46875000000000000        0.0000000000000000     
  0.87500000000000000       0.50000000000000000        0.0000000000000000     
  0.90625000000000000       0.50000000000000000        0.0000000000000000     
  0.93750000000000000       0.50000000000000000        0.0000000000000000     
  0.96875000000000000       0.50000000000000000        0.0000000000000000     
   1.0000000000000000       0.50000000000000000        0.0000000000000000     
   1.0000000000000000       0.37500000000000000        0.0000000000000000     
   1.0312500000000000       0.37500000000000000        0.0000000000000000     
   1.0625000000000000       0.37500000000000000        0.0000000000000000     
   1.0937500000000000       0.37500000000000000        0.0000000000000000     
   1.1250000000000000       0.37500000000000000        0.0000000000000000     
   1.0000000000000000       0.40625000000000000        0.0000000000000000     
   1.0312500000000000       0.40625000000000000        0.0000000000000000     
   1.0625000000000000       0.40625000000000000        0.0000000000000000     
   1.0937500000000000       0.40625000000000000        0.0000000000000000     
   1.1250000000000000       0.40625000000000000        0.0000000000000000     
   1.0000000000000000       0.43750000000000000        0.0000000000000000     
   1.0312500000000000       0.43750000000000000        0.0000000000000000     
   1.0625000000000000       0.43750000000000000        0.0000000000000000     
   1.0937500000000000       0.43750000000000000        0.0000000000000000     
   1.1250000000000000       0.43750000000000000        0.0000000000000000     
   1.0000000000000000       0.46875000000000000        0.0000000000000000     
   1.0312500000000000       0.46875000000000000        0.0000000000000000     
   1.0625000000000000       0.46875000000000000        0.0000000000000000     
   1.0937500000000000       0.46875000000000000        0.0000000000000000     
   1.1250000000000000       0.46875000000000000        0.0000000000000000     
   1.0000000000000000       0.50000000000000000        0.0000000000000000     
   1.0312500000000000       0.50000000000000000        0.0000000000000000     
   1.0625000000000000       0.50000000000000000        0.0000000000000000     
   1.0937500000000000       0.50000000000000000        0.0000000000000000     
   1.1250000000000000       0.50000000000000000        0.0000000000000000     
   1.1250000000000000       0.37500000000000000        0.0000000000000000     
   1.1562500000000000       0.37500000000000000        0.0000000000000000     
   1.1875000000000000       0.37500000000000000        0.0000000000000000     
   1.2187500000000000       0.37500000000000000        0.0000000000000000     
   1.2500000000000000       0.37500000000000000        0.0000000000000000     
   1.1250000000000000       0.40625000000000000        0.0000000000000000     
   1.1562500000000000       0.40625000000000000        0.0000000000000000     
   1.1875000000000000       0.40625000000000000        0.0000000000000000     
   1.2187500000000000       0.40625000000000000        0.0000000000000000     
   1.2500000000000000       0.40625000000000000        0.0000000000000000     
   1.1250000000000000       0.43750000000000000        0.0000000000000000     
   1.1562500000000000       0.43750000000000000        0.0000000000000000     
   1.1875000000000000       0.43750000000000000        0.0000000000000000     
   1.2187500000000000       0.43750000000000000        0.0000000000000000     
   1.2500000000000000       0.43750000000000000        0.0000000000000000     
   1.1250000000000000       0.46875000000000000        0.0000000000000000     
   1.1562500000000000       0.46875000000000000        0.0000000000000000     
   1.1875000000000000       0.46875000000000000        0.0000000000000000     
   1.2187500000000000       0.46875000000000000        0.0000000000000000     
   1.2500000000000000       0.46875000000000000        0.0000000000000000     
   1.1250000000000000       0.50000000000000000        0.0000000000000000     
   1.1562500000000000       0.50000000000000000        0.0000000000000000     
   1.1875000000000000       0.50000000000000000        0.0000000000000000     
   1.2187500000000000       0.50000000000000000        0.0000000000000000     
   1.2500000000000000       0.50000000000000000        0.0000000000000000     
   1.2500000000000000       0.37500000000000000        0.0000000000000000     
   1.2812500000000000       0.37500000000000000        0.0000000000000000     
   1.3125000000000000       0.37500000000000000        0.0000000000000000     
   1.3437500000000000       0.37500000000000000        0.0000000000000000     
   1.3750000000000000       0.37500000000000000        0.0000000000000000     
   1.2500000000000000       0.40625000000000000        0.0000000000000000     
   1.2812500000000000       0.40625000000000000        0.0000000000000000     
   1.3125000000000000       0.40625000000000000        0.0000000000000000     
   1.3437500000000000       0.40625000000000000        0.0000000000000000     
   1.3750000000000000       0.40625000000000000        0.0000000000000000     
   1.2500000000000000       0.43750000000000000        0.0000000000000000     
   1.2812500000000000       0.43750000000000000        0.0000000000000000     
   1.3125000000000000       0.43750000000000000        0.0000000000000000     
   1.3437500000000000       0.43750000000000000        0.0000000000000000     
   1.3750000000000000       0.43750000000000000        0.0000000000000000     
   1.2500000000000000       0.46875000000000000        0.0000000000000000     
   1.2812500000000000       0.46875000000000000        0.0000000000000000     
   1.3125000000000000       0.46875000000000000        0.0000000000000000     
   1.3437500000000000       0.46875000000000000        0.0000000000000000     
   1.3750000000000000       0.46875000000000000        0.0000000000000000     
   1.2500000000000000       0.50000000000000000        0.0000000000000000     
   1.2812500000000000       0.50000000000000000        0.0000000000000000     
   1.3125000000000000       0.50000000000000000        0.0000000000000000     
   1.3437500000000000       0.50000000000000000        0.0000000000000000     
   1.3750000000000000       0.50000000000000000        0.0000000000000000     
   1.3750000000000000       0.37500000000000000        0.0000000000000000     
   1.4062500000000000       0.37500000000000000        0.0000000000000000     
   1.4375000000000000       0.37500000000000000        0.0000000000000000     
   1.4687500000000000       0.37500000000000000        0.0000000000000000     
   1.5000000000000000       0.37500000000000000        0.0000000000000000     
   1.3750000000000000       0.40625000000000000        0.0000000000000000     
   1.4062500000000000       0.40625000000000000        0.0000000000000000     
   1.4375000000000000       0.40625000000000000        0.0000000000000000     
   1.4687500000000000       0.40625000000000000        0.0000000000000000     
   1.5000000000000000       0.40625000000000000        0.0000000000000000     
   1.3750000000000000       0.43750000000000000        0.0000000000000000     
   1.4062500000000000       0.43750000000000000        0.0000000000000000     
   1.4375000000000000       0.43750000000000000        0.0000000000000000     
   1.4687500000000000       0.43750000000000000        0.0000000000000000     
   1.5000000000000000       0.43750000000000000        0.0000000000000000     
   1.3750000000000000       0.46875000000000000        0.0000000000000000     
   1.4062500000000000       0.46875000000000000        0.0000000000000000     
   1.4375000000000000       0.46875000000000000        0.0000000000000000     
   1.4687500000000000       0.46875000000000000        0.0000000000000000     
   1.5000000000000000       0.46875000000000000        0.0000000000000000     
   1.3750000000000000       0.50000000000000000        0.0000000000000000     
   1.4062500000000000       0.50000000000000000        0.0000000000000000     
   1.4375000000000000       0.50000000000000000        0.0000000000000000     
   1.4687500000000000       0.50000000000000000        0.0000000000000000     
   1.5000000000000000       0.50000000000000000        0.0000000000000000     
  0.50000000000000000       0.50000000000000000        0.0000000000000000     
  0.53125000000000000       0.50000000000000000        0.0000000000000000     
  0.56250000000000000       0.50000000000000000        0.0000000000000000     
  0.59375000000000000       0.50000000000000000        0.0000000000000000     
  0.62500000000000000       0.50000000000000000        0.0000000000000000     
  0.50000000000000000       0.53125000000000000        0.0000000000000000     
  0.53125000000000000       0.53125000000000000        0.0000000000000000     
  0.56250000000000000       0.53125000000000000        0.0000000000000000     
  0.59375000000000000       0.53125000000000000        0.0000000000000000     
  0.62500000000000000       0.53125000000000000        0.0000000000000000     
  0.50000000000000000       0.56250000000000000        0.0000000000000000     
  0.53125000000000000       0.56250000000000000        0.0000000000000000     
  0.56250000000000000       0.56250000000000000        0.0000000000000000     
  0.59375000000000000       0.56250000000000000        0.0000000000000000     
  0.62500000000000000       0.56250000000000000        0.0000000000000000     
  0.50000000000000000       0.59375000000000000        0.0000000000000000     
  0.53125000000000000       0.59375000000000000        0.0000000000000000     
  0.56250000000000000       0.59375000000000000        0.0000000000000000     
  0.59375000000000000       0.59375000000000000        0.0000000000000000     
  0.62500000000000000       0.59375000000000000        0.0000000000000000     
  0.50000000000000000       0.62500000000000000        0.0000000000000000     
  0.53125000000000000       0.62500000000000000        0.0000000000000000     
  0.56250000000000000       0.62500000000000000        0.0000000000000000     
  0.59375000000000000       0.62500000000000000        0.0000000000000000     
  0.62500000000000000       0.62500000000000000        0.0000000000000000     
  0.62500000000000000       0.50000000000000000        0.0000000000000000     
  0.65625000000000000       0.50000000000000000        0.0000000000000000     
  0.68750000000000000       0.50000000000000000        0.0000000000000000     
  0.71875000000000000       0.50000000000000000        0.0000000000000000     
  0.75000000000000000       0.50000000000000000        0.0000000000000000     
  0.62500000000000000       0.53125000000000000        0.0000000000000000     
  0.65625000000000000       0.53125000000000000        0.0000000000000000     
  0.68750000000000000       0.53125000000000000        0.0000000000000000     
  0.71875000000000000       0.53125000000000000        0.0000000000000000     
  0.75000000000000000       0.53125000000000000        0.0000000000000000     
  0.62500000000000000       0.56250000000000000        0.0000000000000000     
  0.65625000000000000       0.56250000000000000        0.0000000000000000     
  0.68750000000000000       0.56250000000000000        0.0000000000000000     
  0.71875000000000000       0.56250000000000000        0.0000000000000000     
  0.75000000000000000       0.56250000000000000        0.0000000000000000     
  0.62500000000000000       0.59375000000000000        0.0000000000000000     
  0.65625000000000000       0.59375000000000000        0.0000000000000000     
  0.68750000000000000       0.59375000000000000        0.0000000000000000     
  0.71875000000000000       0.59375000000000000        0.0000000000000000     
  0.75000000000000000       0.59375000000000000        0.0000000000000000     
  0.62500000000000000       0.62500000000000000        0.0000000000000000     
  0.65625000000000000       0.62500000000000000        0.0000000000000000     
  0.68750000000000000       0.62500000000000000        0.0000000000000000     
  0.71875000000000000       0.62500000000000000        0.0000000000000000     
  0.75000000000000000       0.62500000000000000        0.0000000000000000     
  0.75000000000000000       0.50000000000000000        0.0000000000000000     
  0.78125000000000000       0.50000000000000000        0.0000000000000000     
  0.81250000000000000       0.50000000000000000        0.0000000000000000     
  0.84375000000000000       0.50000000000000000        0.0000000000000000     
  0.87500000000000000       0.50000000000000000        0.0000000000000000     
  0.75000000000000000       0.53125000000000000        0.0000000000000000     
  0.78125000000000000       0.53125000000000000        0.0000000000000000     
  0.81250000000000000       0.53125000000000000        0.0000000000000000     
  0.84375000000000000       0.53125000000000000        0.0000000000000000     
  0.87500000000000000       0.53125000000000000        0.0000000000000000     
  0.75000000000000000       0.56250000000000000        0.0000000000000000     
  0.78125000000000000       0.56250000000000000        0.0000000000000000     
  0.81250000000000000       0.56250000000000000        0.0000000000000000     
  0.84375000000000000       0.56250000000000000        0.0000000000000000     
  0.87500000000000000       0.56250000000000000        0.0000000000000000     
  0.75000000000000000       0.59375000000000000        0.0000000000000000     
  0.78125000000000000       0.59375000000000000        0.0000000000000000     
  0.81250000000000000       0.59375000000000000        0.0000000000000000     
  0.84375000000000000       0.59375000000000000        0.0000000000000000     
  0.87500000000000000       0.59375000000000000        0.0000000000000000     
  0.75000000000000000       0.62500000000000000        0.0000000000000000     
  0.78125000000000000       0.62500000000000000        0.0000000000000000     
  0.81250000000000000       0.62500000000000000        0.0000000000000000     
  0.84375000000000000       0.62500000000000000        0.0000000000000000     
  0.87500000000000000       0.62500000000000000        0.0000000000000000     
  0.87500000000000000       0.50000000000000000        0.0000000000000000     
  0.90625000000000000       0.50000000000000000        0.0000000000000000     
  0.93750000000000000       0.50000000000000000        0.0000000000000000     
  0.96875000000000000       0.50000000000000000        0.0000000000000000     
   1.0000000000000000       0.50000000000000000        0.0000000000000000     
  0.87500000000000000       0.53125000000000000        0.0000000000000000     
  0.90625000000000000       0.53125000000000000        0.0000000000000000     
  0.93750000000000000       0.53125000000000000        0.0000000000000000     
  0.96875000000000000       0.53125000000000000        0.0000000000000000     
   1.0000000000000000       0.53125000000000000        0.0000000000000000     
  0.87500000000000000       0.56250000000000000        0.0000000000000000     
  0.90625000000000000       0.56250000000000000        0.0000000000000000     
  0.93750000000000000       0.56250000000000000        0.0000000000000000     
  0.96875000000000000       0.56250000000000000        0.0000000000000000     
   1.0000000000000000       0.56250000000000000        0.0000000000000000     
  0.87500000000000000       0.59375000000000000        0.0000000000000000     
  0.90625000000000000       0.59375000000000000        0.0000000000000000     
  0.93750000000000000       0.59375000000000000        0.0000000000000000     
  0.96875000000000000       0.59375000000000000        0.0000000000000000     
   1.0000000000000000       0.59375000000000000        0.0000000000000000     
  0.87500000000000000       0.62500000000000000        0.0000000000000000     
  0.90625000000000000       0.62500000000000000        0.0000000000000000     
  0.93750000000000000       0.62500000000000000        0.0000000000000000     
  0.96875000000000000       0.62500000000000000        0.0000000000000000     
   1.0000000000000000       0.62500000000000000        0.0000000000000000     
   1.0000000000000000       0.50000000000000000        0.0000000000000000     
   1.0312500000000000       0.50000000000000000        0.0000000000000000     
   1.0625000000000000       0.50000000000000000        0.0000000000000000     
   1.0937500000000000       0.50000000000000000        0.0000000000000000     
   1.1250000000000000       0.50000000000000000        0.0000000000000000     
   1.0000000000000000       0.53125000000000000        0.0000000000000000     
   1.0312500000000000       0.53125000000000000        0.0000000000000000     
   1.0625000000000000       0.53125000000000000        0.0000000000000000     
   1.0937500000000000       0.53125000000000000        0.0000000000000000     
   1.1250000000000000       0.53125000000000000        0.0000000000000000     
   1.0000000000000000       0.56250000000000000        0.0000000000000000     
   1.0312500000000000       0.56250000000000000        0.0000000000000000     
   1.0625000000000000       0.56250000000000000        0.0000000000000000     
   1.0937500000000000       0.56250000000000000        0.0000000000000000     
   1.1250000000000000       0.56250000000000000        0.0000000000000000     
   1.0000000000000000       0.59375000000000000        0.0000000000000000     
   1.0312500000000000       0.59375000000000000        0.0000000000000000     
   1.0625000000000000       0.59375000000000000        0.0000000000000000     
   1.0937500000000000       0.59375000000000000        0.0000000000000000     
   1.1250000000000000       0.59375000000000000        0.0000000000000000     
   1.0000000000000000       0.62500000000000000        0.0000000000000000     
   1.0312500000000000       0.62500000000000000        0.0000000000000000     
   1.0625000000000000       0.62500000000000000        0.0000000000000000     
   1.0937500000000000       0.62500000000000000        0.0000000000000000     
   1.1250000000000000       0.62500000000000000        0.0000000000000000     
   1.1250000000000000       0.50000000000000000        0.0000000000000000     
   1.1562500000000000       0.50000000000000000        0.0000000000000000     
   1.1875000000000000       0.50000000000000000        0.0000000000000000     
   1.2187500000000000       0.50000000000000000        0.0000000000000000     
   1.2500000000000000       0.50000000000000000        0.0000000000000000     
   1.1250000000000000       0.53125000000000000        0.0000000000000000     
   1.1562500000000000       0.53125000000000000        0.0000000000000000     
   1.1875000000000000       0.53125000000000000        0.0000000000000000     
   1.2187500000000000       0.53125000000000000        0.0000000000000000     
   1.2500000000000000       0.53125000000000000        0.0000000000000000     
   1.1250000000000000       0.56250000000000000        0.0000000000000000     
   1.1562500000000000       0.56250000000000000        0.0000000000000000     
   1.1875000000000000       0.56250000000000000        0.0000000000000000     
   1.2187500000000000       0.56250000000000000        0.0000000000000000     
   1.2500000000000000       0.56250000000000000        0.0000000000000000     
   1.1250000000000000       0.59375000000000000        0.0000000000000000     
   1.1562500000000000       0.59375000000000000        0.0000000000000000     
   1.1875000000000000       0.59375000000000000        0.0000000000000000     
   1.2187500000000000       0.59375000000000000        0.0000000000000000     
   1.2500000000000000       0.59375000000000000        0.0000000000000000     
   1.1250000000000000       0.62500000000000000        0.0000000000000000     
   1.1562500000000000       0.62500000000000000        0.0000000000000000     
   1.1875000000000000       0.62500000000000000        0.0000000000000000     
   1.2187500000000000       0.62500000000000000        0.0000000000000000     
   1.2500000000000000       0.62500000000000000        0.0000000000000000     
   1.2500000000000000       0.50000000000000000        0.0000000000000000     
   1.2812500000000000       0.50000000000000000        0.0000000000000000     
   1.3125000000000000       0.50000000000000000        0.0000000000000000     
   1.3437500000000000       0.50000000000000000        0.0000000000000000     
   1.3750000000000000       0.50000000000000000        0.0000000000000000     
   1.2500000000000000       0.53125000000000000        0.0000000000000000     
   1.2812500000000000       0.53125000000000000        0.0000000000000000     
   1.3125000000000000       0.53125000000000000        0.0000000000000000     
   1.3437500000000000       0.53125000000000000        0.0000000000000000     
   1.3750000000000000       0.53125000000000000        0.0000000000000000     
   1.2500000000000000       0.56250000000000000        0.0000000000000000     
   1.2812500000000000       0.56250000000000000        0.0000000000000000     
   1.3125000000000000       0.56250000000000000        0.0000000000000000     
   1.3437500000000000       0.56250000000000000        0.0000000000000000     
   1.3750000000000000       0.56250000000000000        0.0000000000000000     
   1.2500000000000000       0.59375000000000000        0.0000000000000000     
   1.2812500000000000       0.59375000000000000        0.0000000000000000     
   1.3125000000000000       0.59375000000000000        0.0000000000000000     
   1.3437500000000000       0.59375000000000000        0.0000000000000000     
   1.3750000000000000       0.59375000000000000        0.0000000000000000     
   1.2500000000000000       0.62500000000000000        0.0000000000000000     
   1.2812500000000000       0.62500000000000000        0.0000000000000000     
   1.3125000000000000       0.62500000000000000        0.0000000000000000     
   1.3437500000000000       0.62500000000000000        0.0000000000000000     
   1.3750000000000000       0.62500000000000000        0.0000000000000000     
   1.3750000000000000       0.50000000000000000        0.0000000000000000     
   1.4062500000000000       0.50000000000000000        0.0000000000000000     
   1.4375000000000000       0.50000000000000000        0.0000000000000000     
   1.4687500000000000       0.50000000000000000        0.0000000000000000     
   1.5000000000000000       0.50000000000000000        0.0000000000000000     
   1.3750000000000000       0.53125000000000000        0.0000000000000000     
   1.4062500000000000       0.53125000000000000        0.0000000000000000     
   1.4375000000000000       0.53125000000000000        0.0000000000000000     
   1.4687500000000000       0.53125000000000000        0.0000000000000000     
   1.5000000000000000       0.53125000000000000        0.0000000000000000     
   1.3750000000000000       0.56250000000000000        0.0000000000000000     
   1.4062500000000000       0.56250000000000000        0.0000000000000000     
   1.4375000000000000       0.56250000000000000        0.0000000000000000     
   1.4687500000000000       0.56250000000000000        0.0000000000000000     
   1.5000000000000000       0.56250000000000000        0.0000000000000000     
   1.3750000000000000       0.59375000000000000        0.0000000000000000     
   1.4062500000000000       0.59375000000000000        0.0000000000000000     
   1.4375000000000000       0.59375000000000000        0.0000000000000000     
   1.4687500000000000       0.59375000000000000        0.0000000000000000     
   1.5000000000000000       0.59375000000000000        0.0000000000000000     
   1.3750000000000000       0.62500000000000000        0.0000000000000000     
   1.4062500000000000       0.62500000000000000        0.0000000000000000     
   1.4375000000000000       0.62500000000000000        0.0000000000000000     
   1.4687500000000000       0.62500000000000000        0.0000000000000000     
   1.5000000000000000       0.62500000000000000        0.0000000000000000     
  0.50000000000000000       0.62500000000000000        0.0000000000000000     
  0.53125000000000000       0.62500000000000000        0.0000000000000000     
  0.56250000000000000       0.62500000000000000        0.0000000000000000     
  0.59375000000000000       0.62500000000000000        0.0000000000000000     
  0.62500000000000000       0.62500000000000000        0.0000000000000000     
  0.50000000000000000       0.65625000000000000        0.0000000000000000     
  0.53125000000000000       0.65625000000000000        0.0000000000000000     
  0.56250000000000000       0.65625000000000000        0.0000000000000000     
  0.59375000000000000       0.65625000000000000        0.0000000000000000     
  0.62500000000000000       0.65625000000000000        0.0000000000000000     
  0.50000000000000000       0.68750000000000000        0.0000000000000000     
  0.53125000000000000       0.68750000000000000        0.0000000000000000     
  0.56250000000000000       0.68750000000000000        0.0000000000000000     
  0.59375000000000000       0.68750000000000000        0.0000000000000000     
  0.62500000000000000       0.68750000000000000        0.0000000000000000     
  0.50000000000000000       0.71875000000000000        0.0000000000000000     
  0.53125000000000000       0.71875000000000000        0.0000000000000000     
  0.56250000000000000       0.71875000000000000        0.0000000000000000     
  0.59375000000000000       0.71875000000000000        0.0000000000000000     
  0.62500000000000000       0.71875000000000000        0.0000000000000000     
  0.50000000000000000       0.75000000000000000        0.0000000000000000     
  0.53125000000000000       0.75000000000000000        0.0000000000000000     
  0.56250000000000000       0.75000000000000000        0.0000000000000000     
  0.59375000000000000       0.75000000000000000        0.0000000000000000     
  0.62500000000000000       0.75000000000000000        0.0000000000000000     
  0.62500000000000000       0.62500000000000000        0.0000000000000000     
  0.65625000000000000       0.62500000000000000        0.0000000000000000     
  0.68750000000000000       0.62500000000000000        0.0000000000000000     
  0.71875000000000000       0.62500000000000000        0.0000000000000000     
  0.75000000000000000       0.62500000000000000        0.0000000000000000     
  0.62500000000000000       0.65625000000000000        0.0000000000000000     
  0.65625000000000000       0.65625000000000000        0.0000000000000000     
  0.68750000000000000       0.65625000000000000        0.0000000000000000     
  0.71875000000000000       0.65625000000000000        0.0000000000000000     
  0.75000000000000000       0.65625000000000000        0.0000000000000000     
  0.62500000000000000       0.68750000000000000        0.0000000000000000     
  0.65625000000000000       0.68750000000000000        0.0000000000000000     
  0.68750000000000000       0.68750000000000000        0.0000000000000000     
  0.71875000000000000       0.68750000000000000        0.0000000000000000     
  0.75000000000000000       0.68750000000000000        0.0000000000000000     
  0.62500000000000000       0.71875000000000000        0.0000000000000000     
  0.65625000000000000       0.71875000000000000        0.0000000000000000     
  0.68750000000000000       0.71875000000000000        0.0000000000000000     
  0.71875000000000000       0.71875000000000000        0.0000000000000000     
  0.75000000000000000       0.71875000000000000        0.0000000000000000     
  0.62500000000000000       0.75000000000000000        0.0000000000000000     
  0.65625000000000000       0.75000000000000000        0.0000000000000000     
  0.68750000000000000       0.75000000000000000        0.0000000000000000     
  0.71875000000000000       0.75000000000000000        0.0000000000000000     
  0.75000000000000000       0.75000000000000000        0.0000000000000000     
  0.75000000000000000       0.62500000000000000        0.0000000000000000     
  0.78125000000000000       0.62500000000000000        0.0000000000000000     
  0.81250000000000000       0.62500000000000000        0.0000000000000000     
  0.84375000000000000       0.62500000000000000        0.0000000000000000     
  0.87500000000000000       0.62500000000000000        0.0000000000000000     
  0.75000000000000000       0.65625000000000000        0.0000000000000000     
  0.78125000000000000       0.65625000000000000        0.0000000000000000     
  0.81250000000000000       0.65625000000000000        0.0000000000000000     
  0.84375000000000000       0.65625000000000000        0.0000000000000000     
  0.87500000000000000       0.65625000000000000        0.0000000000000000     
  0.75000000000000000       0.68750000000000000        0.0000000000000000     
  0.78125000000000000       0.68750000000000000        0.0000000000000000     
  0.81250000000000000       0.68750000000000000        0.0000000000000000     
  0.84375000000000000       0.68750000000000000        0.0000000000000000     
  0.87500000000000000       0.68750000000000000        0.0000000000000000     
  0.75000000000000000       0.71875000000000000        0.0000000000000000     
  0.78125000000000000       0.71875000000000000        0.0000000000000000     
  0.81250000000000000       0.71875000000000000        0.0000000000000000     
  0.84375000000000000       0.71875000000000000        0.0000000000000000     
  0.87500000000000000       0.71875000000000000        0.0000000000000000     
  0.75000000000000000       0.75000000000000000        0.0000000000000000     
  0.78125000000000000       0.75000000000000000        0.0000000000000000     
  0.81250000000000000       0.75000000000000000        0.0000000000000000     
  0.84375000000000000       0.75000000000000000        0.0000000000000000     
  0.87500000000000000       0.75000000000000000        0.0000000000000000     
  0.87500000000000000       0.62500000000000000        0.0000000000000000     
  0.90625000000000000       0.62500000000000000        0.0000000000000000     
  0.93750000000000000       0.62500000000000000        0.0000000000000000     
  0.96875000000000000       0.62500000000000000        0.0000000000000000     
   1.0000000000000000       0.62500000000000000        0.0000000000000000     
  0.87500000000000000       0.65625000000000000        0.0000000000000000     
  0.90625000000000000       0.65625000000000000        0.0000000000000000     
  0.93750000000000000       0.65625000000000000        0.0000000000000000     
  0.96875000000000000       0.65625000000000000        0.0000000000000000     
   1.0000000000000000       0.65625000000000000        0.0000000000000000     
  0.87500000000000000       0.68750000000000000        0.0000000000000000     
  0.90625000000000000       0.68750000000000000        0.0000000000000000     
  0.93750000000000000       0.68750000000000000        0.0000000000000000     
  0.96875000000000000       0.68750000000000000        0.0000000000000000     
   1.0000000000000000       0.68750000000000000        0.0000000000000000     
  0.87500000000000000       0.71875000000000000        0.0000000000000000     
  0.90625000000000000       0.71875000000000000        0.0000000000000000     
  0.93750000000000000       0.71875000000000000        0.0000000000000000     
  0.96875000000000000       0.71875000000000000        0.0000000000000000     
   1.0000000000000000       0.71875000000000000        0.0000000000000000     
  0.87500000000000000       0.75000000000000000        0.0000000000000000     
  0.90625000000000000       0.75000000000000000        0.0000000000000000     
  0.93750000000000000       0.75000000000000000        0.0000000000000000     
  0.96875000000000000       0.75000000000000000        0.0000000000000000     
   1.0000000000000000       0.75000000000000000        0.0000000000000000     
   1.0000000000000000       0.62500000000000000        0.0000000000000000     
   1.0312500000000000       0.62500000000000000        0.0000000000000000     
   1.0625000000000000       0.62500000000000000        0.0000000000000000     
   1.0937500000000000       0.62500000000000000        0.0000000000000000     
   1.1250000000000000       0.62500000000000000        0.0000000000000000     
   1.0000000000000000       0.65625000000000000        0.0000000000000000     
   1.0312500000000000       0.65625000000000000        0.0000000000000000     
   1.0625000000000000       0.65625000000000000        0.0000000000000000     
   1.0937500000000000       0.65625000000000000        0.0000000000000000     
   1.1250000000000000       0.65625000000000000        0.0000000000000000     
   1.0000000000000000       0.68750000000000000        0.0000000000000000     
   1.0312500000000000       0.68750000000000000        0.0000000000000000     
   1.0625000000000000       0.68750000000000000        0.0000000000000000     
   1.0937500000000000       0.68750000000000000        0.0000000000000000     
   1.1250000000000000       0.68750000000000000        0.0000000000000000     
   1.0000000000000000       0.71875000000000000        0.0000000000000000     
   1.0312500000000000       0.71875000000000000        0.0000000000000000     
   1.0625000000000000       0.71875000000000000        0.0000000000000000     
   1.0937500000000000       0.71875000000000000        0.0000000000000000     
   1.1250000000000000       0.71875000000000000        0.0000000000000000     
   1.0000000000000000       0.75000000000000000        0.0000000000000000     
   1.0312500000000000       0.75000000000000000        0.0000000000000000     
   1.0625000000000000       0.75000000000000000        0.0000000000000000     
   1.0937500000000000       0.75000000000000000        0.0000000000000000     
   1.1250000000000000       0.75000000000000000        0.0000000000000000     
   1.1250000000000000       0.62500000000000000        0.0000000000000000     
   1.1562500000000000       0.62500000000000000        0.0000000000000000     
   1.1875000000000000       0.62500000000000000        0.0000000000000000     
   1.2187500000000000       0.62500000000000000        0.0000000000000000     
   1.2500000000000000       0.62500000000000000        0.0000000000000000     
   1.1250000000000000       0.65625000000000000        0.0000000000000000     
   1.1562500000000000       0.65625000000000000        0.0000000000000000     
   1.1875000000000000       0.65625000000000000        0.0000000000000000     
   1.2187500000000000       0.65625000000000000        0.0000000000000000     
   1.2500000000000000       0.65625000000000000        0.0000000000000000     
   1.1250000000000000       0.68750000000000000        0.0000000000000000     
   1.1562500000000000       0.68750000000000000        0.0000000000000000     
   1.1875000000000000       0.68750000000000000        0.0000000000000000     
   1.2187500000000000       0.68750000000000000        0.0000000000000000     
   1.2500000000000000       0.68750000000000000        0.0000000000000000     
   1.1250000000000000       0.71875000000000000        0.0000000000000000     
   1.1562500000000000       0.71875000000000000        0.0000000000000000     
   1.1875000000000000       0.71875000000000000        0.0000000000000000     
   1.2187500000000000       0.71875000000000000        0.0000000000000000     
   1.2500000000000000       0.71875000000000000        0.0000000000000000     
   1.1250000000000000       0.75000000000000000        0.0000000000000000     
   1.1562500000000000       0.75000000000000000        0.0000000000000000     
   1.1875000000000000       0.75000000000000000        0.0000000000000000     
   1.2187500000000000       0.75000000000000000        0.0000000000000000     
   1.2500000000000000       0.75000000000000000        0.0000000000000000     
   1.2500000000000000       0.62500000000000000        0.0000000000000000     
   1.2812500000000000       0.62500000000000000        0.0000000000000000     
   1.3125000000000000       0.62500000000000000        0.0000000000000000     
   1.3437500000000000       0.62500000000000000        0.0000000000000000     
   1.3750000000000000       0.62500000000000000        0.0000000000000000     
   1.2500000000000000       0.65625000000000000        0.0000000000000000     
   1.2812500000000000       0.65625000000000000        0.0000000000000000     
   1.3125000000000000       0.65625000000000000        0.0000000000000000     
   1.3437500000000000       0.65625000000000000        0.0000000000000000     
   1.3750000000000000       0.65625000000000000        0.0000000000000000     
   1.2500000000000000       0.68750000000000000        0.0000000000000000     
   1.2812500000000000       0.68750000000000000        0.0000000000000000     
   1.3125000000000000       0.68750000000000000        0.0000000000000000     
   1.3437500000000000       0.68750000000000000        0.0000000000000000     
   1.3750000000000000       0.68750000000000000        0.0000000000000000     
   1.2500000000000000       0.71875000000000000        0.0000000000000000     
   1.2812500000000000       0.71875000000000000        0.0000000000000000     
   1.3125000000000000       0.71875000000000000        0.0000000000000000     
   1.3437500000000000       0.71875000000000000        0.0000000000000000     
   1.3750000000000000       0.71875000000000000        0.0000000000000000     
   1.2500000000000000       0.75000000000000000        0.0000000000000000     
   1.2812500000000000       0.75000000000000000        0.0000000000000000     
   1.3125000000000000       0.75000000000000000        0.0000000000000000     
   1.3437500000000000       0.75000000000000000        0.0000000000000000     
   1.3750000000000000       0.75000000000000000        0.0000000000000000     
   1.3750000000000000       0.62500000000000000        0.0000000000000000     
   1.4062500000000000       0.62500000000000000        0.0000000000000000     
   1.4375000000000000       0.62500000000000000        0.0000000000000000     
   1.4687500000000000       0.62500000000000000        0.0000000000000000     
   1.5000000000000000       0.62500000000000000        0.0000000000000000     
   1.3750000000000000       0.65625000000000000        0.0000000000000000     
   1.4062500000000000       0.65625000000000000        0.0000000000000000     
   1.4375000000000000       0.65625000000000000        0.0000000000000000     
   1.4687500000000000       0.65625000000000000        0.0000000000000000     
   1.5000000000000000       0.65625000000000000        0.0000000000000000     
   1.3750000000000000       0.68750000000000000        0.0000000000000000     
   1.4062500000000000       0.68750000000000000        0.0000000000000000     
   1.4375000000000000       0.68750000000000000        0.0000000000000000     
   1.4687500000000000       0.68750000000000000        0.0000000000000000     
   1.5000000000000000       0.68750000000000000        0.0000000000000000     
   1.3750000000000000       0.71875000000000000        0.0000000000000000     
   1.4062500000000000       0.71875000000000000        0.0000000000000000     
   1.4375000000000000       0.71875000000000000        0.0000000000000000     
   1.4687500000000000       0.71875000000000000        0.0000000000000000     
   1.5000000000000000       0.71875000000000000        0.0000000000000000     
   1.3750000000000000       0.75000000000000000        0.0000000000000000     
   1.4062500000000000       0.75000000000000000        0.0000000000000000     
   1.4375000000000000       0.75000000000000000        0.0000000000000000     
   1.4687500000000000       0.75000000000000000        0.0000000000000000     
   1.5000000000000000       0.75000000000000000        0.0000000000000000     
  0.50000000000000000       0.75000000000000000        0.0000000000000000     
  0.53125000000000000       0.75000000000000000        0.0000000000000000     
  0.56250000000000000       0.75000000000000000        0.0000000000000000     
  0.59375000000000000       0.75000000000000000        0.0000000000000000     
  0.62500000000000000       0.75000000000000000        0.0000000000000000     
  0.50000000000000000       0.78125000000000000        0.0000000000000000     
  0.53125000000000000       0.78125000000000000        0.0000000000000000     
  0.56250000000000000       0.78125000000000000        0.0000000000000000     
  0.59375000000000000       0.78125000000000000        0.0000000000000000     
  0.62500000000000000       0.78125000000000000        0.0000000000000000     
  0.50000000000000000       0.81250000000000000        0.0000000000000000     
  0.53125000000000000       0.81250000000000000        0.0000000000000000     
  0.56250000000000000       0.81250000000000000        0.0000000000000000     
  0.59375000000000000       0.81250000000000000        0.0000000000000000     
  0.62500000000000000       0.81250000000000000        0.0000000000000000     
  0.50000000000000000       0.84375000000000000        0.0000000000000000     
  0.53125000000000000       0.84375000000000000        0.0000000000000000     
  0.56250000000000000       0.84375000000000000        0.0000000000000000     
  0.59375000000000000       0.84375000000000000        0.0000000000000000     
  0.62500000000000000       0.84375000000000000        0.0000000000000000     
  0.50000000000000000       0.87500000000000000        0.0000000000000000     
  0.53125000000000000       0.87500000000000000        0.0000000000000000     
  0.56250000000000000       0.87500000000000000        0.0000000000000000     
  0.59375000000000000       0.87500000000000000        0.0000000000000000     
  0.62500000000000000       0.87500000000000000        0.0000000000000000     
  0.62500000000000000       0.75000000000000000        0.0000000000000000     
  0.65625000000000000       0.75000000000000000        0.0000000000000000     
  0.68750000000000000       0.75000000000000000        0.0000000000000000     
  0.71875000000000000       0.75000000000000000        0.0000000000000000     
  0.75000000000000000       0.75000000000000000        0.0000000000000000     
  0.62500000000000000       0.78125000000000000        0.0000000000000000     
  0.65625000000000000       0.78125000000000000        0.0000000000000000     
  0.68750000000000000       0.78125000000000000        0.0000000000000000     
  0.71875000000000000       0.78125000000000000        0.0000000000000000     
  0.75000000000000000       0.78125000000000000        0.0000000000000000     
  0.62500000000000000       0.81250000000000000        0.0000000000000000     
  0.65625000000000000       0.81250000000000000        0.0000000000000000     
  0.68750000000000000       0.81250000000000000        0.0000000000000000     
  0.71875000000000000       0.81250000000000000        0.0000000000000000     
  0.75000000000000000       0.81250000000000000        0.0000000000000000     
  0.62500000000000000       0.84375000000000000        0.0000000000000000     
  0.65625000000000000       0.84375000000000000        0.0000000000000000     
  0.68750000000000000       0.84375000000000000        0.0000000000000000     
  0.71875000000000000       0.84375000000000000        0.0000000000000000     
  0.75000000000000000       0.84375000000000000        0.0000000000000000     
  0.62500000000000000       0.87500000000000000        0.0000000000000000     
  0.65625000000000000       0.87500000000000000        0.0000000000000000     
  0.68750000000000000       0.87500000000000000        0.0000000000000000     
  0.71875000000000000       0.87500000000000000        0.0000000000000000     
  0.75000000000000000       0.87500000000000000        0.0000000000000000     
  0.75000000000000000       0.75000000000000000        0.0000000000000000     
  0.78125000000000000       0.75000000000000000        0.0000000000000000     
  0.81250000000000000       0.75000000000000000        0.0000000000000000     
  0.84375000000000000       0.75000000000000000        0.0000000000000000     
  0.87500000000000000       0.75000000000000000        0.0000000000000000     
  0.75000000000000000       0.78125000000000000        0.0000000000000000     
  0.78125000000000000       0.78125000000000000        0.0000000000000000     
  0.81250000000000000       0.78125000000000000        0.0000000000000000     
  0.84375000000000000       0.78125000000000000        0.0000000000000000     
  0.87500000000000000       0.78125000000000000        0.0000000000000000     
  0.75000000000000000       0.81250000000000000        0.0000000000000000     
  0.78125000000000000       0.81250000000000000        0.0000000000000000     
  0.81250000000000000       0.81250000000000000        0.0000000000000000     
  0.84375000000000000       0.81250000000000000        0.0000000000000000     
  0.87500000000000000       0.81250000000000000        0.0000000000000000     
  0.75000000000000000       0.84375000000000000        0.0000000000000000     
  0.78125000000000000       0.84375000000000000        0.0000000000000000     
  0.81250000000000000       0.84375000000000000        0.0000000000000000     
  0.84375000000000000       0.84375000000000000        0.0000000000000000     
  0.87500000000000000       0.84375000000000000        0.0000000000000000     
  0.75000000000000000       0.87500000000000000        0.0000000000000000     
  0.78125000000000000       0.87500000000000000        0.0000000000000000     
  0.81250000000000000       0.87500000000000000        0.0000000000000000     
  0.84375000000000000       0.87500000000000000        0.0000000000000000     
  0.87500000000000000       0.87500000000000000        0.0000000000000000     
  0.87500000000000000       0.75000000000000000        0.0000000000000000     
  0.90625000000000000       0.75000000000000000        0.0000000000000000     
  0.93750000000000000       0.75000000000000000        0.0000000000000000     
  0.96875000000000000       0.75000000000000000        0.0000000000000000     
   1.0000000000000000       0.75000000000000000        0.0000000000000000     
  0.87500000000000000       0.78125000000000000        0.0000000000000000     
  0.90625000000000000       0.78125000000000000        0.0000000000000000     
  0.93750000000000000       0.78125000000000000        0.0000000000000000     
  0.96875000000000000       0.78125000000000000        0.0000000000000000     
   1.0000000000000000       0.78125000000000000        0.0000000000000000     
  0.87500000000000000       0.81250000000000000        0.0000000000000000     
  0.90625000000000000       0.81250000000000000        0.0000000000000000     
  0.93750000000000000       0.81250000000000000        0.0000000000000000     
  0.96875000000000000       0.81250000000000000        0.0000000000000000     
   1.0000000000000000       0.81250000000000000        0.0000000000000000     
  0.87500000000000000       0.84375000000000000        0.0000000000000000     
  0.90625000000000000       0.84375000000000000        0.0000000000000000     
  0.93750000000000000       0.84375000000000000        0.0000000000000000     
  0.96875000000000000       0.84375000000000000        0.0000000000000000     
   1.0000000000000000       0.84375000000000000        0.0000000000000000     
  0.87500000000000000       0.87500000000000000        0.0000000000000000     
  0.90625000000000000       0.87500000000000000        0.0000000000000000     
  0.93750000000000000       0.87500000000000000        0.0000000000000000     
  0.96875000000000000       0.87500000000000000        0.0000000000000000     
   1.0000000000000000       0.87500000000000000        0.0000000000000000     
   1.0000000000000000       0.75000000000000000        0.0000000000000000     
   1.0312500000000000       0.75000000000000000        0.0000000000000000     
   1.0625000000000000       0.75000000000000000        0.0000000000000000     
   1.0937500000000000       0.75000000000000000        0.0000000000000000     
   1.1250000000000000       0.75000000000000000        0.0000000000000000     
   1.0000000000000000       0.78125000000000000        0.0000000000000000     
   1.0312500000000000       0.78125000000000000        0.0000000000000000     
   1.0625000000000000       0.78125000000000000        0.0000000000000000     
   1.0937500000000000       0.78125000000000000        0.0000000000000000     
   1.1250000000000000       0.78125000000000000        0.0000000000000000     
   1.0000000000000000       0.81250000000000000        0.0000000000000000     
   1.0312500000000000       0.81250000000000000        0.0000000000000000     
   1.0625000000000000       0.81250000000000000        0.0000000000000000     
   1.0937500000000000       0.81250000000000000        0.0000000000000000     
   1.1250000000000000       0.81250000000000000        0.0000000000000000     
   1.0000000000000000       0.84375000000000000        0.0000000000000000     
   1.0312500000000000       0.84375000000000000        0.0000000000000000     
   1.0625000000000000       0.84375000000000000        0.0000000000000000     
   1.0937500000000000       0.84375000000000000        0.0000000000000000     
   1.1250000000000000       0.84375000000000000        0.0000000000000000     
   1.0000000000000000       0.87500000000000000        0.0000000000000000     
   1.0312500000000000       0.87500000000000000        0.0000000000000000     
   1.0625000000000000       0.87500000000000000        0.0000000000000000     
   1.0937500000000000       0.87500000000000000        0.0000000000000000     
   1.1250000000000000       0.87500000000000000        0.0000000000000000     
   1.1250000000000000       0.75000000000000000        0.0000000000000000     
   1.1562500000000000       0.75000000000000000        0.0000000000000000     
   1.1875000000000000       0.75000000000000000        0.0000000000000000     
   1.2187500000000000       0.75000000000000000        0.0000000000000000     
   1.2500000000000000       0.75000000000000000        0.0000000000000000     
   1.1250000000000000       0.78125000000000000        0.0000000000000000     
   1.1562500000000000       0.78125000000000000        0.0000000000000000     
   1.1875000000000000       0.78125000000000000        0.0000000000000000     
   1.2187500000000000       0.78125000000000000        0.0000000000000000     
   1.2500000000000000       0.78125000000000000        0.0000000000000000     
   1.1250000000000000       0.81250000000000000        0.0000000000000000     
   1.1562500000000000       0.81250000000000000        0.0000000000000000     
   1.1875000000000000       0.81250000000000000        0.0000000000000000     
   1.2187500000000000       0.81250000000000000        0.0000000000000000     
   1.2500000000000000       0.81250000000000000        0.0000000000000000     
   1.1250000000000000       0.84375000000000000        0.0000000000000000     
   1.1562500000000000       0.84375000000000000        0.0000000000000000     
   1.1875000000000000       0.84375000000000000        0.0000000000000000     
   1.2187500000000000       0.84375000000000000        0.0000000000000000     
   1.2500000000000000       0.84375000000000000        0.0000000000000000     
   1.1250000000000000       0.87500000000000000        0.0000000000000000     
   1.1562500000000000       0.87500000000000000        0.0000000000000000     
   1.1875000000000000       0.87500000000000000        0.0000000000000000     
   1.2187500000000000       0.87500000000000000        0.0000000000000000     
   1.2500000000000000       0.87500000000000000        0.0000000000000000     
   1.2500000000000000       0.75000000000000000        0.0000000000000000     
   1.2812500000000000       0.75000000000000000        0.0000000000000000     
   1.3125000000000000       0.75000000000000000        0.0000000000000000     
   1.3437500000000000       0.75000000000000000        0.0000000000000000     
   1.3750000000000000       0.75000000000000000        0.0000000000000000     
   1.2500000000000000       0.78125000000000000        0.0000000000000000     
   1.2812500000000000       0.78125000000000000        0.0000000000000000     
   1.3125000000000000       0.78125000000000000        0.0000000000000000     
   1.3437500000000000       0.78125000000000000        0.0000000000000000     
   1.3750000000000000       0.78125000000000000        0.0000000000000000     
   1.2500000000000000       0.81250000000000000        0.0000000000000000     
   1.2812500000000000       0.81250000000000000        0.0000000000000000     
   1.3125000000000000       0.81250000000000000        0.0000000000000000     
   1.3437500000000000       0.81250000000000000        0.0000000000000000     
   1.3750000000000000       0.81250000000000000        0.0000000000000000     
   1.2500000000000000       0.84375000000000000        0.0000000000000000     
   1.2812500000000000       0.84375000000000000        0.0000000000000000     
   1.3125000000000000       0.84375000000000000        0.0000000000000000     
   1.3437500000000000       0.84375000000000000        0.0000000000000000     
   1.3750000000000000       0.84375000000000000        0.0000000000000000     
   1.2500000000000000       0.87500000000000000        0.0000000000000000     
   1.2812500000000000       0.87500000000000000        0.0000000000000000     
   1.3125000000000000       0.87500000000000000        0.0000000000000000     
   1.3437500000000000       0.87500000000000000        0.0000000000000000     
   1.3750000000000000       0.87500000000000000        0.0000000000000000     
   1.3750000000000000       0.75000000000000000        0.0000000000000000     
   1.4062500000000000       0.75000000000000000        0.0000000000000000     
   1.4375000000000000       0.75000000000000000        0.0000000000000000     
   1.4687500000000000       0.75000000000000000        0.0000000000000000     
   1.5000000000000000       0.75000000000000000        0.0000000000000000     
   1.3750000000000000       0.78125000000000000        0.0000000000000000     
   1.4062500000000000       0.78125000000000000        0.0000000000000000     
   1.4375000000000000       0.78125000000000000        0.0000000000000000     
   1.4687500000000000       0.78125000000000000        0.0000000000000000     
   1.5000000000000000       0.78125000000000000        0.0000000000000000     
   1.3750000000000000       0.81250000000000000        0.0000000000000000     
   1.4062500000000000       0.81250000000000000        0.0000000000000000     
   1.4375000000000000       0.81250000000000000        0.0000000000000000     
   1.4687500000000000       0.81250000000000000        0.0000000000000000     
   1.5000000000000000       0.81250000000000000        0.0000000000000000     
   1.3750000000000000       0.84375000000000000        0.0000000000000000     
   1.4062500000000000       0.84375000000000000        0.0000000000000000     
   1.4375000000000000       0.84375000000000000        0.0000000000000000     
   1.4687500000000000       0.84375000000000000        0.0000000000000000     
   1.5000000000000000       0.84375000000000000        0.0000000000000000     
   1.3750000000000000       0.87500000000000000        0.0000000000000000     
   1.4062500000000000       0.87500000000000000        0.0000000000000000     
   1.4375000000000000       0.87500000000000000        0.0000000000000000     
   1.4687500000000000       0.87500000000000000        0.0000000000000000     
   1.5000000000000000       0.87500000000000000        0.0000000000000000     
  0.50000000000000000       0.87500000000000000        0.0000000000000000     
  0.53125000000000000       0.87500000000000000        0.0000000000000000     
  0.56250000000000000       0.87500000000000000        0.0000000000000000     
  0.59375000000000000       0.87500000000000000        0.0000000000000000     
  0.62500000000000000       0.87500000000000000        0.0000000000000000     
  0.50000000000000000       0.90625000000000000        0.0000000000000000     
  0.53125000000000000       0.90625000000000000        0.0000000000000000     
  0.56250000000000000       0.90625000000000000        0.0000000000000000     
  0.59375000000000000       0.90625000000000000        0.0000000000000000     
  0.62500000000000000       0.90625000000000000        0.0000000000000000     
  0.50000000000000000       0.93750000000000000        0.0000000000000000     
  0.53125000000000000       0.93750000000000000        0.0000000000000000     
  0.56250000000000000       0.93750000000000000        0.0000000000000000     
  0.59375000000000000       0.93750000000000000        0.0000000000000000     
  0.62500000000000000       0.93750000000000000        0.0000000000000000     
  0.50000000000000000       0.96875000000000000        0.0000000000000000     
  0.53125000000000000       0.96875000000000000        0.0000000000000000     
  0.56250000000000000       0.96875000000000000        0.0000000000000000     
  0.59375000000000000       0.96875000000000000        0.0000000000000000     
  0.62500000000000000       0.96875000000000000        0.0000000000000000     
  0.50000000000000000        1.0000000000000000        0.0000000000000000     
  0.53125000000000000        1.0000000000000000        0.0000000000000000     
  0.56250000000000000        1.0000000000000000        0.0000000000000000     
  0.59375000000000000        1.0000000000000000        0.0000000000000000     
  0.62500000000000000        1.0000000000000000        0.0000000000000000     
  0.62500000000000000       0.87500000000000000        0.0000000000000000     
  0.65625000000000000       0.87500000000000000        0.0000000000000000     
  0.68750000000000000       0.87500000000000000        0.0000000000000000     
  0.71875000000000000       0.87500000000000000        0.0000000000000000     
  0.75000000000000000       0.87500000000000000        0.0000000000000000     
  0.62500000000000000       0.90625000000000000        0.0000000000000000     
  0.65625000000000000       0.90625000000000000        0.0000000000000000     
  0.68750000000000000       0.90625000000000000        0.0000000000000000     
  0.71875000000000000       0.90625000000000000        0.0000000000000000     
  0.75000000000000000       0.90625000000000000        0.0000000000000000     
  0.62500000000000000       0.93750000000000000        0.0000000000000000     
  0.65625000000000000       0.93750000000000000        0.0000000000000000     
  0.68750000000000000       0.93750000000000000        0.0000000000000000     
  0.71875000000000000       0.93750000000000000        0.0000000000000000     
  0.75000000000000000       0.93750000000000000        0.0000000000000000     
  0.62500000000000000       0.96875000000000000        0.0000000000000000     
  0.65625000000000000       0.96875000000000000        0.0000000000000000     
  0.68750000000000000       0.96875000000000000        0.0000000000000000     
  0.71875000000000000       0.96875000000000000        0.0000000000000000     
  0.75000000000000000       0.96875000000000000        0.0000000000000000     
  0.62500000000000000        1.0000000000000000        0.0000000000000000     
  0.65625000000000000        1.0000000000000000        0.0000000000000000     
  0.68750000000000000        1.0000000000000000        0.0000000000000000     
  0.71875000000000000        1.0000000000000000        0.0000000000000000     
  0.75000000000000000        1.0000000000000000        0.0000000000000000     
  0.75000000000000000       0.87500000000000000        0.0000000000000000     
  0.78125000000000000       0.87500000000000000        0.0000000000000000     
  0.81250000000000000       0.87500000000000000        0.0000000000000000     
  0.84375000000000000       0.87500000000000000        0.0000000000000000     
  0.87500000000000000       0.87500000000000000        0.0000000000000000     
  0.75000000000000000       0.90625000000000000        0.0000000000000000     
  0.78125000000000000       0.90625000000000000        0.0000000000000000     
  0.81250000000000000       0.90625000000000000        0.0000000000000000     
  0.84375000000000000       0.90625000000000000        0.0000000000000000     
  0.87500000000000000       0.90625000000000000        0.0000000000000000     
  0.75000000000000000       0.93750000000000000        0.0000000000000000     
  0.78125000000000000       0.93750000000000000        0.0000000000000000     
  0.81250000000000000       0.93750000000000000        0.0000000000000000     
  0.84375000000000000       0.93750000000000000        0.0000000000000000     
  0.87500000000000000       0.93750000000000000        0.0000000000000000     
  0.75000000000000000       0.96875000000000000        0.0000000000000000     
  0.78125000000000000       0.96875000000000000        0.0000000000000000     
  0.81250000000000000       0.96875000000000000        0.0000000000000000     
  0.84375000000000000       0.96875000000000000        0.0000000000000000     
  0.87500000000000000       0.96875000000000000        0.0000000000000000     
  0.75000000000000000        1.0000000000000000        0.0000000000000000     
  0.78125000000000000        1.0000000000000000        0.0000000000000000     
  0.81250000000000000        1.0000000000000000        0.0000000000000000     
  0.84375000000000000        1.0000000000000000        0.0000000000000000     
  0.87500000000000000        1.0000000000000000        0.0000000000000000     
  0.87500000000000000       0.87500000000000000        0.0000000000000000     
  0.90625000000000000       0.87500000000000000        0.0000000000000000     
  0.93750000000000000       0.87500000000000000        0.0000000000000000     
  0.96875000000000000       0.87500000000000000        0.0000000000000000     
   1.0000000000000000       0.87500000000000000        0.0000000000000000     
  0.87500000000000000       0.90625000000000000        0.0000000000000000     
  0.90625000000000000       0.90625000000000000        0.0000000000000000     
  0.93750000000000000       0.90625000000000000        0.0000000000000000     
  0.96875000000000000       0.90625000000000000        0.0000000000000000     
   1.0000000000000000       0.90625000000000000        0.0000000000000000     
  0.87500000000000000       0.93750000000000000        0.0000000000000000     
  0.90625000000000000       0.93750000000000000        0.0000000000000000     
  0.93750000000000000       0.93750000000000000        0.0000000000000000     
  0.96875000000000000       0.93750000000000000        0.0000000000000000     
   1.0000000000000000       0.93750000000000000        0.0000000000000000     
  0.87500000000000000       0.96875000000000000        0.0000000000000000     
  0.90625000000000000       0.96875000000000000        0.0000000000000000     
  0.93750000000000000       0.96875000000000000        0.0000000000000000     
  0.96875000000000000       0.96875000000000000        0.0000000000000000     
   1.0000000000000000       0.96875000000000000        0.0000000000000000     
  0.87500000000000000        1.0000000000000000        0.0000000000000000     
  0.90625000000000000        1.0000000000000000        0.0000000000000000     
  0.93750000000000000        1.0000000000000000        0.0000000000000000     
  0.96875000000000000        1.0000000000000000        0.0000000000000000     
   1.0000000000000000        1.0000000000000000        0.0000000000000000     
   1.0000000000000000       0.87500000000000000        0.0000000000000000     
   1.0312500000000000       0.87500000000000000        0.0000000000000000     
   1.0625000000000000       0.87500000000000000        0.0000000000000000     
   1.0937500000000000       0.87500000000000000        0.0000000000000000     
   1.1250000000000000       0.87500000000000000        0.0000000000000000     
   1.0000000000000000       0.90625000000000000        0.0000000000000000     
   1.0312500000000000       0.90625000000000000        0.0000000000000000     
   1.0625000000000000       0.90625000000000000        0.0000000000000000     
   1.0937500000000000       0.90625000000000000        0.0000000000000000     
   1.1250000000000000       0.90625000000000000        0.0000000000000000     
   1.0000000000000000       0.93750000000000000        0.0000000000000000     
   1.0312500000000000       0.93750000000000000        0.0000000000000000     
   1.0625000000000000       0.93750000000000000        0.0000000000000000     
   1.0937500000000000       0.93750000000000000        0.0000000000000000     
   1.1250000000000000       0.93750000000000000        0.0000000000000000     
   1.0000000000000000       0.96875000000000000        0.0000000000000000     
   1.0312500000000000       0.96875000000000000        0.0000000000000000     
   1.0625000000000000       0.96875000000000000        0.0000000000000000     
   1.0937500000000000       0.96875000000000000        0.0000000000000000     
   1.1250000000000000       0.96875000000000000        0.0000000000000000     
   1.0000000000000000        1.0000000000000000        0.0000000000000000     
   1.0312500000000000        1.0000000000000000        0.0000000000000000     
   1.0625000000000000        1.0000000000000000        0.0000000000000000     
   1.0937500000000000        1.0000000000000000        0.0000000000000000     
   1.1250000000000000        1.0000000000000000        0.0000000000000000     
   1.1250000000000000       0.87500000000000000        0.0000000000000000     
   1.1562500000000000       0.87500000000000000        0.0000000000000000     
   1.1875000000000000       0.87500000000000000        0.0000000000000000     
   1.2187500000000000       0.87500000000000000        0.0000000000000000     
   1.2500000000000000       0.87500000000000000        0.0000000000000000     
   1.1250000000000000       0.90625000000000000        0.0000000000000000     
   1.1562500000000000       0.90625000000000000        0.0000000000000000     
   1.1875000000000000       0.90625000000000000        0.0000000000000000     
   1.2187500000000000       0.90625000000000000        0.0000000000000000     
   1.2500000000000000       0.90625000000000000        0.0000000000000000     
   1.1250000000000000       0.93750000000000000        0.0000000000000000     
   1.1562500000000000       0.93750000000000000        0.0000000000000000     
   1.1875000000000000       0.93750000000000000        0.0000000000000000     
   1.2187500000000000       0.93750000000000000        0.0000000000000000     
   1.2500000000000000       0.93750000000000000        0.0000000000000000     
   1.1250000000000000       0.96875000000000000        0.0000000000000000     
   1.1562500000000000       0.96875000000000000        0.0000000000000000     
   1.1875000000000000       0.96875000000000000        0.0000000000000000     
   1.2187500000000000       0.96875000000000000        0.0000000000000000     
   1.2500000000000000       0.96875000000000000        0.0000000000000000     
   1.1250000000000000        1.0000000000000000        0.0000000000000000     
   1.1562500000000000        1.0000000000000000        0.0000000000000000     
   1.1875000000000000        1.0000000000000000        0.0000000000000000     
   1.2187500000000000        1.0000000000000000        0.0000000000000000     
   1.2500000000000000        1.0000000000000000        0.0000000000000000     
   1.2500000000000000       0.87500000000000000        0.0000000000000000     
   1.2812500000000000       0.87500000000000000        0.0000000000000000     
   1.3125000000000000       0.87500000000000000        0.0000000000000000     
   1.3437500000000000       0.87500000000000000        0.0000000000000000     
   1.3750000000000000       0.87500000000000000        0.0000000000000000     
   1.2500000000000000       0.90625000000000000        0.0000000000000000     
   1.2812500000000000       0.90625000000000000        0.0000000000000000     
   1.3125000000000000       0.90625000000000000        0.0000000000000000     
   1.3437500000000000       0.90625000000000000        0.0000000000000000     
   1.3750000000000000       0.90625000000000000        0.0000000000000000     
   1.2500000000000000       0.93750000000000000        0.0000000000000000     
   1.2812500000000000       0.93750000000000000        0.0000000000000000     
   1.3125000000000000       0.93750000000000000        0.0000000000000000     
   1.3437500000000000       0.93750000000000000        0.0000000000000000     
   1.3750000000000000       0.93750000000000000        0.0000000000000000     
   1.2500000000000000       0.96875000000000000        0.0000000000000000     
   1.2812500000000000       0.96875000000000000        0.0000000000000000     
   1.3125000000000000       0.96875000000000000        0.0000000000000000     
   1.3437500000000000       0.96875000000000000        0.0000000000000000     
   1.3750000000000000       0.96875000000000000        0.0000000000000000     
   1.2500000000000000        1.0000000000000000        0.0000000000000000     
   1.2812500000000000        1.0000000000000000        0.0000000000000000     
   1.3125000000000000        1.0000000000000000        0.0000000000000000     
   1.3437500000000000        1.0000000000000000        0.0000000000000000     
   1.3750000000000000        1.0000000000000000        0.0000000000000000     
   1.3750000000000000       0.87500000000000000        0.0000000000000000     
   1.4062500000000000       0.87500000000000000        0.0000000000000000     
   1.4375000000000000       0.87500000000000000        0.0000000000000000     
   1.4687500000000000       0.87500000000000000        0.0000000000000000     
   1.5000000000000000       0.87500000000000000        0.0000000000000000     
   1.3750000000000000       0.90625000000000000        0.0000000000000000     
   1.4062500000000000       0.90625000000000000        0.0000000000000000     
   1.4375000000000000       0.90625000000000000        0.0000000000000000     
   1.4687500000000000       0.90625000000000000        0.0000000000000000     
   1.5000000000000000       0.90625000000000000        0.0000000000000000     
   1.3750000000000000       0.93750000000000000        0.0000000000000000     
   1.4062500000000000       0.93750000000000000        0.0000000000000000     
   1.4375000000000000       0.93750000000000000        0.0000000000000000     
   1.4687500000000000       0.93750000000000000        0.0000000000000000     
   1.5000000000000000       0.93750000000000000        0.0000000000000000     
   1.3750000000000000       0.96875000000000000        0.0000000000000000     
   1.4062500000000000       0.96875000000000000        0.0000000000000000     
   1.4375000000000000       0.96875000000000000        0.0000000000000000     
   1.4687500000000000       0.96875000000000000        0.0000000000000000     
   1.5000000000000000       0.96875000000000000        0.0000000000000000     
   1.3750000000000000        1.0000000000000000        0.0000000000000000     
   1.4062500000000000        1.0000000000000000        0.0000000000000000     
   1.4375000000000000        1.0000000000000000        0.0000000000000000     
   1.4687500000000000        1.0000000000000000        0.0000000000000000     
   1.5000000000000000        1.0000000000000000        0.0000000000000000     
 </DataArray>
 </Points>
 <Cells>
 <DataArray  type="Int32"  Name="connectivity"  format="ascii">
           0           1           6           5
           1           2           7           6
           2           3           8           7
           3           4           9           8
           5           6          11          10
           6           7          12          11
           7           8          13          12
           8           9          14          13
          10          11          16          15
          11          12          17          16
          12          13          18          17
          13          14          19          18
          15          16          21          20
          16          17          22          21
          17          18          23          22
          18          19          24          23
          25          26          31          30
          26          27          32          31
          27          28          33          32
          28          29          34          33
          30          31          36          35
          31          32          37          36
          32          33          38          37
          33          34          39          38
          35          36          41          40
          36          37          42          41
          37          38          43          42
          38          39          44          43
          40          41          46          45
          41          42          47          46
          42          43          48          47
          43          44          49          48
          50          51          56          55
          51          52          57          56
          52          53          58          57
          53          54          59          58
          55          56          61          60
          56          57          62          61
          57          58          63          62
          58          59          64          63
          60          61          66          65
          61          62          67          66
          62          63          68          67
          63          64          69          68
          65          66          71          70
          66          67          72          71
          67          68          73          72
          68          69          74          73
          75          76          81          80
          76          77          82          81
          77          78          83          82
          78          79          84          83
          80          81          86          85
          81          82          87          86
          82          83          88          87
          83          84          89          88
          85          86          91          90
          86          87          92          91
          87          88          93          92
          88          89          94          93
          90          91          96          95
          91          92          97          96
          92          93          98          97
          93          94          99          98
         100         101         106         105
         101         102         107         106
         102         103         108         107
         103         104         109         108
         105         106         111         110
         106         107         112         111
         107         108         113         112
         108         109         114         113
         110         111         116         115
         111         112         117         116
         112         113         118         117
         113         114         119         118
         115         116         121         120
         116         117         122         121
         117         118         123         122
         118         119         124         123
         125         126         131         130
         126         127         132         131
         127         128         133         132
         128         129         134         133
         130         131         136         135
         131         132         137         136
         132         133         138         137
         133         134         139         138
         135         136         141         140
         136         137         142         141
         137         138         143         142
         138         139         144         143
         140         141         146         145
         141         142         147         146
         142         143         148         147
         143         144         149         148
         150         151         156         155
         151         152         157         156
         152         153         158         157
         153         154         159         158
         155         156         161         160
         156         157         162         161
         157         158         163         162
         158         159         164         163
         160         161         166         165
         161         162         167         166
         162         163         168         167
         163         164         169         168
         165         166         171         170
         166         167         172         171
         167         168         173         172
         168         169         174         173
         175         176         181         180
         176         177         182         181
         177         178         183         182
         178         179         184         183
         180         181         186         185
         181         182         187         186
         182         183         188         187
         183         184         189         188
         185         186         191         190
         186         187         192         191
         187         188         193         192
         188         189         194         193
         190         191         196         195
         191         192         197         196
         192         193         198         197
         193         194         199         198
         200         201         206         205
         201         202         207         206
         202         203         208         207
         203         204         209         208
         205         206         211         210
         206         207         212         211
         207         208         213         212
         208         209         214         213
         210         211         216         215
         211         212         217         216
         212         213         218         217
         213         214         219         218
         215         216         221         220
         216         217         222         221
         217         218         223         222
         218         219         224         223
         225         226         231         230
         226         227         232         231
         227         228         233         232
         228         229         234         233
         230         231         236         235
         231         232         237         236
         232         233         238         237
         233         234         239         238
         235         236         241         240
         236         237         242         241
         237         238         243         242
         238         239         244         243
         240         241         246         245
         241         242         247         246
         242         243         248         247
         243         244         249         248
         250         251         256         255
         251         252         257         256
         252         253         258         257
         253         254         259         258
         255         256         261         260
         256         257         262         261
         257         258         263         262
         258         259         264         263
         260         261         266         265
         261         262         267         266
         262         263         268         267
         263         264         269         268
         265         266         271         270
         266         267         272         271
         267         268         273         272
         268         269         274         273
         275         276         281         280
         276         277         282         281
         277         278         283         282
         278         279         284         283
         280         281         286         285
         281         282         287         286
         282         283         288         287
         283         284         289         288
         285         286         291         290
         286         287         292         291
         287         288         293         292
         288         289         294         293
         290         291         296         295
         291         292         297         296
         292         293         298         297
         293         294         299         298
         300         301         306         305
         301         302         307         306
         302         303         308         307
         303         304         309         308
         305         306         311         310
         306         307         312         311
         307         308         313         312
         308         309         314         313
         310         311         316         315
         311         312         317         316
         312         313         318         317
         313         314         319         318
         315         316         321         320
         316         317         322         321
         317         318         323         322
         318         319         324         323
         325         326         331         330
         326         327         332         331
         327         328         333         332
         328         329         334         333
         330         331         336         335
         331         332         337         336
         332         333         338         337
         333         334         339         338
         335         336         341         340
         336         337         342         341
         337         338         343         342
         338         339         344         343
         340         341         346         345
         341         342         347         346
         342         343         348         347
         343         344         349         348
         350         351         356         355
         351         352         357         356
         352         353         358         357
         353         354         359         358
         355         356         361         360
         356         357         362         361
         357         358         363         362
         358         359         364         363
         360         361         366         365
         361         362         367         366
         362         363         368         367
         363         364         369         368
         365         366         371         370
         366         367         372         371
         367         368         373         372
         368         369         374         373
         375         376         381         380
         376         377         382         381
         377         378         383         382
         378         379         384         383
         380         381         386         385
         381         382         387         386
         382         383         388         387
         383         384         389         388
         385         386         391         390
         386         387         392         391
         387         388         393         392
         388         389         394         393
         390         391         396         395
         391         392         397         396
         392         393         398         397
         393         394         399         398
         400         401         406         405
         401         402         407         406
         402         403         408         407
         403         404         409         408
         405         406         411         410
         406         407         412         411
         407         408         413         412
         408         409         414         413
         410         411         416         415
         411         412         417         416
         412         413         418         417
         413         414         419         418
         415         416         421         420
         416         417         422         421
         417         418         423         422
         418         419         424         423
         425         426         431         430
         426         427         432         431
         427         428         433         432
         428         429         434         433
         430         431         436         435
         431         432         437         436
         432         433         438         437
         433         434         439         438
         435         436         441         440
         436         437         442         441
         437         438         443         442
         438         439         444         443
         440         441         446         445
         441         442         447         446
         442         443         448         447
         443         444         449         448
         450         451         456         455
         451         452         457         456
         452         453         458         457
         453         454         459         458
         455         456         461         460
         456         457         462         461
         457         458         463         462
         458         459         464         463
         460         461         466         465
         461         462         467         466
         462         463         468         467
         463         464         469         468
         465         466         471         470
         466         467         472         471
         467         468         473         472
         468         469         474         473
         475         476         481         480
         476         477         482         481
         477         478         483         482
         478         479         484         483
         480         481         486         485
         481         482         487         486
         482         483         488         487
         483         484         489         488
         485         486         491         490
         486         487         492         491
         487         488         493         492
         488         489         494         493
         490         491         496         495
         491         492         497         496
         492         493         498         497
         493         494         499         498
         500         501         506         505
         501         502         507         506
         502         503         508         507
         503         504         509         508
         505         506         511         510
         506         507         512         511
         507         508         513         512
         508         509         514         513
         510         511         516         515
         511         512         517         516
         512         513         518         517
         513         514         519         518
         515         516         521         520
         516         517         522         521
         517         518         523         522
         518         519         524         523
         525         526         531         530
         526         527         532         531
         527         528         533         532
         528         529         534         533
         530         531         536         535
         531         532         537         536
         532         533         538         537
         533         534         539         538
         535         536         541         540
         536         537         542         541
         537         538         543         542
         538         539         544         543
         540         541         546         545
         541         542         547         546
         542         543         548         547
         543         544         549         548
         550         551         556         555
         551         552         557         556
         552         553         558         557
         553         554         559         558
         555         556         561         560
         556         557         562         561
         557         558         563         562
         558         559         564         563
         560         561         566         565
         561         562         567         566
         562         563         568         567
         563         564         569         568
         565         566         571         570
         566         567         572         571
         567         568         573         572
         568         569         574         573
         575         576         581         580
         576         577         582         581
         577         578         583         582
         578         579         584         583
         580         581         586         585
         581         582         587         586
         582         583         588         587
         583         584         589         588
         585         586         591         590
         586         587         592         591
         587         588         593         592
         588         589         594         593
         590         591         596         595
         591         592         597         596
         592         593         598         597
         593         594         599         598
         600         601         606         605
         601         602         607         606
         602         603         608         607
         603         604         609         608
         605         606         611         610
         606         607         612         611
         607         608         613         612
         608         609         614         613
         610         611         616         615
         611         612         617         616
         612         613         618         617
         613         614         619         618
         615         616         621         620
         616         617         622         621
         617         618         623         622
         618         619         624         623
         625         626         631         630
         626         627         632         631
         627         628         633         632
         628         629         634         633
         630         631         636         635
         631         632         637         636
         632         633         638         637
         633         634         639         638
         635         636         641         640
         636         637         642         641
         637         638         643         642
         638         639         644         643
         640         641         646         645
         641         642         647         646
         642         643         648         647
         643         644         649         648
         650         651         656         655
         651         652         657         656
         652         653         658         657
         653         654         659         658
         655         656         661         660
         656         657         662         661
         657         658         663         662
         658         659         664         663
         660         661         666         665
         661         662         667         666
         662         663         668         667
         663         664         669         668
         665         666         671         670
         666         667         672         671
         667         668         673         672
         668         669         674         673
         675         676         681         680
         676         677         682         681
         677         678         683         682
         678         679         684         683
         680         681         686         685
         681         682         687         686
         682         683         688         687
         683         684         689         688
         685         686         691         690
         686         687         692         691
         687         688         693         692
         688         689         694         693
         690         691         696         695
         691         692         697         696
         692         693         698         697
         693         694         699         698
         700         701         706         705
         701         702         707         706
         702         703         708         707
         703         704         709         708
         705         706         711         710
         706         707         712         711
         707         708         713         712
         708         709         714         713
         710         711         716         715
         711         712         717         716
         712         713         718         717
         713         714         719         718
         715         716         721         720
         716         717         722         721
         717         718         723         722
         718         719         724         723
         725         726         731         730
         726         727         732         731
         727         728         733         732
         728         729         734         733
         730         731         736         735
         731         732         737         736
         732         733         738         737
         733         734         739         738
         735         736         741         740
         736         737         742         741
         737         738         743         742
         738         739         744         743
         740         741         746         745
         741         742         747         746
         742         743         748         747
         743         744         749         748
         750         751         756         755
         751         752         757         756
         752         753         758         757
         753         754         759         758
         755         756         761         760
         756         757         762         761
         757         758         763         762
         758         759         764         763
         760         761         766         765
         761         762         767         766
         762         763         768         767
         763         764         769         768
         765         766         771         770
         766         767         772         771
         767         768         773         772
         768         769         774         773
         775         776         781         780
         776         777         782         781
         777         778         783         782
         778         779         784         783
         780         781         786         785
         781         782         787         786
         782         783         788         787
         783         784         789         788
         785         786         791         790
         786         787         792         791
         787         788         793         792
         788         789         794         793
         790         791         796         795
         791         792         797         796
         792         793         798         797
         793         794         799         798
         800         801         806         805
         801         802         807         806
         802         803         808         807
         803         804         809         808
         805         806         811         810
         806         807         812         811
         807         808         813         812
         808         809         814         813
         810         811         816         815
         811         812         817         816
         812         813         818         817
         813         814         819         818
         815         816         821         820
         816         817         822         821
         817         818         823         822
         818         819         824         823
         825         826         831         830
         826         827         832         831
         827         828         833         832
         828         829         834         833
         830         831         836         835
         831         832         837         836
         832         833         838         837
         833         834         839         838
         835         836         841         840
         836         837         842         841
         837         838         843         842
         838         839         844         843
         840         841         846         845
         841         842         847         846
         842         843         848         847
         843         844         849         848
         850         851         856         855
         851         852         857         856
         852         853         858         857
         853         854         859         858
         855         856         861         860
         856         857         862         861
         857         858         863         862
         858         859         864         863
         860         861         866         865
         861         862         867         866
         862         863         868         867
         863         864         869         868
         865         866         871         870
         866         867         872         871
         867         868         873         872
         868         869         874         873
         875         876         881         880
         876         877         882         881
         877         878         883         882
         878         879         884         883
         880         881         886         885
         881         882         887         886
         882         883         888         887
         883         884         889         888
         885         886         891         890
         886         887         892         891
         887         888         893         892
         888         889         894         893
         890         891         896         895
         891         892         897         896
         892         893         898         897
         893         894         899         898
         900         901         906         905
         901         902         907         906
         902         903         908         907
         903         904         909         908
         905         906         911         910
         906         907         912         911
         907         908         913         912
         908         909         914         913
         910         911         916         915
         911         912         917         916
         912         913         918         917
         913         914         919         918
         915         916         921         920
         916         917         922         921
         917         918         923         922
         918         919         924         923
         925         926         931         930
         926         927         932         931
         927         928         933         932
         928         929         934         933
         930         931         936         935
         931         932         937         936
         932         933         938         937
         933         934         939         938
         935         936         941         940
         936         937         942         941
         937         938         943         942
         938         939         944         943
         940         941         946         945
         941         942         947         946
         942         943         948         947
         943         944         949         948
         950         951         956         955
         951         952         957         956
         952         953         958         957
         953         954         959         958
         955         956         961         960
         956         957         962         961
         957         958         963         962
         958         959         964         963
         960         961         966         965
         961         962         967         966
         962         963         968         967
         963         964         969         968
         965         966         971         970
         966         967         972         971
         967         968         973         972
         968         969         974         973
         975         976         981         980
         976         977         982         981
         977         978         983         982
         978         979         984         983
         980         981         986         985
         981         982         987         986
         982         983         988         987
         983         984         989         988
         985         986         991         990
         986         987         992         991
         987         988         993         992
         988         989         994         993
         990         991         996         995
         991         992         997         996
         992         993         998         997
         993         994         999         998
        1000        1001        1006        1005
        1001        1002        1007        1006
        1002        1003        1008        1007
        1003        1004        1009        1008
        1005        1006        1011        1010
        1006        1007        1012        1011
        1007        1008        1013        1012
        1008        1009        1014        1013
        1010        1011        1016        1015
        1011        1012        1017        1016
        1012        1013        1018        1017
        1013        1014        1019        1018
        1015        1016        1021        1020
        1016        1017        1022        1021
        1017        1018        1023        1022
        1018        1019        1024        1023
        1025        1026        1031        1030
        1026        1027        1032        1031
        1027        1028        1033        1032
        1028        1029        1034        1033
        1030        1031        1036        1035
        1031        1032        1037        1036
        1032        1033        1038        1037
        1033        1034        1039        1038
        1035        1036        1041        1040
        1036        1037        1042        1041
        1037        1038        1043        1042
        1038        1039        1044        1043
        1040        1041        1046        1045
        1041        1042        1047        1046
        1042        1043        1048        1047
        1043        1044        1049        1048
        1050        1051        1056        1055
        1051        1052        1057        1056
        1052        1053        1058        1057
        1053        1054        1059        1058
        1055        1056        1061        1060
        1056        1057        1062        1061
        1057        1058        1063        1062
        1058        1059        1064        1063
        1060        1061        1066        1065
        1061        1062        1067        1066
        1062        1063        1068        1067
        1063        1064        1069        1068
        1065        1066        1071        1070
        1066        1067        1072        1071
        1067        1068        1073        1072
        1068        1069        1074        1073
        1075        1076        1081        1080
        1076        1077        1082        1081
        1077        1078        1083        1082
        1078        1079        1084        1083
        1080        1081        1086        1085
        1081        1082        1087        1086
        1082        1083        1088        1087
        1083        1084        1089        1088
        1085        1086        1091        1090
        1086        1087        1092        1091
        1087        1088        1093        1092
        1088        1089        1094        1093
        1090        1091        1096        1095
        1091        1092        1097        1096
        1092        1093        1098        1097
        1093        1094        1099        1098
        1100        1101        1106        1105
        1101        1102        1107        1106
        1102        1103        1108        1107
        1103        1104        1109        1108
        1105        1106        1111        1110
        1106        1107        1112        1111
        1107        1108        1113        1112
        1108        1109        1114        1113
        1110        1111        1116        1115
        1111        1112        1117        1116
        1112        1113        1118        1117
        1113        1114        1119        1118
        1115        1116        1121        1120
        1116        1117        1122        1121
        1117        1118        1123        1122
        1118        1119        1124        1123
        1125        1126        1131        1130
        1126        1127        1132        1131
        1127        1128        1133        1132
        1128        1129        1134        1133
        1130        1131        1136        1135
        1131        1132        1137        1136
        1132        1133        1138        1137
        1133        1134        1139        1138
        1135        1136        1141        1140
        1136        1137        1142        1141
        1137        1138        1143        1142
        1138        1139        1144        1143
        1140        1141        1146        1145
        1141        1142        1147        1146
        1142        1143        1148        1147
        1143        1144        1149        1148
        1150        1151        1156        1155
        1151        1152        1157        1156
        1152        1153        1158        1157
        1153        1154        1159        1158
        1155        1156        1161        1160
        1156        1157        1162        1161
        1157        1158        1163        1162
        1158        1159        1164        1163
        1160        1161        1166        1165
        1161        1162        1167        1166
        1162        1163        1168        1167
        1163        1164        1169        1168
        1165        1166        1171        1170
        1166        1167        1172        1171
        1167        1168        1173        1172
        1168        1169        1174        1173
        1175        1176        1181        1180
        1176        1177        1182        1181
        1177        1178        1183        1182
        1178        1179        1184        1183
        1180        1181        1186        1185
        1181        1182        1187        1186
        1182        1183        1188        1187
        1183        1184        1189        1188
        1185        1186        1191        1190
        1186        1187        1192        1191
        1187        1188        1193        1192
        1188        1189        1194        1193
        1190        1191        1196        1195
        1191        1192        1197        1196
        1192        1193        1198        1197
        1193        1194        1199        1198
        1200        1201        1206        1205
        1201        1202        1207        1206
        1202        1203        1208        1207
        1203        1204        1209        1208
        1205        1206        1211        1210
        1206        1207        1212        1211
        1207        1208        1213        1212
        1208        1209        1214        1213
        1210        1211        1216        1215
        1211        1212        1217        1216
        1212        1213        1218        1217
        1213        1214        1219        1218
        1215        1216        1221        1220
        1216        1217        1222        1221
        1217        1218        1223        1222
        1218        1219        1224        1223
        1225        1226        1231        1230
        1226        1227        1232        1231
        1227        1228        1233        1232
        1228        1229        1234        1233
        1230        1231        1236        1235
        1231        1232        1237        1236
        1232        1233        1238        1237
        1233        1234        1239        1238
        1235        1236        1241        1240
        1236        1237        1242        1241
        1237        1238        1243        1242
        1238        1239        1244        1243
        1240        1241        1246        1245
        1241        1242        1247        1246
        1242        1243        1248        1247
        1243        1244        1249        1248
        1250        1251        1256        1255
        1251        1252        1257        1256
        1252        1253        1258        1257
        1253        1254        1259        1258
        1255        1256        1261        1260
        1256        1257        1262        1261
        1257        1258        1263        1262
        1258        1259        1264        1263
        1260        1261        1266        1265
        1261        1262        1267        1266
        1262        1263        1268        1267
        1263        1264        1269        1268
        1265        1266        1271        1270
        1266        1267        1272        1271
        1267        1268        1273        1272
        1268        1269        1274        1273
        1275        1276        1281        1280
        1276        1277        1282        1281
        1277        1278        1283        1282
        1278        1279        1284        1283
        1280        1281        1286        1285
        1281        1282        1287        1286
        1282        1283        1288        1287
        1283        1284        1289        1288
        1285        1286        1291        1290
        1286        1287        1292        1291
        1287        1288        1293        1292
        1288        1289        1294        1293
        1290        1291        1296        1295
        1291        1292        1297        1296
        1292        1293        1298        1297
        1293        1294        1299        1298
        1300        1301        1306        1305
        1301        1302        1307        1306
        1302        1303        1308        1307
        1303        1304        1309        1308
        1305        1306        1311        1310
        1306        1307        1312        1311
        1307        1308        1313        1312
        1308        1309        1314        1313
        1310        1311        1316        1315
        1311        1312        1317        1316
        1312        1313        1318        1317
        1313        1314        1319        1318
        1315        1316        1321        1320
        1316        1317        1322        1321
        1317        1318        1323        1322
        1318        1319        1324        1323
        1325        1326        1331        1330
        1326        1327        1332        1331
        1327        1328        1333        1332
        1328        1329        1334        1333
        1330        1331        1336        1335
        1331        1332        1337        1336
        1332        1333        1338        1337
        1333        1334        1339        1338
        1335        1336        1341        1340
        1336        1337        1342        1341
        1337        1338        1343        1342
        1338        1339        1344        1343
        1340        1341        1346        1345
        1341        1342        1347        1346
        1342        1343        1348        1347
        1343        1344        1349        1348
        1350        1351        1356        1355
        1351        1352        1357        1356
        1352        1353        1358        1357
        1353        1354        1359        1358
        1355        1356        1361        1360
        1356        1357        1362        1361
        1357        1358        1363        1362
        1358        1359        1364        1363
        1360        1361        1366        1365
        1361        1362        1367        1366
        1362        1363        1368        1367
        1363        1364        1369        1368
        1365        1366        1371        1370
        1366        1367        1372        1371
        1367        1368        1373        1372
        1368        1369        1374        1373
        1375        1376        1381        1380
        1376        1377        1382        1381
        1377        1378        1383        1382
        1378        1379        1384        1383
        1380        1381        1386        1385
        1381        1382        1387        1386
        1382        1383        1388        1387
        1383        1384        1389        1388
        1385        1386        1391        1390
        1386        1387        1392        1391
        1387        1388        1393        1392
        1388        1389        1394        1393
        1390        1391        1396        1395
        1391        1392        1397        1396
        1392        1393        1398        1397
        1393        1394        1399        1398
        1400        1401        1406        1405
        1401        1402        1407        1406
        1402        1403        1408        1407
        1403        1404        1409        1408
        1405        1406        1411        1410
        1406        1407        1412        1411
        1407        1408        1413        1412
        1408        1409        1414        1413
        1410        1411        1416        1415
        1411        1412        1417        1416
        1412        1413        1418        1417
        1413        1414        1419        1418
        1415        1416        1421        1420
        1416        1417        1422        1421
        1417        1418        1423        1422
        1418        1419        1424        1423
        1425        1426        1431        1430
        1426        1427        1432        1431
        1427        1428        1433        1432
        1428        1429        1434        1433
        1430        1431        1436        1435
        1431        1432        1437        1436
        1432        1433        1438        1437
        1433        1434        1439        1438
        1435        1436        1441        1440
        1436        1437        1442        1441
        1437        1438        1443        1442
        1438        1439        1444        1443
        1440        1441        1446        1445
        1441        1442        1447        1446
        1442        1443        1448        1447
        1443        1444        1449        1448
        1450        1451        1456        1455
        1451        1452        1457        1456
        1452        1453        1458        1457
        1453        1454        1459        1458
        1455        1456        1461        1460
        1456        1457        1462        1461
        1457        1458        1463        1462
        1458        1459        1464        1463
        1460        1461        1466        1465
        1461        1462        1467        1466
        1462        1463        1468        1467
        1463        1464        1469        1468
        1465        1466        1471        1470
        1466        1467        1472        1471
        1467        1468        1473        1472
        1468        1469        1474        1473
        1475        1476        1481        1480
        1476        1477        1482        1481
        1477        1478        1483        1482
        1478        1479        1484        1483
        1480        1481        1486        1485
        1481        1482        1487        1486
        1482        1483        1488        1487
        1483        1484        1489        1488
        1485        1486        1491        1490
        1486        1487        1492        1491
        1487        1488        1493        1492
        1488        1489        1494        1493
        1490        1491        1496        1495
        1491        1492        1497        1496
        1492        1493        1498        1497
        1493        1494        1499        1498
        1500        1501        1506        1505
        1501        1502        1507        1506
        1502        1503        1508        1507
        1503        1504        1509        1508
        1505        1506        1511        1510
        1506        1507        1512        1511
        1507        1508        1513        1512
        1508        1509        1514        1513
        1510        1511        1516        1515
        1511        1512        1517        1516
        1512        1513        1518        1517
        1513        1514        1519        1518
        1515        1516        1521        1520
        1516        1517        1522        1521
        1517        1518        1523        1522
        1518        1519        1524        1523
        1525        1526        1531        1530
        1526        1527        1532        1531
        1527        1528        1533        1532
        1528        1529        1534        1533
        1530        1531        1536        1535
        1531        1532        1537        1536
        1532        1533        1538        1537
        1533        1534        1539        1538
        1535        1536        1541        1540
        1536        1537        1542        1541
        1537        1538        1543        1542
        1538        1539        1544        1543
        1540        1541        1546        1545
        1541        1542        1547        1546
        1542        1543        1548        1547
        1543        1544        1549        1548
        1550        1551        1556        1555
        1551        1552        1557        1556
        1552        1553        1558        1557
        1553        1554        1559        1558
        1555        1556        1561        1560
        1556        1557        1562        1561
        1557        1558        1563        1562
        1558        1559        1564        1563
        1560        1561        1566        1565
        1561        1562        1567        1566
        1562        1563        1568        1567
        1563        1564        1569        1568
        1565        1566        1571        1570
        1566        1567        1572        1571
        1567        1568        1573        1572
        1568        1569        1574        1573
        1575        1576        1581        1580
        1576        1577        1582        1581
        1577        1578        1583        1582
        1578        1579        1584        1583
        1580        1581        1586        1585
        1581        1582        1587        1586
        1582        1583        1588        1587
        1583        1584        1589        1588
        1585        1586        1591        1590
        1586        1587        1592        1591
        1587        1588        1593        1592
        1588        1589        1594        1593
        1590        1591        1596        1595
        1591        1592        1597        1596
        1592        1593        1598        1597
        1593        1594        1599        1598
 </DataArray>
 <DataArray  type="Int32"  Name="offsets"  format="ascii"> 
           4
           8
          12
          16
          20
          24
          28
          32
          36
          40
          44
          48
          52
          56
          60
          64
          68
          72
          76
          80
          84
          88
          92
          96
         100
         104
         108
         112
         116
         120
         124
         128
         132
         136
         140
         144
         148
         152
         156
         160
         164
         168
         172
         176
         180
         184
         188
         192
         196
         200
         204
         208
         212
         216
         220
         224
         228
         232
         236
         240
         244
         248
         252
         256
         260
         264
         268
         272
         276
         280
         284
         288
         292
         296
         300
         304
         308
         312
         316
         320
         324
         328
         332
         336
         340
         344
         348
         352
         356
         360
         364
         368
         372
         376
         380
         384
         388
         392
         396
         400
         404
         408
         412
         416
         420
         424
         428
         432
         436
         440
         444
         448
         452
         456
         460
         464
         468
         472
         476
         480
         484
         488
         492
         496
         500
         504
         508
         512
         516
         520
         524
         528
         532
         536
         540
         544
         548
         552
         556
         560
         564
         568
         572
         576
         580
         584
         588
         592
         596
         600
         604
         608
         612
         616
         620
         624
         628
         632
         636
         640
         644
         648
         652
         656
         660
         664
         668
         672
         676
         680
         684
         688
         692
         696
         700
         704
         708
         712
         716
         720
         724
         728
         732
         736
         740
         744
         748
         752
         756
         760
         764
         768
         772
         776
         780
         784
         788
         792
         796
         800
         804
         808
         812
         816
         820
         824
         828
         832
         836
         840
         844
         848
         852
         856
         860
         864
         868
         872
         876
         880
         884
         888
         892
         896
         900
         904
         908
         912
         916
         920
         924
         928
         932
         936
         940
         944
         948
         952
         956
         960
         964
         968
         972
         976
         980
         984
         988
         992
         996
        1000
        1004
        1008
        1012
        1016
        1020
        1024
        1028
        1032
        1036
        1040
        1044
        1048
        1052
        1056
        1060
        1064
        1068
        1072
        1076
        1080
        1084
        1088
        1092
        1096
        1100
        1104
        1108
        1112
        1116
        1120
        1124
        1128
        1132
        1136
        1140
        1144
        1148
        1152
        1156
        1160
        1164
        1168
        1172
        1176
        1180
        1184
        1188
        1192
        1196
        1200
        1204
        1208
        1212
        1216
        1220
        1224
        1228
        1232
        1236
        1240
        1244
        1248
        1252
        1256
        1260
        1264
        1268
        1272
        1276
        1280
        1284
        1288
        1292
        1296
        1300
        1304
        1308
        1312
        1316
        1320
        1324
        1328
        1332
        1336
        1340
        1344
        1348
        1352
        1356
        1360
        1364
        1368
        1372
        1376
        1380
        1384
        1388
        1392
        1396
        1400
        1404
        1408
        1412
        1416
        1420
        1424
        1428
        1432
        1436
        1440
        1444
        1448
        1452
        1456
        1460
        1464
        1468
        1472
        1476
        1480
        1484
        1488
        1492
        1496
        1500
        1504
        1508
        1512
        1516
        1520
        1524
        1528
        1532
        1536
        1540
        1544
        1548
        1552
        1556
        1560
        1564
        1568
        1572
        1576
        1580
        1584
        1588
        1592
        1596
        1600
        1604
        1608
        1612
        1616
        1620
        1624
        1628
        1632
        1636
        1640
        1644
        1648
        1652
        1656
        1660
        1664
        1668
        1672
        1676
        1680
        1684
        1688
        1692
        1696
        1700
        1704
        1708
        1712
        1716
        1720
        1724
        1728
        1732
        1736
        1740
        1744
        1748
        1752
        1756
        1760
        1764
        1768
        1772
        1776
        1780
        1784
        1788
        1792
        1796
        1800
        1804
        1808
        1812
        1816
        1820
        1824
        1828
        1832
        1836
        1840
        1844
        1848
        1852
        1856
        1860
        1864
        1868
        1872
        1876
        1880
        1884
        1888
        1892
        1896
        1900
        1904
        1908
        1912
        1916
        1920
        1924
        1928
        1932
        1936
        1940
        1944
        1948
        1952
        1956
        1960
        1964
        1968
        1972
        1976
        1980
        1984
        1988
        1992
        1996
        2000
        2004
        2008
        2012
        2016
        2020
        2024
        2028
        2032
        2036
        2040
        2044
        2048
        2052
        2056
        2060
        2064
        2068
        2072
        2076
        2080
        2084
        2088
        2092
        2096
        2100
        2104
        2108
        2112
        2116
        2120
        2124
        2128
        2132
        2136
        2140
        2144
        2148
        2152
        2156
        2160
        2164
        2168
        2172
        2176
        2180
        2184
        2188
        2192
        2196
        2200
        2204
        2208
        2212
        2216
        2220
        2224
        2228
        2232
        2236
        2240
        2244
        2248
        2252
        2256
        2260
        2264
        2268
        2272
        2276
        2280
        2284
        2288
        2292
        2296
        2300
        2304
        2308
        2312
        2316
        2320
        2324
        2328
        2332
        2336
        2340
        2344
        2348
        2352
        2356
        2360
        2364
        2368
        2372
        2376
        2380
        2384
        2388
        2392
        2396
        2400
        2404
        2408
        2412
        2416
        2420
        2424
        2428
        2432
        2436
        2440
        2444
        2448
        2452
        2456
        2460
        2464
        2468
        2472
        2476
        2480
        2484
        2488
        2492
        2496
        2500
        2504
        2508
        2512
        2516
        2520
        2524
        2528
        2532
        2536
        2540
        2544
        2548
        2552
        2556
        2560
        2564
        2568
        2572
        2576
        2580
        2584
        2588
        2592
        2596
        2600
        2604
        2608
        2612
        2616
        2620
        2624
        2628
        2632
        2636
        2640
        2644
        2648
        2652
        2656
        2660
        2664
        2668
        2672
        2676
        2680
        2684
        2688
        2692
        2696
        2700
        2704
        2708
        2712
        2716
        2720
        2724
        2728
        2732
        2736
        2740
        2744
        2748
        2752
        2756
        2760
        2764
        2768
        2772
        2776
        2780
        2784
        2788
        2792
        2796
        2800
        2804
        2808
        2812
        2816
        2820
        2824
        2828
        2832
        2836
        2840
        2844
        2848
        2852
        2856
        2860
        2864
        2868
        2872
        2876
        2880
        2884
        2888
        2892
        2896
        2900
        2904
        2908
        2912
        2916
        2920
        2924
        2928
        2932
        2936
        2940
        2944
        2948
        2952
        2956
        2960
        2964
        2968
        2972
        2976
        2980
        2984
        2988
        2992
        2996
        3000
        3004
        3008
        3012
        3016
        3020
        3024
        3028
        3032
        3036
        3040
        3044
        3048
        3052
        3056
        3060
        3064
        3068
        3072
        3076
        3080
        3084
        3088
        3092
        3096
        3100
        3104
        3108
        3112
        3116
        3120
        3124
        3128
        3132
        3136
        3140
        3144
        3148
        3152
        3156
        3160
        3164
        3168
        3172
        3176
        3180
        3184
        3188
        3192
        3196
        3200
        3204
        3208
        3212
        3216
        3220
        3224
        3228
        3232
        3236
        3240
        3244
        3248
        3252
        3256
        3260
        3264
        3268
        3272
        3276
        3280
        3284
        3288
        3292
        3296
        3300
        3304
        3308
        3312
        3316
        3320
        3324
        3328
        3332
        3336
        3340
        3344
        3348
        3352
        3356
        3360
        3364
        3368
        3372
        3376
        3380
        3384
        3388
        3392
        3396
        3400
        3404
        3408
        3412
        3416
        3420
        3424
        3428
        3432
        3436
        3440
        3444
        3448
        3452
        3456
        3460
        3464
        3468
        3472
        3476
        3480
        3484
        3488
        3492
        3496
        3500
        3504
        3508
        3512
        3516
        3520
        3524
        3528
        3532
        3536
        3540
        3544
        3548
        3552
        3556
        3560
        3564
        3568
        3572
        3576
        3580
        3584
        3588
        3592
        3596
        3600
        3604
        3608
        3612
        3616
        3620
        3624
        3628
        3632
        3636
        3640
        3644
        3648
        3652
        3656
        3660
        3664
        3668
        3672
        3676
        3680
        3684
        3688
        3692
        3696
        3700
        3704
        3708
        3712
        3716
        3720
        3724
        3728
        3732
        3736
        3740
        3744
        3748
        3752
        3756
        3760
        3764
        3768
        3772
        3776
        3780
        3784
        3788
        3792
        3796
        3800
        3804
        3808
        3812
        3816
        3820
        3824
        3828
        3832
        3836
        3840
        3844
        3848
        3852
        3856
        3860
        3864
        3868
        3872
        3876
        3880
        3884
        3888
        3892
        3896
        3900
        3904
        3908
        3912
        3916
        3920
        3924
        3928
        3932
        3936
        3940
        3944
        3948
        3952
        3956
        3960
        3964
        3968
        3972
        3976
        3980
        3984
        3988
        3992
        3996
        4000
        4004
        4008
        4012
        4016
        4020
        4024
        4028
        4032
        4036
        4040
        4044
        4048
        4052
        4056
        4060
        4064
        4068
        4072
        4076
        4080
        4084
        4088
        4092
        4096
 </DataArray>
 <DataArray  type="UInt8"  Name="types"  format="ascii">
 9
 9
 9
 9
 9
 9
 9
 9
 9
 9
 9
 9
 9
 9
 9
 9
 9
 9
 9
 9
 9
 9
 9
 9
 9
 9
 9
 9
 9
 9
 9
 9
 9
 9
 9
 9
 9
 9
 9
 9
 9
 9
 9
 9
 9
 9
 9
 9
 9
 9
 9
 9
 9
 9
 9
 9
 9
 9
 9
 9
 9
 9
 9
 9
 9
 9
 9
 9
 9
 9
 9
 9
 9
 9
 9
 9
 9
 9
 9
 9
 9
 9
 9
 9
 9
 9
 9
 9
 9
 9
 9
 9
 9
 9
 9
 9
 9
 9
 9
 9
 9
 9
 9
 9
 9
 9
 9
 9
 9
 9
 9
 9
 9
 9
 9
 9
 9
 9
 9
 9
 9
 9
 9
 9
 9
 9
 9
 9
 9
 9
 9
 9
 9
 9
 9
 9
 9
 9
 9
 9
 9
 9
 9
 9
 9
 9
 9
 9
 9
 9
 9
 9
 9
 9
 9
 9
 9
 9
 9
 9
 9
 9
 9
 9
 9
 9
 9
 9
 9
 9
 9
 9
 9
 9
 9
 9
 9
 9
 9
 9
 9
 9
 9
 9
 9
 9
 9
 9
 9
 9
 9
 9
 9
 9
 9
 9
 9
 9
 9
 9
 9
 9
 9
 9
 9
 9
 9
 9
 9
 9
 9
 9
 9
 9
 9
 9
 9
 9
 9
 9
 9
 9
 9
 9
 9
 9
 9
 9
 9
 9
 9
 9
 9
 9
 9
 9
 9
 9
 9
 9
 9
 9
 9
 9
 9
 9
 9
 9
 9
 9
 9
 9
 9
 9
 9
 9
 9
 9
 9
 9
 9
 9
 9
 9
 9
 9
 9
 9
 9
 9
 9
 9
 9
 9
 9
 9
 9
 9
 9
 9
 9
 9
 9
 9
 9
 9
 9
 9
 9
 9
 9
 9
 9
 9
 9
 9
 9
 9
 9
 9
 9
 9
 9
 9
 9
 9
 9
 9
 9
 9
 9
 9
 9
 9
 9
 9
 9
 9
 9
 9
 9
 9
 9
 9
 9
 9
 9
 9
 9
 9
 9
 9
 9
 9
 9
 9
 9
 9
 9
 9
 9
 9
 9
 9
 9
 9
 9
 9
 9
 9
 9
 9
 9
 9
 9
 9
 9
 9
 9
 9
 9
 9
 9
 9
 9
 9
 9
 9
 9
 9
 9
 9
 9
 9
 9
 9
 9
 9
 9
 9
 9
 9
 9
 9
 9
 9
 9
 9
 9
 9
 9
 9
 9
 9
 9
 9
 9
 9
 9
 9
 9
 9
 9
 9
 9
 9
 9
 9
 9
 9
 9
 9
 9
 9
 9
 9
 9
 9
 9
 9
 9
 9
 9
 9
 9
 9
 9
 9
 9
 9
 9
 9
 9
 9
 9
 9
 9
 9
 9
 9
 9
 9
 9
 9
 9
 9
 9
 9
 9
 9
 9
 9
 9
 9
 9
 9
 9
 9
 9
 9
 9
 9
 9
 9
 9
 9
 9
 9
 9
 9
 9
 9
 9
 9
 9
 9
 9
 9
 9
 9
 9
 9
 9
 9
 9
 9
 9
 9
 9
 9
 9
 9
 9
 9
 9
 9
 9
 9
 9
 9
 9
 9
 9
 9
 9
 9
 9
 9
 9
 9
 9
 9
 9
 9
 9
 9
 9
 9
 9
 9
 9
 9
 9
 9
 9
 9
 9
 9
 9
 9
 9
 9
 9
 9
 9
 9
 9
 9
 9
 9
 9
 9
 9
 9
 9
 9
 9
 9
 9
 9
 9
 9
 9
 9
 9
 9
 9
 9
 9
 9
 9
 9
 9
 9
 9
 9
 9
 9
 9
 9
 9
 9
 9
 9
 9
 9
 9
 9
 9
 9
 9
 9
 9
 9
 9
 9
 9
 9
 9
 9
 9
 9
 9
 9
 9
 9
 9
 9
 9
 9
 9
 9
 9
 9
 9
 9
 9
 9
 9
 9
 9
 9
 9
 9
 9
 9
 9
 9
 9
 9
 9
 9
 9
 9
 9
 9
 9
 9
 9
 9
 9
 9
 9
 9
 9
 9
 9
 9
 9
 9
 9
 9
 9
 9
 9
 9
 9
 9
 9
 9
 9
 9
 9
 9
 9
 9
 9
 9
 9
 9
 9
 9
 9
 9
 9
 9
 9
 9
 9
 9
 9
 9
 9
 9
 9
 9
 9
 9
 9
 9
 9
 9
 9
 9
 9
 9
 9
 9
 9
 9
 9
 9
 9
 9
 9
 9
 9
 9
 9
 9
 9
 9
 9
 9
 9
 9
 9
 9
 9
 9
 9
 9
 9
 9
 9
 9
 9
 9
 9
 9
 9
 9
 9
 9
 9
 9
 9
 9
 9
 9
 9
 9
 9
 9
 9
 9
 9
 9
 9
 9
 9
 9
 9
 9
 9
 9
 9
 9
 9
 9
 9
 9
 9
 9
 9
 9
 9
 9
 9
 9
 9
 9
 9
 9
 9
 9
 9
 9
 9
 9
 9
 9
 9
 9
 9
 9
 9
 9
 9
 9
 9
 9
 9
 9
 9
 9
 9
 9
 9
 9
 9
 9
 9
 9
 9
 9
 9
 9
 9
 9
 9
 9
 9
 9
 9
 9
 9
 9
 9
 9
 9
 9
 9
 9
 9
 9
 9
 9
 9
 9
 9
 9
 9
 9
 9
 9
 9
 9
 9
 9
 9
 9
 9
 9
 9
 9
 9
 9
 9
 9
 9
 9
 9
 9
 9
 9
 9
 9
 9
 9
 9
 9
 9
 9
 9
 9
 9
 9
 9
 9
 9
 9
 9
 9
 9
 9
 9
 9
 9
 9
 9
 9
 9
 9
 9
 9
 9
 9
 9
 9
 9
 9
 9
 9
 9
 9
 9
 9
 9
 9
 9
 9
 9
 9
 9
 9
 9
 9
 9
 9
 9
 9
 9
 9
 9
 9
 9
 9
 9
 9
 9
 9
 9
 9
 9
 9
 9
 9
 9
 9
 9
 9
 9
 9
 9
 9
 9
 9
 9
 9
 9
 9
 9
 9
 9
 9
 9
 9
 9
 9
 9
 9
 9
 9
 9
 9
 9
 9
 9
 9
 9
 9
 9
 9
 9
 9
 9
 9
 9
 9
 9
 9
 9
 9
 9
 9
 9
 9
 9
 9
 9
 9
 9
 9
 9
 9
 9
 9
 9
 9
 9
 9
 9
 9
 9
 9
 9
 9
 9
 9
 9
 9
 9
 9
 9
 9
 9
 9
 9
 9
 9
 9
 9
 9
 9
 9
 9
 9
 9
 9
 9
 9
 9
 9
 9
 9
 9
 9
 9
 9
 9
 9
 9
 9
 </DataArray>
 </Cells> 
 <PointData>
 <DataArray  type="Float64" Name="disp" NumberOfComponents="3" format="ascii">
   6.5353372314727598E-002   6.2776754532560999E-002   0.0000000000000000     
   6.8421217815553936E-002   6.8177204927378332E-002   0.0000000000000000     
   7.1386883597814435E-002   7.3753631104306869E-002   0.0000000000000000     
   7.4250369661509136E-002   7.9506033063346609E-002   0.0000000000000000     
   7.7011676006637997E-002   8.5434410804497540E-002   0.0000000000000000     
   6.0134231944291704E-002   6.1891307117323380E-002   0.0000000000000000     
   6.3031381845083126E-002   6.7307631245809324E-002   0.0000000000000000     
   6.5825970208331863E-002   7.2904338557148549E-002   0.0000000000000000     
   6.8517997034037936E-002   7.8681429051341081E-002   0.0000000000000000     
   7.1107462322201304E-002   8.4638902728386867E-002   0.0000000000000000     
   5.5146440455295612E-002   6.1047234289230687E-002   0.0000000000000000     
   5.7857268478902477E-002   6.6486573461914583E-002   0.0000000000000000     
   6.0470249802493305E-002   7.2107699033274825E-002   0.0000000000000000     
   6.2985384426068089E-002   7.7910611003311397E-002   0.0000000000000000     
   6.5402672349626836E-002   8.3895309372024301E-002   0.0000000000000000     
   5.0389997847739308E-002   6.0244536048282928E-002   0.0000000000000000     
   5.2898877717011954E-002   6.5714031575694137E-002   0.0000000000000000     
   5.5319722380298725E-002   7.1363712532685683E-002   0.0000000000000000     
   5.7652531837599608E-002   7.7193578919257586E-002   0.0000000000000000     
   5.9897306088914602E-002   8.3203630735409817E-002   0.0000000000000000     
   4.5864904121622807E-002   5.9483212394480095E-002   0.0000000000000000     
   4.8156209559411564E-002   6.4990005587147931E-002   0.0000000000000000     
   5.0374387941748124E-002   7.0672379055381110E-002   0.0000000000000000     
   5.2519439268632472E-002   7.6530332799179604E-002   0.0000000000000000     
   5.4591363540064608E-002   8.2563866818543441E-002   0.0000000000000000     
   7.7011676006637997E-002   8.5434410804497540E-002   0.0000000000000000     
   7.9678046738063696E-002   9.1530863644828292E-002   0.0000000000000000     
   8.2256725960648897E-002   9.7787490901407453E-002   0.0000000000000000     
   8.4747713674393585E-002  0.10420429257423505        0.0000000000000000     
   8.7151009879297761E-002  0.11078126866331107        0.0000000000000000     
   7.1107462322201304E-002   8.4638902728386867E-002   0.0000000000000000     
   7.3605385803448248E-002   9.0765966508413828E-002   0.0000000000000000     
   7.6022787208405024E-002   9.7051827311549793E-002   0.0000000000000000     
   7.8359666537071646E-002  0.10349648513779473        0.0000000000000000     
   8.0616023789448099E-002  0.11009993998714873        0.0000000000000000     
   6.5402672349626836E-002   8.3895309372024301E-002   0.0000000000000000     
   6.7733696894425099E-002   9.0049964309055111E-002   0.0000000000000000     
   6.9990041381718451E-002   9.6362745984045373E-002   0.0000000000000000     
   7.2171705811506892E-002  0.10283365439699513        0.0000000000000000     
   7.4278690183790408E-002  0.10946268954790433        0.0000000000000000     
   5.9897306088914602E-002   8.3203630735409817E-002   0.0000000000000000     
   6.2062980010994279E-002   8.9382857046752126E-002   0.0000000000000000     
   6.4158488480589193E-002   9.5720246918894247E-002   0.0000000000000000     
   6.6183831497699297E-002  0.10221580035183617        0.0000000000000000     
   6.8139009062324660E-002  0.10886951734557787        0.0000000000000000     
   5.4591363540064608E-002   8.2563866818543441E-002   0.0000000000000000     
   5.6593235153155771E-002   8.8764644721504901E-002   0.0000000000000000     
   5.8528128505017214E-002   9.5124330116096389E-002   0.0000000000000000     
   6.0396043595648916E-002  0.10164292300231786        0.0000000000000000     
   6.2196980425050896E-002  0.10832042338016937        0.0000000000000000     
   8.7151009879297761E-002  0.11078126866331107        0.0000000000000000     
   8.9459811395569605E-002  0.11750476982910818        0.0000000000000000     
   9.1667315043417241E-002  0.12436114673209903        0.0000000000000000     
   9.3773520822840753E-002  0.13135039937228360        0.0000000000000000     
   9.5778428733840071E-002  0.13847252774966196        0.0000000000000000     
   8.0616023789448099E-002  0.11009993998714873        0.0000000000000000     
   8.2783930580486539E-002  0.11684969244633268        0.0000000000000000     
   8.4855458525139121E-002  0.12373324310206751        0.0000000000000000     
   8.6830607623405831E-002  0.13075059195435326        0.0000000000000000     
   8.8709377875286682E-002  0.13790173900318992        0.0000000000000000     
   7.4278690183790408E-002  0.10946268954790433        0.0000000000000000     
   7.6303020172997879E-002  0.11623792765007140        0.0000000000000000     
   7.8236721453558214E-002  0.12314744491679472        0.0000000000000000     
   8.0079794025471399E-002  0.13019124134807430        0.0000000000000000     
   8.1832237888737447E-002  0.13736931694391014        0.0000000000000000     
   6.8139009062324660E-002  0.10886951734557787        0.0000000000000000     
   7.0017080173103624E-002  0.11566947544032438        0.0000000000000000     
   7.1811103828674575E-002  0.12260375217628065        0.0000000000000000     
   7.3521080029037497E-002  0.12967234755344675        0.0000000000000000     
   7.5147008774192392E-002  0.13687526157182256        0.0000000000000000     
   6.2196980425050896E-002  0.10832042338016937        0.0000000000000000     
   6.3926110580803788E-002  0.11514433581709159        0.0000000000000000     
   6.5578605650488175E-002  0.12210216488052532        0.0000000000000000     
   6.7154465634104099E-002  0.12919391057047055        0.0000000000000000     
   6.8653690531651546E-002  0.13641957288692722        0.0000000000000000     
   9.5778428733840071E-002  0.13847252774966196        0.0000000000000000     
   9.7687068579915479E-002  0.14571633040625703        0.0000000000000000     
   9.9504470164567177E-002  0.15307060588409185        0.0000000000000000     
  0.10123063348779518       0.16053535418316647        0.0000000000000000     
  0.10286555854959950       0.16811057530348084        0.0000000000000000     
   8.8709377875286682E-002  0.13790173900318992        0.0000000000000000     
   9.0497419897501596E-002  0.14517436984300031        0.0000000000000000     
   9.2200384306770494E-002  0.15255617006820732        0.0000000000000000     
   9.3818271103093404E-002  0.16004713967881090        0.0000000000000000     
   9.5351080286470297E-002  0.16764727867481105        0.0000000000000000     
   8.1832237888737447E-002  0.13736931694391014        0.0000000000000000     
   8.3499480583243829E-002  0.14466879257644907        0.0000000000000000     
   8.5086949648878016E-002  0.15207678911783801        0.0000000000000000     
   8.6594645085640035E-002  0.15959330656807694        0.0000000000000000     
   8.8022566893529844E-002  0.16721834492716586        0.0000000000000000     
   7.5147008774192392E-002  0.13687526157182256        0.0000000000000000     
   7.6693250637142205E-002  0.14419959860660325        0.0000000000000000     
   7.8164166190889756E-002  0.15163246303298397        0.0000000000000000     
   7.9559755435435073E-002  0.15917385485096458        0.0000000000000000     
   8.0880018370778156E-002  0.16682377406054519        0.0000000000000000     
   6.8653690531651546E-002  0.13641957288692722        0.0000000000000000     
   7.0078730059196681E-002  0.14376678793346293        0.0000000000000000     
   7.1432033932805672E-002  0.15122319181364516        0.0000000000000000     
   7.2713602152478518E-002  0.15878878452747386        0.0000000000000000     
   7.3923434718215220E-002  0.16646356607494908        0.0000000000000000     
  0.10286555854959950       0.16811057530348084        0.0000000000000000     
  0.10441196873321289       0.17578580949189654        0.0000000000000000     
  0.10587258742186816       0.18355059699527518        0.0000000000000000     
  0.10724741461556528       0.19140493781361678        0.0000000000000000     
  0.10853645031430428       0.19934883194692130        0.0000000000000000     
   9.5351080286470297E-002  0.16764727867481105        0.0000000000000000     
   9.6799243645723204E-002  0.17534725206997440        0.0000000000000000     
   9.8163192969674157E-002  0.18313772487806745        0.0000000000000000     
   9.9442928258323127E-002  0.19101869709909025        0.0000000000000000     
  0.10063844951167013       0.19899016873304279        0.0000000000000000     
   8.8022566893529844E-002  0.16721834492716586        0.0000000000000000     
   8.9369703156369940E-002  0.17494307653644864        0.0000000000000000     
   9.0635041957982693E-002  0.18275867373726917        0.0000000000000000     
   9.1818583298368214E-002  0.19066513652962741        0.0000000000000000     
   9.2920327177526407E-002  0.19866246491352343        0.0000000000000000     
   8.0880018370778156E-002  0.16682377406054519        0.0000000000000000     
   8.2123347265153065E-002  0.17457328289131926        0.0000000000000000     
   8.3288134386793861E-002  0.18241344357288031        0.0000000000000000     
   8.4374379735700555E-002  0.19034425610522829        0.0000000000000000     
   8.5382083311873150E-002  0.19836572048836326        0.0000000000000000     
   7.3923434718215220E-002  0.16646356607494908        0.0000000000000000     
   7.5060175972072624E-002  0.17423787113458628        0.0000000000000000     
   7.6122470256107605E-002  0.18210203438490088        0.0000000000000000     
   7.7110317570320178E-002  0.19005605582589286        0.0000000000000000     
   7.8023717914710314E-002  0.19809993545756227        0.0000000000000000     
  0.10853645031430428       0.19934883194692130        0.0000000000000000     
  0.10974477222091573       0.20737835425423126        0.0000000000000000     
  0.11087745803823021       0.21548957959458923        0.0000000000000000     
  0.11193450776624775       0.22368250796799513        0.0000000000000000     
  0.11291592140496831       0.23195713937444901        0.0000000000000000     
  0.10063844951167013       0.19899016873304279        0.0000000000000000     
  0.10175526721485158       0.20704556976365129        0.0000000000000000     
  0.10279889185300389       0.21517833017464197        0.0000000000000000     
  0.10376932342612706       0.22338844996601487        0.0000000000000000     
  0.10466656193422108       0.23167592913776991        0.0000000000000000     
   9.2920327177526407E-002  0.19866246491352343        0.0000000000000000     
   9.3945179971982734E-002  0.20674263980562563        0.0000000000000000     
   9.4898048058262588E-002  0.21489764212260237        0.0000000000000000     
   9.5778931436366010E-002  0.22312747186445375        0.0000000000000000     
   9.6587830106292905E-002  0.23143212903117968        0.0000000000000000     
   8.5382083311873150E-002  0.19836572048836326        0.0000000000000000     
   8.6314510492309190E-002  0.20646956438015429        0.0000000000000000     
   8.7174926654006321E-002  0.21464751543847052        0.0000000000000000     
   8.7963331796964514E-002  0.22289957366331187        0.0000000000000000     
   8.8679725921183755E-002  0.23122573905467839        0.0000000000000000     
   7.8023717914710314E-002  0.19809993545756227        0.0000000000000000     
   7.8863258775830974E-002  0.20622634348723731        0.0000000000000000     
   7.9629527640235079E-002  0.21442795012224625        0.0000000000000000     
   8.0322524507922641E-002  0.22270475536258916        0.0000000000000000     
   8.0942249378893660E-002  0.23105675920826596        0.0000000000000000     
  0.11291592140496831       0.23195713937444901        0.0000000000000000     
  0.11385009716465058       0.24033003966615102        0.0000000000000000     
  0.11476543325555326       0.24881777469530139        0.0000000000000000     
  0.11566192967767631       0.25742034446190015        0.0000000000000000     
  0.11653958643101978       0.26613774896594716        0.0000000000000000     
  0.10466656193422108       0.23167592913776991        0.0000000000000000     
  0.10549566699221882       0.24006436125488823        0.0000000000000000     
  0.10626169821505309       0.24857733988235081        0.0000000000000000     
  0.10696465560272393       0.25721486502015772        0.0000000000000000     
  0.10760453915523131       0.26597693666830891        0.0000000000000000     
   9.6587830106292905E-002  0.23143212903117968        0.0000000000000000     
   9.7315534493765274E-002  0.23983823233837948        0.0000000000000000     
   9.7952835024504914E-002  0.24837240050165230        0.0000000000000000     
   9.8499731698511922E-002  0.25703463352099820        0.0000000000000000     
   9.8956224515786215E-002  0.26582493139641711        0.0000000000000000     
   8.8679725921183755E-002  0.23122573905467839        0.0000000000000000     
   8.9309699669289908E-002  0.23965165291662477        0.0000000000000000     
   8.9838843683908737E-002  0.24820295655320582        0.0000000000000000     
   9.0267157965040271E-002  0.25687964996442147        0.0000000000000000     
   9.0594642512684467E-002  0.26568173315027171        0.0000000000000000     
   8.0942249378893660E-002  0.23105675920826596        0.0000000000000000     
   8.1478162518792752E-002  0.23950462298962422        0.0000000000000000     
   8.1919724193264529E-002  0.24806900803701140        0.0000000000000000     
   8.2266934402308978E-002  0.25674991435042760        0.0000000000000000     
   8.2519793145926099E-002  0.26554734192987273        0.0000000000000000     
  0.11653958643101978       0.26613774896594716        0.0000000000000000     
  0.11733863274215560       0.27513465611214860        0.0000000000000000     
  0.11799929783765579       0.28457573380521056        0.0000000000000000     
  0.11852158171752035       0.29446098204513299        0.0000000000000000     
  0.11890548438174929       0.30479040083191583        0.0000000000000000     
  0.10760453915523131       0.26597693666830891        0.0000000000000000     
  0.10816235550151310       0.27499569839945526        0.0000000000000000     
  0.10861911127050713       0.28440329378624751        0.0000000000000000     
  0.10897480646221343       0.29419972282868562        0.0000000000000000     
  0.10922944107663199       0.30438498552676962        0.0000000000000000     
   9.8956224515786215E-002  0.26582493139641711        0.0000000000000000     
   9.9333364355789891E-002  0.27484156476429739        0.0000000000000000     
   9.9642202097985008E-002  0.28418280426102721        0.0000000000000000     
   9.9882737742371580E-002  0.29384864988660669        0.0000000000000000     
  0.10005497128894961       0.30383910164103567        0.0000000000000000     
   9.0594642512684467E-002  0.26568173315027171        0.0000000000000000     
   9.0851659304985996E-002  0.27467225520667504        0.0000000000000000     
   9.1068570320089456E-002  0.28391426522954982        0.0000000000000000     
   9.1245375557994848E-002  0.29340776321889611        0.0000000000000000     
   9.1382075018702158E-002  0.30315274917471391        0.0000000000000000     
   8.2519793145926099E-002  0.26554734192987273        0.0000000000000000     
   8.2717240349101412E-002  0.27448776972658817        0.0000000000000000     
   8.2898215936820438E-002  0.28359767669181524        0.0000000000000000     
   8.3062719909083191E-002  0.29287706282555404        0.0000000000000000     
   8.3210752265889643E-002  0.30232592812780434        0.0000000000000000     
   4.5864904121622807E-002   5.9483212394480095E-002   0.0000000000000000     
   4.8156209559411564E-002   6.4990005587147931E-002   0.0000000000000000     
   5.0374387941748124E-002   7.0672379055381110E-002   0.0000000000000000     
   5.2519439268632472E-002   7.6530332799179604E-002   0.0000000000000000     
   5.4591363540064608E-002   8.2563866818543441E-002   0.0000000000000000     
   4.1503263341793648E-002   5.8782415618343214E-002   0.0000000000000000     
   4.3578841843565377E-002   6.4323648761538760E-002   0.0000000000000000     
   4.5595609422414272E-002   7.0036143287397823E-002   0.0000000000000000     
   4.7553566078340333E-002   7.5919899195920376E-002   0.0000000000000000     
   4.9452711811343558E-002   8.1974916487106433E-002   0.0000000000000000     
   3.7237179573099397E-002   5.8161298010393318E-002   0.0000000000000000     
   3.9116352406937435E-002   6.3724114364129336E-002   0.0000000000000000     
   4.0944749757869901E-002   6.9457449914772484E-002   0.0000000000000000     
   4.2722371625896829E-002   7.5361304662322770E-002   0.0000000000000000     
   4.4449218011018199E-002   8.1435678606780165E-002   0.0000000000000000     
   3.3066652815540054E-002   5.7619859570630413E-002   0.0000000000000000     
   3.4768741249527738E-002   6.3191402394919646E-002   0.0000000000000000     
   3.6421808948115038E-002   6.8936298937505108E-002   0.0000000000000000     
   3.8025855911301962E-002   7.4854549198386772E-002   0.0000000000000000     
   3.9580882139088516E-002   8.0946153177564609E-002   0.0000000000000000     
   2.8991683069115603E-002   5.7158100299054479E-002   0.0000000000000000     
   3.0536008371336278E-002   6.2725512853909732E-002   0.0000000000000000     
   3.2026786993149654E-002   6.8472690355595695E-002   0.0000000000000000     
   3.3464018934555737E-002   7.4399632804112367E-002   0.0000000000000000     
   3.4847704195554510E-002   8.0506340199459764E-002   0.0000000000000000     
   5.4591363540064608E-002   8.2563866818543441E-002   0.0000000000000000     
   5.6593235153155771E-002   8.8764644721504901E-002   0.0000000000000000     
   5.8528128505017214E-002   9.5124330116096389E-002   0.0000000000000000     
   6.0396043595648916E-002  0.10164292300231786        0.0000000000000000     
   6.2196980425050896E-002  0.10832042338016937        0.0000000000000000     
   4.9452711811343558E-002   8.1974916487106433E-002   0.0000000000000000     
   5.1290592902712318E-002   8.8195446902206417E-002   0.0000000000000000     
   5.3064755633734972E-002   9.4575742182470682E-002   0.0000000000000000     
   5.4775200004411523E-002  0.10111580232789927        0.0000000000000000     
   5.6421926014741955E-002  0.10781562733849219        0.0000000000000000     
   4.4449218011018199E-002   8.1435678606780165E-002   0.0000000000000000     
   4.6121183841466670E-002   8.7675383157749628E-002   0.0000000000000000     
   4.7734164045474897E-002   9.4075229724836035E-002   0.0000000000000000     
   4.9288158623042901E-002  0.10063521830803941        0.0000000000000000     
   5.0783167574170660E-002  0.10735534890735975        0.0000000000000000     
   3.9580882139088516E-002   8.0946153177564609E-002   0.0000000000000000     
   4.1085007969418816E-002   8.7204453488134520E-002   0.0000000000000000     
   4.2536353740237003E-002   9.3622792743192434E-002   0.0000000000000000     
   4.3934919451543063E-002  0.10020117094273824        0.0000000000000000     
   4.5280705103337003E-002  0.10693958808677204        0.0000000000000000     
   3.4847704195554510E-002   8.0506340199459764E-002   0.0000000000000000     
   3.6182065286568761E-002   8.6782657893361176E-002   0.0000000000000000     
   3.7471324718021275E-002   9.3218431237539853E-002   0.0000000000000000     
   3.8715482489912023E-002   9.9813660231995824E-002   0.0000000000000000     
   3.9914538602241020E-002  0.10656834487672907        0.0000000000000000     
   6.2196980425050896E-002  0.10832042338016937        0.0000000000000000     
   6.3926110580803788E-002  0.11514433581709159        0.0000000000000000     
   6.5578605650488175E-002  0.12210216488052532        0.0000000000000000     
   6.7154465634104099E-002  0.12919391057047055        0.0000000000000000     
   6.8653690531651546E-002  0.13641957288692722        0.0000000000000000     
   5.6421926014741955E-002  0.10781562733849219        0.0000000000000000     
   5.8002135164833921E-002  0.11466208322147899        0.0000000000000000     
   5.9513028954795079E-002  0.12164203598408928        0.0000000000000000     
   6.0954607384625423E-002  0.12875548562632305        0.0000000000000000     
   6.2326870454324952E-002  0.13600243214818031        0.0000000000000000     
   5.0783167574170660E-002  0.10735534890735975        0.0000000000000000     
   5.2217177693929633E-002  0.11422229209459248        0.0000000000000000     
   5.3588175777391292E-002  0.12122271844153312        0.0000000000000000     
   5.4896161824555659E-002  0.12835662794818159        0.0000000000000000     
   5.6141135835422684E-002  0.13562402061453799        0.0000000000000000     
   4.5280705103337003E-002  0.10693958808677204        0.0000000000000000     
   4.6571238168090903E-002  0.11382496243643214        0.0000000000000000     
   4.7804046118276836E-002  0.12084421225285685        0.0000000000000000     
   4.8979128953894793E-002  0.12799733753604622        0.0000000000000000     
   5.0096486674944783E-002  0.13528433828600023        0.0000000000000000     
   3.9914538602241020E-002  0.10656834487672907        0.0000000000000000     
   4.1064316587317747E-002  0.11347009424699786        0.0000000000000000     
   4.2160639977451696E-002  0.12050651741806048        0.0000000000000000     
   4.3203508772642847E-002  0.12767761438991687        0.0000000000000000     
   4.4192922972891215E-002  0.13498338516256711        0.0000000000000000     
   6.8653690531651546E-002  0.13641957288692722        0.0000000000000000     
   7.0078730059196681E-002  0.14376678793346293        0.0000000000000000     
   7.1432033932805672E-002  0.15122319181364516        0.0000000000000000     
   7.2713602152478518E-002  0.15878878452747386        0.0000000000000000     
   7.3923434718215220E-002  0.16646356607494908        0.0000000000000000     
   6.2326870454324952E-002  0.13600243214818031        0.0000000000000000     
   6.3630415518687033E-002  0.14337113988330275        0.0000000000000000     
   6.4865839932505012E-002  0.15084987316533199        0.0000000000000000     
   6.6033143695778923E-002  0.15843863199426816        0.0000000000000000     
   6.7132326808508752E-002  0.16613741637011112        0.0000000000000000     
   5.6141135835422684E-002  0.13562402061453799        0.0000000000000000     
   5.7322803684892960E-002  0.14301343378239739        0.0000000000000000     
   5.8440871247867031E-002  0.15051340479355499        0.0000000000000000     
   5.9495338524344868E-002  0.15812393364801086        0.0000000000000000     
   6.0486205514326499E-002  0.16584502034576493        0.0000000000000000     
   5.0096486674944783E-002  0.13528433828600023        0.0000000000000000     
   5.1155894557814517E-002  0.14269366963074687        0.0000000000000000     
   5.2157127878891693E-002  0.15021378669831414        0.0000000000000000     
   5.3100186638176353E-002  0.15784468948870198        0.0000000000000000     
   5.3985070835668454E-002  0.16558637800191042        0.0000000000000000     
   4.4192922972891215E-002  0.13498338516256711        0.0000000000000000     
   4.5129688137451662E-002  0.14241184742835125        0.0000000000000000     
   4.6014609825579041E-002  0.14995101887960938        0.0000000000000000     
   4.6847688037273363E-002  0.15760089951634151        0.0000000000000000     
   4.7628922772534631E-002  0.16536148933854763        0.0000000000000000     
   7.3923434718215220E-002  0.16646356607494908        0.0000000000000000     
   7.5060175972072624E-002  0.17423787113458628        0.0000000000000000     
   7.6122470256107605E-002  0.18210203438490088        0.0000000000000000     
   7.7110317570320178E-002  0.19005605582589286        0.0000000000000000     
   7.8023717914710314E-002  0.19809993545756227        0.0000000000000000     
   6.7132326808508752E-002  0.16613741637011112        0.0000000000000000     
   6.8162491568705116E-002  0.17393569949813384        0.0000000000000000     
   6.9122740274378647E-002  0.18182295458360909        0.0000000000000000     
   7.0013072925529343E-002  0.18979918162653692        0.0000000000000000     
   7.0833489522157192E-002  0.19786438062691727        0.0000000000000000     
   6.0486205514326499E-002  0.16584502034576493        0.0000000000000000     
   6.1412596346627053E-002  0.17366562621384604        0.0000000000000000     
   6.2273635150061658E-002  0.18157471257928312        0.0000000000000000     
   6.3069321924630314E-002  0.18957227944207614        0.0000000000000000     
   6.3799656670333063E-002  0.19765832680222514        0.0000000000000000     
   5.3985070835668454E-002  0.16558637800191042        0.0000000000000000     
   5.4810490305838427E-002  0.17342765128172297        0.0000000000000000     
   5.5575154883156654E-002  0.18135730837192302        0.0000000000000000     
   5.6279064567623140E-002  0.18937534927251073        0.0000000000000000     
   5.6922219359237872E-002  0.19748177398348590        0.0000000000000000     
   4.7628922772534631E-002  0.16536148933854763        0.0000000000000000     
   4.8356173446339246E-002  0.17322177470176447        0.0000000000000000     
   4.9027299473663626E-002  0.18117074196152877        0.0000000000000000     
   4.9642300854507763E-002  0.18920839111784046        0.0000000000000000     
   5.0201177588871666E-002  0.19733472217069953        0.0000000000000000     
   7.8023717914710314E-002  0.19809993545756227        0.0000000000000000     
   7.8863258775830974E-002  0.20622634348723731        0.0000000000000000     
   7.9629527640235079E-002  0.21442795012224625        0.0000000000000000     
   8.0322524507922641E-002  0.22270475536258916        0.0000000000000000     
   8.0942249378893660E-002  0.23105675920826596        0.0000000000000000     
   7.0833489522157192E-002  0.19786438062691727        0.0000000000000000     
   7.1582016715668342E-002  0.20601229382367764        0.0000000000000000     
   7.2256681157468861E-002  0.21423666345574538        0.0000000000000000     
   7.2857482847558774E-002  0.22253748952312058        0.0000000000000000     
   7.3384421785938084E-002  0.23091477202580318        0.0000000000000000     
   6.3799656670333063E-002  0.19765832680222514        0.0000000000000000     
   6.4461376204941592E-002  0.20582673208627822        0.0000000000000000     
   6.5051217346227680E-002  0.21407137272078353        0.0000000000000000     
   6.5569180094191298E-002  0.22239224870574106        0.0000000000000000     
   6.6015264448832489E-002  0.23078936004115083        0.0000000000000000     
   5.6922219359237872E-002  0.19748177398348590        0.0000000000000000     
   5.7501337243650710E-002  0.20566965827503908        0.0000000000000000     
   5.8013136206511502E-002  0.21393207791736066        0.0000000000000000     
   5.8457616247820227E-002  0.22226903291045055        0.0000000000000000     
   5.8834777367576890E-002  0.23068052325430885        0.0000000000000000     
   5.0201177588871666E-002  0.19733472217069953        0.0000000000000000     
   5.0701899831795738E-002  0.20554107238996028        0.0000000000000000     
   5.1142437738320355E-002  0.21381877904547683        0.0000000000000000     
   5.1522791308445538E-002  0.22216784213724919        0.0000000000000000     
   5.1842960542171274E-002  0.23058826166527735        0.0000000000000000     
   8.0942249378893660E-002  0.23105675920826596        0.0000000000000000     
   8.1478162518792752E-002  0.23950462298962422        0.0000000000000000     
   8.1919724193264529E-002  0.24806900803701140        0.0000000000000000     
   8.2266934402308978E-002  0.25674991435042760        0.0000000000000000     
   8.2519793145926099E-002  0.26554734192987273        0.0000000000000000     
   7.3384421785938084E-002  0.23091477202580318        0.0000000000000000     
   7.3834414434763421E-002  0.23938213397543653        0.0000000000000000     
   7.4204377256191417E-002  0.24795319838366386        0.0000000000000000     
   7.4494310250222087E-002  0.25662796525048526        0.0000000000000000     
   7.4704213416855431E-002  0.26540643457590068        0.0000000000000000     
   6.6015264448832489E-002  0.23078936004115083        0.0000000000000000     
   6.6391946809691488E-002  0.23926917729212061        0.0000000000000000     
   6.6701703576308530E-002  0.24783817102375796        0.0000000000000000     
   6.6944534748683657E-002  0.25649634123606319        0.0000000000000000     
   6.7120440326816827E-002  0.26524368792903602        0.0000000000000000     
   5.8834777367576890E-002  0.23068052325430885        0.0000000000000000     
   5.9150759643576946E-002  0.23916575293967637        0.0000000000000000     
   5.9411703153615866E-002  0.24772392595729389        0.0000000000000000     
   5.9617607897693652E-002  0.25635504230716133        0.0000000000000000     
   5.9768473875810288E-002  0.26505910198927884        0.0000000000000000     
   5.1842960542171274E-002  0.23058826166527735        0.0000000000000000     
   5.2110852936419823E-002  0.23907186091810390        0.0000000000000000     
   5.2334375988113427E-002  0.24761046318427138        0.0000000000000000     
   5.2513529697252093E-002  0.25620406846377974        0.0000000000000000     
   5.2648314063835806E-002  0.26485267675662905        0.0000000000000000     
   8.2519793145926099E-002  0.26554734192987273        0.0000000000000000     
   8.2717240349101412E-002  0.27448776972658817        0.0000000000000000     
   8.2898215936820438E-002  0.28359767669181524        0.0000000000000000     
   8.3062719909083191E-002  0.29287706282555404        0.0000000000000000     
   8.3210752265889643E-002  0.30232592812780434        0.0000000000000000     
   7.4704213416855431E-002  0.26540643457590068        0.0000000000000000     
   7.4874928126668572E-002  0.27428242349053716        0.0000000000000000     
   7.5047295750238607E-002  0.28324974912502160        0.0000000000000000     
   7.5221316287565593E-002  0.29230841147935416        0.0000000000000000     
   7.5396989738649473E-002  0.30145841055353473        0.0000000000000000     
   6.7120440326816827E-002  0.26524368792903602        0.0000000000000000     
   6.7269543276219881E-002  0.27405053166502213        0.0000000000000000     
   6.7431966562404605E-002  0.28288719300636689        0.0000000000000000     
   6.7607710185371012E-002  0.29175367195307045        0.0000000000000000     
   6.7796774145119088E-002  0.30064996850513270        0.0000000000000000     
   5.9768473875810288E-002  0.26505910198927884        0.0000000000000000     
   5.9901085797755355E-002  0.27379209425004319        0.0000000000000000     
   6.0052228373318410E-002  0.28251000833585127        0.0000000000000000     
   6.0221901602499468E-002  0.29121284424670285        0.0000000000000000     
   6.0410105485298501E-002  0.29990060198259827        0.0000000000000000     
   5.2648314063835806E-002  0.26485267675662905        0.0000000000000000     
   5.2769555691274984E-002  0.27350711124560029        0.0000000000000000     
   5.2908081182980023E-002  0.28211819511347447        0.0000000000000000     
   5.3063890538950928E-002  0.29068592836025153        0.0000000000000000     
   5.3236983759187700E-002  0.29921031098593154        0.0000000000000000     
   2.8991683069115603E-002   5.7158100299054479E-002   0.0000000000000000     
   3.0536008371336278E-002   6.2725512853909732E-002   0.0000000000000000     
   3.2026786993149654E-002   6.8472690355595695E-002   0.0000000000000000     
   3.3464018934555737E-002   7.4399632804112367E-002   0.0000000000000000     
   3.4847704195554510E-002   8.0506340199459764E-002   0.0000000000000000     
   2.5071565738157837E-002   5.6739133970289048E-002   0.0000000000000000     
   2.6446642450003385E-002   6.2307828628165050E-002   0.0000000000000000     
   2.7766070671141240E-002   6.8060682842990106E-002   0.0000000000000000     
   2.9029850401571418E-002   7.3997696614764213E-002   0.0000000000000000     
   3.0237981641293914E-002   8.0118869943487381E-002   0.0000000000000000     
   2.1365596226998535E-002   5.6326074358957610E-002   0.0000000000000000     
   2.2529132163169343E-002   6.1919732604751150E-002   0.0000000000000000     
   2.3646046760257267E-002   6.7694335073634260E-002   0.0000000000000000     
   2.4716340018262301E-002   7.3649881765606939E-002   0.0000000000000000     
   2.5740011937184438E-002   7.9786372680669182E-002   0.0000000000000000     
   1.7873774535637692E-002   5.5918921465060188E-002   0.0000000000000000     
   1.8783477510834166E-002   6.1561224783668024E-002   0.0000000000000000     
   1.9666715260497729E-002   6.7373647047528129E-002   0.0000000000000000     
   2.0523487784628366E-002   7.3356188256640503E-002   0.0000000000000000     
   2.1353795083226091E-002   7.9508848411005167E-002   0.0000000000000000     
   1.4596100664075315E-002   5.5517675288596746E-002   0.0000000000000000     
   1.5209678492997853E-002   6.1232305164915665E-002   0.0000000000000000     
   1.5828076171862625E-002   6.7098618764671741E-002   0.0000000000000000     
   1.6451293700669632E-002   7.3116616087864947E-002   0.0000000000000000     
   1.7079331079418870E-002   7.9286297134495337E-002   0.0000000000000000     
   3.4847704195554510E-002   8.0506340199459764E-002   0.0000000000000000     
   3.6182065286568761E-002   8.6782657893361176E-002   0.0000000000000000     
   3.7471324718021275E-002   9.3218431237539853E-002   0.0000000000000000     
   3.8715482489912023E-002   9.9813660231995824E-002   0.0000000000000000     
   3.9914538602241020E-002  0.10656834487672907        0.0000000000000000     
   3.0237981641293914E-002   8.0118869943487381E-002   0.0000000000000000     
   3.1399877317903405E-002   8.6411531103601363E-002   0.0000000000000000     
   3.2524950358994581E-002   9.2863008369547959E-002   0.0000000000000000     
   3.3613200764567447E-002   9.9473301741327166E-002   0.0000000000000000     
   3.4664628534621988E-002  0.10624241121893893        0.0000000000000000     
   2.5740011937184438E-002   7.9786372680669182E-002   0.0000000000000000     
   2.6725965588409638E-002   8.6092607849026989E-002   0.0000000000000000     
   2.7683104043323834E-002   9.2557387300886335E-002   0.0000000000000000     
   2.8611427301927023E-002   9.9180711036247246E-002   0.0000000000000000     
   2.9510935364219209E-002  0.10596257905510971        0.0000000000000000     
   2.1353795083226091E-002   7.9508848411005167E-002   0.0000000000000000     
   2.2160330098087454E-002   8.5825888129638012E-002   0.0000000000000000     
   2.2945785771009013E-002   9.2301568031555009E-002   0.0000000000000000     
   2.3710162101990756E-002   9.8935888116756132E-002   0.0000000000000000     
   2.4453459091032696E-002  0.10572884838524142        0.0000000000000000     
   1.7079331079418870E-002   7.9286297134495337E-002   0.0000000000000000     
   1.7702970846936863E-002   8.5611371945434458E-002   0.0000000000000000     
   1.8312995542050119E-002   9.2095550561553954E-002   0.0000000000000000     
   1.8909405164758648E-002   9.8738832982853825E-002   0.0000000000000000     
   1.9492199715062435E-002  0.10554121920933406        0.0000000000000000     
   3.9914538602241020E-002  0.10656834487672907        0.0000000000000000     
   4.1064316587317747E-002  0.11347009424699786        0.0000000000000000     
   4.2160639977451696E-002  0.12050651741806048        0.0000000000000000     
   4.3203508772642847E-002  0.12767761438991687        0.0000000000000000     
   4.4192922972891215E-002  0.13498338516256711        0.0000000000000000     
   3.4664628534621988E-002  0.10624241121893893        0.0000000000000000     
   3.5673155794960672E-002  0.11315866806675533        0.0000000000000000     
   3.6632704671385977E-002  0.12021040354914830        0.0000000000000000     
   3.7543275163897889E-002  0.12739761766611785        0.0000000000000000     
   3.8404867272496410E-002  0.13472031041766397        0.0000000000000000     
   2.9510935364219209E-002  0.10596257905510971        0.0000000000000000     
   3.0374498634370202E-002  0.11289166443617006        0.0000000000000000     
   3.1194987516549800E-002  0.11995664025812458        0.0000000000000000     
   3.1972402010757989E-002  0.12715750652097330        0.0000000000000000     
   3.2706742116994786E-002  0.13449426322471622        0.0000000000000000     
   2.4453459091032696E-002  0.10572884838524142        0.0000000000000000     
   2.5168345105546327E-002  0.11266908335524208        0.0000000000000000     
   2.5847488512943145E-002  0.11974522754498937        0.0000000000000000     
   2.6490889313223152E-002  0.12695728095448333        0.0000000000000000     
   2.7098547506386343E-002  0.13430524358372387        0.0000000000000000     
   1.9492199715062435E-002  0.10554121920933406        0.0000000000000000     
   2.0054695208489046E-002  0.11249092482397141        0.0000000000000000     
   2.0590207660566025E-002  0.11957616540974265        0.0000000000000000     
   2.1098737071293366E-002  0.12679694096664784        0.0000000000000000     
   2.1580283440671082E-002  0.13415325149468688        0.0000000000000000     
   4.4192922972891215E-002  0.13498338516256711        0.0000000000000000     
   4.5129688137451662E-002  0.14241184742835125        0.0000000000000000     
   4.6014609825579041E-002  0.14995101887960938        0.0000000000000000     
   4.6847688037273363E-002  0.15760089951634151        0.0000000000000000     
   4.7628922772534631E-002  0.16536148933854763        0.0000000000000000     
   3.8404867272496410E-002  0.13472031041766397        0.0000000000000000     
   3.9219387157803966E-002  0.14216608899843483        0.0000000000000000     
   3.9988740980443020E-002  0.14972256060307854        0.0000000000000000     
   4.0712928740413538E-002  0.15738972523159506        0.0000000000000000     
   4.1391950437715541E-002  0.16516758288398445        0.0000000000000000     
   3.2706742116994786E-002  0.13449426322471622        0.0000000000000000     
   3.3400194352871046E-002  0.14195451616422200        0.0000000000000000     
   3.4054945235997620E-002  0.14952587113435936        0.0000000000000000     
   3.4670994766374523E-002  0.15720832813512828        0.0000000000000000     
   3.5248342944001740E-002  0.16500188716652872        0.0000000000000000     
   2.7098547506386343E-002  0.13430524358372387        0.0000000000000000     
   2.7672109722652865E-002  0.14177712892571276        0.0000000000000000     
   2.8213222592242845E-002  0.14936095047345185        0.0000000000000000     
   2.8721886115156296E-002  0.15705670822694104        0.0000000000000000     
   2.9198100291393213E-002  0.16486440218618037        0.0000000000000000     
   2.1580283440671082E-002  0.13415325149468688        0.0000000000000000     
   2.2035133267149436E-002  0.14163392728290716        0.0000000000000000     
   2.2463573049178703E-002  0.14922779862035601        0.0000000000000000     
   2.2865602786758879E-002  0.15693486550703345        0.0000000000000000     
   2.3241222479889970E-002  0.16475512794293945        0.0000000000000000     
   4.7628922772534631E-002  0.16536148933854763        0.0000000000000000     
   4.8356173446339246E-002  0.17322177470176447        0.0000000000000000     
   4.9027299473663626E-002  0.18117074196152877        0.0000000000000000     
   4.9642300854507763E-002  0.18920839111784046        0.0000000000000000     
   5.0201177588871666E-002  0.19733472217069953        0.0000000000000000     
   4.1391950437715541E-002  0.16516758288398445        0.0000000000000000     
   4.2022925829199809E-002  0.17304525071448934        0.0000000000000000     
   4.2602974671717121E-002  0.18101184587735247        0.0000000000000000     
   4.3132096965267472E-002  0.18906736837257365        0.0000000000000000     
   4.3610292709850867E-002  0.19721181820015304        0.0000000000000000     
   3.5248342944001740E-002  0.16500188716652872        0.0000000000000000     
   3.5784027515490403E-002  0.17289533356041620        0.0000000000000000     
   3.6275086227451660E-002  0.18087745264864613        0.0000000000000000     
   3.6721519079885502E-002  0.18894824443121860        0.0000000000000000     
   3.7123326072791916E-002  0.19710770890813353        0.0000000000000000     
   2.9198100291393213E-002  0.16486440218618037        0.0000000000000000     
   2.9639478505211047E-002  0.17277202323954494        0.0000000000000000     
   3.0043634140867258E-002  0.18076756227540991        0.0000000000000000     
   3.0410567198361851E-002  0.18885101929377518        0.0000000000000000     
   3.0740277677694820E-002  0.19702239429464086        0.0000000000000000     
   2.3241222479889970E-002  0.16475512794293945        0.0000000000000000     
   2.3589278798361733E-002  0.17267531975187564        0.0000000000000000     
   2.3908618411963917E-002  0.18068217475764367        0.0000000000000000     
   2.4199241320696525E-002  0.18877569296024349        0.0000000000000000     
   2.4461147524559562E-002  0.19695587435967513        0.0000000000000000     
   5.0201177588871666E-002  0.19733472217069953        0.0000000000000000     
   5.0701899831795738E-002  0.20554107238996028        0.0000000000000000     
   5.1142437738320355E-002  0.21381877904547683        0.0000000000000000     
   5.1522791308445538E-002  0.22216784213724919        0.0000000000000000     
   5.1842960542171274E-002  0.23058826166527735        0.0000000000000000     
   4.3610292709850867E-002  0.19721181820015304        0.0000000000000000     
   4.4037057637915815E-002  0.20543451502954943        0.0000000000000000     
   4.4411887481910779E-002  0.21372477853022165        0.0000000000000000     
   4.4734782241835767E-002  0.22208260870216961        0.0000000000000000     
   4.5005741917690793E-002  0.23050800554539336        0.0000000000000000     
   3.7123326072791916E-002  0.19710770890813353        0.0000000000000000     
   3.7480804330550115E-002  0.20534352679231443        0.0000000000000000     
   3.7794250977539294E-002  0.21364337879668485        0.0000000000000000     
   3.8063666013759441E-002  0.22200726492124473        0.0000000000000000     
   3.8289049439210555E-002  0.23043518516599412        0.0000000000000000     
   3.0740277677694820E-002  0.19702239429464086        0.0000000000000000     
   3.1033139909698665E-002  0.20526810767825515        0.0000000000000000     
   3.1289528225205913E-002  0.21357457984486639        0.0000000000000000     
   3.1509442624216552E-002  0.22194181079447448        0.0000000000000000     
   3.1692883106730574E-002  0.23036980052707948        0.0000000000000000     
   2.4461147524559562E-002  0.19695587435967513        0.0000000000000000     
   2.4694064375361452E-002  0.20520825768737169        0.0000000000000000     
   2.4897719224910627E-002  0.21351838167476631        0.0000000000000000     
   2.5072112073207094E-002  0.22188624632185894        0.0000000000000000     
   2.5217242920250842E-002  0.23031185162864959        0.0000000000000000     
   5.1842960542171274E-002  0.23058826166527735        0.0000000000000000     
   5.2110852936419823E-002  0.23907186091810390        0.0000000000000000     
   5.2334375988113427E-002  0.24761046318427138        0.0000000000000000     
   5.2513529697252093E-002  0.25620406846377974        0.0000000000000000     
   5.2648314063835806E-002  0.26485267675662905        0.0000000000000000     
   4.5005741917690793E-002  0.23050800554539336        0.0000000000000000     
   4.5233189397574605E-002  0.23898599866285386        0.0000000000000000     
   4.5425547569585965E-002  0.24750161765751208        0.0000000000000000     
   4.5582816433724874E-002  0.25605486252936793        0.0000000000000000     
   4.5704995989991337E-002  0.26464573327842150        0.0000000000000000     
   3.8289049439210555E-002  0.23043518516599412        0.0000000000000000     
   3.8478731736395773E-002  0.23890666360937701        0.0000000000000000     
   3.8641043387818229E-002  0.24740122432983741        0.0000000000000000     
   3.8775984393477909E-002  0.25591886732737540        0.0000000000000000     
   3.8883554753374829E-002  0.26445959260199092        0.0000000000000000     
   3.1692883106730574E-002  0.23036980052707948        0.0000000000000000     
   3.1847479952883340E-002  0.23883385575767321        0.0000000000000000     
   3.1980863442810217E-002  0.24730928320124745        0.0000000000000000     
   3.2093033576511193E-002  0.25579608285780214        0.0000000000000000     
   3.2183990353986280E-002  0.26429425472733731        0.0000000000000000     
   2.5217242920250842E-002  0.23031185162864959        0.0000000000000000     
   2.5339434047037313E-002  0.23876757510774255        0.0000000000000000     
   2.5445007734561945E-002  0.24722579427174204        0.0000000000000000     
   2.5533963982824742E-002  0.25568650912064811        0.0000000000000000     
   2.5606302791825693E-002  0.26414971965446071        0.0000000000000000     
   5.2648314063835806E-002  0.26485267675662905        0.0000000000000000     
   5.2769555691274984E-002  0.27350711124560029        0.0000000000000000     
   5.2908081182980023E-002  0.28211819511347447        0.0000000000000000     
   5.3063890538950928E-002  0.29068592836025153        0.0000000000000000     
   5.3236983759187700E-002  0.29921031098593154        0.0000000000000000     
   4.5704995989991337E-002  0.26464573327842150        0.0000000000000000     
   4.5816297999102737E-002  0.27322424675884638        0.0000000000000000     
   4.5940934221776461E-002  0.28174041982481612        0.0000000000000000     
   4.6078904658012509E-002  0.29019425247633079        0.0000000000000000     
   4.6230209307810882E-002  0.29858574471339044        0.0000000000000000     
   3.8883554753374829E-002  0.26445959260199092        0.0000000000000000     
   3.8982657763562557E-002  0.27297216489693427        0.0000000000000000     
   3.9092196720094709E-002  0.28140534895545577        0.0000000000000000     
   3.9212171622971269E-002  0.28975914477755543        0.0000000000000000     
   3.9342582472192245E-002  0.29803355236323315        0.0000000000000000     
   3.2183990353986280E-002  0.26429425472733731        0.0000000000000000     
   3.2268634984654473E-002  0.27275086565986401        0.0000000000000000     
   3.2361868677934787E-002  0.28111298250539335        0.0000000000000000     
   3.2463691433827220E-002  0.28938060526392517        0.0000000000000000     
   3.2574103252331781E-002  0.29755373393545964        0.0000000000000000     
   2.5606302791825693E-002  0.26414971965446071        0.0000000000000000     
   2.5674229662378457E-002  0.27256034904763571        0.0000000000000000     
   2.5749950095296681E-002  0.28086332047462892        0.0000000000000000     
   2.5833464090580360E-002  0.28905863393544029        0.0000000000000000     
   2.5924771648229497E-002  0.29714628943006993        0.0000000000000000     
   1.4596100664075315E-002   5.5517675288596746E-002   0.0000000000000000     
   1.5209678492997853E-002   6.1232305164915665E-002   0.0000000000000000     
   1.5828076171862625E-002   6.7098618764671741E-002   0.0000000000000000     
   1.6451293700669632E-002   7.3116616087864947E-002   0.0000000000000000     
   1.7079331079418870E-002   7.9286297134495337E-002   0.0000000000000000     
   1.1233384993278420E-002   5.5228069276275743E-002   0.0000000000000000     
   1.1576814570147604E-002   6.0995521139007858E-002   0.0000000000000000     
   1.1952697439141980E-002   6.6900610094946078E-002   0.0000000000000000     
   1.2361033600261544E-002   7.2943336144090390E-002   0.0000000000000000     
   1.2801823053506300E-002   7.9123699286440835E-002   0.0000000000000000     
   7.4864379042140381E-003   5.5155836874805582E-002   0.0000000000000000     
   7.6539652027706306E-003   6.0913420096458358E-002   0.0000000000000000     
   7.8631470071258060E-003   6.6810980908232148E-002   0.0000000000000000     
   8.1139833172795620E-003   7.2848519310126966E-002   0.0000000000000000     
   8.4064741332319001E-003   7.9026035302142805E-002   0.0000000000000000     
   3.3552593968821653E-003   5.5300978084186277E-002   0.0000000000000000     
   3.4411303908669336E-003   6.0986002037267187E-002   0.0000000000000000     
   3.5594248758141077E-003   6.6829731204529993E-002   0.0000000000000000     
   3.7101428517236886E-003   7.2832165585974690E-002   0.0000000000000000     
   3.8932843185956758E-003   7.8993305181601248E-002   0.0000000000000000     
  -1.1601505287171963E-003   5.5663492904417806E-002   0.0000000000000000     
  -1.0616898655634896E-003   6.1213266961434344E-002   0.0000000000000000     
  -9.5846895479311791E-004   6.6956860983839572E-002   0.0000000000000000     
  -8.5048779640607990E-004   7.2894274971633519E-002   0.0000000000000000     
  -7.3774639040237672E-004   7.9025508924816190E-002   0.0000000000000000     
   1.7079331079418870E-002   7.9286297134495337E-002   0.0000000000000000     
   1.7702970846936863E-002   8.5611371945434458E-002   0.0000000000000000     
   1.8312995542050119E-002   9.2095550561553954E-002   0.0000000000000000     
   1.8909405164758648E-002   9.8738832982853825E-002   0.0000000000000000     
   1.9492199715062435E-002  0.10554121920933406        0.0000000000000000     
   1.2801823053506300E-002   7.9123699286440835E-002   0.0000000000000000     
   1.3254685162087070E-002   8.5452870014427071E-002   0.0000000000000000     
   1.3699239289214678E-002   9.1942018820478782E-002   0.0000000000000000     
   1.4135485434889131E-002   9.8591145704596025E-002   0.0000000000000000     
   1.4563423599110420E-002  0.10540025066677874        0.0000000000000000     
   8.4064741332319001E-003   7.9026035302142805E-002   0.0000000000000000     
   8.7162703706672919E-003   8.5354193054626548E-002   0.0000000000000000     
   9.0190229452702126E-003   9.1843656737925106E-002   0.0000000000000000     
   9.3147318570406604E-003   9.8494426352038492E-002   0.0000000000000000     
   9.6033971059786352E-003  0.10530650189696668        0.0000000000000000     
   3.8932843185956758E-003   7.8993305181601248E-002   0.0000000000000000     
   4.0877264726775315E-003   8.5315341066032932E-002   0.0000000000000000     
   4.2723465102167176E-003   9.1800464313892910E-002   0.0000000000000000     
   4.4471444312132328E-003   9.8448674925181223E-002   0.0000000000000000     
   4.6121202356670787E-003  0.10525997289989783        0.0000000000000000     
  -7.3774639040237672E-004   7.9025508924816190E-002   0.0000000000000000     
  -6.3094653188221737E-004   8.5336314048646195E-002   0.0000000000000000     
  -5.4079001594580824E-004   9.1812441548382182E-002   0.0000000000000000     
  -4.6727684259315278E-004   9.8453891424024192E-002   0.0000000000000000     
  -4.1040701182424883E-004  0.10526066367557221        0.0000000000000000     
   1.9492199715062435E-002  0.10554121920933406        0.0000000000000000     
   2.0054695208489046E-002  0.11249092482397141        0.0000000000000000     
   2.0590207660566025E-002  0.11957616540974265        0.0000000000000000     
   2.1098737071293366E-002  0.12679694096664784        0.0000000000000000     
   2.1580283440671082E-002  0.13415325149468688        0.0000000000000000     
   1.4563423599110420E-002  0.10540025066677874        0.0000000000000000     
   1.4977915196689002E-002  0.11235696951852403        0.0000000000000000     
   1.5373821642435330E-002  0.11944893807132893        0.0000000000000000     
   1.5751142936349400E-002  0.12667615632519347        0.0000000000000000     
   1.6109879078431217E-002  0.13403862428011767        0.0000000000000000     
   9.6033971059786352E-003  0.10530650189696668        0.0000000000000000     
   9.8823713236368335E-003  0.11226699811506598        0.0000000000000000     
   1.0149007141567955E-002  0.11936302974869276        0.0000000000000000     
   1.0403304559771998E-002  0.12659459679784693        0.0000000000000000     
   1.0645263578248963E-002  0.13396169926252857        0.0000000000000000     
   4.6121202356670787E-003  0.10525997289989783        0.0000000000000000     
   4.7680635893325380E-003  0.11222101061359727        0.0000000000000000     
   4.9157641579638985E-003  0.11931844044183407        0.0000000000000000     
   5.0552219415611575E-003  0.12655226238460818        0.0000000000000000     
   5.1864369401243161E-003  0.13392247644191965        0.0000000000000000     
  -4.1040701182424883E-004  0.10526066367557221        0.0000000000000000     
  -3.6500800622388230E-004  0.11221900701411787        0.0000000000000000     
  -3.2590730837683791E-004  0.11931517015075289        0.0000000000000000     
  -2.9310491828311630E-004  0.12654915308547721        0.0000000000000000     
  -2.6660083594271704E-004  0.13392095581829089        0.0000000000000000     
   2.1580283440671082E-002  0.13415325149468688        0.0000000000000000     
   2.2035133267149436E-002  0.14163392728290716        0.0000000000000000     
   2.2463573049178703E-002  0.14922779862035601        0.0000000000000000     
   2.2865602786758879E-002  0.15693486550703345        0.0000000000000000     
   2.3241222479889970E-002  0.16475512794293945        0.0000000000000000     
   1.6109879078431217E-002  0.13403862428011767        0.0000000000000000     
   1.6449125660477768E-002  0.14152579935104642        0.0000000000000000     
   1.6767978274286045E-002  0.14912713895292476        0.0000000000000000     
   1.7066436919856050E-002  0.15684264308575263        0.0000000000000000     
   1.7344501597187780E-002  0.16467231174953012        0.0000000000000000     
   1.0645263578248963E-002  0.13396169926252857        0.0000000000000000     
   1.0873947576754871E-002  0.14145363324537186        0.0000000000000000     
   1.1088419935045751E-002  0.14905969484901097        0.0000000000000000     
   1.1288680653121599E-002  0.15677988407344584        0.0000000000000000     
   1.1474729730982415E-002  0.16461420091867657        0.0000000000000000     
   5.1864369401243161E-003  0.13392247644191965        0.0000000000000000     
   5.3095990159807462E-003  0.14141742896588344        0.0000000000000000     
   5.4248980314578147E-003  0.14902546630861457        0.0000000000000000     
   5.5323339865555234E-003  0.15674658847011297        0.0000000000000000     
   5.6319068812738732E-003  0.16458079545037868        0.0000000000000000     
  -2.6660083594271704E-004  0.13392095581829089        0.0000000000000000     
  -2.4392002184460979E-004  0.14141718651258123        0.0000000000000000     
  -2.2258743647776030E-004  0.14902445333173561        0.0000000000000000     
  -2.0260307984217265E-004  0.15674275627575410        0.0000000000000000     
  -1.8396695193784347E-004  0.16457209534463654        0.0000000000000000     
   2.3241222479889970E-002  0.16475512794293945        0.0000000000000000     
   2.3589278798361733E-002  0.17267531975187564        0.0000000000000000     
   2.3908618411963917E-002  0.18068217475764367        0.0000000000000000     
   2.4199241320696525E-002  0.18877569296024349        0.0000000000000000     
   2.4461147524559562E-002  0.19695587435967513        0.0000000000000000     
   1.7344501597187780E-002  0.16467231174953012        0.0000000000000000     
   1.7602203766920496E-002  0.17260191992748622        0.0000000000000000     
   1.7839574889693462E-002  0.18061724260284989        0.0000000000000000     
   1.8056614965506673E-002  0.18871827977562125        0.0000000000000000     
   1.8253323994360127E-002  0.19690503144580018        0.0000000000000000     
   1.1474729730982415E-002  0.16461420091867657        0.0000000000000000     
   1.1647028782865396E-002  0.17254852059645445        0.0000000000000000     
   1.1806039423007737E-002  0.18056871831853094        0.0000000000000000     
   1.1951761651409440E-002  0.18867479408490612        0.0000000000000000     
   1.2084195468070500E-002  0.19686674789557984        0.0000000000000000     
   5.6319068812738732E-003  0.16458079545037868        0.0000000000000000     
   5.7237538461964253E-003  0.17251512175878045        0.0000000000000000     
   5.8080120119067416E-003  0.18053660190468690        0.0000000000000000     
   5.8846813784048232E-003  0.18864523588809817        0.0000000000000000     
   5.9537619456906665E-003  0.19684102370901413        0.0000000000000000     
  -1.8396695193784347E-004  0.16457209534463654        0.0000000000000000     
  -1.6762104308641352E-004  0.17250172341446410        0.0000000000000000     
  -1.5450734360952486E-004  0.18052089336131769        0.0000000000000000     
  -1.4462585350717369E-004  0.18862960518519734        0.0000000000000000     
  -1.3797657277936359E-004  0.19682785888610305        0.0000000000000000     
   2.4461147524559562E-002  0.19695587435967513        0.0000000000000000     
   2.4694064375361452E-002  0.20520825768737169        0.0000000000000000     
   2.4897719224910627E-002  0.21351838167476631        0.0000000000000000     
   2.5072112073207094E-002  0.22188624632185894        0.0000000000000000     
   2.5217242920250842E-002  0.23031185162864959        0.0000000000000000     
   1.8253323994360127E-002  0.19690503144580018        0.0000000000000000     
   1.8428763748690867E-002  0.20516218991958532        0.0000000000000000     
   1.8581996000935911E-002  0.21347444750317524        0.0000000000000000     
   1.8713020751095273E-002  0.22184180419656993        0.0000000000000000     
   1.8821837999168936E-002  0.23026425999976943        0.0000000000000000     
   1.2084195468070500E-002  0.19686674789557984        0.0000000000000000     
   1.2202424050839300E-002  0.20512811747481738        0.0000000000000000     
   1.2305530577564222E-002  0.21344244054688391        0.0000000000000000     
   1.2393515048245270E-002  0.22180971711177941        0.0000000000000000     
   1.2466377462882433E-002  0.23022994716950398        0.0000000000000000     
   5.9537619456906665E-003  0.19684102370901413        0.0000000000000000     
   6.0150452818067543E-003  0.20510604035306784        0.0000000000000000     
   6.0683229547955631E-003  0.21342236080589227        0.0000000000000000     
   6.1135949646570860E-003  0.22178998506748746        0.0000000000000000     
   6.1508613113913316E-003  0.23020891313785335        0.0000000000000000     
  -1.3797657277936359E-004  0.19682785888610305        0.0000000000000000     
  -1.3337255840677013E-004  0.20509595855433677        0.0000000000000000     
  -1.2962686737007321E-004  0.21341420828020036        0.0000000000000000     
  -1.2673949966927195E-004  0.22178260806369399        0.0000000000000000     
  -1.2471045530436549E-004  0.23020115790481749        0.0000000000000000     
   2.5217242920250842E-002  0.23031185162864959        0.0000000000000000     
   2.5339434047037313E-002  0.23876757510774255        0.0000000000000000     
   2.5445007734561945E-002  0.24722579427174204        0.0000000000000000     
   2.5533963982824742E-002  0.25568650912064811        0.0000000000000000     
   2.5606302791825693E-002  0.26414971965446071        0.0000000000000000     
   1.8821837999168936E-002  0.23026425999976943        0.0000000000000000     
   1.8913184692391762E-002  0.23871226059333464        0.0000000000000000     
   1.8991797777998594E-002  0.24715625165782662        0.0000000000000000     
   1.9057677255989433E-002  0.25559623319324531        0.0000000000000000     
   1.9110823126364286E-002  0.26403220519959086        0.0000000000000000     
   1.2466377462882433E-002  0.23022994716950398        0.0000000000000000     
   1.2527322562480781E-002  0.23867235114819912        0.0000000000000000     
   1.2579555088045365E-002  0.24710614947600640        0.0000000000000000     
   1.2623075039576194E-002  0.25553134215292594        0.0000000000000000     
   1.2657882417073257E-002  0.26394792917895760        0.0000000000000000     
   6.1508613113913316E-003  0.23020891313785335        0.0000000000000000     
   6.1818476573043662E-003  0.23864784677233603        0.0000000000000000     
   6.2082796647022591E-003  0.24707548772628149        0.0000000000000000     
   6.2301573335850069E-003  0.25549183599968972        0.0000000000000000     
   6.2474806639526131E-003  0.26389689159256086        0.0000000000000000     
  -1.2471045530436549E-004  0.23020115790481749        0.0000000000000000     
  -1.2324002313747733E-004  0.23863874746574532        0.0000000000000000     
  -1.2202849203072881E-004  0.24706426640865178        0.0000000000000000     
  -1.2107586198411787E-004  0.25547771473353686        0.0000000000000000     
  -1.2038213299764636E-004  0.26387909244040059        0.0000000000000000     
   2.5606302791825693E-002  0.26414971965446071        0.0000000000000000     
   2.5674229662378457E-002  0.27256034904763571        0.0000000000000000     
   2.5749950095296681E-002  0.28086332047462892        0.0000000000000000     
   2.5833464090580360E-002  0.28905863393544029        0.0000000000000000     
   2.5924771648229497E-002  0.29714628943006993        0.0000000000000000     
   1.9110823126364286E-002  0.26403220519959086        0.0000000000000000     
   1.9161152261460604E-002  0.27240699510932620        0.0000000000000000     
   1.9218581533615851E-002  0.28066343035491453        0.0000000000000000     
   1.9283110942830039E-002  0.28880151093635570        0.0000000000000000     
   1.9354740489103156E-002  0.29682123685364981        0.0000000000000000     
   1.2657882417073257E-002  0.26394792917895760        0.0000000000000000     
   1.2691113246626973E-002  0.27229718389401258        0.0000000000000000     
   1.2729903554327755E-002  0.28052037963800225        0.0000000000000000     
   1.2774253340175602E-002  0.28861751641092637        0.0000000000000000     
   1.2824162604170512E-002  0.29658859421278505        0.0000000000000000     
   6.2474806639526131E-003  0.26389689159256086        0.0000000000000000     
   6.2641126178775734E-003  0.27223091540169481        0.0000000000000000     
   6.2839161574323888E-003  0.28043416832389201        0.0000000000000000     
   6.3068912826170567E-003  0.28850665035915229        0.0000000000000000     
   6.3330379934315780E-003  0.29644836150747583        0.0000000000000000     
  -1.2038213299764636E-004  0.26387909244040059        0.0000000000000000     
  -1.1984962478759536E-004  0.27220818963237298        0.0000000000000000     
  -1.1938065707024770E-004  0.28040479641258403        0.0000000000000000     
  -1.1897522984560035E-004  0.28846891278103365        0.0000000000000000     
  -1.1863334311365634E-004  0.29640053873772193        0.0000000000000000     
  -1.1601505287171963E-003   5.5663492904417806E-002   0.0000000000000000     
  -1.0616898655634896E-003   6.1213266961434344E-002   0.0000000000000000     
  -9.5846895479311791E-004   6.6956860983839572E-002   0.0000000000000000     
  -8.5048779640607990E-004   7.2894274971633519E-002   0.0000000000000000     
  -7.3774639040237672E-004   7.9025508924816190E-002   0.0000000000000000     
  -5.5008401010467681E-003   5.6027180032416087E-002   0.0000000000000000     
  -5.4105948523641579E-003   6.1453203406166335E-002   0.0000000000000000     
  -5.3424353117542053E-003   6.7105544325087238E-002   0.0000000000000000     
  -5.2963614792169121E-003   7.2984202789178776E-002   0.0000000000000000     
  -5.2723733547522765E-003   7.9089178798440962E-002   0.0000000000000000     
  -9.1078575485692669E-003   5.6175838165097004E-002   0.0000000000000000     
  -9.1616838553785877E-003   6.1563799908669718E-002   0.0000000000000000     
  -9.2443750221274882E-003   6.7188955307199288E-002   0.0000000000000000     
  -9.3559310488159769E-003   7.3051304360685729E-002   0.0000000000000000     
  -9.4963519354440452E-003   7.9150847069128977E-002   0.0000000000000000     
  -1.1981202871284694E-002   5.6109467302460553E-002   0.0000000000000000     
  -1.2314956874606781E-002   6.1545056468944488E-002   0.0000000000000000     
  -1.2664288085912972E-002   6.7207093930175724E-002   0.0000000000000000     
  -1.3029196505203275E-002   7.3095579686154336E-002   0.0000000000000000     
  -1.3409682132477681E-002   7.9210513736880248E-002   0.0000000000000000     
  -1.4120876069193048E-002   5.5828067444506753E-002   0.0000000000000000     
  -1.4870413910048733E-002   6.1396973086990630E-002   0.0000000000000000     
  -1.5602174503110655E-002   6.7159960194016599E-002   0.0000000000000000     
  -1.6316157848378803E-002   7.3117028765584638E-002   0.0000000000000000     
  -1.7012363945853187E-002   7.9268178801694761E-002   0.0000000000000000     
  -7.3774639040237672E-004   7.9025508924816190E-002   0.0000000000000000     
  -6.3094653188221737E-004   8.5336314048646195E-002   0.0000000000000000     
  -5.4079001594580824E-004   9.1812441548382182E-002   0.0000000000000000     
  -4.6727684259315278E-004   9.8453891424024192E-002   0.0000000000000000     
  -4.1040701182424883E-004  0.10526066367557221        0.0000000000000000     
  -5.2723733547522765E-003   7.9089178798440962E-002   0.0000000000000000     
  -5.2698287957001835E-003   8.5390642618798987E-002   0.0000000000000000     
  -5.2880856594005174E-003   9.1858764516178068E-002   0.0000000000000000     
  -5.3271439458532762E-003   9.8493544490578178E-002   0.0000000000000000     
  -5.3870036550584619E-003  0.10529498254199932        0.0000000000000000     
  -9.4963519354440452E-003   7.9150847069128977E-002   0.0000000000000000     
  -9.6590004714646044E-003   8.5451857392824002E-002   0.0000000000000000     
  -9.8372394463305639E-003   9.1918609292065634E-002   0.0000000000000000     
  -1.0031068860041919E-002   9.8551102766853860E-002   0.0000000000000000     
  -1.0240488712598680E-002  0.10534933781718869        0.0000000000000000     
  -1.3409682132477681E-002   7.9210513736880248E-002   0.0000000000000000     
  -1.3798461559175480E-002   8.5519958370721197E-002   0.0000000000000000     
  -1.4188251376735947E-002   9.1991975876044851E-002   0.0000000000000000     
  -1.4579051585159089E-002   9.8626566252851239E-002   0.0000000000000000     
  -1.4970862184444895E-002  0.10542372950114032        0.0000000000000000     
  -1.7012363945853187E-002   7.9268178801694761E-002   0.0000000000000000     
  -1.7688212058832805E-002   8.5594945552490601E-002   0.0000000000000000     
  -1.8341121450616671E-002   9.2078864268115762E-002   0.0000000000000000     
  -1.8971092121204770E-002   9.8719934948570315E-002   0.0000000000000000     
  -1.9578124070597117E-002  0.10551815759385419        0.0000000000000000     
  -4.1040701182424883E-004  0.10526066367557221        0.0000000000000000     
  -3.6500800622388230E-004  0.11221900701411787        0.0000000000000000     
  -3.2590730837683791E-004  0.11931517015075289        0.0000000000000000     
  -2.9310491828311630E-004  0.12654915308547721        0.0000000000000000     
  -2.6660083594271704E-004  0.13392095581829089        0.0000000000000000     
  -5.3870036550584619E-003  0.10529498254199932        0.0000000000000000     
  -5.4590236119643502E-003  0.11224932875292591        0.0000000000000000     
  -5.5345626415192178E-003  0.11934283320584231        0.0000000000000000     
  -5.6136207437230629E-003  0.12657549590074851        0.0000000000000000     
  -5.6961979185758838E-003  0.13394731683764458        0.0000000000000000     
  -1.0240488712598680E-002  0.10534933781718869        0.0000000000000000     
  -1.0456163376820786E-002  0.11230031726631946        0.0000000000000000     
  -1.0668757225528198E-002  0.11939104393749542        0.0000000000000000     
  -1.0878270258720912E-002  0.12662151783071660        0.0000000000000000     
  -1.1084702476398931E-002  0.13399173894598301        0.0000000000000000     
  -1.4970862184444895E-002  0.10542372950114032        0.0000000000000000     
  -1.5356427300793188E-002  0.11237197255429851        0.0000000000000000     
  -1.5728491060403780E-002  0.11945980234571223        0.0000000000000000     
  -1.6087053463276667E-002  0.12668721887538148        0.0000000000000000     
  -1.6432114509411854E-002  0.13405422214330620        0.0000000000000000     
  -1.9578124070597117E-002  0.10551815759385419        0.0000000000000000     
  -2.0159815383881566E-002  0.11246429461686308        0.0000000000000000     
  -2.0713764146145973E-002  0.11954910843049273        0.0000000000000000     
  -2.1239970357390333E-002  0.12677259903474308        0.0000000000000000     
  -2.1738434017614654E-002  0.13413476642961417        0.0000000000000000     
  -2.6660083594271704E-004  0.13392095581829089        0.0000000000000000     
  -2.4392002184460979E-004  0.14141718651258123        0.0000000000000000     
  -2.2258743647776030E-004  0.14902445333173561        0.0000000000000000     
  -2.0260307984217265E-004  0.15674275627575410        0.0000000000000000     
  -1.8396695193784347E-004  0.16457209534463654        0.0000000000000000     
  -5.6961979185758838E-003  0.13394731683764458        0.0000000000000000     
  -5.7778180652407482E-003  0.14144325313808154        0.0000000000000000     
  -5.8540050828807142E-003  0.14904826192361065        0.0000000000000000     
  -5.9247589714957862E-003  0.15676234319423182        0.0000000000000000     
  -5.9900797310859597E-003  0.16458549694994515        0.0000000000000000     
  -1.1084702476398931E-002  0.13399173894598301        0.0000000000000000     
  -1.1283303642727229E-002  0.14148597609500080        0.0000000000000000     
  -1.1469323521870790E-002  0.14908849808947611        0.0000000000000000     
  -1.1642762113829615E-002  0.15679930492940894        0.0000000000000000     
  -1.1803619418603695E-002  0.16461839661479929        0.0000000000000000     
  -1.6432114509411854E-002  0.13405422214330620        0.0000000000000000     
  -1.6760376754304054E-002  0.14154535538333890        0.0000000000000000     
  -1.7068542753447984E-002  0.14914516182933193        0.0000000000000000     
  -1.7356612506843651E-002  0.15685364148128533        0.0000000000000000     
  -1.7624586014491055E-002  0.16467079433919909        0.0000000000000000     
  -2.1738434017614654E-002  0.13413476642961417        0.0000000000000000     
  -2.2209037399971217E-002  0.14162139100309590        0.0000000000000000     
  -2.2651662777612297E-002  0.14921825314317819        0.0000000000000000     
  -2.3066310150537905E-002  0.15692535284986106        0.0000000000000000     
  -2.3452979518748029E-002  0.16474269012314452        0.0000000000000000     
  -1.8396695193784347E-004  0.16457209534463654        0.0000000000000000     
  -1.6762104308641352E-004  0.17250172341446410        0.0000000000000000     
  -1.5450734360952486E-004  0.18052089336131769        0.0000000000000000     
  -1.4462585350717369E-004  0.18862960518519734        0.0000000000000000     
  -1.3797657277936359E-004  0.19682785888610305        0.0000000000000000     
  -5.9900797310859597E-003  0.16458549694994515        0.0000000000000000     
  -6.0518506366385554E-003  0.17250903293574962        0.0000000000000000     
  -6.1119549631408945E-003  0.18052426089664442        0.0000000000000000     
  -6.1703927105929753E-003  0.18863118083262956        0.0000000000000000     
  -6.2271638789948005E-003  0.19682979274370496        0.0000000000000000     
  -1.1803619418603695E-002  0.16461839661479929        0.0000000000000000     
  -1.1953689686115428E-002  0.17253775769488108        0.0000000000000000     
  -1.2094767166287200E-002  0.18054937271888821        0.0000000000000000     
  -1.2226851859119005E-002  0.18865324168682057        0.0000000000000000     
  -1.2349943764610851E-002  0.19684936459867833        0.0000000000000000     
  -1.7624586014491055E-002  0.16467079433919909        0.0000000000000000     
  -1.7873138191517032E-002  0.17258789769185856        0.0000000000000000     
  -1.8102943953048435E-002  0.18059622882804902        0.0000000000000000     
  -1.8314003299085259E-002  0.18869578774777054        0.0000000000000000     
  -1.8506316229627513E-002  0.19688657445102314        0.0000000000000000     
  -2.3452979518748029E-002  0.16474269012314452        0.0000000000000000     
  -2.3810196152843365E-002  0.17265945292668194        0.0000000000000000     
  -2.4136485323424609E-002  0.18066482922412691        0.0000000000000000     
  -2.4431847030491751E-002  0.18875881901547936        0.0000000000000000     
  -2.4696281274044791E-002  0.19694142230073930        0.0000000000000000     
  -1.3797657277936359E-004  0.19682785888610305        0.0000000000000000     
  -1.3337255840677013E-004  0.20509595855433677        0.0000000000000000     
  -1.2962686737007321E-004  0.21341420828020036        0.0000000000000000     
  -1.2673949966927195E-004  0.22178260806369399        0.0000000000000000     
  -1.2471045530436549E-004  0.23020115790481749        0.0000000000000000     
  -6.2271638789948005E-003  0.19682979274370496        0.0000000000000000     
  -6.2798866989249545E-003  0.20509920001238707        0.0000000000000000     
  -6.3261794009620209E-003  0.21341850602119233        0.0000000000000000     
  -6.3660419851060066E-003  0.22178771077012063        0.0000000000000000     
  -6.3994744513569055E-003  0.23020681425917203        0.0000000000000000     
  -1.2349943764610851E-002  0.19684936459867833        0.0000000000000000     
  -1.2461554368871478E-002  0.20511709266098199        0.0000000000000000     
  -1.2559195158009632E-002  0.21343577708025227        0.0000000000000000     
  -1.2642866132025315E-002  0.22180541785648919        0.0000000000000000     
  -1.2712567290918525E-002  0.23022601498969270        0.0000000000000000     
  -1.8506316229627513E-002  0.19688657445102314        0.0000000000000000     
  -1.8678375568246343E-002  0.20514963650012141        0.0000000000000000     
  -1.8828674138512899E-002  0.21346602145738025        0.0000000000000000     
  -1.8957211940427200E-002  0.22183572932279952        0.0000000000000000     
  -1.9063988973989227E-002  0.23025876009637936        0.0000000000000000     
  -2.4696281274044791E-002  0.19694142230073930        0.0000000000000000     
  -2.4930350297049545E-002  0.20519683152980536        0.0000000000000000     
  -2.5134616342471834E-002  0.21350923915257619        0.0000000000000000     
  -2.5309079410311658E-002  0.22187864516905179        0.0000000000000000     
  -2.5453739500569006E-002  0.23030504957923215        0.0000000000000000     
  -1.2471045530436549E-004  0.23020115790481749        0.0000000000000000     
  -1.2324002313747733E-004  0.23863874746574532        0.0000000000000000     
  -1.2202849203072881E-004  0.24706426640865178        0.0000000000000000     
  -1.2107586198411787E-004  0.25547771473353686        0.0000000000000000     
  -1.2038213299764636E-004  0.26387909244040059        0.0000000000000000     
  -6.3994744513569055E-003  0.23020681425917203        0.0000000000000000     
  -6.4276606333803421E-003  0.23864534934122594        0.0000000000000000     
  -6.4517843648419382E-003  0.24707284886916181        0.0000000000000000     
  -6.4718456457416966E-003  0.25548931284297971        0.0000000000000000     
  -6.4878444760796163E-003  0.26389474126267942        0.0000000000000000     
  -1.2712567290918525E-002  0.23022601498969270        0.0000000000000000     
  -1.2771134327959807E-002  0.23866794851157697        0.0000000000000000     
  -1.2821402936419713E-002  0.24710159845385624        0.0000000000000000     
  -1.2863373116298246E-002  0.25552696481653059        0.0000000000000000     
  -1.2897044867595398E-002  0.26394404759959983        0.0000000000000000     
  -1.9063988973989227E-002  0.23025876009637936        0.0000000000000000     
  -1.9153661106875875E-002  0.23870654497679830        0.0000000000000000     
  -1.9230884206764057E-002  0.24715051516273501        0.0000000000000000     
  -1.9295658273653760E-002  0.25559067065418950        0.0000000000000000     
  -1.9347983307544992E-002  0.26402701145116181        0.0000000000000000     
  -2.5453739500569006E-002  0.23030504957923215        0.0000000000000000     
  -2.5575240970128556E-002  0.23876113873689001        0.0000000000000000     
  -2.5680228175874967E-002  0.24721959899579815        0.0000000000000000     
  -2.5768701117808247E-002  0.25568043035595661        0.0000000000000000     
  -2.5840659795928388E-002  0.26414363281736530        0.0000000000000000     
  -1.2038213299764636E-004  0.26387909244040059        0.0000000000000000     
  -1.1984962478759536E-004  0.27220818963237298        0.0000000000000000     
  -1.1938065707024770E-004  0.28040479641258403        0.0000000000000000     
  -1.1897522984560035E-004  0.28846891278103365        0.0000000000000000     
  -1.1863334311365634E-004  0.29640053873772193        0.0000000000000000     
  -6.4878444760796163E-003  0.26389474126267942        0.0000000000000000     
  -6.5034548702253723E-003  0.27222908364625981        0.0000000000000000     
  -6.5223508425486321E-003  0.28043228951171961        0.0000000000000000     
  -6.5445323930493973E-003  0.28850435885905873        0.0000000000000000     
  -6.5699995217276680E-003  0.29644529168827716        0.0000000000000000     
  -1.2897044867595398E-002  0.26394404759959983        0.0000000000000000     
  -1.2929384507292594E-002  0.27229367450356834        0.0000000000000000     
  -1.2967358352371250E-002  0.28051667322894047        0.0000000000000000     
  -1.3010966402831368E-002  0.28861304377571612        0.0000000000000000     
  -1.3060208658672941E-002  0.29658278614389522        0.0000000000000000     
  -1.9347983307544992E-002  0.26402701145116181        0.0000000000000000     
  -1.9397638535989258E-002  0.27240196220429863        0.0000000000000000     
  -1.9454403186538103E-002  0.28065794756424656        0.0000000000000000     
  -1.9518277259191506E-002  0.28879496753100575        0.0000000000000000     
  -1.9589260753949473E-002  0.29681302210457616        0.0000000000000000     
  -2.5840659795928388E-002  0.26414363281736530        0.0000000000000000     
  -2.5908216956315372E-002  0.27255394674845035        0.0000000000000000     
  -2.5983485345049181E-002  0.28085611251763787        0.0000000000000000     
  -2.6066464962129814E-002  0.28905013012492770        0.0000000000000000     
  -2.6157155807557272E-002  0.29713599957031989        0.0000000000000000     
  -1.4120876069193048E-002   5.5828067444506753E-002   0.0000000000000000     
  -1.4870413910048733E-002   6.1396973086990630E-002   0.0000000000000000     
  -1.5602174503110655E-002   6.7159960194016599E-002   0.0000000000000000     
  -1.6316157848378803E-002   7.3117028765584638E-002   0.0000000000000000     
  -1.7012363945853187E-002   7.9268178801694761E-002   0.0000000000000000     
  -1.6375041246641433E-002   5.5625425993094890E-002   0.0000000000000000     
  -1.7532903006617813E-002   6.1320617662268630E-002   0.0000000000000000     
  -1.8640130485667782E-002   6.7178795010955306E-002   0.0000000000000000     
  -1.9696723683791328E-002   7.3199958039154911E-002   0.0000000000000000     
  -2.0702682600988460E-002   7.9384106746867425E-002   0.0000000000000000     
  -1.9591862507976954E-002   5.5795330350084271E-002   0.0000000000000000     
  -2.1007272209227379E-002   6.1517058094238970E-002   0.0000000000000000     
  -2.2360252245531596E-002   6.7394839293225345E-002   0.0000000000000000     
  -2.3650802616889607E-002   7.3428673947043416E-002   0.0000000000000000     
  -2.4878923323301411E-002   7.9618562055693148E-002   0.0000000000000000     
  -2.3771339853199600E-002   5.6337780515474889E-002   0.0000000000000000     
  -2.5293521517877428E-002   6.1986294382901645E-002   0.0000000000000000     
  -2.6762539782702099E-002   6.7808093040826731E-002   0.0000000000000000     
  -2.8178394647673639E-002   7.3803176489250152E-002   0.0000000000000000     
  -2.9541086112792034E-002   7.9971544728171945E-002   0.0000000000000000     
  -2.8913473282309386E-002   5.7252776489266757E-002   0.0000000000000000     
  -3.0391650932567960E-002   6.2728326528256634E-002   0.0000000000000000     
  -3.1846993097179310E-002   6.8418556253759436E-002   0.0000000000000000     
  -3.3279499776143431E-002   7.4323465665775149E-002   0.0000000000000000     
  -3.4689170969460323E-002   8.0443054764303801E-002   0.0000000000000000     
  -1.7012363945853187E-002   7.9268178801694761E-002   0.0000000000000000     
  -1.7688212058832805E-002   8.5594945552490601E-002   0.0000000000000000     
  -1.8341121450616671E-002   9.2078864268115762E-002   0.0000000000000000     
  -1.8971092121204770E-002   9.8719934948570315E-002   0.0000000000000000     
  -1.9578124070597117E-002  0.10551815759385419        0.0000000000000000     
  -2.0702682600988460E-002   7.9384106746867425E-002   0.0000000000000000     
  -2.1660377808914857E-002   8.5725669629649018E-002   0.0000000000000000     
  -2.2572179879226190E-002   9.2219075183055874E-002   0.0000000000000000     
  -2.3438088811922463E-002   9.8864323407087937E-002   0.0000000000000000     
  -2.4258104607003676E-002  0.10566141430174524        0.0000000000000000     
  -2.4878923323301411E-002   7.9618562055693148E-002   0.0000000000000000     
  -2.6047084647899909E-002   8.5960981293713296E-002   0.0000000000000000     
  -2.7157756873817988E-002   9.2452409335642541E-002   0.0000000000000000     
  -2.8210940001055649E-002   9.9092846181480940E-002   0.0000000000000000     
  -2.9206634029612908E-002  0.10588229183122842        0.0000000000000000     
  -2.9541086112792034E-002   7.9971544728171945E-002   0.0000000000000000     
  -3.0848332575787937E-002   8.6300880544683392E-002   0.0000000000000000     
  -3.2097852434392046E-002   9.2778866725875847E-002   0.0000000000000000     
  -3.3289645688604326E-002   9.9405503271749296E-002   0.0000000000000000     
  -3.4423712338424811E-002  0.10618079018230374        0.0000000000000000     
  -3.4689170969460323E-002   8.0443054764303801E-002   0.0000000000000000     
  -3.6064121592578977E-002   8.6745367382559349E-002   0.0000000000000000     
  -3.7392466560948370E-002   9.3198447353755751E-002   0.0000000000000000     
  -3.8674205874568504E-002   9.9802294677893033E-002   0.0000000000000000     
  -3.9909339533439392E-002  0.10655690935497120        0.0000000000000000     
  -1.9578124070597117E-002  0.10551815759385419        0.0000000000000000     
  -2.0159815383881566E-002  0.11246429461686308        0.0000000000000000     
  -2.0713764146145973E-002  0.11954910843049273        0.0000000000000000     
  -2.1239970357390333E-002  0.12677259903474308        0.0000000000000000     
  -2.1738434017614654E-002  0.13413476642961417        0.0000000000000000     
  -2.4258104607003676E-002  0.10566141430174524        0.0000000000000000     
  -2.5034327321829246E-002  0.11260320845871374        0.0000000000000000     
  -2.5768857013758580E-002  0.11968256646967940        0.0000000000000000     
  -2.6461693682791689E-002  0.12689948833464221        0.0000000000000000     
  -2.7112837328928562E-002  0.13425397405360218        0.0000000000000000     
  -2.9206634029612908E-002  0.10588229183122842        0.0000000000000000     
  -3.0147962810379569E-002  0.11281463908455103        0.0000000000000000     
  -3.1038050194245440E-002  0.11988378074111475        0.0000000000000000     
  -3.1876896181210521E-002  0.12708971680091960        0.0000000000000000     
  -3.2664500771274821E-002  0.13443244726396550        0.0000000000000000     
  -3.4423712338424811E-002  0.10618079018230374        0.0000000000000000     
  -3.5500721849532534E-002  0.11309858649437499        0.0000000000000000     
  -3.6521343687606546E-002  0.12015275124479879        0.0000000000000000     
  -3.7485577852646827E-002  0.12734328443357520        0.0000000000000000     
  -3.8393424344653412E-002  0.13467018606070419        0.0000000000000000     
  -3.9909339533439392E-002  0.10655690935497120        0.0000000000000000     
  -4.1092604439288138E-002  0.11345505068818557        0.0000000000000000     
  -4.2218737493841883E-002  0.12048947798073152        0.0000000000000000     
  -4.3287738697100620E-002  0.12766019123260905        0.0000000000000000     
  -4.4299608049064354E-002  0.13496719044381816        0.0000000000000000     
  -2.1738434017614654E-002  0.13413476642961417        0.0000000000000000     
  -2.2209037399971217E-002  0.14162139100309590        0.0000000000000000     
  -2.2651662777612297E-002  0.14921825314317819        0.0000000000000000     
  -2.3066310150537905E-002  0.15692535284986106        0.0000000000000000     
  -2.3452979518748029E-002  0.16474269012314452        0.0000000000000000     
  -2.7112837328928562E-002  0.13425397405360218        0.0000000000000000     
  -2.7725311991007574E-002  0.14173322031271551        0.0000000000000000     
  -2.8302141707867073E-002  0.14932442379813829        0.0000000000000000     
  -2.8843326479507062E-002  0.15702758450987064        0.0000000000000000     
  -2.9348866305927538E-002  0.16484270244791249        0.0000000000000000     
  -3.2664500771274821E-002  0.13443244726396550        0.0000000000000000     
  -3.3405226938691981E-002  0.14189998067064127        0.0000000000000000     
  -3.4103437657715639E-002  0.14948032556133567        0.0000000000000000     
  -3.4759132928345822E-002  0.15717348193604858        0.0000000000000000     
  -3.5372312750582495E-002  0.16497944979478010        0.0000000000000000     
  -3.8393424344653412E-002  0.13467018606070419        0.0000000000000000     
  -3.9248782243024437E-002  0.14212167207687332        0.0000000000000000     
  -4.0055550627158015E-002  0.14968595843277022        0.0000000000000000     
  -4.0813729497054162E-002  0.15736304512839491        0.0000000000000000     
  -4.1523318852712876E-002  0.16515293216374738        0.0000000000000000     
  -4.4299608049064354E-002  0.13496719044381816        0.0000000000000000     
  -4.5255977904004929E-002  0.14239829453141162        0.0000000000000000     
  -4.6158480616194181E-002  0.14994132241244210        0.0000000000000000     
  -4.7007116185632108E-002  0.15759627408690960        0.0000000000000000     
  -4.7801884612318719E-002  0.16536314955481421        0.0000000000000000     
  -2.3452979518748029E-002  0.16474269012314452        0.0000000000000000     
  -2.3810196152843365E-002  0.17265945292668194        0.0000000000000000     
  -2.4136485323424609E-002  0.18066482922412691        0.0000000000000000     
  -2.4431847030491751E-002  0.18875881901547936        0.0000000000000000     
  -2.4696281274044791E-002  0.19694142230073930        0.0000000000000000     
  -2.9348866305927538E-002  0.16484270244791249        0.0000000000000000     
  -2.9815249265975237E-002  0.17275673511477033        0.0000000000000000     
  -3.0238963438496875E-002  0.18075664001295058        0.0000000000000000     
  -3.0620008823492442E-002  0.18884241714245331        0.0000000000000000     
  -3.0958385420961954E-002  0.19701406650327846        0.0000000000000000     
  -3.5372312750582495E-002  0.16497944979478010        0.0000000000000000     
  -3.5938683226793437E-002  0.17288405597154274        0.0000000000000000     
  -3.6453950459346372E-002  0.18087312730034896        0.0000000000000000     
  -3.6918114448241328E-002  0.18894666378119876        0.0000000000000000     
  -3.7331175193478297E-002  0.19710466541409216        0.0000000000000000     
  -4.1523318852712876E-002  0.16515293216374738        0.0000000000000000     
  -4.2180498035297942E-002  0.17304141549699917        0.0000000000000000     
  -4.2781446385973129E-002  0.18101429108632194        0.0000000000000000     
  -4.3326163904738410E-002  0.18907155893171562        0.0000000000000000     
  -4.3814650591593798E-002  0.19721321903318031        0.0000000000000000     
  -4.7801884612318719E-002  0.16536314955481421        0.0000000000000000     
  -4.8540693691488793E-002  0.17322881369113960        0.0000000000000000     
  -4.9221451218377121E-002  0.18118013137086952        0.0000000000000000     
  -4.9844157192983671E-002  0.18921710259400401        0.0000000000000000     
  -5.0408811615308476E-002  0.19733972736054300        0.0000000000000000     
  -2.4696281274044791E-002  0.19694142230073930        0.0000000000000000     
  -2.4930350297049545E-002  0.20519683152980536        0.0000000000000000     
  -2.5134616342471834E-002  0.21350923915257619        0.0000000000000000     
  -2.5309079410311658E-002  0.22187864516905179        0.0000000000000000     
  -2.5453739500569006E-002  0.23030504957923215        0.0000000000000000     
  -3.0958385420961954E-002  0.19701406650327846        0.0000000000000000     
  -3.1256485663782932E-002  0.20525926428545258        0.0000000000000000     
  -3.1516701984832897E-002  0.21356568667900222        0.0000000000000000     
  -3.1739034384111839E-002  0.22193333368392740        0.0000000000000000     
  -3.1923482861619779E-002  0.23036220530022813        0.0000000000000000     
  -3.7331175193478297E-002  0.19710466541409216        0.0000000000000000     
  -3.7695788776948340E-002  0.20533752130248178        0.0000000000000000     
  -3.8014611280542544E-002  0.21363562054982044        0.0000000000000000     
  -3.8287642704260917E-002  0.22199896315610804        0.0000000000000000     
  -3.8514883048103452E-002  0.23042754912134461        0.0000000000000000     
  -4.3814650591593798E-002  0.19721321903318031        0.0000000000000000     
  -4.4248259636545779E-002  0.20543160258089299        0.0000000000000000     
  -4.4628344229600804E-002  0.21371904076503079        0.0000000000000000     
  -4.4954904370758886E-002  0.22207553358559362        0.0000000000000000     
  -4.5227940060020018E-002  0.23050108104258149        0.0000000000000000     
  -5.0408811615308476E-002  0.19733972736054300        0.0000000000000000     
  -5.0913898242575230E-002  0.20554150812068619        0.0000000000000000     
  -5.1357900832007662E-002  0.21381594732463322        0.0000000000000000     
  -5.1740819383605745E-002  0.22216304497238412        0.0000000000000000     
  -5.2062653897369485E-002  0.23058280106393889        0.0000000000000000     
  -2.5453739500569006E-002  0.23030504957923215        0.0000000000000000     
  -2.5575240970128556E-002  0.23876113873689001        0.0000000000000000     
  -2.5680228175874967E-002  0.24721959899579815        0.0000000000000000     
  -2.5768701117808247E-002  0.25568043035595661        0.0000000000000000     
  -2.5840659795928388E-002  0.26414363281736530        0.0000000000000000     
  -3.1923482861619779E-002  0.23036220530022813        0.0000000000000000     
  -3.2078344904254805E-002  0.23882715067983165        0.0000000000000000     
  -3.2211917998915034E-002  0.24730301897466528        0.0000000000000000     
  -3.2324202145600459E-002  0.25578981018472891        0.0000000000000000     
  -3.2415197344311093E-002  0.26428752431002267        0.0000000000000000     
  -3.8514883048103452E-002  0.23042754912134461        0.0000000000000000     
  -3.8705443895791607E-002  0.23890000169360298        0.0000000000000000     
  -3.8868436831046842E-002  0.24739494412095608        0.0000000000000000     
  -3.9003861853869164E-002  0.25591237640340386        0.0000000000000000     
  -3.9111718964258593E-002  0.26445229854094621        0.0000000000000000     
  -4.5227940060020018E-002  0.23050108104258149        0.0000000000000000     
  -4.5456537944738945E-002  0.23897969177820400        0.0000000000000000     
  -4.5649784672270398E-002  0.24749537443467060        0.0000000000000000     
  -4.5807680242614376E-002  0.25604812901198126        0.0000000000000000     
  -4.5930224655770881E-002  0.26463795551013597        0.0000000000000000     
  -5.2062653897369485E-002  0.23058280106393889        0.0000000000000000     
  -5.2331627051096841E-002  0.23906622093363467        0.0000000000000000     
  -5.2555961522585702E-002  0.24760430991580878        0.0000000000000000     
  -5.2735657311836069E-002  0.25619706801046116        0.0000000000000000     
  -5.2870714418847983E-002  0.26484449521759179        0.0000000000000000     
  -2.5840659795928388E-002  0.26414363281736530        0.0000000000000000     
  -2.5908216956315372E-002  0.27255394674845035        0.0000000000000000     
  -2.5983485345049181E-002  0.28085611251763787        0.0000000000000000     
  -2.6066464962129814E-002  0.28905013012492770        0.0000000000000000     
  -2.6157155807557272E-002  0.29713599957031989        0.0000000000000000     
  -3.2415197344311093E-002  0.26428752431002267        0.0000000000000000     
  -3.2499761580455845E-002  0.27274329064200359        0.0000000000000000     
  -3.2592752839443656E-002  0.28110423847212856        0.0000000000000000     
  -3.2694171121274533E-002  0.28937036780039765        0.0000000000000000     
  -3.2804016425948462E-002  0.29754167862681080        0.0000000000000000     
  -3.9111718964258593E-002  0.26445229854094621        0.0000000000000000     
  -3.9210914220595597E-002  0.27296365639093778        0.0000000000000000     
  -3.9320353681260689E-002  0.28139539581073281        0.0000000000000000     
  -3.9440037346253884E-002  0.28974751680033134        0.0000000000000000     
  -3.9569965215575167E-002  0.29802001935973343        0.0000000000000000     
  -4.5930224655770881E-002  0.26463795551013597        0.0000000000000000     
  -4.6041674876734613E-002  0.27321504399525298        0.0000000000000000     
  -4.6166287870500283E-002  0.28172958453345065        0.0000000000000000     
  -4.6304063637067884E-002  0.29018157712472886        0.0000000000000000     
  -4.6455002176437402E-002  0.29857102176908762        0.0000000000000000     
  -5.2870714418847983E-002  0.26484449521759179        0.0000000000000000     
  -5.2992043548872922E-002  0.27349745345494930        0.0000000000000000     
  -5.3130555407162432E-002  0.28210680464028204        0.0000000000000000     
  -5.3286249993716506E-002  0.29067254877359011        0.0000000000000000     
  -5.3459127308535158E-002  0.29919468585487347        0.0000000000000000     
  -2.8913473282309386E-002   5.7252776489266757E-002   0.0000000000000000     
  -3.0391650932567960E-002   6.2728326528256634E-002   0.0000000000000000     
  -3.1846993097179310E-002   6.8418556253759436E-002   0.0000000000000000     
  -3.3279499776143431E-002   7.4323465665775149E-002   0.0000000000000000     
  -3.4689170969460323E-002   8.0443054764303801E-002   0.0000000000000000     
  -3.4264314105944507E-002   5.8252251753217035E-002   0.0000000000000000     
  -3.5689711731395034E-002   6.3549759586495780E-002   0.0000000000000000     
  -3.7122377235655014E-002   6.9103194331922080E-002   0.0000000000000000     
  -3.8562310618724463E-002   7.4912555989495949E-002   0.0000000000000000     
  -4.0009511880603366E-002   8.0977844559217402E-002   0.0000000000000000     
  -3.9069913634743166E-002   5.9048139789082875E-002   0.0000000000000000     
  -4.0575755192454689E-002   6.4257198613810851E-002   0.0000000000000000     
  -4.2097457244821036E-002   6.9738972675213257E-002   0.0000000000000000     
  -4.3635019791842214E-002   7.5493461973290127E-002   0.0000000000000000     
  -4.5188442833518222E-002   8.1520666508041420E-002   0.0000000000000000     
  -4.3330271868705368E-002   5.9640440596864304E-002   0.0000000000000000     
  -4.5049781315746940E-002   6.4850643610201875E-002   0.0000000000000000     
  -4.6772233124677383E-002   7.0325891283633007E-002   0.0000000000000000     
  -4.8497627295496691E-002   7.6066183617157640E-002   0.0000000000000000     
  -5.0225963828204892E-002   8.2071520610775855E-002   0.0000000000000000     
  -4.7045388807831108E-002   6.0029154176561288E-002   0.0000000000000000     
  -4.9111790101271764E-002   6.5330094575668851E-002   0.0000000000000000     
  -5.1146704875224033E-002   7.0863950157181277E-002   0.0000000000000000     
  -5.3150133129687901E-002   7.6630720921098572E-002   0.0000000000000000     
  -5.5122074864663383E-002   8.2630406867420694E-002   0.0000000000000000     
  -3.4689170969460323E-002   8.0443054764303801E-002   0.0000000000000000     
  -3.6064121592578977E-002   8.6745367382559349E-002   0.0000000000000000     
  -3.7392466560948370E-002   9.3198447353755751E-002   0.0000000000000000     
  -3.8674205874568504E-002   9.9802294677893033E-002   0.0000000000000000     
  -3.9909339533439392E-002  0.10655690935497120        0.0000000000000000     
  -4.0009511880603366E-002   8.0977844559217402E-002   0.0000000000000000     
  -4.1443123283885462E-002   8.7247979389559083E-002   0.0000000000000000     
  -4.2842287091164492E-002   9.3671879828993665E-002   0.0000000000000000     
  -4.4207003302440456E-002  0.10024954587752116        0.0000000000000000     
  -4.5537271917713354E-002  0.10698097753514155        0.0000000000000000     
  -4.5188442833518222E-002   8.1520666508041420E-002   0.0000000000000000     
  -4.6734009235319861E-002   8.7762254147900579E-002   0.0000000000000000     
  -4.8248001862717937E-002   9.4159892761300990E-002   0.0000000000000000     
  -4.9730420715712459E-002  0.10071358234824269        0.0000000000000000     
  -5.1181265794303432E-002  0.10742332290872565        0.0000000000000000     
  -5.0225963828204892E-002   8.2071520610775855E-002   0.0000000000000000     
  -5.1936779446882159E-002   8.8288191657583809E-002   0.0000000000000000     
  -5.3609610875608706E-002   9.4662486150677697E-002   0.0000000000000000     
  -5.5244458114384512E-002  0.10119440409005759        0.0000000000000000     
  -5.6841321163209606E-002  0.10788394547572344        0.0000000000000000     
  -5.5122074864663383E-002   8.2630406867420694E-002   0.0000000000000000     
  -5.7051433918572377E-002   8.8825791918608774E-002   0.0000000000000000     
  -5.8927114129836797E-002   9.5179659997123855E-002   0.0000000000000000     
  -6.0749115498456623E-002  0.10169201110296590        0.0000000000000000     
  -6.2517438024431882E-002  0.10836284523613496        0.0000000000000000     
  -3.9909339533439392E-002  0.10655690935497120        0.0000000000000000     
  -4.1092604439288138E-002  0.11345505068818557        0.0000000000000000     
  -4.2218737493841883E-002  0.12048947798073152        0.0000000000000000     
  -4.3287738697100620E-002  0.12766019123260905        0.0000000000000000     
  -4.4299608049064354E-002  0.13496719044381816        0.0000000000000000     
  -4.5537271917713354E-002  0.10698097753514155        0.0000000000000000     
  -4.6821840854016424E-002  0.11385743658190950        0.0000000000000000     
  -4.8049458028382910E-002  0.12087018479787966        0.0000000000000000     
  -4.9220123440812835E-002  0.12801922218305203        0.0000000000000000     
  -5.0333837091306163E-002  0.13530454873742659        0.0000000000000000     
  -5.1181265794303432E-002  0.10742332290872565        0.0000000000000000     
  -5.2586661368087435E-002  0.11427914909147352        0.0000000000000000     
  -5.3932731706661088E-002  0.12127109554520993        0.0000000000000000     
  -5.5219476810024391E-002  0.12839916226993492        0.0000000000000000     
  -5.6446896678177344E-002  0.13566334926564844        0.0000000000000000     
  -5.6841321163209606E-002  0.10788394547572344        0.0000000000000000     
  -5.8387065981501174E-002  0.11472018821687759        0.0000000000000000     
  -5.9868558528676404E-002  0.12169221022272236        0.0000000000000000     
  -6.1285798804735316E-002  0.12880001149325773        0.0000000000000000     
  -6.2638786809677896E-002  0.13604359202848379        0.0000000000000000     
  -6.2517438024431882E-002  0.10836284523613496        0.0000000000000000     
  -6.4223054694257611E-002  0.11518055395812171        0.0000000000000000     
  -6.5856938494428849E-002  0.12213352883041691        0.0000000000000000     
  -6.7419089424945594E-002  0.12922176985302053        0.0000000000000000     
  -6.8909507485807847E-002  0.13644527702593257        0.0000000000000000     
  -4.4299608049064354E-002  0.13496719044381816        0.0000000000000000     
  -4.5255977904004929E-002  0.14239829453141162        0.0000000000000000     
  -4.6158480616194181E-002  0.14994132241244210        0.0000000000000000     
  -4.7007116185632108E-002  0.15759627408690960        0.0000000000000000     
  -4.7801884612318719E-002  0.16536314955481421        0.0000000000000000     
  -5.0333837091306163E-002  0.13530454873742659        0.0000000000000000     
  -5.1389747018476921E-002  0.14271339779363529        0.0000000000000000     
  -5.2387001260939162E-002  0.15023300268431006        0.0000000000000000     
  -5.3325599818692837E-002  0.15786336340945098        0.0000000000000000     
  -5.4205542691737989E-002  0.16560447996905800        0.0000000000000000     
  -5.6446896678177344E-002  0.13566334926564844        0.0000000000000000     
  -5.7613022683283874E-002  0.14305053162292353        0.0000000000000000     
  -5.8715886197507935E-002  0.15054758443233310        0.0000000000000000     
  -5.9755487220849543E-002  0.15815450769387729        0.0000000000000000     
  -6.0731825753308669E-002  0.16587130140755596        0.0000000000000000     
  -6.2638786809677896E-002  0.13604359202848379        0.0000000000000000     
  -6.3925804898425767E-002  0.14340969601927628        0.0000000000000000     
  -6.5145135425900530E-002  0.15088506765651122        0.0000000000000000     
  -6.6296778392102199E-002  0.15846970694018847        0.0000000000000000     
  -6.7380733797030773E-002  0.16616361387030817        0.0000000000000000     
  -6.8909507485807847E-002  0.13644527702593257        0.0000000000000000     
  -7.0328093663902622E-002  0.14379089098269365        0.0000000000000000     
  -7.1674748946116959E-002  0.15124545235684433        0.0000000000000000     
  -7.2949473332450845E-002  0.15880896114838466        0.0000000000000000     
  -7.4152266822904309E-002  0.16648141735731464        0.0000000000000000     
  -4.7801884612318719E-002  0.16536314955481421        0.0000000000000000     
  -4.8540693691488793E-002  0.17322881369113960        0.0000000000000000     
  -4.9221451218377121E-002  0.18118013137086952        0.0000000000000000     
  -4.9844157192983671E-002  0.18921710259400401        0.0000000000000000     
  -5.0408811615308476E-002  0.19733972736054300        0.0000000000000000     
  -5.4205542691737989E-002  0.16560447996905800        0.0000000000000000     
  -5.5026602344110900E-002  0.17344465070013410        0.0000000000000000     
  -5.5788551239847856E-002  0.18137217393968227        0.0000000000000000     
  -5.6491389378948910E-002  0.18938704968770256        0.0000000000000000     
  -5.7135116761413994E-002  0.19748927794419491        0.0000000000000000     
  -6.0731825753308669E-002  0.16587130140755596        0.0000000000000000     
  -6.1645556141909183E-002  0.17368732667015266        0.0000000000000000     
  -6.2497332733674915E-002  0.18159194457845068        0.0000000000000000     
  -6.3287155528605851E-002  0.18958515513245011        0.0000000000000000     
  -6.4015024526702047E-002  0.19766695833215087        0.0000000000000000     
  -6.7380733797030773E-002  0.16616361387030817        0.0000000000000000     
  -6.8397555084883668E-002  0.17395684160119526        0.0000000000000000     
  -6.9347795699858245E-002  0.18183944328717475        0.0000000000000000     
  -7.0231455641954557E-002  0.18981141892824657        0.0000000000000000     
  -7.1048534911172578E-002  0.19787276852441080        0.0000000000000000     
  -7.4152266822904309E-002  0.16648141735731464        0.0000000000000000     
  -7.5282599173034315E-002  0.17425319549326196        0.0000000000000000     
  -7.6339940138397872E-002  0.18211467006585444        0.0000000000000000     
  -7.7324289718994979E-002  0.19006584107509200        0.0000000000000000     
  -7.8235647914825651E-002  0.19810670852097473        0.0000000000000000     
  -5.0408811615308476E-002  0.19733972736054300        0.0000000000000000     
  -5.0913898242575230E-002  0.20554150812068619        0.0000000000000000     
  -5.1357900832007662E-002  0.21381594732463322        0.0000000000000000     
  -5.1740819383605745E-002  0.22216304497238412        0.0000000000000000     
  -5.2062653897369485E-002  0.23058280106393889        0.0000000000000000     
  -5.7135116761413994E-002  0.19748927794419491        0.0000000000000000     
  -5.7715578381057300E-002  0.20567291542627683        0.0000000000000000     
  -5.8228619231692973E-002  0.21393201885106575        0.0000000000000000     
  -5.8674239313321011E-002  0.22226658821856157        0.0000000000000000     
  -5.9052438625941395E-002  0.23067662352876445        0.0000000000000000     
  -6.4015024526702047E-002  0.19766695833215087        0.0000000000000000     
  -6.4676173838012566E-002  0.20583150200208045        0.0000000000000000     
  -6.5265837572586610E-002  0.21407293396676610        0.0000000000000000     
  -6.5784015730424167E-002  0.22239125422620795        0.0000000000000000     
  -6.6230708311525235E-002  0.23078646278040593        0.0000000000000000     
  -7.1048534911172578E-002  0.19787276852441080        0.0000000000000000     
  -7.1795684613441005E-002  0.20601726784809690        0.0000000000000000     
  -7.2469555854688575E-002  0.21423869267173437        0.0000000000000000     
  -7.3070148634915247E-002  0.22253704299532315        0.0000000000000000     
  -7.3597462954121035E-002  0.23091231881886334        0.0000000000000000     
  -7.8235647914825651E-002  0.19810670852097473        0.0000000000000000     
  -7.9074110707342660E-002  0.20623021296432628        0.0000000000000000     
  -7.9839774077998860E-002  0.21442929496597052        0.0000000000000000     
  -8.0532638026794237E-002  0.22270395452590730        0.0000000000000000     
  -8.1152702553728806E-002  0.23105419164413671        0.0000000000000000     
  -5.2062653897369485E-002  0.23058280106393889        0.0000000000000000     
  -5.2331627051096841E-002  0.23906622093363467        0.0000000000000000     
  -5.2555961522585702E-002  0.24760430991580878        0.0000000000000000     
  -5.2735657311836069E-002  0.25619706801046116        0.0000000000000000     
  -5.2870714418847983E-002  0.26484449521759179        0.0000000000000000     
  -5.9052438625941395E-002  0.23067662352876445        0.0000000000000000     
  -5.9369286096902604E-002  0.23916082324540411        0.0000000000000000     
  -5.9630850653553100E-002  0.24771788583221047        0.0000000000000000     
  -5.9837132295892888E-002  0.25634781128918344        0.0000000000000000     
  -5.9988131023921962E-002  0.26505059961632321        0.0000000000000000     
  -6.6230708311525235E-002  0.23078646278040593        0.0000000000000000     
  -6.6608089964193581E-002  0.23926473279902133        0.0000000000000000     
  -6.6918335336732984E-002  0.24783223745171537        0.0000000000000000     
  -6.7161444429143430E-002  0.25648897673848814        0.0000000000000000     
  -6.7337417241424918E-002  0.26523495065933950        0.0000000000000000     
  -7.3597462954121035E-002  0.23091231881886334        0.0000000000000000     
  -7.4048038652969800E-002  0.23937794959448630        0.0000000000000000     
  -7.4418415572125335E-002  0.24794736477432353        0.0000000000000000     
  -7.4708593711587695E-002  0.25662056435837499        0.0000000000000000     
  -7.4918573071356867E-002  0.26539754834664064        0.0000000000000000     
  -8.1152702553728806E-002  0.23105419164413671        0.0000000000000000     
  -8.1689132163231232E-002  0.23950047363179913        0.0000000000000000     
  -8.2131091359730193E-002  0.24806326780003493        0.0000000000000000     
  -8.2478580143225719E-002  0.25674257414884416        0.0000000000000000     
  -8.2731598513717794E-002  0.26553839267822676        0.0000000000000000     
  -5.2870714418847983E-002  0.26484449521759179        0.0000000000000000     
  -5.2992043548872922E-002  0.27349745345494930        0.0000000000000000     
  -5.3130555407162432E-002  0.28210680464028204        0.0000000000000000     
  -5.3286249993716506E-002  0.29067254877359011        0.0000000000000000     
  -5.3459127308535158E-002  0.29919468585487347        0.0000000000000000     
  -5.9988131023921962E-002  0.26505059961632321        0.0000000000000000     
  -6.0120740735166177E-002  0.27378212194851381        0.0000000000000000     
  -6.0271855327151388E-002  0.28249824942063956        0.0000000000000000     
  -6.0441474799877631E-002  0.29119898203270045        0.0000000000000000     
  -6.0629599153344871E-002  0.29988431978469626        0.0000000000000000     
  -6.7337417241424918E-002  0.26523495065933950        0.0000000000000000     
  -6.7486486933770060E-002  0.27404028665443392        0.0000000000000000     
  -6.7648886666371422E-002  0.28287511216393579        0.0000000000000000     
  -6.7824616439229074E-002  0.29173942718784479        0.0000000000000000     
  -6.8013676252342947E-002  0.30063323172616135        0.0000000000000000     
  -7.4918573071356867E-002  0.26539754834664064        0.0000000000000000     
  -7.5089282144684563E-002  0.27427194757270951        0.0000000000000000     
  -7.5261649424822552E-002  0.28323739287017047        0.0000000000000000     
  -7.5435674911770861E-002  0.29229388423902358        0.0000000000000000     
  -7.5611358605529436E-002  0.30144142167926868        0.0000000000000000     
  -8.2731598513717794E-002  0.26553839267822676        0.0000000000000000     
  -8.2929126367909708E-002  0.27447710470334064        0.0000000000000000     
  -8.3110143602504766E-002  0.28358509153934391        0.0000000000000000     
  -8.3274650217502966E-002  0.29286235318623643        0.0000000000000000     
  -8.3422646212904308E-002  0.30230888964401836        0.0000000000000000     
  -4.7045388807831108E-002   6.0029154176561288E-002   0.0000000000000000     
  -4.9111790101271764E-002   6.5330094575668851E-002   0.0000000000000000     
  -5.1146704875224033E-002   7.0863950157181277E-002   0.0000000000000000     
  -5.3150133129687901E-002   7.6630720921098572E-002   0.0000000000000000     
  -5.5122074864663383E-002   8.2630406867420694E-002   0.0000000000000000     
  -5.0805144393089349E-002   6.0430142017295740E-002   0.0000000000000000     
  -5.3238611553267361E-002   6.5834538784446797E-002   0.0000000000000000     
  -5.5603236025018279E-002   7.1436058518347695E-002   0.0000000000000000     
  -5.7899017808342085E-002   7.7234701218998461E-002   0.0000000000000000     
  -6.0125956903238791E-002   8.3230466886399082E-002   0.0000000000000000     
  -5.5199418565449035E-002   6.1059265608189542E-002   0.0000000000000000     
  -5.7907075675971913E-002   6.6502963510770702E-002   0.0000000000000000     
  -6.0524190102617413E-002   7.2125125589621850E-002   0.0000000000000000     
  -6.3050761845385508E-002   7.7925751844742985E-002   0.0000000000000000     
  -6.5486790904276213E-002   8.3904842276134081E-002   0.0000000000000000     
  -6.0228211324910186E-002   6.1916524949242678E-002   0.0000000000000000     
  -6.3117182469385427E-002   6.7335368754640607E-002   0.0000000000000000     
  -6.5909567108021413E-002   7.2931151371003769E-002   0.0000000000000000     
  -6.8605365240818159E-002   7.8703872798332131E-002   0.0000000000000000     
  -7.1204576867775649E-002   8.4653533036625733E-002   0.0000000000000000     
  -6.5891522671472774E-002   6.3001920040455170E-002   0.0000000000000000     
  -6.8868931933507876E-002   6.8331754516056498E-002   0.0000000000000000     
  -7.1759367041230315E-002   7.3854135862493425E-002   0.0000000000000000     
  -7.4562827994640035E-002   7.9569064079765925E-002   0.0000000000000000     
  -7.7279314793737092E-002   8.5476539167873997E-002   0.0000000000000000     
  -5.5122074864663383E-002   8.2630406867420694E-002   0.0000000000000000     
  -5.7051433918572377E-002   8.8825791918608774E-002   0.0000000000000000     
  -5.8927114129836797E-002   9.5179659997123855E-002   0.0000000000000000     
  -6.0749115498456623E-002  0.10169201110296590        0.0000000000000000     
  -6.2517438024431882E-002  0.10836284523613496        0.0000000000000000     
  -6.0125956903238791E-002   8.3230466886399082E-002   0.0000000000000000     
  -6.2283242268748422E-002   8.9404369948729870E-002   0.0000000000000000     
  -6.4370062863911059E-002   9.5737424834171150E-002   0.0000000000000000     
  -6.6386418688726648E-002  0.10222963154272295        0.0000000000000000     
  -6.8332309743195235E-002  0.10888099007438523        0.0000000000000000     
  -6.5486790904276213E-002   8.3904842276134081E-002   0.0000000000000000     
  -6.7837474115768237E-002   9.0053240765701481E-002   0.0000000000000000     
  -7.0108008316340328E-002   9.6361791195351487E-002   0.0000000000000000     
  -7.2298393505992459E-002  0.10283049356508409        0.0000000000000000     
  -7.4408629684724614E-002  0.10945934787489929        0.0000000000000000     
  -7.1204576867775649E-002   8.4653533036625733E-002   0.0000000000000000     
  -7.3714129459631822E-002   9.0772404369523593E-002   0.0000000000000000     
  -7.6140950487124576E-002   9.7052759080664797E-002   0.0000000000000000     
  -7.8485039950253993E-002  0.10349459717004932        0.0000000000000000     
  -8.0746397849020018E-002  0.11009791863767719        0.0000000000000000     
  -7.7279314793737092E-002   8.5476539167873997E-002   0.0000000000000000     
  -7.9913208300339142E-002   9.1561860760196206E-002   0.0000000000000000     
  -8.2468889376263885E-002   9.7810328490111093E-002   0.0000000000000000     
  -8.4946358021511306E-002  0.10422194235761863        0.0000000000000000     
  -8.7345614236081434E-002  0.11079670236271888        0.0000000000000000     
  -6.2517438024431882E-002  0.10836284523613496        0.0000000000000000     
  -6.4223054694257611E-002  0.11518055395812171        0.0000000000000000     
  -6.5856938494428849E-002  0.12213352883041691        0.0000000000000000     
  -6.7419089424945594E-002  0.12922176985302053        0.0000000000000000     
  -6.8909507485807847E-002  0.13644527702593257        0.0000000000000000     
  -6.8332309743195235E-002  0.10888099007438523        0.0000000000000000     
  -7.0202887911732681E-002  0.11567925960578726        0.0000000000000000     
  -7.1993305078754843E-002  0.12261219931355827        0.0000000000000000     
  -7.3703561244261709E-002  0.12967980919769828        0.0000000000000000     
  -7.5333656408253291E-002  0.13688208925820730        0.0000000000000000     
  -7.4408629684724614E-002  0.10945934787489929        0.0000000000000000     
  -7.6434826039302253E-002  0.11623531845045551        0.0000000000000000     
  -7.8373091756490765E-002  0.12314536961741110        0.0000000000000000     
  -8.0223426836290135E-002  0.13018950137576607        0.0000000000000000     
  -8.1985831278700391E-002  0.13736771372552037        0.0000000000000000     
  -8.0746397849020018E-002  0.11009791863767719        0.0000000000000000     
  -8.2918869076966328E-002  0.11684873049212649        0.0000000000000000     
  -8.4996298527636627E-002  0.12373303974197537        0.0000000000000000     
  -8.6978686201030886E-002  0.13075084638722381        0.0000000000000000     
  -8.8866032097149161E-002  0.13790215042787185        0.0000000000000000     
  -8.7345614236081434E-002  0.11079670236271888        0.0000000000000000     
  -8.9655017024724920E-002  0.11751949573080023        0.0000000000000000     
  -9.1862925392192429E-002  0.12437520968725115        0.0000000000000000     
  -9.3969339338483976E-002  0.13136384423207165        0.0000000000000000     
  -9.5974258863599587E-002  0.13848539936526169        0.0000000000000000     
  -6.8909507485807847E-002  0.13644527702593257        0.0000000000000000     
  -7.0328093663902622E-002  0.14379089098269365        0.0000000000000000     
  -7.1674748946116959E-002  0.15124545235684433        0.0000000000000000     
  -7.2949473332450845E-002  0.15880896114838466        0.0000000000000000     
  -7.4152266822904309E-002  0.16648141735731464        0.0000000000000000     
  -7.5333656408253291E-002  0.13688208925820730        0.0000000000000000     
  -7.6885543031858197E-002  0.14420616281662185        0.0000000000000000     
  -7.8361173576205007E-002  0.15163915319447852        0.0000000000000000     
  -7.9760548041293747E-002  0.15918106039177721        0.0000000000000000     
  -8.1083666427124404E-002  0.16683188440851807        0.0000000000000000     
  -8.1985831278700391E-002  0.13736771372552037        0.0000000000000000     
  -8.3663807054436296E-002  0.14466755782450721        0.0000000000000000     
  -8.5260856134212568E-002  0.15207658483055961        0.0000000000000000     
  -8.6776978518029166E-002  0.15959479474367760        0.0000000000000000     
  -8.8212174205886187E-002  0.16722218756386117        0.0000000000000000     
  -8.8866032097149161E-002  0.13790215042787185        0.0000000000000000     
  -9.0662885731636875E-002  0.14517507600634971        0.0000000000000000     
  -9.2373796620139559E-002  0.15255774726508772        0.0000000000000000     
  -9.3998764762657158E-002  0.16005016420408583        0.0000000000000000     
  -9.5537790159189701E-002  0.16765232682334408        0.0000000000000000     
  -9.5974258863599587E-002  0.13848539936526169        0.0000000000000000     
  -9.7882779063460004E-002  0.14572871736214937        0.0000000000000000     
  -9.9699995033986036E-002  0.15308264049806278        0.0000000000000000     
 -0.10142590677517768       0.16054716877300190        0.0000000000000000     
 -0.10306051428703494       0.16812230218696672        0.0000000000000000     
  -7.4152266822904309E-002  0.16648141735731464        0.0000000000000000     
  -7.5282599173034315E-002  0.17425319549326196        0.0000000000000000     
  -7.6339940138397872E-002  0.18211467006585444        0.0000000000000000     
  -7.7324289718994979E-002  0.19006584107509200        0.0000000000000000     
  -7.8235647914825651E-002  0.19810670852097473        0.0000000000000000     
  -8.1083666427124404E-002  0.16683188440851807        0.0000000000000000     
  -8.2329038552756667E-002  0.17458202153522101        0.0000000000000000     
  -8.3495174237250266E-002  0.18242186806240623        0.0000000000000000     
  -8.4582073480605174E-002  0.19035142399007365        0.0000000000000000     
  -8.5589736282821405E-002  0.19837068931822338        0.0000000000000000     
  -8.8212174205886187E-002  0.16722218756386117        0.0000000000000000     
  -8.9565223370446215E-002  0.17494895291594076        0.0000000000000000     
  -9.0834906184371858E-002  0.18276528042474663        0.0000000000000000     
  -9.2021222647663131E-002  0.19067117009027884        0.0000000000000000     
  -9.3124172760320006E-002  0.19866662191253739        0.0000000000000000     
  -9.5537790159189701E-002  0.16765232682334408        0.0000000000000000     
  -9.6991153626102958E-002  0.17535398963542115        0.0000000000000000     
  -9.8359135979762688E-002  0.18314490715287560        0.0000000000000000     
  -9.9641737220168863E-002  0.19102507937570751        0.0000000000000000     
 -0.10083895734732150       0.19899450630391685        0.0000000000000000     
 -0.10306051428703494       0.16812230218696672        0.0000000000000000     
 -0.10460682931972691       0.17579713169366218        0.0000000000000000     
 -0.10606786362342274       0.18356074824679317        0.0000000000000000     
 -0.10744361719812237       0.19141315184635968        0.0000000000000000     
 -0.10873409004382585       0.19935434249236175        0.0000000000000000     
  -7.8235647914825651E-002  0.19810670852097473        0.0000000000000000     
  -7.9074110707342660E-002  0.20623021296432628        0.0000000000000000     
  -7.9839774077998860E-002  0.21442929496597052        0.0000000000000000     
  -8.0532638026794237E-002  0.22270395452590730        0.0000000000000000     
  -8.1152702553728806E-002  0.23105419164413671        0.0000000000000000     
  -8.5589736282821405E-002  0.19837068931822338        0.0000000000000000     
  -8.6521889589454420E-002  0.20647204018211424        0.0000000000000000     
  -8.7382260346059726E-002  0.21464785271700518        0.0000000000000000     
  -8.8170848552637307E-002  0.22289812692289626        0.0000000000000000     
  -8.8887654209187178E-002  0.23122286279978743        0.0000000000000000     
  -9.3124172760320006E-002  0.19866662191253739        0.0000000000000000     
  -9.4149458729513219E-002  0.20674445233280614        0.0000000000000000     
  -9.5102782762413407E-002  0.21489747779236898        0.0000000000000000     
  -9.5984144859020612E-002  0.22312569829122589        0.0000000000000000     
  -9.6793545019334779E-002  0.23142911382937689        0.0000000000000000     
 -0.10083895734732150       0.19899450630391685        0.0000000000000000     
 -0.10195681812751904       0.20704744941640219        0.0000000000000000     
 -0.10300134132705993       0.21517817019206198        0.0000000000000000     
 -0.10397252694594411       0.22338666863089629        0.0000000000000000     
 -0.10487037498417168       0.23167294473290506        0.0000000000000000     
 -0.10873409004382585       0.19935434249236175        0.0000000000000000     
 -0.10994396778347189       0.20738103143290226        0.0000000000000000     
 -0.11107793603999924       0.21548992991608412        0.0000000000000000     
 -0.11213599481340789       0.22368103794190744        0.0000000000000000     
 -0.11311814410369783       0.23195435551037208        0.0000000000000000     
  -8.1152702553728806E-002  0.23105419164413671        0.0000000000000000     
  -8.1689132163231232E-002  0.23950047363179913        0.0000000000000000     
  -8.2131091359730193E-002  0.24806326780003493        0.0000000000000000     
  -8.2478580143225719E-002  0.25674257414884416        0.0000000000000000     
  -8.2731598513717794E-002  0.26553839267822676        0.0000000000000000     
  -8.8887654209187178E-002  0.23122286279978743        0.0000000000000000     
  -8.9518112767799168E-002  0.23964745733225123        0.0000000000000000     
  -9.0047659680563177E-002  0.24819730750486019        0.0000000000000000     
  -9.0476294947479205E-002  0.25687241331761418        0.0000000000000000     
  -9.0804018568547265E-002  0.26567277477051332        0.0000000000000000     
  -9.6793545019334779E-002  0.23142911382937689        0.0000000000000000     
  -9.7521722739494929E-002  0.23983405311713413        0.0000000000000000     
  -9.8159417515639988E-002  0.24836684486480978        0.0000000000000000     
  -9.8706629347769956E-002  0.25702748907240380        0.0000000000000000     
  -9.9163358235884846E-002  0.26581598573991627        0.0000000000000000     
 -0.10487037498417168       0.23167294473290506        0.0000000000000000     
 -0.10569996207831851       0.24006026098644778        0.0000000000000000     
 -0.10646636486496061       0.24857187987988374        0.0000000000000000     
 -0.10716958334409796       0.25720780141321303        0.0000000000000000     
 -0.10780961751573055       0.26596802558643551        0.0000000000000000     
 -0.11311814410369783       0.23195435551037208        0.0000000000000000     
 -0.11405283078426995       0.24032608094019225        0.0000000000000000     
 -0.11496850172852509       0.24881241255008216        0.0000000000000000     
 -0.11586515693646322       0.25741335034004176        0.0000000000000000     
 -0.11674279640808438       0.26612889431007103        0.0000000000000000     
  -8.2731598513717794E-002  0.26553839267822676        0.0000000000000000     
  -8.2929126367909708E-002  0.27447710470334064        0.0000000000000000     
  -8.3110143602504766E-002  0.28358509153934391        0.0000000000000000     
  -8.3274650217502966E-002  0.29286235318623643        0.0000000000000000     
  -8.3422646212904308E-002  0.30230888964401836        0.0000000000000000     
  -9.0804018568547265E-002  0.26567277477051332        0.0000000000000000     
  -9.1061193012825045E-002  0.27466145284730392        0.0000000000000000     
  -9.1278180749370275E-002  0.28390150853173224        0.0000000000000000     
  -9.1454981778182995E-002  0.29339294182379827        0.0000000000000000     
  -9.1591596099263151E-002  0.30313575272350202        0.0000000000000000     
  -9.9163358235884846E-002  0.26581598573991627        0.0000000000000000     
  -9.9540655488810165E-002  0.27483068680557599        0.0000000000000000     
  -9.9849572415371374E-002  0.28416994420761177        0.0000000000000000     
 -0.10009010901556852       0.29383375794602357        0.0000000000000000     
 -0.10026226528940158       0.30382212802081149        0.0000000000000000     
 -0.10780961751573055       0.26596802558643551        0.0000000000000000     
 -0.10836751379586503       0.27498480657815683        0.0000000000000000     
 -0.10882431860050802       0.28439039856698239        0.0000000000000000     
 -0.10918003192965951       0.29418480155291232        0.0000000000000000     
 -0.10943465378331954       0.30436801553594661        0.0000000000000000     
 -0.11674279640808438       0.26612889431007103        0.0000000000000000     
 -0.11754176793398967       0.27512381216504644        0.0000000000000000     
 -0.11820241930478022       0.28456287160984439        0.0000000000000000     
 -0.11872475052045603       0.29444607264446471        0.0000000000000000     
 -0.11910876158101710       0.30477341526890755        0.0000000000000000     
 </DataArray>
 <DataArray  type="Float64" Name="stress" NumberOfComponents="3" format="ascii">
   6007057471.5770636        62338600.557760000       -16506319.306376103     
   5799256936.9773912        23620350.713425398       -6837405.5947754225     
   5595196916.7558708       -2629517.8704025745        667707.08646238025     
   5394877410.9125099       -16411005.193695545        6009018.7373232134     
   5198298419.4473095       -17724111.256458044        9186529.3578237314     
   5673500060.9685621        41710584.693468571        164430725.42275009     
   5469414144.4230776        17818036.481724262        165814930.40260541     
   5267167192.2410746        55369.481553077698        168799019.15468535     
   5066759204.4225340       -11577416.307044983        173382991.67899311     
   4868190180.9674740       -17080320.884066820        179566847.97553191     
   5301596230.1724529        9578642.7729020119        351750590.82057691     
   5111978316.8314390        3737811.7388360500        342631612.05155396     
   4922297817.8392096       -2311638.1326029301        338876201.85735017     
   4732554733.1957626       -8569706.8414328098        340484360.23795825     
   4542749062.9011021       -15036394.387637138        347456087.19339508     
   4891345979.1887436       -34057225.203950167        545453276.88711166     
   4726949454.2024651       -18620323.515243053        523612639.35206509     
   4560588793.5502787       -9730540.7128801346        510899255.19443566     
   4392263997.2321930       -7387876.7968599796        507313124.41421980     
   4221975065.2482033       -11592331.767178297        512854247.01142347     
   4442749308.0174208       -89197019.237086058        745538783.62233734     
   4314327556.5361471       -49256369.280532122        708758012.30414271     
   4182040119.3742838       -22201338.259274721        684868179.16595435     
   4045886996.5318270       -8031926.1733171940        673869284.20778060     
   3905868188.0087795       -6748133.0226638317        675761327.42960942     
   5198298419.4473095       -17724111.256458044        9186529.3578237314     
   5033610399.3447104       -5458521.6858665943        2505674.6166237569     
   4867826746.7702475        3154959.6452033520        1609292.0720202674     
   4700947461.7239332        8116332.7367687225        6497381.7240215894     
   4532972544.2057667        9425597.5888025761        17169943.572618116     
   4868190180.9674740       -17080320.884066820        179566847.97553191     
   4716717452.8053856       -6648126.5006363392        173012211.51666608     
   4564596668.2177792        1623879.7977294922        171261803.24325237     
   4411827827.2046652        7735698.0110671520        174315623.15528816     
   4258410929.7660313        11687328.139338970        182173671.25277987     
   4542749062.9011021       -15036394.387637138        347456087.19339508     
   4401690929.5048189       -7277804.3437788486        341549841.07093507     
   4260432315.7293582       -187482.23050308228        339467579.12276739     
   4118973221.5747151        6234571.9521675110        341209301.34890896     
   3977313647.0408974        11988358.204249382        346775007.74934220     
   4221975065.2482033       -11592331.767178297        512854247.01142347     
   4088530829.4430056       -7347555.2152881622        508118563.27942175     
   3955333689.3049679       -2279126.4395399094        506226619.71056664     
   3822383644.8340869        3612954.5600678921        507178416.30486149     
   3689680696.0303597        10328687.783535719        510973953.06230390     
   3905868188.0087795       -6748133.0226638317        675761327.42960942     
   3777237152.6199489       -6857379.1151757240        672718378.14212668     
   3649300788.9446120       -4651052.8293650150        671538925.00664496     
   3522059096.9827733       -129154.16523838043        672222968.02315378     
   3395512076.7344236        6708316.8771989346        674770507.19166112     
   4532972544.2057667        9425597.5888025761        17169943.572618116     
   4336103692.4834404        1502449.7623999119        12238534.533199213     
   4139958451.8589563       -4008661.0711843967        10632760.586539213     
   3944536822.3323407       -7107734.9118754864        12352621.732631067     
   3749838803.9035735       -7794771.7597463131        17398117.971470293     
   4258410929.7660313        11687328.139338970        182173671.25277987     
   4071436042.5283337        5262320.8831954002        175942852.55891693     
   3884905316.9174528        317852.38312029839        173651415.93657073     
   3698818752.9333844       -3146077.3609192371        175299361.38573620     
   3513176350.5761418       -5129468.3488843441        180886688.90644020     
   3977313647.0408974        11988358.204249382        346775007.74934220     
   3801986287.0843048        7587560.3573312759        338918755.01814842     
   3626823639.2834830        3735803.0296587944        335615631.33724469     
   3451825703.6384516        433086.22127056122        336865636.70661134     
   3276992480.1491756       -2320590.0679161549        342668771.12626481     
   3689680696.0303597        10328687.783535719        510973953.06230390     
   3527754426.1513433        8478168.1847856045        501166241.91090018     
   3365713418.9570603        6245190.8684742451        496525406.78854686     
   3203557674.4475126        3629755.8346256018        497051447.69523948     
   3041287192.6227007        631863.08322298527        502744364.63097835     
   3395512076.7344236        6708316.8771989346        674770507.19166112     
   3248740459.7294540        7934144.3655532598        662685313.23716962     
   3101574655.9381771        7846015.8995568752        656380742.29049146     
   2954014665.3605986        6443931.4792157412        655856794.35161805     
   2806060487.9967065        3727891.1045027971        661113469.42055881     
   3749838803.9035735       -7794771.7597463131        17398117.971470293     
   3576211098.4736013       -2628916.7480235100        9995594.3800736144     
   3401551077.3039904       -904114.20176434517        7458779.5982431564     
   3225858740.3947186       -2620364.1210398674        9787673.6259737946     
   3049134087.7458043       -7777666.5057917833        16982276.463257842     
   3513176350.5761418       -5129468.3488843441        180886688.90644020     
   3351291515.6481171       -248861.92118620872        172372825.23535794     
   3188788932.6231093        2572584.1832365990        168092056.66021928     
   3025668601.5011263        3334869.9644088745        168044383.18101457     
   2861930522.2821527        2037995.4222784042        172229804.79775986     
   3276992480.1491756       -2320590.0679161549        342668771.12626481     
   3125043047.9698887        1732527.4497982264        333527229.62528729     
   2972890435.3362880        5108376.7864642143        327986169.50662816     
   2820534642.2483687        7806957.9420617819        326045590.77027810     
   2667975668.7061286        9828270.9166034460        327705493.41624457     
   3041287192.6227007        631863.08322298527        502744364.63097835     
   2897465695.4389410        3315251.3649815321        493458807.54987413     
   2753855585.4435301        6703263.6079064608        487141118.13745844     
   2610456862.6364632        10795899.811986685        483791296.39373934     
   2467269527.0177507        15593159.977238894        483409342.31871700     
   2806060487.9967065        3727891.1045027971        661113469.42055881     
   2668559458.0552602        4499309.8243418932        652167559.00910914     
   2531684382.9448252        7357244.6475554705        645556902.55272567     
   2395435262.6654143        12301695.574169755        641281500.05141163     
   2259812097.2170124        19332662.604159713        639341351.50516951     
   3049134087.7458043       -7777666.5057917833        16982276.463257842     
   2883776547.7940631       -9903898.6128628254        11589016.127465058     
   2719201391.5832090       -9422184.9169667959        7050822.2140036179     
   2555408619.1132445       -6332525.4181109667        3367694.7228978593     
   2392398230.3841672       -634920.11629796028        539633.65411575814     
   2861930522.2821527        2037995.4222784042        172229804.79775986     
   2699913279.8974686        950346.73924314976        165482077.44495529     
   2538311351.4177842        1247077.7395519018        160209070.23891643     
   2377124736.8430796        2928188.4231256247        156410783.17966127     
   2216353436.1733818        5993678.7900545597        154087216.26717189     
   2667975668.7061286        9828270.9166034460        327705493.41624457     
   2511069163.1011786        10310337.421433806        319175050.90455872     
   2354210901.5653300        10953217.489934921        312738982.26407051     
   2197400884.0985775        11756911.122087717        308397287.49479878     
   2040639110.7009363        12721418.317948937        306149966.59672529     
   2467269527.0177507        15593159.977238894        483409342.31871700     
   2317244197.4051986        18176073.433707476        472667936.50626981     
   2166900042.0258565        19696234.334218979        464640558.28945351     
   2016237060.8797235        20153642.678744316        459327207.66829008     
   1865255253.9667938        19548298.467300892        456727884.64276034     
   2259812097.2170124        19332662.604159713        639341351.50516951     
   2118438382.8095355        24547554.776096344        625960734.25008488     
   1976378772.7993667        27476128.272392988        615913798.31507814     
   1833633267.1865127        28118383.093069077        609200543.70014739     
   1690201865.9709859        26474319.238166630        605820970.40529084     
   2392398230.3841672       -634920.11629796028        539633.65411575814     
   2249544442.8782158        7256759.6977359056       -6528047.1344062965     
   2103367894.1447237        4072568.7533122301       -11335771.264177661     
   1953868584.1837316       -10187492.949444294       -13883538.735207304     
   1801046512.9952095       -35523425.410646915       -14171349.547478570     
   2216353436.1733818        5993678.7900545597        154087216.26717189     
   2077954820.3098702        13100575.431518912        143471701.90751517     
   1937380187.7936804        12954083.230731845        134204389.80773027     
   1794629538.6248262        5554202.1877260208        126285279.96782234     
   1649702872.8032951       -9099067.6975473166        119714372.38778880     
   2040639110.7009363        12721418.317948937        306149966.59672529     
   1904090653.9116580        18262028.016398311        293324487.33657783     
   1766512925.0445399        20371730.788737178        280935455.93743813     
   1627905924.0996106        19050526.635017037        268982872.39929074     
   1488269651.0768487        14298415.555192649        257466736.72215486     
   1865255253.9667938        19548298.467300892        456727884.64276034     
   1727951943.6835401        22741117.452284575        443030309.15279013     
   1590766105.8973007        26325511.427325487        428857427.12493742     
   1453697740.6080701        30301480.392410398        414209238.55922687     
   1316746847.8158715        34669024.347573400        399085743.45562184     
   1690201865.9709859        26474319.238166630        605820970.40529084     
   1549538689.6255288        26537843.739192665        592589167.35613728     
   1410139730.3519506        30815425.146470547        577970303.37024081     
   1272004988.1502147        39307063.459893405        561964378.44758976     
   1135134463.0203598        52012758.679587066        544571392.58819067     
   1801046512.9952095       -35523425.410646915       -14171349.547478570     
   1770450941.9615350       -16934782.000050187       -8316073.1037577549     
   1747962720.6116283        28678360.356417656       -41367557.613498807     
   1733581848.9454663        101316001.65871197       -113325803.07668893     
   1727308326.9630921        200978141.90696466       -224190809.49336141     
   1649702872.8032951       -9099067.6975473166        119714372.38778880     
   1527132218.9016705       -13995368.990199983        135451596.44145274     
   1408748679.4658866       -4934622.0633887053        124765120.32782438     
   1294552254.4959524        18083173.082913637        87654944.046907574     
   1184542943.9918656        55058016.448706865        24121067.598698460     
   1488269651.0768487        14298415.555192649        257466736.72215486     
   1309389802.2677739       -3383064.0525396466        278512300.63151497     
   1130776832.7066224       -20174946.167210102        285617225.15975809     
   952430742.39339352       -36077230.788797796        278781510.30688846     
   774351531.32808721       -51089917.917309850        258005156.07289737     
   1316746847.8158715        34669024.347573400        399085743.45562184     
   1117223692.0598378        14902132.812899053        420866039.46643853     
   914047180.33380365       -17042611.955118656        441188756.88231695     
   707217312.63777304       -61165209.956454575        460053895.70324171     
   496734088.97175479       -117465661.19108286        477461455.92923373     
   1135134463.0203598        52012758.679587066        544571392.58819067     
   950633888.27785695        40860221.606110811        562512812.94622791     
   758559722.34744096        4462380.5729128122        591479715.49548924     
   558911965.22910476       -57180764.420004815        631472100.23598230     
   351690616.92286563       -144069213.37261617        682489967.16770720     
   1727308326.9630921        200978141.90696466       -224190809.49336141     
   1456762608.2736030        184798859.67672718       -96685195.178204998     
   1154004201.3510988        61243950.003094435        60064764.576169744     
   819033106.19558215       -169686587.11391842        246059069.76972565     
   451849322.80706280       -507992751.67425120        461297720.40246147     
   1184542943.9918656        55058016.448706865        24121067.598698460     
   977559255.47651029        11900082.705726385        155478916.27303728     
   732735399.50277352       -157391742.56519186        312712131.52969360     
   450071376.07064772       -452817459.36405188        495820713.36864173     
   129567185.18012691       -874377067.69091702        704804661.78990734     
   774351531.32808721       -51089917.917309850        258005156.07289737     
   621304219.11005580       -124114199.33600304        386649846.67680603     
   424789260.20825058       -342030636.36727262        537800925.00613451     
   184806654.62269136       -704839229.01107907        711458391.06087172     
  -98643597.646677196       -1212539977.2675166        907622244.84104085     
   496734088.97175479       -117465661.19108286        477461455.92923373     
   387997499.17421430       -223243986.44856188        596827596.03309679     
   230165783.46752307       -492672731.40322053        735331145.00548506     
   23238941.851676941       -925751896.05508327        892972102.84639597     
  -232783025.67331973       -1522481480.4040813        1069750469.5558476     
   351690616.92286563       -144069213.37261617        682489967.16770720     
   277639095.66899127       -285489278.63194847        786012164.34190762     
   148864969.28058258       -609318027.67305076        905302791.52775502     
  -34631762.242363274       -1115555460.4959435        1040361848.7252424     
  -272851098.89983743       -1804201577.1006086        1191189335.9343600     
   4442749308.0174208       -89197019.237086058        745538783.62233734     
   4314327556.5361471       -49256369.280532122        708758012.30414271     
   4182040119.3742838       -22201338.259274721        684868179.16595435     
   4045886996.5318270       -8031926.1733171940        673869284.20778060     
   3905868188.0087795       -6748133.0226638317        675761327.42960942     
   4022920732.7369657       -62161588.902212620        843131208.07539570     
   3916566555.1279531       -40285607.559473276        817429113.81432509     
   3808610629.5479913       -23748786.119886398        799979907.87817752     
   3699052955.9970841       -12551124.583450317        790783590.26694512     
   3587893534.4752374       -6692622.9501585960        789840160.98063695     
   3650483695.4033661       -20908697.183284044        929908794.20725107     
   3552945520.6520710       -21072855.758722544        917926637.66455913     
   3456069535.6394768       -19029715.205162287        909559319.59170139     
   3359855740.3655801       -14779275.522602081        904806839.98867190     
   3264304134.8303843       -8321536.7110397816        903669198.85547066     
   3325438196.0166173        34561655.919699430        1005871542.0179069     
   3223464453.1085052        8381886.1217221022        1010250583.8548480     
   3124416837.6487331       -8044125.5151079893        1013606414.3065305     
   3028295349.6373043       -14716378.990786433        1015939033.3729509     
   2935099989.0742245       -11634874.305314541        1017248441.0541114     
   3047784234.5767274        104249470.40674245        1071019451.5073639     
   2928123352.4972477        48078618.081861138        1094400952.3851879     
   2813652535.5757613        9207982.9502803087        1112121192.0226638     
   2704371783.8122621       -12362434.988004684        1124180170.4197884     
   2600281097.2067533       -16632635.732983112        1130577887.5765646     
   3905868188.0087795       -6748133.0226638317        675761327.42960942     
   3777237152.6199489       -6857379.1151757240        672718378.14212668     
   3649300788.9446120       -4651052.8293650150        671538925.00664496     
   3522059096.9827733       -129154.16523838043        672222968.02315378     
   3395512076.7344236        6708316.8771989346        674770507.19166112     
   3587893534.4752374       -6692622.9501585960        789840160.98063695     
   3465774438.6090469       -5958769.6223659515        786009003.20313191     
   3344046049.3936758       -3922560.7918348312        785128972.11712933     
   3222708366.8291197       -583996.45859253407        787200067.72263610     
   3101761390.9153810        4056923.3773781061        792222290.01964366     
   3264304134.8303843       -8321536.7110397816        903669198.85547066     
   3151804494.3139987       -5812329.2147942781        898695206.68148756     
   3039391595.3857546       -3013983.0914100409        897759971.73851490     
   2927065438.0456481        73501.659107804298        900863494.02655804     
   2814826022.2936897        3450125.0367709398        908005773.54560828     
   2935099989.0742245       -11634874.305314541        1017248441.0541114     
   2835327319.7348061       -6418057.8924705982        1010776988.5771965     
   2735337426.9208536       -1925319.7280776501        1009431923.8707987     
   2635130310.6323681        1843340.1878679991        1013213246.9349185     
   2534705970.8693457        4887921.8553589582        1022120957.7695593     
   2600281097.2067533       -16632635.732983112        1130577887.5765646     
   2516342914.8714676       -7775955.6553871632        1122254348.8902578     
   2431883543.9989748       -656570.70183026791        1120144828.5139768     
   2346902984.5892653        4725519.1276803017        1124249326.4477205     
   2261401236.6423483        8370313.8331608772        1134567842.6914914     
   3395512076.7344236        6708316.8771989346        674770507.19166112     
   3248740459.7294540        7934144.3655532598        662685313.23716962     
   3101574655.9381771        7846015.8995568752        656380742.29049146     
   2954014665.3605986        6443931.4792157412        655856794.35161805     
   2806060487.9967065        3727891.1045027971        661113469.42055881     
   3101761390.9153810        4056923.3773781061        792222290.01964366     
   2969132121.2871032        5577662.7869969606        781837203.22078073     
   2836365666.5605335        6641118.5356487036        776482165.56818628     
   2703462026.7356763        7247290.6233439445        776157177.06187391     
   2570421201.8125343        7396179.0500822067        780862237.70183611     
   2814826022.2936897        3450125.0367709398        908005773.54560828     
   2694194603.2948608        4622427.3434708118        899620629.20505500     
   2573683000.8857594        6194118.2826057673        895514960.14924610     
   2453291215.0663896        8165197.8541693687        895688766.37817788     
   2333019245.8367524        10535666.058173656        900142047.89185464     
   2534705970.8693457        4887921.8553589582        1022120957.7695593     
   2423927905.7527266        5068438.0349749327        1016035591.1900084     
   2313526658.9138575        6505015.1404206753        1013479126.0336620     
   2203502230.3527312        9197653.1716849804        1014451562.3005282     
   2093854620.0693612        13146352.128784657        1018952899.9906005     
   2261401236.6423483        8370313.8331608772        1134567842.6914914     
   2158332028.6607027        6915694.8615205288        1131082089.1756287     
   2055896640.6448231        7573809.1091015339        1130374663.2214401     
   1954095072.5947049        10344656.575890899        1132445564.8289227     
   1852927324.5103593        15228237.261915922        1137294793.9980838     
   2806060487.9967065        3727891.1045027971        661113469.42055881     
   2668559458.0552602        4499309.8243418932        652167559.00910914     
   2531684382.9448252        7357244.6475554705        645556902.55272567     
   2395435262.6654143        12301695.574169755        641281500.05141163     
   2259812097.2170124        19332662.604159713        639341351.50516951     
   2570421201.8125343        7396179.0500822067        780862237.70183611     
   2440049124.7758141        8794752.4098209143        772251560.43618512     
   2310110316.7277675        11637555.731804729        766644711.14834952     
   2180604777.6683908        15924589.016022682        764041689.83833134     
   2051532507.5976906        21655852.262491107        764442496.50613558     
   2333019245.8367524        10535666.058173656        900142047.89185464     
   2211686333.1983356        13134457.505895615        891641803.62259305     
   2090594003.7062418        16535192.774706364        886813961.35390234     
   1969742257.3604772        20737871.864611506        885658521.08578038     
   1849131094.1610444        25742494.775615335        888175482.81823003     
   2093854620.0693612        13146352.128784657        1018952899.9906005     
   1983471083.3228133        17518425.112558007        1010338288.5683334     
   1873135443.8802459        22050155.776270390        1006064653.1693878     
   1762847701.7416685        26741544.119936943        1006131993.7937614     
   1652607856.9070718        31592590.143546641        1010540310.4414487     
   1852927324.5103593        15228237.261915922        1137294793.9980838     
   1755403375.1492541        21946655.229809165        1128341015.2734075     
   1657734637.2497876        28182444.736493349        1124396786.5948071     
   1559921110.8119631        33935605.781986237        1125462107.9622700     
   1461962795.8357770        39206138.366274595        1131536979.3758082     
   2259812097.2170124        19332662.604159713        639341351.50516951     
   2118438382.8095355        24547554.776096344        625960734.25008488     
   1976378772.7993667        27476128.272392988        615913798.31507814     
   1833633267.1865127        28118383.093069077        609200543.70014739     
   1690201865.9709859        26474319.238166630        605820970.40529084     
   2051532507.5976906        21655852.262491107        764442496.50613558     
   1918670758.3097930        26246103.582313538        752477017.12702894     
   1785372991.7948887        29382964.145452857        743869669.79339528     
   1651639208.0529718        31066433.951875567        738620454.50523269     
   1517469407.0840466        31296513.001597881        736729371.26253533     
   1849131094.1610444        25742494.775615335        888175482.81823003     
   1724851169.2081499        29729063.007990897        877916666.08672118     
   1600385105.4039154        33095168.402563453        871040432.12607837     
   1475732902.7483397        35840810.959341228        867546780.93630111     
   1350894561.2414281        37965990.678325355        867435712.51738751     
   1652607856.9070718        31592590.143546641        1010540310.4414487     
   1536979615.5045881        34996433.053080797        1002279681.1291606     
   1421415113.6264362        38612741.043725908        997426085.31312370     
   1305914351.2726178        42441514.115476727        995979522.99335372     
   1190477328.4431388        46482752.268354893        997939994.16983628     
   1461962795.8357770        39206138.366274595        1131536979.3758082     
   1355056097.1991179        42048213.717598081        1125566062.2543423     
   1248463016.4624615        45935682.068939626        1123026629.3545394     
   1142183553.6258147        50868543.420302868        1123918680.6763799     
   1036217708.6891681        56846797.771673322        1128242216.2198820     
   1690201865.9709859        26474319.238166630        605820970.40529084     
   1549538689.6255288        26537843.739192665        592589167.35613728     
   1410139730.3519506        30815425.146470547        577970303.37024081     
   1272004988.1502147        39307063.459893405        561964378.44758976     
   1135134463.0203598        52012758.679587066        544571392.58819067     
   1517469407.0840466        31296513.001597881        736729371.26253533     
   1374918556.5087683        28848622.031910837        727532402.93122983     
   1232695818.6742344        27494440.198038220        718849995.85312760     
   1090801193.5804451        27233967.499975026        710682150.02822828     
   949234681.22739005        28067203.937693417        703028865.45653164     
   1350894561.2414281        37965990.678325355        867435712.51738751     
   1211889242.6933331        34636646.115011573        861181457.18428183     
   1072275932.5548642        29280662.917121351        857343385.29432690     
   932054630.82600927        21898041.084609866        855921496.84753144     
   791225337.50677586        12488780.617502958        856915791.84390020     
   1190477328.4431388        46482752.268354893        997939994.16983628     
   1060450748.1792352        43901915.988524377        993536330.11528349     
   928880071.99383509        36174093.303701013        993450471.69384646     
   795765299.88692904        23299284.213858098        997682418.90552211     
   661106431.85852957        5277488.7190312445        1006232171.7503048     
   1036217708.6891681        56846797.771673322        1128242216.2198820     
   920603072.96646452        56644431.652421921        1124597021.7242453     
   802508236.99114478        48174731.357780606        1127171255.0516827     
   681933200.76320767        31437696.887743592        1135964916.2021825     
   558877964.28263617        6433328.2422587276        1150978005.1757410     
   1135134463.0203598        52012758.679587066        544571392.58819067     
   950633888.27785695        40860221.606110811        562512812.94622791     
   758559722.34744096        4462380.5729128122        591479715.49548924     
   558911965.22910476       -57180764.420004815        631472100.23598230     
   351690616.92286563       -144069213.37261617        682489967.16770720     
   949234681.22739005        28067203.937693417        703028865.45653164     
   790493286.33203900        11120116.296118289        720816239.54193091     
   623097717.60807872       -34674217.440839887        748730089.14194167     
   447047975.05549192       -109315797.27320710        786770414.25655377     
   262344058.67429870       -212804623.20093495        834937214.88576186     
   791225337.50677586        12488780.617502958        856915791.84390020     
   655674531.95393884       -11023434.743558943        873288439.90918887     
   510388969.93178189       -66984838.335674644        898888556.81245387     
   355368651.44030088       -155395430.15886998        933716142.55369663     
   190613576.47951061       -276255210.21311009        977771197.13291526     
   661106431.85852957        5277488.7190312445        1006232171.7503048     
   546177625.14355373       -25570431.512908310        1019929414.0479923     
   420433479.31855780       -92469482.111586750        1041955118.5070285     
   283873994.38353664       -195419663.07700452        1072309285.1274146     
   136499170.33850849       -334420974.40914106        1110991913.9091580     
   558877964.28263617        6433328.2422587276        1150978005.1757410     
   462002565.90087360       -32520874.011972845        1160739161.9583411     
   353231245.76839983       -111128148.76858069        1177929774.2256713     
   232564003.88519061       -229388496.02763742        1202549841.9777286     
   100000840.25127295       -387301915.78905541        1234599365.2145042     
   351690616.92286563       -144069213.37261617        682489967.16770720     
   277639095.66899127       -285489278.63194847        786012164.34190762     
   148864969.28058258       -609318027.67305076        905302791.52775502     
  -34631762.242363274       -1115555460.4959435        1040361848.7252424     
  -272851098.89983743       -1804201577.1006086        1191189335.9343600     
   262344058.67429870       -212804623.20093495        834937214.88576186     
   223554371.77674559       -352682227.57037473        884535683.53454947     
   140564102.25495934       -639895107.35393023        945134257.62504399     
   13373250.108954251       -1074443262.5515184        1016732937.1572526     
  -158018184.66126400       -1656326693.1631947        1099331722.1311848     
   190613576.47951061       -276255210.21311009        977771197.13291526     
   173461939.45275408       -418677489.03836465        985721630.18498826     
   122631742.31209186       -673361634.90997732        999903844.10883999     
   38122985.057526648       -1040307647.8279305        1020317838.9044704     
  -80064332.310943186       -1519515527.7922435        1046963614.5718915     
   136499170.33850849       -334420974.40914106        1110991913.9091580     
   127361798.69703677       -483475063.03585237        1089570004.2932158     
   95067889.451986134       -709717610.34119201        1069611550.9791300     
   39617442.603332639       -1013148616.3251857        1051116553.9668804     
  -38989541.848895431       -1393768080.9877739        1034085013.2565209     
   100000840.25127295       -387301915.78905541        1234599365.2145042     
   85253949.509587437       -547074949.56287301        1196080805.8592427     
   57872543.674627364       -748963033.64760602        1154257378.2359080     
   17856622.746401310       -992966168.04323101        1109129082.3445139     
  -34793813.275110126       -1279084352.7497964        1060695918.1850233     
   3047784234.5767274        104249470.40674245        1071019451.5073639     
   2928123352.4972477        48078618.081861138        1094400952.3851879     
   2813652535.5757613        9207982.9502803087        1112121192.0226638     
   2704371783.8122621       -12362434.988004684        1124180170.4197884     
   2600281097.2067533       -16632635.732983112        1130577887.5765646     
   2696644359.4229922        10248405.333904028        1228483538.4686358     
   2587538487.8092318        2712507.1505395174        1223879137.6741397     
   2478805837.6927733       -3579319.3751394749        1221831785.9840379     
   2370446409.0736237       -8627074.2431313992        1222341483.3983400     
   2262460201.9517808       -12430757.453435898        1225408229.9170353     
   2244532177.4303484       -114044351.79060566        1406245316.6685650     
   2169462202.9815769       -65901029.822676539        1368035363.2642839     
   2089948606.3694341       -32569781.732666016        1340600769.3091440     
   2005991387.5939116       -14050607.520586729        1323941534.8031507     
   1917590546.6550090       -10343507.186427116        1318057659.7463028     
   1691447688.5987947       -268628800.96679044        1604304786.1071460     
   1673894498.0142975       -157761992.83777499        1526869629.1556144     
   1647080841.6057417       -77763404.122301102        1468428141.9979734     
   1611006719.3731222       -28633034.820360363        1428980324.6342249     
   1565672131.3164432       -10370884.931957304        1408526177.0643663     
   1037390892.9283366       -453504942.19464332        1822661946.7843845     
   1100835372.9073894       -272870381.89476728        1700381935.3481402     
   1150202543.4016962       -139160186.54403806        1605313904.0505316     
   1185492404.4112563       -52374356.142462611        1537457852.8915615     
   1206704955.9360766       -12512890.690027654        1496813781.8712313     
   2600281097.2067533       -16632635.732983112        1130577887.5765646     
   2516342914.8714676       -7775955.6553871632        1122254348.8902578     
   2431883543.9989748       -656570.70183026791        1120144828.5139768     
   2346902984.5892653        4725519.1276803017        1124249326.4477205     
   2261401236.6423483        8370313.8331608772        1134567842.6914914     
   2262460201.9517808       -12430757.453435898        1225408229.9170353     
   2194236874.9718637       -4176980.0692651272        1214045068.7636094     
   2125725115.4299603        3115355.4416180849        1208695370.9643121     
   2056924923.3260639        9446249.0791839361        1209359136.5191333     
   1987836298.6601822        14815700.843478560        1216036365.4280753     
   1917590546.6550090       -10343507.186427116        1318057659.7463028     
   1864509060.8707352       -2864536.7436003685        1303926424.7635236     
   1811371898.4996951        4428845.0766811371        1295608098.1789634     
   1758179059.5418904        11536638.274406075        1293102679.9926274     
   1704930543.9973202        18458842.849587440        1296410170.2045045     
   1565672131.3164432       -10370884.931957304        1408526177.0643663     
   1527159472.5680838       -3838625.6783875823        1391898416.8899982     
   1488823893.2081807        3283898.2033695579        1380883010.1579397     
   1450665393.2367399        10996686.713333428        1375479956.8681991     
   1412683972.6537507        19299739.851477444        1375689257.0207705     
   1206704955.9360766       -12512890.690027654        1496813781.8712313     
   1182188110.0639045       -7099246.8736431599        1477961045.1430278     
   1158081099.5554199       -319485.17830425501        1464520106.9012351     
   1134383924.4106123        7826394.3959580064        1456490967.1458528     
   1111096584.6294906        17338391.849176824        1453873625.8768823     
   2261401236.6423483        8370313.8331608772        1134567842.6914914     
   2158332028.6607027        6915694.8615205288        1131082089.1756287     
   2055896640.6448231        7573809.1091015339        1130374663.2214401     
   1954095072.5947049        10344656.575890899        1132445564.8289227     
   1852927324.5103593        15228237.261915922        1137294793.9980838     
   1987836298.6601822        14815700.843478560        1216036365.4280753     
   1893148687.6648605        12651987.904764414        1210402846.9889741     
   1798846123.2067990        11771763.423592091        1208602020.3546898     
   1704928605.2860024        12175027.399964452        1210633885.5252311     
   1611396133.9024704        13861779.833887398        1216498442.5005901     
   1704930543.9973202        18458842.849587440        1296410170.2045045     
   1621636999.2544494        16489776.723633409        1288338651.1755776     
   1538479727.6203418        14974954.293553054        1285154188.1946158     
   1455458729.0949934        13914375.559342563        1286856781.2616241     
   1372574003.6784077        13308040.521004975        1293446430.3765965     
   1412683972.6537507        19299739.851477444        1375689257.0207705     
   1343796963.4294691        18429061.318135440        1364889501.7354336     
   1274797453.8854475        17183381.718987584        1360031166.7412112     
   1205685444.0216804        15562701.054027796        1361114252.0381021     
   1136460933.8381743        13567019.323272288        1368138757.6261036     
   1111096584.6294906        17338391.849176824        1453873625.8768823     
   1059628580.1899254        18469841.688268423        1440055398.6685514     
   1007799302.0021162        18397045.699887872        1433232955.9944761     
   955608750.06606352        17120003.884025276        1433406297.8546634     
   903056924.38176942        14638716.240691364        1440575424.2491050     
   1852927324.5103593        15228237.261915922        1137294793.9980838     
   1755403375.1492541        21946655.229809165        1128341015.2734075     
   1657734637.2497876        28182444.736493349        1124396786.5948071     
   1559921110.8119631        33935605.781986237        1125462107.9622700     
   1461962795.8357770        39206138.366274595        1131536979.3758082     
   1611396133.9024704        13861779.833887398        1216498442.5005901     
   1526161929.1862929        18810565.191828072        1208402363.3848391     
   1441052053.4870043        24173780.606065094        1205158760.7060270     
   1356066506.8046222        29951426.076653242        1206767634.4641528     
   1271205289.1391301        36143501.603548646        1213228984.6592205     
   1372574003.6784077        13308040.521004975        1293446430.3765965     
   1299180761.8667817        16352558.746875226        1286522021.3508987     
   1226180966.6273091        20708565.546576083        1284293015.1530101     
   1153574617.9599898        26376060.920129120        1286759411.7829299     
   1081361715.8648193        33355044.867513716        1293921211.2406609     
   1136460933.8381743        13567019.323272288        1368138757.6261036     
   1074459873.1907368        14572635.894972384        1362699989.1715882     
   1013121376.6707027        17786799.558017254        1361799549.9357550     
   952445444.27807724        23209510.312419474        1365437439.9186010     
   892432076.01285636        30840768.158181489        1373613659.1201253     
   903056924.38176942        14638716.240691364        1440575424.2491050     
   851999263.15814066        13470796.636090726        1436936266.8469088     
   801873283.61717653        15408482.640366793        1437678365.0542569     
   752678985.75887692        20451774.253529638        1442801718.8711619     
   704416369.58323908        28600671.475559533        1452306328.2976146     
   1461962795.8357770        39206138.366274595        1131536979.3758082     
   1355056097.1991179        42048213.717598081        1125566062.2543423     
   1248463016.4624615        45935682.068939626        1123026629.3545394     
   1142183553.6258147        50868543.420302868        1123918680.6763799     
   1036217708.6891681        56846797.771673322        1128242216.2198820     
   1271205289.1391301        36143501.603548646        1213228984.6592205     
   1174250786.7397738        38891740.327542841        1208166300.0070596     
   1077293371.9942415        41630271.230944455        1207349321.3067124     
   980333044.90253222        44359094.313760936        1210778048.5581686     
   883369805.46465313        47078209.576000929        1218452481.7614374     
   1081361715.8648193        33355044.867513716        1293921211.2406609     
   996685757.50322354        36707351.304322481        1289397473.7705853     
   911690356.54926896        38994849.099936664        1289933663.9824793     
   826375513.00295484        40217538.254357189        1295529781.8763435     
   740741226.86427951        40375418.767564207        1306185827.4521739     
   892432076.01285636        30840768.158181489        1373613659.1201253     
   822361009.48947263        35495046.647956789        1369259583.5449243     
   751653970.12753594        38029415.675887585        1370779657.3818445     
   680310957.92706800        38443875.242047280        1378173880.6308999     
   608331972.88805318        36738425.346385032        1391442253.2920749     
   704416369.58323908        28600671.475559533        1452306328.2976146     
   651276542.69850755        35254826.358400285        1447752629.3300726     
   597184212.72905266        38733970.958830029        1449887301.5048156     
   542139379.67487597        39038105.276853323        1458710344.8218396     
   486142043.53596443        36167229.312427178        1474221759.2811484     
   1036217708.6891681        56846797.771673322        1128242216.2198820     
   920603072.96646452        56644431.652421921        1124597021.7242453     
   802508236.99114478        48174731.357780606        1127171255.0516827     
   681933200.76320767        31437696.887743592        1135964916.2021825     
   558877964.28263617        6433328.2422587276        1150978005.1757410     
   883369805.46465313        47078209.576000929        1218452481.7614374     
   783118515.44560385        45291780.893661976        1215457782.9500134     
   680549833.08908963        35780711.086428493        1218427167.4482801     
   575663758.39509428        18545000.154261023        1227360635.2562392     
   468460291.36361504       -6415351.9028475285        1242258186.3738825     
   740741226.86427951        40375418.767564207        1306185827.4521739     
   655123726.79639876        36786060.796408713        1304031566.8926225     
   567351642.30618560        26014754.750802547        1307586045.1293919     
   477424973.39364719        8061500.6307851970        1316849262.1624804     
   385343720.05877006       -17073701.563697636        1331821217.9918835     
   608331972.88805318        36738425.346385032        1391442253.2920749     
   536618707.01884228        31127271.360641688        1390318373.5520685     
   462913664.64244264        18876862.350934491        1394647888.0950096     
   387216845.75885999       -12801.682712808251        1404430796.9208999     
   309528250.36809760       -25541720.740297630        1419667100.0297310     
   486142043.53596443        36167229.312427178        1474221759.2811484     
   427603456.11293632        28315412.586369798        1474318202.9283581     
   367235900.09785610        14367033.886808395        1479612696.3451459     
   305039375.49075508       -5677906.7861573398        1490105239.5315020     
   241013882.29159710       -31819409.432646051        1505795832.4874341     
   558877964.28263617        6433328.2422587276        1150978005.1757410     
   462002565.90087360       -32520874.011972845        1160739161.9583411     
   353231245.76839983       -111128148.76858069        1177929774.2256713     
   232564003.88519061       -229388496.02763742        1202549841.9777286     
   100000840.25127295       -387301915.78905541        1234599365.2145042     
   468460291.36361504       -6415351.9028475285        1242258186.3738825     
   390589671.32529044       -41412514.980257392        1241165875.2349367     
   302616664.42558658       -110084300.92891213        1246350005.9884999     
   204541270.66450202       -212430709.74884844        1257810578.6345513     
   96363490.042047888       -348451741.44001096        1275547593.1730986     
   385343720.05877006       -17073701.563697636        1331821217.9918835     
   323183553.81464720       -49102122.829059929        1321967896.3023026     
   252714535.59848949       -108826717.33453457        1317238002.9129860     
   173936665.41030741       -196247485.08009776        1317631537.8239305     
   86849943.250086069       -311364426.06578088        1323148501.0351481     
   309528250.36809760       -25541720.740297630        1419667100.0297310     
   259784213.36894995       -55589697.558378696        1403145225.1604109     
   203524859.28710800       -107355397.98543608        1390593764.9991276     
   140750188.12258697       -180838822.02143160        1382012719.5458734     
   71460199.875375077       -276039969.66638553        1377402088.8006649     
   241013882.29159710       -31819409.432646051        1505795832.4874341     
   200391649.98819953       -60875239.168203413        1484697861.8092775     
   155047635.49144292       -105670342.88162433        1466417292.2469213     
   104981838.80136770       -166204720.57277384        1450954123.8003685     
   50194259.917928204       -242478372.24180430        1438308356.4696198     
   100000840.25127295       -387301915.78905541        1234599365.2145042     
   85253949.509587437       -547074949.56287301        1196080805.8592427     
   57872543.674627364       -748963033.64760602        1154257378.2359080     
   17856622.746401310       -992966168.04323101        1109129082.3445139     
  -34793813.275110126       -1279084352.7497964        1060695918.1850233     
   96363490.042047888       -348451741.44001096        1275547593.1730986     
   79600169.338355124       -489668443.91787362        1221337336.1288130     
   51431537.410994858       -668902850.47462535        1164598617.0827632     
   11857594.259962440       -886154961.11028409        1105331436.0349486     
  -39121660.114737809       -1141424775.8248386        1043535792.9853557     
   86849943.250086069       -311364426.06578088        1323148501.0351481     
   70288496.202405542       -433359306.16228294        1254680617.4830501     
   43550941.800661892       -589274544.10565662        1184460678.1954927     
   6637280.0448485613       -779110139.89593339        1112488683.1724629     
  -40452489.065019965       -1002866093.5330635        1038764632.4139910     
   71460199.875375077       -276039969.66638553        1377402088.8006649     
   57318930.101730615       -378147536.29611981        1296110649.9219432     
   34230756.843625277       -510078114.54071796        1213843561.5740776     
   2195680.1010656953       -671831704.40015316        1130600823.7570622     
  -38786300.125962645       -863408305.87450004        1046382436.4708867     
   50194259.917928204       -242478372.24180430        1438308356.4696198     
   40691471.036341697       -324033134.31935084        1345627433.4455047     
   23470982.539897889       -431313561.77975506        1252747267.2185445     
  -1467205.5714110434       -564319654.62304318        1159667857.7887383     
  -34123093.297558010       -723051412.84911907        1066389205.1560776     
   1037390892.9283366       -453504942.19464332        1822661946.7843845     
   1100835372.9073894       -272870381.89476728        1700381935.3481402     
   1150202543.4016962       -139160186.54403806        1605313904.0505316     
   1185492404.4112563       -52374356.142462611        1537457852.8915615     
   1206704955.9360766       -12512890.690027654        1496813781.8712313     
   575846334.04043353       -174610977.02738762        1583115275.9619112     
   657913239.90474033       -108755693.74758613        1520059395.1174588     
   736275347.53273058       -55249737.922170311        1470604002.5891917     
   810932656.92440426       -14093109.551144242        1434749098.3771167     
   881885168.07976568        14714191.365507424        1412494682.4812331     
   332595411.36291611        169771079.00298208        1291223356.3525991     
   394394766.47690958        109180092.27203709        1299492869.2231023     
   462861834.60301471        70814815.581468686        1307751378.5873501     
   537996615.74123549        54675248.931283966        1315998884.4453382     
   619799109.89157081        60761392.321480721        1324235386.7970660     
   307638124.89578408        579641225.89646828        946986187.95644915     
   310279952.62389636        380936976.16410476        1038682357.6650839     
   329962004.61255014        239033473.96688491        1116756032.0450089     
   366684280.86175066        153930719.30481827        1181207211.0962296     
   420446781.37149239        125628712.17788891        1232035894.8187406     
   500974474.63903844        1054999463.6530703        550403770.77346826     
   405568798.34570158        706514957.92861962        737627860.44339788     
   337575857.56133664        449406237.23407811        897617962.96216869     
   296995652.28594482        283673301.56944501        1030374078.3297865     
   283828182.51952899        209316150.93473160        1135896206.5462470     
   1206704955.9360766       -12512890.690027654        1496813781.8712313     
   1182188110.0639045       -7099246.8736431599        1477961045.1430278     
   1158081099.5554199       -319485.17830425501        1464520106.9012351     
   1134383924.4106123        7826394.3959580064        1456490967.1458528     
   1111096584.6294906        17338391.849176824        1453873625.8768823     
   881885168.07976568        14714191.365507424        1412494682.4812331     
   865331940.35974574        12707846.932333112        1414751652.0991006     
   849475649.10425436        13024624.047586173        1419434988.3282666     
   834316294.31329036        15664522.711265147        1426544691.1687272     
   819853875.98685837        20627542.923381895        1436080760.6204844     
   619799109.89157081        60761392.321480721        1324235386.7970660     
   602679694.96622932        48776118.031498790        1347937014.0453296     
   586544317.60626185        40070968.959431767        1371079576.0297749     
   571392977.81166995        34645945.105282694        1393663072.7503991     
   557225675.58245432        32501046.469053745        1415687504.2072055     
   420446781.37149239        125628712.17788891        1232035894.8187406     
   394231373.88335741        101105566.42385952        1277517130.9817157     
   369287105.06144297        80819549.557232812        1319453870.0057600     
   345613974.90574968        64770661.578008652        1357846111.8908682     
   323211983.41628009        52958902.486197084        1392693856.6370447     
   283828182.51952899        209316150.93473160        1135896206.5462470     
   239986977.11112881        169696192.10941154        1203492002.9082589     
   197704011.46979436        135270365.84097663        1264557870.2562220     
   156979285.59553251        106038672.12945095        1319093808.5901377     
   117812799.48833615        82001110.974809483        1367099817.9100027     
   1111096584.6294906        17338391.849176824        1453873625.8768823     
   1059628580.1899254        18469841.688268423        1440055398.6685514     
   1007799302.0021162        18397045.699887872        1433232955.9944761     
   955608750.06606352        17120003.884025276        1433406297.8546634     
   903056924.38176942        14638716.240691364        1440575424.2491050     
   819853875.98685837        20627542.923381895        1436080760.6204844     
   784056296.07379377        20247248.272935122        1431272684.1961792     
   748258856.80396080        19867422.433262318        1431871860.0632799     
   712461558.17736340        19488065.404373705        1437878288.2217822     
   676664400.19399333        19109177.186242700        1449291968.6716912     
   557225675.58245432        32501046.469053745        1415687504.2072055     
   532559856.64487797        29247408.263768315        1420311228.6903174     
   508255592.74201059        27198953.507511646        1428753673.2219779     
   484312883.87384695        26355682.200267240        1441014837.8021889     
   460731730.04038924        26717594.342044070        1457094722.4309506     
   323211983.41628009        52958902.486197084        1392693856.6370447     
   305139261.90317804        45470321.660767026        1407171032.1509590     
   287789509.81625551        40391638.922602832        1423878395.4705682     
   271162727.15551484        37722854.271711074        1442815946.5958738     
   255258913.92095879        37463967.708101675        1463983685.5268710     
   117812799.48833615        82001110.974809483        1367099817.9100027     
   101794511.84869295        68915988.463928550        1391852094.5781076     
   86860608.026710093        59445478.678582773        1417246026.8090525     
   73011088.022374943        53589581.618729010        1443281614.6028364     
   60245951.835698307        51348297.284403607        1469958857.9594584     
   903056924.38176942        14638716.240691364        1440575424.2491050     
   851999263.15814066        13470796.636090726        1436936266.8469088     
   801873283.61717653        15408482.640366793        1437678365.0542569     
   752678985.75887692        20451774.253529638        1442801718.8711619     
   704416369.58323908        28600671.475559533        1452306328.2976146     
   676664400.19399333        19109177.186242700        1449291968.6716912     
   637198401.33018160        18077244.365152687        1450090701.1984708     
   598027387.75358748        18028595.834790260        1455393459.9039822     
   559151359.46421015        18963231.595148236        1465200244.7882190     
   520570316.46204603        20881151.646216750        1479511055.8511822     
   460731730.04038924        26717594.342044070        1457094722.4309506     
   433208166.59119147        25926880.220915303        1461588532.4253526     
   405342892.03376114        23997129.072345555        1470709139.1676624     
   377135906.36810029        20928340.896340504        1484456542.6578739     
   348587209.59420151        16720515.692875162        1502830742.8959990     
   255258913.92095879        37463967.708101675        1463983685.5268710     
   240028558.94116554        37019704.203358881        1471429760.5275383     
   223819796.45769545        33314082.353027560        1483625402.8452914     
   206632626.47054538        26347102.157095976        1500570612.4801292     
   188467048.97971201        16118763.615551732        1522265389.4320505     
   60245951.835698307        51348297.284403607        1469958857.9594584     
   57659578.380109385        51355716.312503390        1479614385.5050399     
   53458101.025389016        45979455.676832348        1494142250.9368804     
   47641519.771547325        35219515.377423905        1513542454.2549865     
   40209834.618566893        19075895.414218310        1537814995.4593506     
   704416369.58323908        28600671.475559533        1452306328.2976146     
   651276542.69850755        35254826.358400285        1447752629.3300726     
   597184212.72905266        38733970.958830029        1449887301.5048156     
   542139379.67487597        39038105.276853323        1458710344.8218396     
   486142043.53596443        36167229.312427178        1474221759.2811484     
   520570316.46204603        20881151.646216750        1479511055.8511822     
   482145279.16939723        22916394.546476603        1477912924.7348063     
   443471754.04205924        24123344.664439261        1482011394.1583476     
   404549741.08003604        24502002.000115678        1491806464.1217928     
   365379240.28332824        24052366.553511649        1507298134.6251667     
   348587209.59420151        16720515.692875162        1502830742.8959990     
   322043331.60115117        13286757.522805542        1505009530.7558293     
   295954981.02345389        11371424.070578277        1511893148.5532062     
   270322157.86110538        10974515.336180776        1523481596.2881277     
   245144862.11411029        12096031.319628254        1539774873.9605935     
   188467048.97971201        16118763.615551732        1522265389.4320505     
   170970699.99377316        6365915.2873982489        1529042447.3931375     
   154633893.67322728        478209.17722092569        1539532564.6894054     
   139456630.01806861       -1544354.7150008902        1553735741.3208377     
   125438909.02830493        298223.61076197028        1571651977.2874570     
   40209834.618566893        19075895.414218310        1537814995.4593506     
   28927384.347263284        2153867.8402580433        1550011674.6467376     
   19508491.991387747       -8556300.0156086423        1564929642.5669286     
   11953157.550934661       -13054608.153400499        1582568899.2199242     
   6261381.0259154169       -11341056.573079553        1602929444.6057291     
   486142043.53596443        36167229.312427178        1474221759.2811484     
   427603456.11293632        28315412.586369798        1474318202.9283581     
   367235900.09785610        14367033.886808395        1479612696.3451459     
   305039375.49075508       -5677906.7861573398        1490105239.5315020     
   241013882.29159710       -31819409.432646051        1505795832.4874341     
   365379240.28332824        24052366.553511649        1507298134.6251667     
   321367851.75506181        19475751.474370629        1505640270.5918548     
   275841403.82208431        9848938.3795259446        1509203309.4048769     
   228799896.48441759       -4828072.7309542447        1517987251.0642436     
   180243329.74203196       -24555281.857157096        1531992095.5699480     
   245144862.11411029        12096031.319628254        1539774873.9605935     
   215725966.98564902        10814206.238913305        1536728929.6319880     
   185105921.63981664        5528547.1002939120        1538926741.2264824     
   153284726.07662177       -3760946.0962021649        1546368308.7440856     
   120262380.29605879       -17054273.350590564        1559053632.1847897     
   125438909.02830493        298223.61076197028        1571651977.2874570     
   110677801.80469878        2330776.8800030723        1567584180.0487754     
   95029453.551052302        1405860.0491099544        1568782991.8099656     
   78493864.267380089       -2476526.8818704300        1575248412.5710254     
   61071033.953678414       -9316383.9129461758        1586980442.3319585     
   6261381.0259154169       -11341056.573079553        1602929444.6057291     
   6223356.2121996442       -5974536.6023984719        1598206021.8422043     
   5611999.5557931494       -2519122.7740191054        1598772061.1553180     
   4427311.0566860046       -974815.08797524264        1604627562.5450647     
   2669290.7148913392       -1341613.5442238082        1615772526.0114472     
   241013882.29159710       -31819409.432646051        1505795832.4874341     
   200391649.98819953       -60875239.168203413        1484697861.8092775     
   155047635.49144292       -105670342.88162433        1466417292.2469213     
   104981838.80136770       -166204720.57277384        1450954123.8003685     
   50194259.917928204       -242478372.24180430        1438308356.4696198     
   180243329.74203196       -24555281.857157096        1531992095.5699480     
   149161414.64611816       -46666576.767849989        1506417294.8310177     
   114566109.76034120       -80489170.978087947        1483761213.5609150     
   76457415.084693491       -126023064.48789240        1464023851.7596426     
   34835330.619176455       -183268257.29726541        1447205209.4271920     
   120262380.29605879       -17054273.350590564        1559053632.1847897     
   99010263.416280776       -32134189.133781731        1530411792.5224752     
   75453149.150105804       -54897429.538297504        1504789990.6820121     
   49591037.497537613       -85343994.564121932        1482188226.6633999     
   21423928.458570309       -123473884.21127950        1462606500.4666414     
   61071033.953678414       -9316383.9129461758        1586980442.3319585     
   49938196.298667975       -17278076.266066924        1556681354.8836460     
   37708753.660739660       -28895118.562250018        1529503623.6101992     
   24382706.039885078       -44167510.801517233        1505447248.5116317     
   9960053.4361064583       -63095252.983865917        1484512229.5879414     
   2669290.7148913392       -1341613.5442238082        1615772526.0114472     
   1945213.2932872972       -2098238.1646824772        1585225981.9145193     
   1332923.2922456157       -2482238.0499325851        1557902112.3454866     
   832420.71174405958       -2493613.2000503298        1533800917.3043590     
   443705.55180083751       -2132363.6149715460        1512922396.7911301     
   50194259.917928204       -242478372.24180430        1438308356.4696198     
   40691471.036341697       -324033134.31935084        1345627433.4455047     
   23470982.539897889       -431313561.77975506        1252747267.2185445     
  -1467205.5714110434       -564319654.62304318        1159667857.7887383     
  -34123093.297558010       -723051412.84911907        1066389205.1560776     
   34835330.619176455       -183268257.29726541        1447205209.4271920     
   30391765.624234214       -243521017.79090863        1346993996.1497068     
   20124585.896886185       -323185827.39257121        1245957890.2377410     
   4033791.4371269643       -422262686.10226977        1144096891.6912913     
  -17880617.755031645       -540751593.91996896        1041411000.5103428     
   21423928.458570309       -123473884.21127950        1462606500.4666414     
   20252017.545589551       -162960914.06243101        1357074762.6319733     
   15150576.782657638       -215546376.74675167        1250092482.7311876     
   6119606.1697632223       -281230272.26428336        1141659660.7642746     
  -6840894.2930770963       -360012600.61496395        1031776296.7312443     
   9960053.4361064583       -63095252.983865917        1484512229.5879414     
   10272226.800408520       -82352823.133919224        1375869732.8922977     
   8548955.1972118914       -108395209.84230426        1265151044.6988907     
   4790238.6265072599       -141222413.10904306        1152356165.0077269     
  -1003922.9117069840       -180834432.93415415        1037485093.8187931     
   443705.55180083751       -2132363.6149715460        1512922396.7911301     
   452393.38870026998       -1696745.0053456402        1403378906.9306865     
   319721.14055130188       -1732326.6792130156        1291133576.1408525     
   45688.807338515180       -2239108.6366278408        1176186404.4215989     
  -369703.61091306456       -3217090.8775039213        1058537391.7729820     
   500974474.63903844        1054999463.6530703        550403770.77346826     
   405568798.34570158        706514957.92861962        737627860.44339788     
   337575857.56133664        449406237.23407811        897617962.96216869     
   296995652.28594482        283673301.56944501        1030374078.3297865     
   283828182.51952899        209316150.93473160        1135896206.5462470     
   375855595.92963982        604608129.03092182        988808190.45333922     
   278046248.92818362        419925504.02441752        1099705957.9776192     
   193963959.72412425        280999738.34256309        1198188301.1734414     
   123608728.31745134        187830831.98533294        1284255220.0407982     
   66980554.708172120        140418784.95274839        1357906714.5796978     
  -57074186.548448883        61873523.278159633        1498473992.1048598     
  -114948453.33603255        53694404.266210176        1517078813.4866471     
  -172781340.03780612        45653218.873625204        1538086773.3626683     
  -230572846.65377262        37749967.100399837        1561497871.7329252     
  -288322973.18392849        29984648.946540371        1587312108.5974135     
  -797814872.79522455       -573204353.60520697        2079401175.7280262     
  -773415308.44695294       -392178341.34601057        1989746426.9704764     
  -762660041.72445261       -256633321.17272711        1917313379.5298524     
  -765549072.62772655       -166569293.08535293        1862102033.4061596     
  -782082401.15677416       -121986257.08389200        1824112388.5993981     
  -1846366462.8106868       -1300625501.6191764        2731589741.3228436     
  -1697354316.4045734       -917692732.81224298        2517708798.4291086     
  -1575672145.3358133       -625859881.79649031        2335868119.6749949     
  -1481319949.6044092       -425126948.57192355        2186067705.0605068     
  -1414297729.2103610       -315493933.13854343        2068307554.5856462     
   283828182.51952899        209316150.93473160        1135896206.5462470     
   239986977.11112881        169696192.10941154        1203492002.9082589     
   197704011.46979436        135270365.84097663        1264557870.2562220     
   156979285.59553251        106038672.12945095        1319093808.5901377     
   117812799.48833615        82001110.974809483        1367099817.9100027     
   66980554.708172120        140418784.95274839        1357906714.5796978     
   19991945.781206757        116919194.14505923        1381488656.5494323     
  -26863993.369390152        93861835.925263524        1405459362.9764032     
  -73587262.743613601        71246710.293379739        1429818833.8606136     
  -120177862.34146874        49073817.249389544        1454567069.2020612     
  -288322973.18392849        29984648.946540371        1587312108.5974135     
  -318691289.99721146        28535734.846153900        1565217031.1857228     
  -350352507.02482235        22777153.364672780        1550429411.7025578     
  -383306624.26675761        12708904.502109140        1542949250.1479144     
  -417553641.72302622       -1669011.7415611446        1542776546.5218017     
  -782082401.15677416       -121986257.08389200        1824112388.5993981     
  -776062730.22412336       -95454185.787294120        1754677126.8171334     
  -772761529.49650156       -77983681.840792000        1699468016.4346797     
  -772178798.97390127       -69574745.244364679        1658485057.4520400     
  -774314538.65633154       -70227375.998035401        1631728249.8692083     
  -1414297729.2103610       -315493933.13854343        2068307554.5856462     
  -1352122374.8995323       -255050567.75529960        1949868943.4436612     
  -1294091060.7844257       -208420669.69112700        1852575177.1727738     
  -1240203786.8650424       -175604238.94603273        1776426255.7729867     
  -1190460553.1413863       -156601275.52003109        1721422179.2442975     
   117812799.48833615        82001110.974809483        1367099817.9100027     
   101794511.84869295        68915988.463928550        1391852094.5781076     
   86860608.026710093        59445478.678582773        1417246026.8090525     
   73011088.022374943        53589581.618729010        1443281614.6028364     
   60245951.835698307        51348297.284403607        1469958857.9594584     
  -120177862.34146874        49073817.249389544        1454567069.2020612     
  -129933268.53656174        39077861.552541770        1460933646.7370141     
  -139078676.82034045        31115232.226741873        1470763285.1709263     
  -147614087.19281164        25185929.271964304        1484055984.5037992     
  -155539499.65396911        21289952.688236505        1500811744.7356369     
  -417553641.72302622       -1669011.7415611446        1542776546.5218017     
  -412985008.37036204       -6157453.1934095174        1530203974.6995280     
  -408280763.01273006       -10193854.628696993        1523915869.1123407     
  -403440905.65013027       -13778216.047426596        1523912229.7602360     
  -398465436.28256261       -16910537.449595109        1530193056.6432095     
  -774314538.65633154       -70227375.998035401        1631728249.8692083     
  -747360707.65270638       -66789955.773921967        1599663078.4656518     
  -720745650.55046105       -64481781.887740105        1576703778.6332946     
  -694469367.34958589       -63302854.339462012        1562850350.3721454     
  -668531858.05009031       -63253173.129110307        1558102793.6821978     
  -1190460553.1413863       -156601275.52003109        1721422179.2442975     
  -1133060366.3835974       -142819646.18900162        1669310958.0353818     
  -1076473339.4335320       -131748549.55038369        1629127013.7337904     
  -1020699472.2911799       -123387985.60414177        1600870346.3395236     
  -965738764.95655072       -117737954.35031199        1584540955.8525877     
   60245951.835698307        51348297.284403607        1469958857.9594584     
   57659578.380109385        51355716.312503390        1479614385.5050399     
   53458101.025389016        45979455.676832348        1494142250.9368804     
   47641519.771547325        35219515.377423905        1513542454.2549865     
   40209834.618566893        19075895.414218310        1537814995.4593506     
  -155539499.65396911        21289952.688236505        1500811744.7356369     
  -144707118.67671680        22625863.519736066        1499653464.0308197     
  -134745472.28086588        21059325.746565059        1503638389.2026787     
  -125654560.46641529        16590339.368727967        1512766520.2512150     
  -117434383.23336501        9218904.3862189651        1527037857.1764271     
  -398465436.28256261       -16910537.449595109        1530193056.6432095     
  -373440392.32843399       -14013962.251493573        1519089398.5586863     
  -348541713.63797688       -11538604.598966569        1513399814.3412492     
  -323769400.21119028       -9484464.4920052439        1513124303.9909024     
  -299123452.04807484       -7851541.9306170791        1518262867.5076478     
  -668531858.05009031       -63253173.129110307        1558102793.6821978     
  -628540242.57504344       -58563761.001190066        1537922189.0886416     
  -587930623.04594159       -51814335.359753877        1523426526.3525920     
  -546702999.46277976       -43004896.204782650        1514615805.4740448     
  -504857371.82556194       -32135443.536294624        1511490026.4530001     
  -965738764.95655072       -117737954.35031199        1584540955.8525877     
  -910006669.41654789       -111023532.72936499        1556151835.6206872     
  -852912200.50475836       -99767866.535791785        1533718525.2367051     
  -794455358.22118449       -83970955.769605100        1517241024.7006428     
  -734636142.56582153       -63632800.430790603        1506719334.0124936     
   40209834.618566893        19075895.414218310        1537814995.4593506     
   28927384.347263284        2153867.8402580433        1550011674.6467376     
   19508491.991387747       -8556300.0156086423        1564929642.5669286     
   11953157.550934661       -13054608.153400499        1582568899.2199242     
   6261381.0259154169       -11341056.573079553        1602929444.6057291     
  -117434383.23336501        9218904.3862189651        1527037857.1764271     
  -117167417.59631225       -557316.07858090103        1533302881.3551795     
  -116042127.49003991       -7472454.9793197028        1544081750.4746745     
  -114058512.91455422       -11526512.316012602        1559374464.5349092     
  -111216573.86985958       -12719488.088674255        1579181023.5358741     
  -299123452.04807484       -7851541.9306170791        1518262867.5076478     
  -282185481.33713555       -8945478.5365775377        1517423464.3238502     
  -265394419.60319757       -10529111.732542261        1522890462.2887273     
  -248750266.84626052       -12602441.518513039        1534663861.4022725     
  -232253023.06632504       -15165467.894486092        1552743661.6644919     
  -504857371.82556194       -32135443.536294624        1511490026.4530001     
  -466126806.87521988       -23010619.533774108        1502373423.5527370     
  -428548384.34808540       -17726270.275280938        1501355778.0090802     
  -392122104.24417853       -16282395.760878772        1508437089.8220270     
  -356847966.56348282       -18678995.990513965        1523617358.9915793     
  -734636142.56582153       -63632800.430790603        1506719334.0124936     
  -668991394.21055198       -42752739.070125014        1488152759.0418515     
  -605504021.72470939       -29063930.607552171        1479477697.6357398     
  -544174025.10830057       -22566375.043088615        1480694149.7941656     
  -485001404.36131883       -23260072.376718640        1491802115.5171311     
   6261381.0259154169       -11341056.573079553        1602929444.6057291     
   6223356.2121996442       -5974536.6023984719        1598206021.8422043     
   5611999.5557931494       -2519122.7740191054        1598772061.1553180     
   4427311.0566860046       -974815.08797524264        1604627562.5450647     
   2669290.7148913392       -1341613.5442238082        1615772526.0114472     
  -111216573.86985958       -12719488.088674255        1579181023.5358741     
  -97767338.873295382       -9041459.2825412787        1573119310.9006648     
  -84062923.427322790       -4512828.9783768244        1572532603.2346990     
  -70103327.531943753        866402.82380770519        1577420900.5379734     
  -55888551.187154405        7096236.1240259595        1587784202.8104963     
  -232253023.06632504       -15165467.894486092        1552743661.6644919     
  -204786405.70917365       -13016893.487809062        1546310256.8317134     
  -176236095.61050886       -7256009.9427539036        1545537399.8607829     
  -146602092.77034050        2117182.7406476513        1550425090.7517059     
  -115884397.18865645        15102684.562432170        1560973329.5044770     
  -356847966.56348282       -18678995.990513965        1523617358.9915793     
  -314833844.29542577       -17900839.218170673        1517778859.6353464     
  -270907516.99376583       -10748665.667149782        1517786451.0335727     
  -225068984.65849432        2777524.6625735909        1523640133.1862583     
  -177318247.28961360        22677731.770998523        1535339906.0934045     
  -485001404.36131883       -23260072.376718640        1491802115.5171311     
  -427909654.63206315       -23693296.473667830        1487525119.3115630     
  -368077187.57709682       -14990796.151577830        1489279756.7530680     
  -305504003.19641727        2847428.5895546377        1497066027.8416374     
  -240190101.49002072        29821377.749743208        1510883932.5772748     
   2669290.7148913392       -1341613.5442238082        1615772526.0114472     
   1945213.2932872972       -2098238.1646824772        1585225981.9145193     
   1332923.2922456157       -2482238.0499325851        1557902112.3454866     
   832420.71174405958       -2493613.2000503298        1533800917.3043590     
   443705.55180083751       -2132363.6149715460        1512922396.7911301     
  -55888551.187154405        7096236.1240259595        1587784202.8104963     
  -45942434.885838658        14250273.532646213        1557467189.6002965     
  -34797783.349450745        25399428.391505621        1530309805.7962034     
  -22454596.578008927        40543700.700545415        1506312051.3982017     
  -8912874.5714997984        59683090.459809586        1485473926.4062991     
  -115884397.18865645        15102684.562432170        1560973329.5044770     
  -95448216.083857179        30113345.324287146        1532153719.6312852     
  -72726751.929474711        52741616.251418069        1506430694.0423875     
  -47720004.725516781        82987497.343801171        1483804252.7377894     
  -20427974.471971303        120850988.60147610        1464274395.7174816     
  -177318247.28961360        22677731.770998523        1535339906.0934045     
  -146572130.30075893        45490977.210269786        1509285572.0074823     
  -112453982.44780855        79544325.529861271        1486264777.0840478     
  -74963803.730765402        124837776.72976142        1466277521.3231146     
  -34101594.149630316        181371330.80996802        1449323804.7246735     
  -240190101.49002072        29821377.749743208        1510883932.5772748     
  -199314177.53654447        60383169.190597251        1488862746.7288833     
  -153979474.90446341        105807556.22680154        1469812054.9211841     
  -104185993.59377652        166094538.85835636        1453731857.1541839     
  -49933733.604468107        241244117.08531967        1440622153.4278738     
   443705.55180083751       -2132363.6149715460        1512922396.7911301     
   452393.38870026998       -1696745.0053456402        1403378906.9306865     
   319721.14055130188       -1732326.6792130156        1291133576.1408525     
   45688.807338515180       -2239108.6366278408        1176186404.4215989     
  -369703.61091306456       -3217090.8775039213        1058537391.7729820     
  -8912874.5714997984        59683090.459809586        1485473926.4062991     
  -9347768.0285429880        79261145.939035192        1376497243.0283751     
  -7927361.3191122860        105023535.30650641        1265463698.7684431     
  -4651654.4432177767        136970258.56218857        1152373293.6265213     
   479352.59916109592        175101315.70615610        1037226027.6025771     
  -20427974.471971303        120850988.60147610        1464274395.7174816     
  -19463649.087550096        160124320.99089018        1358193955.7821803     
  -14647363.285126671        212237521.44031310        1250701635.0122693     
  -5979117.0647043288        277190589.94973230        1141797433.4077506     
   6541089.5737118721        354983526.51913249        1031481350.9686335     
  -34101594.149630316        181371330.80996802        1449323804.7246735     
  -29895249.788318887        240892780.15022835        1348469045.1921110     
  -19840284.757484317        319909631.72223389        1246847384.8723364     
  -3936699.0571220219        418421885.52599359        1144458823.7653515     
   17815507.312755644        536429541.56147683        1041303361.8711571     
  -49933733.604468107        241244117.08531967        1440622153.4278738     
  -40642570.130859897        321566523.41701490        1347322511.2581618     
  -23506125.736194611        428039866.15223217        1253900948.3486357     
   1475599.5795249045        560664145.29096329        1160357464.6992900     
   34302605.816281110        719439360.83315229        1066692060.3101302     
  -1846366462.8106868       -1300625501.6191764        2731589741.3228436     
  -1697354316.4045734       -917692732.81224298        2517708798.4291086     
  -1575672145.3358133       -625859881.79649031        2335868119.6749949     
  -1481319949.6044092       -425126948.57192355        2186067705.0605068     
  -1414297729.2103610       -315493933.13854343        2068307554.5856462     
  -2506738211.0304193       -783449073.95471156        2125444142.7879350     
  -2351539766.3491950       -590180322.94635236        1999942419.2055764     
  -2208376559.9059887       -437029032.73138821        1890927741.9564266     
  -2077248591.7008016       -323995203.30981565        1798400111.0404844     
  -1958155861.7336299       -251078834.68163693        1722359526.4577527     
  -2826770332.2019048       -164170758.17576933        1436715111.4779878     
  -2709823354.4067607       -173897354.51434493        1417436467.1562350     
  -2589616877.7502947       -172758954.64852202        1399091651.3612721     
  -2466150902.2325120       -160755558.57830310        1381680664.0931025     
  -2339425427.8534098       -137887166.30368376        1365203505.3517249     
  -2806462826.3251476        557209445.71764243        665402647.39300156     
  -2772205080.5772667        331156172.48378289        770190942.28107846     
  -2719393098.8687367        166950352.45209873        860359847.88953221     
  -2648026881.1995440        64591985.622612953        935909364.21836007     
  -2558106427.5696931        24081071.995321751        996839491.26756573     
  -2445815693.4001398        1380691537.7255325       -188493249.46702635     
  -2538684944.8607187        924980258.04802179        58205844.580108903     
  -2597705223.2613025        582098888.57049012        274732331.54120278     
  -2622876528.6018939        352047429.29293573        461086211.41625977     
  -2614198860.8824887        234825880.21536672        617267484.20527411     
  -1414297729.2103610       -315493933.13854343        2068307554.5856462     
  -1352122374.8995323       -255050567.75529960        1949868943.4436612     
  -1294091060.7844257       -208420669.69112700        1852575177.1727738     
  -1240203786.8650424       -175604238.94603273        1776426255.7729867     
  -1190460553.1413863       -156601275.52003109        1721422179.2442975     
  -1958155861.7336299       -251078834.68163693        1722359526.4577527     
  -1856372630.3693256       -205517477.53701538        1652712312.7832656     
  -1757166575.2083488       -168546707.73681545        1595822161.5646493     
  -1660537696.2506895       -140166525.28101152        1551689072.8019066     
  -1566485993.4963572       -120376930.16962975        1520313046.4950345     
  -2339425427.8534098       -137887166.30368376        1365203505.3517249     
  -2221999412.0505657       -114397345.18217790        1346175697.1358685     
  -2105583708.4586401       -94275231.430400848        1331517168.9606602     
  -1990178317.0776448       -77520825.048389554        1321227920.8260975     
  -1875783237.9075675       -64134126.036106825        1315307952.7321787     
  -2558106427.5696931        24081071.995321751        996839491.26756573     
  -2449002719.9432425        18309829.309233308        1030259096.5014762     
  -2339342460.5353093        14393759.228086829        1059660199.3608050     
  -2229125649.3459020        12332861.751855254        1085042799.8455546     
  -2118352286.3750186        12127136.880545616        1106406897.9557221     
  -2614198860.8824887        234825880.21536672        617267484.20527411     
  -2537382554.0473623        192604045.93721151        704962510.88008308     
  -2458442831.4383488        157460264.23867798        780251252.76508558     
  -2377379693.0554695        129394535.11969554        843133709.86027944     
  -2294193138.8987045        108406858.58033061        893609882.16566944     
  -1190460553.1413863       -156601275.52003109        1721422179.2442975     
  -1133060366.3835974       -142819646.18900162        1669310958.0353818     
  -1076473339.4335320       -131748549.55038369        1629127013.7337904     
  -1020699472.2911799       -123387985.60414177        1600870346.3395236     
  -965738764.95655072       -117737954.35031199        1584540955.8525877     
  -1566485993.4963572       -120376930.16962975        1520313046.4950345     
  -1482882531.6379957       -108534070.51096356        1489109442.9918118     
  -1399874814.3569212       -98677026.109916747        1466582336.4291692     
  -1317462841.6531389       -90805796.966507614        1452731726.8071089     
  -1235646613.5266366       -84920383.080704987        1447557614.1256325     
  -1875783237.9075675       -64134126.036106825        1315307952.7321787     
  -1775264443.7107553       -57016418.878433824        1305265618.0368159     
  -1675123978.8608027       -51159809.543618202        1300649000.3152938     
  -1575361843.3576989       -46564298.031637311        1301458099.5676091     
  -1475978037.2014525       -43229884.342517078        1307692915.7937660     
  -2118352286.3750186        12127136.880545616        1106406897.9557221     
  -2010206102.6018806        11733308.708584547        1117779483.1703949     
  -1902220832.9451649        10803100.148551464        1131327005.3921607     
  -1794396477.4048741        9336511.2004368305        1147049464.6210260     
  -1686733035.9810042        7333541.8642503023        1164946860.8569858     
  -2294193138.8987045        108406858.58033061        893609882.16566944     
  -2187707508.3113651        97715112.250098348        926651038.39254570     
  -2081165376.6100159        87211702.966561913        958616351.65977454     
  -1974566743.7946541        76896630.729733825        989505821.96735442     
  -1867911609.8652868        66769895.539594769        1019319449.3152928     
  -965738764.95655072       -117737954.35031199        1584540955.8525877     
  -910006669.41654789       -111023532.72936499        1556151835.6206872     
  -852912200.50475836       -99767866.535791785        1533718525.2367051     
  -794455358.22118449       -83970955.769605100        1517241024.7006428     
  -734636142.56582153       -63632800.430790603        1506719334.0124936     
  -1235646613.5266366       -84920383.080704987        1447557614.1256325     
  -1166481735.7449396       -82498439.879911065        1430496075.9933646     
  -1096502255.5276542       -77361155.227154255        1418802209.3729787     
  -1025708172.8747693       -69508529.122396678        1412476014.2644737     
  -954099487.78629553       -58940561.565681815        1411517490.6678569     
  -1475978037.2014525       -43229884.342517078        1307692915.7937660     
  -1395060772.4238780       -45604538.135626078        1301319893.6689034     
  -1313876676.1469042       -47089753.597402155        1299726404.7198896     
  -1232425748.3705306       -47685530.727850914        1302912448.9467216     
  -1150707989.0947554       -47391869.526958883        1310878026.3494048     
  -1686733035.9810042        7333541.8642503023        1164946860.8569858     
  -1595743779.4533648       -341827.49650996923        1168623288.6473053     
  -1505035462.3625154       -8953661.6465688348        1176491111.2774346     
  -1414608084.7084632       -18501960.585945070        1188550328.7473817     
  -1324461646.4911993       -28986724.314629376        1204800941.0571384     
  -1867911609.8652868        66769895.539594769        1019319449.3152928     
  -1768530756.8333931        53289692.037457228        1032406260.9285671     
  -1669978614.1744893        37047120.625353217        1049096329.0456198     
  -1572255181.8885701        18042181.303301334        1069389653.6664522     
  -1475360459.9756370       -3725125.9287046790        1093286234.7910612     
  -734636142.56582153       -63632800.430790603        1506719334.0124936     
  -668991394.21055198       -42752739.070125014        1488152759.0418515     
  -605504021.72470939       -29063930.607552171        1479477697.6357398     
  -544174025.10830057       -22566375.043088615        1480694149.7941656     
  -485001404.36131883       -23260072.376718640        1491802115.5171311     
  -954099487.78629553       -58940561.565681815        1411517490.6678569     
  -867920406.97433829       -44757199.025944024        1397704796.7094343     
  -783054207.98303998       -34950109.221736968        1391341621.5733728     
  -699500890.81241083       -29519292.153094113        1392427965.2596731     
  -617260455.46245122       -28464747.820014298        1400963827.7683270     
  -1150707989.0947554       -47391869.526958883        1310878026.3494048     
  -1050971703.6609055       -41998344.158600628        1302804456.4601057     
  -951703805.99895191       -38166111.363223672        1299738410.6509864     
  -852904296.10889733       -35895171.140849292        1301679888.9220533     
  -754573173.99073470       -35185523.491448551        1308628891.2732983     
  -1324461646.4911993       -28986724.314629376        1204800941.0571384     
  -1218145284.2702501       -34476174.468088865        1203451738.2938552     
  -1111452815.7724302       -38711937.031973183        1204668064.8685811     
  -1004384240.9977388       -41694012.006285906        1208449920.7813091     
  -896939559.94617558       -43422399.391033441        1214797306.0320439     
  -1475360459.9756370       -3725125.9287046790        1093286234.7910612     
  -1369441148.8023789       -22190689.954415560        1099646642.2106948     
  -1262301237.3034778       -36587586.227985203        1106130584.2261529     
  -1153940725.4789472       -46915814.749453783        1112738060.8374429     
  -1044359613.3287657       -53175375.518756390        1119469072.0445585     
  -485001404.36131883       -23260072.376718640        1491802115.5171311     
  -427909654.63206315       -23693296.473667830        1487525119.3115630     
  -368077187.57709682       -14990796.151577830        1489279756.7530680     
  -305504003.19641727        2847428.5895546377        1497066027.8416374     
  -240190101.49002072        29821377.749743208        1510883932.5772748     
  -617260455.46245122       -28464747.820014298        1400963827.7683270     
  -544467304.15965879       -28278009.478532284        1397974779.9969184     
  -469064757.26309735       -19393285.824476138        1400889031.5338285     
  -391052814.77275032       -1810576.8578116894        1409706582.3790617     
  -310431476.68864214        24470117.421399593        1424427432.5326135     
  -754573173.99073470       -35185523.491448551        1308628891.2732983     
  -666445290.65368176       -34488823.573308259        1306774583.2487850     
  -575839333.45479274       -25531877.449061215        1310695240.1938426     
  -482755302.39406604       -8314685.1186857224        1320390862.1084807     
  -387193197.47151220        17162753.417788059        1335861448.9926872     
  -896939559.94617558       -43422399.391033441        1214797306.0320439     
  -793843614.11412895       -42325738.758016497        1213924529.0671620     
  -688400916.15219808       -33406571.025370091        1218698382.7331076     
  -580611466.06036377       -16664896.193061173        1229118867.0298834     
  -470475263.83863813        7899285.7388997376        1245185981.9574890     
  -1044359613.3287657       -53175375.518756390        1119469072.0445585     
  -926662274.54101396       -51788755.032666087        1119424617.4520464     
  -806749505.35530877       -43017366.553404033        1124898459.1516194     
  -684621305.77163756       -26861210.080919534        1135890597.1432736     
  -560277675.79001570       -3320285.6152640581        1152401031.4270117     
  -240190101.49002072        29821377.749743208        1510883932.5772748     
  -199314177.53654447        60383169.190597251        1488862746.7288833     
  -153979474.90446341        105807556.22680154        1469812054.9211841     
  -104185993.59377652        166094538.85835636        1453731857.1541839     
  -49933733.604468107        241244117.08531967        1440622153.4278738     
  -310431476.68864214        24470117.421399593        1424427432.5326135     
  -260335384.91218916        55207822.970850363        1406994738.0088859     
  -203872039.17180496        107169708.40008415        1393643390.6678405     
  -141041439.46747768        180355773.70912036        1384373390.5094814     
  -71843585.799222559        274766018.89792025        1379184737.5338092     
  -387193197.47151220        17162753.417788059        1335861448.9926872     
  -324703071.75211233        49028532.911818296        1325243800.2931647     
  -253937216.78344280        108480076.57007793        1319818351.9183204     
  -174895632.56551278        195517384.39254421        1319585103.8681564     
  -87578319.098315880        310140456.37922585        1324544056.1426680     
  -470475263.83863813        7899285.7388997376        1245185981.9574890     
  -392417238.05630517        41845299.013519466        1243609933.5817208     
  -304175007.73937923        109738660.73678212        1248336938.6726274     
  -205748572.88785949        211579370.90868795        1259366997.2302039     
  -97137933.501747668        347367429.52923989        1276700109.2544556     
  -560277675.79001570       -3320285.6152640581        1152401031.4270117     
  -463477883.82477558        33658121.275927365        1162093137.8745518     
  -354585412.03960681        110945460.90021393        1179199150.9307559     
  -233600260.43452263        228541733.25755054        1203719070.5956244     
  -100522429.00952873        386446938.34792244        1235652896.8691583     
  -49933733.604468107        241244117.08531967        1440622153.4278738     
  -40642570.130859897        321566523.41701490        1347322511.2581618     
  -23506125.736194611        428039866.15223217        1253900948.3486357     
   1475599.5795249045        560664145.29096329        1160357464.6992900     
   34302605.816281110        719439360.83315229        1066692060.3101302     
  -71843585.799222559        274766018.89792025        1379184737.5338092     
  -57644943.176816136        376027773.83484370        1297483162.2740743     
  -34417110.741306514        507386828.14876920        1214846334.3443289     
  -2160088.4926975071        668843181.83970726        1131274253.7445867     
   39126123.569039553        860396834.90771818        1046766920.4748099     
  -87578319.098315880        310140456.37922585        1324544056.1426680     
  -70796002.841955900        431644418.26688749        1255821774.8336456     
  -43800587.880432844        587192042.50509012        1185350908.9244194     
  -6592074.2137448490        776783329.09384406        1113131458.4149806     
   40829538.158109009        1000418278.0331507        1039163423.3053772     
  -97137933.501747668        347367429.52923989        1276700109.2544556     
  -80095749.126271158        488416456.71318036        1222338348.9368672     
  -51656557.153565526        667455509.22121513        1165414672.0888965     
  -11820357.583639801        884484587.05331969        1105929078.7105319     
   39412849.583512127        1139503690.2095034        1043881568.8017806     
  -100522429.00952873        386446938.34792244        1235652896.8691583     
  -85544182.029757440        546343889.17373514        1197032884.5837579     
  -57985018.560704499        748177228.29714489        1155037623.8377743     
  -17844938.602379203        991946955.71812379        1109667114.6312115     
   34876057.845230699        1277653071.4367373        1060921356.9640524     
  -2445815693.4001398        1380691537.7255325       -188493249.46702635     
  -2538684944.8607187        924980258.04802179        58205844.580108903     
  -2597705223.2613025        582098888.57049012        274732331.54120278     
  -2622876528.6018939        352047429.29293573        461086211.41625977     
  -2614198860.8824887        234825880.21536672        617267484.20527411     
  -2431562249.2976704        994080093.03417504        67439409.960417867     
  -2531236751.5192027        708346176.67628753        246217225.40984321     
  -2612543958.7445540        483836576.97231531        410707294.28619796     
  -2675483870.9737391        320551293.92225063        560909616.58949029     
  -2720056488.2067509        218490327.52608919        696824192.31971312     
  -2721089372.4912953        516334478.15398586        398564178.46916592     
  -2782183809.7224107        414193519.84114361        491358757.57975072     
  -2840392630.0211854        321671284.63612926        585750450.63024473     
  -2895715833.3876071        238767772.53895533        681739257.62064385     
  -2948153419.8216763        165482983.54960930        779325178.55095387     
  -3314397062.9809885       -52545306.915022135        804881056.05920815     
  -3291526119.4703550        42522287.542569876        793630441.08983362     
  -3281251237.0911922        95603011.561931372        799861800.57333529     
  -3283572415.8435006        106696865.14304900        823575134.50972223     
  -3298489655.7272768        75803848.285935402        864770442.89898658     
  -4211485320.7667756       -712559262.17285800        1286390042.7305529     
  -4059263680.7630267       -406667520.21941864        1153032275.9400878     
  -3935119779.9545755       -194368242.25027919        1053041344.1154774     
  -3839053618.3414154       -75661428.265456676        986417247.25672102     
  -3771065195.9235520       -50547078.264954567        953159985.36381912     
  -2614198860.8824887        234825880.21536672        617267484.20527411     
  -2537382554.0473623        192604045.93721151        704962510.88008308     
  -2458442831.4383488        157460264.23867798        780251252.76508558     
  -2377379693.0554695        129394535.11969554        843133709.86027944     
  -2294193138.8987045        108406858.58033061        893609882.16566944     
  -2720056488.2067509        218490327.52608919        696824192.31971312     
  -2666594300.7916641        176233004.49007690        747377585.36691201     
  -2611459934.5491962        139549610.87867618        792380745.67108214     
  -2554653389.4793534        108440146.69185042        831833673.23222470     
  -2496174665.5821280        82904611.929638743        865736368.05034053     
  -2948153419.8216763        165482983.54960930        779325178.55095387     
  -2898456631.6929803        129066787.79583478        792210494.86628997     
  -2847538901.6834002        96720398.311667323        806401630.48537767     
  -2795400229.7929411        68443815.097090483        821898585.40821922     
  -2742040616.0216031        44237038.152127981        838701359.63480818     
  -3298489655.7272768        75803848.285935402        864770442.89898658     
  -3232969546.7513146        51105395.854486942        839461239.37821758     
  -3166679732.8409715        28972626.537643433        822313907.20797729     
  -3099620213.9962401        9405540.3354226351        813328446.38826787     
  -3031790990.2171268       -7595862.7521955967        812504856.91909111     
  -3771065195.9235520       -50547078.264954567        953159985.36381912     
  -3670133045.9666657       -57651171.333965778        889129818.90269232     
  -3568882428.0218968       -63693704.443373203        840117575.83887303     
  -3467313342.0892410       -68674677.593158364        806123256.17236841     
  -3365425788.1687040       -72594090.783335567        787146859.90317273     
  -2294193138.8987045        108406858.58033061        893609882.16566944     
  -2187707508.3113651        97715112.250098348        926651038.39254570     
  -2081165376.6100159        87211702.966561913        958616351.65977454     
  -1974566743.7946541        76896630.729733825        989505821.96735442     
  -1867911609.8652868        66769895.539594769        1019319449.3152928     
  -2496174665.5821280        82904611.929638743        865736368.05034053     
  -2389404753.9514880        74313040.970987678        884363200.22355974     
  -2282687279.9502902        65546677.914190054        903799897.22706270     
  -2176022243.5785303        56605522.759260654        924046459.06085145     
  -2069409644.8362169        47489575.506190062        945102885.72491753     
  -2742040616.0216031        44237038.152127981        838701359.63480818     
  -2629598686.8050041        39361963.527852178        842786772.55368197     
  -2517318133.9612989        33948967.660594106        849567758.09276795     
  -2405198957.4904890        27998050.550356030        859044316.25206697     
  -2293241157.3925714        21509212.197139859        871216447.03157878     
  -3031790990.2171268       -7595862.7521955967        812504856.91909111     
  -2908289306.8719168       -7138120.0793055296        801921755.38291824     
  -2785057938.6430473       -7581427.7942217588        795919934.25688958     
  -2662096885.5305233       -8925785.8969649076        794499393.54100430     
  -2539406147.5343509       -11171194.387525558        797660133.23525739     
  -3365425788.1687040       -72594090.783335567        787146859.90317273     
  -3225476614.1522183       -65187209.850466609        761768148.71126282     
  -3085906693.9955311       -59044508.450260162        742856425.71942747     
  -2946716027.6986427       -54165986.582714796        730411690.92766356     
  -2807904615.2615523       -50551644.247830868        724433944.33597302     
  -1867911609.8652868        66769895.539594769        1019319449.3152928     
  -1768530756.8333931        53289692.037457228        1032406260.9285671     
  -1669978614.1744893        37047120.625353217        1049096329.0456198     
  -1572255181.8885701        18042181.303301334        1069389653.6664522     
  -1475360459.9756370       -3725125.9287046790        1093286234.7910612     
  -2069409644.8362169        47489575.506190062        945102885.72491753     
  -1959553099.4420295        38281678.018820405        949443384.96168458     
  -1850346402.7238047        26907618.278245330        957252935.81610358     
  -1741789554.6815348        13367396.284482837        968531538.28817737     
  -1633882555.3152237       -2338987.9624732137        983279192.37790525     
  -2293241157.3925714        21509212.197139859        871216447.03157878     
  -2173292362.1678700        16458587.965022683        867019305.87169409     
  -2053814553.9221044        9838007.1364550591        866157011.44334292     
  -1934807732.6552720        1647469.7114459276        868629563.74652159     
  -1816271898.3673725       -8113024.3100137711        874436962.78122783     
  -2539406147.5343509       -11171194.387525558        797660133.23525739     
  -2409748545.0109153       -12179578.123929858        785134023.65859437     
  -2280383067.7693958       -14161712.800039172        775808555.92733169     
  -2151309715.8097754       -17117598.415820718        769683730.04148400     
  -2022528489.1320677       -21047234.971309781        766759546.00103164     
  -2807904615.2615523       -50551644.247830868        724433944.33597302     
  -2668921647.9711709       -47632820.248055696        703787538.32238770     
  -2530051944.2656708       -45091541.531220317        686207569.26808035     
  -2391295504.1450572       -42927808.097333908        671694037.17305803     
  -2252652327.6093225       -41141619.946387172        660246942.03732014     
  -1475360459.9756370       -3725125.9287046790        1093286234.7910612     
  -1369441148.8023789       -22190689.954415560        1099646642.2106948     
  -1262301237.3034778       -36587586.227985203        1106130584.2261529     
  -1153940725.4789472       -46915814.749453783        1112738060.8374429     
  -1044359613.3287657       -53175375.518756390        1119469072.0445585     
  -1633882555.3152237       -2338987.9624732137        983279192.37790525     
  -1524875239.8128920       -17290112.091357231        983199330.53682518     
  -1414937746.8803477       -29140644.786216438        984560297.45378673     
  -1304070076.5175974       -37890586.047046602        987362093.12878811     
  -1192272228.7246315       -43539935.873835862        991604717.56182635     
  -1816271898.3673725       -8113024.3100137711        874436962.78122783     
  -1700412880.9296362       -18420599.260159969        867578004.96810007     
  -1583914108.9571280       -26595659.094388127        863477170.07522297     
  -1466775582.4498439       -32638203.812708318        862134458.10259545     
  -1348997301.4077826       -36548233.415104210        863549869.05022264     
  -2022528489.1320677       -21047234.971309781        766759546.00103164     
  -1896054072.1526208       -25582151.460832238        752782665.50451684     
  -1769230323.5338278       -28952629.152548671        742881202.09046626     
  -1642057243.2756946       -31158668.046456337        737055155.75887513     
  -1514534831.3782189       -32200268.142556429        735304526.50975108     
  -2252652327.6093225       -41141619.946387172        660246942.03732014     
  -2111798813.4818416       -38774768.693392158        638813312.14607656     
  -1970886390.6104474       -36211554.960688472        622772393.49951077     
  -1829915058.9951406       -33451978.748278618        612124186.09761977     
  -1688884818.6359317       -30496040.056191802        606868689.94040024     
  -1044359613.3287657       -53175375.518756390        1119469072.0445585     
  -926662274.54101396       -51788755.032666087        1119424617.4520464     
  -806749505.35530877       -43017366.553404033        1124898459.1516194     
  -684621305.77163756       -26861210.080919534        1135890597.1432736     
  -560277675.79001570       -3320285.6152640581        1152401031.4270117     
  -1192272228.7246315       -43539935.873835862        991604717.56182635     
  -1061806740.2486640       -40147895.936161041        989710268.83696938     
  -930002573.66910720       -32293595.653188467        991656388.32213914     
  -796859728.98596668       -19977035.024948955        997443076.01733077     
  -662378206.19924736       -3198214.0514231622        1007070331.9225485     
  -1348997301.4077826       -36548233.415104210        863549869.05022264     
  -1210557172.0494773       -32588826.667596638        858782548.51624787     
  -1071655116.8819530       -27089667.222707093        856178068.11024880     
  -932291135.90522408       -20050755.080450237        855736427.83221269     
  -792465229.11927783       -11472090.240825266        857457627.68214142     
  -1514534831.3782189       -32200268.142556429        735304526.50975108     
  -1372913569.9434443       -29111547.226955771        726641456.48989129     
  -1231707134.9938421       -27405581.261928856        718463498.51594567     
  -1090915526.5293996       -27082370.247433603        710770652.58790421     
  -950538744.55011499       -28141914.183454335        703562918.70577598     
  -1688884818.6359317       -30496040.056191802        606868689.94040024     
  -1548875933.9305918       -29716057.614322424        593286992.75789011     
  -1410158628.0047762       -33241337.770870745        578512679.53923583     
  -1272732900.8585017       -41071880.525886536        562545750.28442514     
  -1136598752.4917622       -53207685.879353106        545386204.99346900     
  -560277675.79001570       -3320285.6152640581        1152401031.4270117     
  -463477883.82477558        33658121.275927365        1162093137.8745518     
  -354585412.03960681        110945460.90021393        1179199150.9307559     
  -233600260.43452263        228541733.25755054        1203719070.5956244     
  -100522429.00952873        386446938.34792244        1235652896.8691583     
  -662378206.19924736       -3198214.0514231622        1007070331.9225485     
  -547367175.02845967        26361238.262612462        1020849005.6674223     
  -421416726.03250253        92385416.660559922        1042934484.7872392     
  -284526859.21136475        194874321.14244127        1073326769.2820011     
  -136697574.56504095        333827951.70826524        1112025859.1517081     
  -792465229.11927783       -11472090.240825266        857457627.68214142     
  -656691819.41071928        11433749.295716614        873977396.39714468     
  -511132253.87173390        66960108.267031014        899696869.25336969     
  -355786532.50231111        155106986.67313388        934616046.25082564     
  -190654655.30245650        275874384.51401037        978734927.38950610     
  -950538744.55011499       -28141914.183454335        703562918.70577598     
  -791451816.97155941       -11124345.624749273        721478310.06371439     
  -623731995.55731499        34669535.719590962        749486304.32915378     
  -447379280.30737317        109239729.84958851        787586901.50210142     
  -262393671.22174782        212586236.76519272        835780101.58255613     
  -1136598752.4917622       -53207685.879353106        545386204.99346900     
  -951647167.71096897       -41313046.498779297        563351746.66713572     
  -759215951.08924198       -4486300.9817595184        592302790.01458633     
  -559305102.62655783        57272550.671784759        632239335.03582776     
  -351914622.32292545        143963508.46182254        683161381.73085165     
  -100522429.00952873        386446938.34792244        1235652896.8691583     
  -85544182.029757440        546343889.17373514        1197032884.5837579     
  -57985018.560704499        748177228.29714489        1155037623.8377743     
  -17844938.602379203        991946955.71812379        1109667114.6312115     
   34876057.845230699        1277653071.4367373        1060921356.9640524     
  -136697574.56504095        333827951.70826524        1112025859.1517081     
  -127515790.82273164        482865134.25843501        1090414677.9393971     
  -95200148.693130016        709015178.09956431        1070226027.6840014     
  -39750648.176232636        1012278083.2316771        1051459908.3855171     
   38832710.727944136        1392653849.6547296        1034116320.0439711     
  -190654655.30245650        275874384.51401037        978734927.38950610     
  -173561393.60472709        418164181.14644182        986444342.79795861     
  -122781331.62170589        672743312.06317866        1000374068.5808331     
  -38314469.353393972        1039611777.2642347        1020524104.7381172     
   79839193.200221896        1518769576.7496042        1046894451.2698343     
  -262393671.22174782        212586236.76519272        835780101.58255613     
  -223680990.37575665        352241029.83772510        885121879.15945137     
  -140728567.34646562        639361630.18791783        945481746.52825212     
  -13536402.133867621        1073948037.8157868        1016859703.6889716     
   157895505.26202613        1656000252.7213304        1099255750.6416168     
  -351914622.32292545        143963508.46182254        683161381.73085165     
  -277874581.13580215        285095680.33233023        786447287.02385461     
  -149041855.86737934        608870132.47383070        905549061.52627850     
   34583553.482355773        1115286864.8863697        1040466705.2381116     
   273001646.91338891        1804345877.5699244        1191200218.1593683     
  -4211485320.7667756       -712559262.17285800        1286390042.7305529     
  -4059263680.7630267       -406667520.21941864        1153032275.9400878     
  -3935119779.9545755       -194368242.25027919        1053041344.1154774     
  -3839053618.3414154       -75661428.265456676        986417247.25672102     
  -3771065195.9235520       -50547078.264954567        953159985.36381912     
  -4880960259.4757023       -475381103.47959018        907436606.74497640     
  -4690529355.3213663       -281204628.89862847        816232957.42220330     
  -4517331297.0646687       -144470973.97644258        746834661.10459852     
  -4361366084.7055950       -65180138.713025331        699241717.79216373     
  -4222633718.2441626       -43332123.108401060        673454127.48489785     
  -5337960817.9401302       -174460630.71297550        474780811.22641432     
  -5142353455.2371635       -101909265.18507862        438383654.88526696     
  -4953134045.1341696       -50651074.990417242        412230369.58860487     
  -4770302587.6311474       -20686060.129006386        396320955.33642799     
  -4593859082.7281065       -12014220.600850105        390655412.12873286     
  -5582486996.1600561        190202156.12698770       -11577343.825139575     
  -5414735980.5104198        131218570.92122793        19484368.329277474     
  -5242528024.1630964        87091454.707768440        49228469.567492537     
  -5065863127.1180792        57820807.486592293        77654959.889517903     
  -4884741289.3753843        43406629.257695436        104763839.29532903     
  -5614538794.1354876        618607257.04030585       -551637858.40968323     
  -5507676931.1411400        418178879.42030883       -440464902.24576336     
  -5385513234.1514292        268756615.11814547       -342171038.95873207     
  -5248047703.1663799        170340464.13379383       -256756268.54858506     
  -5095280338.1859903        122930426.46724868       -184220591.01532206     
  -3771065195.9235520       -50547078.264954567        953159985.36381912     
  -3670133045.9666657       -57651171.333965778        889129818.90269232     
  -3568882428.0218968       -63693704.443373203        840117575.83887303     
  -3467313342.0892410       -68674677.593158364        806123256.17236841     
  -3365425788.1687040       -72594090.783335567        787146859.90317273     
  -4222633718.2441626       -43332123.108401060        673454127.48489785     
  -4088831268.4424953       -48298487.323750973        635415784.82814205     
  -3954500635.2632232       -51504240.280428171        607151042.76537287     
  -3819641818.7063589       -52949381.978451729        588659901.29658520     
  -3684254818.7718835       -52633912.417786121        579942360.42178404     
  -4593859082.7281065       -12014220.600850105        390655412.12873286     
  -4442170112.5197287       -19337989.793952465        378853561.23101693     
  -4289743243.5440340       -24202096.429331541        371580988.12396342     
  -4136578475.8010283       -26606540.507003546        368837692.80756396     
  -3982675809.2906942       -26551322.026922703        370623675.28182173     
  -4884741289.3753843        43406629.257695436        104763839.29532903     
  -4730149578.1983681        29230321.255421638        119443148.11132294     
  -4574610252.8643150        18212727.109937429        133407411.91464077     
  -4418123313.3732367        10353846.821203232        146656630.70529947     
  -4260688759.7251210        5653680.3892560005        159190804.48329064     
  -5095280338.1859903        122930426.46724868       -184220591.01532206     
  -4952769665.4784107        97406445.824381828       -142815454.53095302     
  -4809101663.2240849        75740230.337331295       -107369685.86258350     
  -4664276331.4230118        57931780.006110430       -77883285.010200173     
  -4518293670.0751820        43981094.830741405       -54356251.973810896     
  -3365425788.1687040       -72594090.783335567        787146859.90317273     
  -3225476614.1522183       -65187209.850466609        761768148.71126282     
  -3085906693.9955311       -59044508.450260162        742856425.71942747     
  -2946716027.6986427       -54165986.582714796        730411690.92766356     
  -2807904615.2615523       -50551644.247830868        724433944.33597302     
  -3684254818.7718835       -52633912.417786121        579942360.42178404     
  -3528333349.8297510       -45926092.308480501        561023222.44741178     
  -3372787090.7401514       -40468971.707625985        548084798.71352410     
  -3217616041.5030837       -36262550.615218878        541127089.22011459     
  -3062820202.1185513       -33306829.031251192        540150093.96718395     
  -3982675809.2906942       -26551322.026922703        370623675.28182173     
  -3812171399.5931816       -20959368.992270231        358168828.53347075     
  -3642038155.7409320       -16604635.441845894        351208422.06599921     
  -3472276077.7339497       -13487121.375647068        349742455.87942243     
  -3302885165.5722427       -11606826.793695927        353770929.97372735     
  -4260688759.7251210        5653680.3892560005        159190804.48329064     
  -4076990763.4424868        9712960.0981838703        153204966.96943170     
  -3893659888.9978681        12548500.347073555        152227295.77686039     
  -3710696136.3912458        14160301.135974169        156257790.90558651     
  -3528099505.6226263        14548362.464853525        165296452.35560337     
  -4518293670.0751820        43981094.830741405       -54356251.973810896     
  -4322791441.3776989        46090894.962866306       -53868362.244703971     
  -4127652290.5109615        46990435.659162760       -48858580.153897271     
  -3932876217.4749479        46679716.919712543       -39326905.701396413     
  -3738463222.2696953        45158738.744403839       -25273338.887190975     
  -2807904615.2615523       -50551644.247830868        724433944.33597302     
  -2668921647.9711709       -47632820.248055696        703787538.32238770     
  -2530051944.2656708       -45091541.531220317        686207569.26808035     
  -2391295504.1450572       -42927808.097333908        671694037.17305803     
  -2252652327.6093225       -41141619.946387172        660246942.03732014     
  -3062820202.1185513       -33306829.031251192        540150093.96718395     
  -2916413660.2102714       -33323929.922059059        524806355.34924370     
  -2769932589.7012453       -33092602.143709302        512784142.91438192     
  -2623376990.5914760       -32612845.696220398        504083456.66259921     
  -2476746862.8809624       -31884660.579588294        498704296.59390652     
  -3302885165.5722427       -11606826.793695927        353770929.97372735     
  -3148326222.6923466       -14341204.668956518        343948949.63465881     
  -2993504959.0260768       -16201179.922972679        337703584.70247370     
  -2838421374.5734358       -17186752.555762649        335034835.17717272     
  -2683075469.3344293       -17297922.567324519        335942701.05874521     
  -3528099505.6226263        14548362.464853525        165296452.35560337     
  -3364659335.4173937        9315355.5112552643        161215321.17863819     
  -3200769052.2401690        5582725.1309907436        160965894.63236135     
  -3036428656.0909472        3350471.3240361214        164548172.71675417     
  -2871638146.9697289        2618594.0904029608        171962155.43183869     
  -3738463222.2696953        45158738.744403839       -25273338.887190975     
  -3565412998.3854251        37645750.618571758       -23394530.018819518     
  -3391724869.3435240        32259113.018167257       -17428927.295967039     
  -3217398835.1440082        28998825.943154693       -7376530.7186335335     
  -3042434895.7868700        27864889.393537879        6762659.7131835548     
  -2252652327.6093225       -41141619.946387172        660246942.03732014     
  -2111798813.4818416       -38774768.693392158        638813312.14607656     
  -1970886390.6104474       -36211554.960688472        622772393.49951077     
  -1829915058.9951406       -33451978.748278618        612124186.09761977     
  -1688884818.6359317       -30496040.056191802        606868689.94040024     
  -2476746862.8809624       -31884660.579588294        498704296.59390652     
  -2323812483.5047603       -29216619.279796839        482717337.77586287     
  -2170920601.5094519       -26690235.916307688        470561135.58596885     
  -2018071216.8950400       -24305510.489146233        462235690.02424043     
  -1865264329.6615183       -22062442.998282433        457741001.09066302     
  -2683075469.3344293       -17297922.567324519        335942701.05874521     
  -2522522952.1852751       -15667509.463472128        325284106.16829288     
  -2362114338.5418134       -14516774.711940646        316894313.28948116     
  -2201849628.4040470       -13845718.312726021        310773322.42230517     
  -2041728821.7719748       -13654340.265814066        306921133.56677359     
  -2871638146.9697289        2618594.0904029608        171962155.43183869     
  -2707930219.5233669        1872560.7556055784        166513617.32336912     
  -2544467601.7075286        308828.65242350101        161771926.61002350     
  -2381250293.5221777       -2072602.2190531492        157737083.29181528     
  -2218278294.9673042       -5271731.8588075638        154409087.36872748     
  -3042434895.7868700        27864889.393537879        6762659.7131835548     
  -2880034285.5190911        23403591.377320290        6405871.2411065353     
  -2717980391.0066123        17786574.176743865        5193975.5476340456     
  -2556273212.2494202        11013837.791898251        3126972.6327718492     
  -2394912749.2475266        3085382.2227109671        204862.49652058756     
  -1688884818.6359317       -30496040.056191802        606868689.94040024     
  -1548875933.9305918       -29716057.614322424        593286992.75789011     
  -1410158628.0047762       -33241337.770870745        578512679.53923583     
  -1272732900.8585017       -41071880.525886536        562545750.28442514     
  -1136598752.4917622       -53207685.879353106        545386204.99346900     
  -1865264329.6615183       -22062442.998282433        457741001.09066302     
  -1728266112.7325284       -24810040.079095483        443747215.97954655     
  -1591388956.7613213       -27961173.685842037        429444205.42799765     
  -1454632861.7478828       -31515843.818502069        414831969.43602663     
  -1317997827.6922309       -35474050.477079213        399910508.00363225     
  -2041728821.7719748       -13654340.265814066        306921133.56677359     
  -1905217299.4887073       -19172324.930161119        293880864.65242314     
  -1767656320.3414617       -21192120.047898769        281414760.89337450     
  -1629045884.3302200       -19713725.618997693        269522822.28962988     
  -1489385991.4550111       -14737141.643525481        258205048.84117559     
  -2218278294.9673042       -5271731.8588075638        154409087.36872748     
  -2079729494.1991177       -12802912.167479396        143687938.77653521     
  -1938960718.7451854       -12934176.857000470        134424345.93536985     
  -1795971968.6055200       -5665525.9274053574        126618308.84522800     
  -1650763243.7801085        9003040.6213331223        120269827.50611031     
  -2394912749.2475266        3085382.2227109671        204862.49652058756     
  -2251802696.8637624       -5701801.7910683155       -6831561.6481231861     
  -2105302151.9725282       -3187344.1132478714       -11527039.446023649     
  -1955411114.5737579        10628755.256343603       -13881570.897173595     
  -1802129584.6675143        35746496.317512631       -13895156.001570301     
  -1136598752.4917622       -53207685.879353106        545386204.99346900     
  -951647167.71096897       -41313046.498779297        563351746.66713572     
  -759215951.08924198       -4486300.9817595184        592302790.01458633     
  -559305102.62655783        57272550.671784759        632239335.03582776     
  -351914622.32292545        143963508.46182254        683161381.73085165     
  -1317997827.6922309       -35474050.477079213        399910508.00363225     
  -1118169627.1917555       -15214582.235928178        421607678.32948053     
  -914752415.20625889        17008257.621968091        441832552.41347194     
  -707746191.73574054        61194469.096588463        460585130.25560766     
  -497150956.78021485        117344052.18792251        477865411.85588396     
  -1489385991.4550111       -14737141.643525481        258205048.84117559     
  -1310274883.5652504        3209042.9591336846        279094790.73729062     
  -1131465384.5464053        20149864.658743501        286054438.47590262     
  -952957494.39847124        36085323.455321193        279083992.05701786     
  -774751213.12144971        51015419.348845392        258183451.48063138     
  -1650763243.7801085        9003040.6213331223        120269827.50611031     
  -1527962936.8314714        13957829.086372793        135813083.89057729     
  -1409354859.1096776        4938520.1286111474        124968448.20189102     
  -1294939010.6147437       -18054886.252018631        87735920.440061241     
  -1184715391.3466380       -55022390.055414319        24115500.605081085     
  -1802129584.6675143        35746496.317512631       -13895156.001570301     
  -1771233786.9904230        17031776.145766139       -8237442.2106802948     
  -1748420838.8960905       -28625775.968500018       -41425418.408580281     
  -1733690740.3845408       -101226160.02538007       -113459084.59527491     
  -1727043491.4557743       -200769376.02487189       -224338440.77074638     
  -351914622.32292545        143963508.46182254        683161381.73085165     
  -277874581.13580215        285095680.33233023        786447287.02385461     
  -149041855.86737934        608870132.47383070        905549061.52627850     
   34583553.482355773        1115286864.8863697        1040466705.2381116     
   273001646.91338891        1804345877.5699244        1191200218.1593683     
  -497150956.78021485        117344052.18792251        477865411.85588396     
  -388312140.82015598        222945175.89984950        597121713.34834754     
  -230329281.62910214        492359777.04840136        735529906.57023609     
  -23202379.207098246        925587855.63347435        893089991.52156138     
   233068566.44588387        1522629411.6551247        1069801968.2023321     
  -774751213.12144971        51015419.348845392        258183451.48063138     
  -621582129.47409678        123944942.77656588        386820068.18048251     
  -424917643.44610727        341859140.80640721        537944599.12979174     
  -184757755.03749049        704758013.43829429        711557044.32855773     
   98897535.751764059        1212641560.6723542        907657403.77677035     
  -1184715391.3466380       -55022390.055414319        24115500.605081085     
  -977684547.09765100       -11905019.037625134        155542351.52027231     
  -732806941.31837678        157368223.74780381        312793139.20494145     
  -450082574.00880456        452797338.30085933        495867863.65907353     
  -129511445.16894615        874382324.62158668        704766524.88268864     
  -1727043491.4557743       -200769376.02487189       -224338440.77074638     
  -1456619393.6908197       -184604709.54270035       -96711436.632277519     
  -1153997175.2459033       -61112974.127323449        60075526.795671217     
  -819176836.12105417        169705830.22114038        246022449.51311424     
  -452158376.31623828        507851703.50287116        461129331.52005953     
 </DataArray>
 <DataArray  type="Float64" Name="VM" NumberOfComponents="1" format="ascii">
   5976200413.9279251     
   5787495028.9106379     
   5596512258.4890242     
   5403111629.9771118     
   5207207408.7982807     
   5659930220.4420748     
   5468074443.3770800     
   5275247664.3635006     
   5081439543.8907509     
   4886660453.1643915     
   5331736834.8586960     
   5144455066.8813505     
   4958317351.9922094     
   4773415249.8963928     
   4589910555.3095589     
   4998556680.2907038     
   4822336132.5583639     
   4650429654.2452917     
   4482921695.2770071     
   4320093610.7259808     
   4670090122.3935766     
   4509475615.4501753     
   4357743982.3012705     
   4214743385.1660800     
   4080706957.4337530     
   5207207408.7982807     
   5036343748.6522980     
   4866250832.2998714     
   4696908036.8766184     
   4528364757.1962767     
   4886660453.1643915     
   4729548047.9090776     
   4573415008.4949141     
   4418293093.4469624     
   4264269284.8827753     
   4589910555.3095589     
   4444877898.4910851     
   4300906534.5855265     
   4158072942.7222762     
   4016496585.9536705     
   4320093610.7259808     
   4185777401.9815869     
   4052465998.0396419     
   3920269062.3492112     
   3789330270.9904461     
   4080706957.4337530     
   3956149583.4731464     
   3832399320.8747253     
   3709583041.8169742     
   3587856575.4389663     
   4528364757.1962767     
   4335404485.9209919     
   4142005179.8081264     
   3948153460.3540392     
   3753863214.7251830     
   4264269284.8827753     
   4080203622.3218532     
   3896372548.7690191     
   3712828629.6437016     
   3529676343.6975317     
   4016496585.9536705     
   3843293804.1902847     
   3671270641.6094937     
   3500577282.2912431     
   3331449431.7654190     
   3789330270.9904461     
   3628872701.1731777     
   3470829690.0029869     
   3315470892.8667116     
   3163188612.5654831     
   3587856575.4389663     
   3441810137.5086026     
   3299696794.9811406     
   3161906561.4622068     
   3028983613.3403506     
   3753863214.7251830     
   3577568172.5190520     
   3402027754.1117635     
   3227214247.5294423     
   3053172042.0502453     
   3529676343.6975317     
   3364688108.3201766     
   3200772229.5680542     
   3037977639.8588128     
   2876422636.4486618     
   3331449431.7654190     
   3177137716.4294353     
   3024176214.0625496     
   2872694554.4508381     
   2722892184.2944365     
   3163188612.5654831     
   3019307437.8540716     
   2877016702.4601769     
   2736527253.2509198     
   2598123036.7074151     
   3028983613.3403506     
   2895719379.4030371     
   2764251230.5903406     
   2634866106.8241296     
   2507929100.4693084     
   3053172042.0502453     
   2888810968.4177485     
   2723952082.2100234     
   2558587408.2496896     
   2392715936.1790018     
   2876422636.4486618     
   2714612260.0125303     
   2552814415.2909579     
   2391058953.4657230     
   2229395204.5997224     
   2722892184.2944365     
   2566184485.5612097     
   2410406557.2187414     
   2255704077.2904692     
   2102282901.2729621     
   2598123036.7074151     
   2449097297.7733951     
   2302354557.4030604     
   2158223339.8818026     
   2017150914.9868293     
   2507929100.4693084     
   2368936851.0859632     
   2233959304.7737513     
   2103525304.5008926     
   1978330972.8361154     
   2392715936.1790018     
   2245953317.3671255     
   2101426294.8538327     
   1959129783.7666810     
   1819233981.2774470     
   2229395204.5997224     
   2086288053.9857435     
   1944876672.4027956     
   1805159885.0425313     
   1667215556.7164948     
   2102282901.2729621     
   1961947993.1250212     
   1822572409.3240416     
   1684186305.6235304     
   1546847911.9259210     
   2017150914.9868293     
   1880390141.5619957     
   1743877341.8234534     
   1607735670.7813931     
   1472135240.3377573     
   1978330972.8361154     
   1847738822.4495180     
   1717014446.3489439     
   1586491362.1757617     
   1456663346.8939707     
   1819233981.2774470     
   1779037098.1779380     
   1735281314.5649242     
   1696602366.6819952     
   1681552737.5169678     
   1667215556.7164948     
   1552012521.9200642     
   1427672175.4165063     
   1294539723.5828543     
   1158749439.7616689     
   1546847911.9259210     
   1397014729.2656636     
   1243627047.5869100     
   1084409673.8816290     
   917328736.95216084     
   1472135240.3377573     
   1327835270.4119186     
   1198037147.7961867     
   1087245770.9603322     
   1001399251.3463677     
   1456663346.8939707     
   1347513721.6728814     
   1273417663.0499835     
   1242530594.4887359     
   1261938066.8866961     
   1681552737.5169678     
   1383887252.4426315     
   1129435288.2603912     
   1010060838.1984825     
   1153320158.3494532     
   1158749439.7616689     
   1008291502.5738280     
   985071804.13240612     
   1161431277.1421306     
   1544299945.3695483     
   917328736.95216084     
   962824103.69978344     
   1144731985.0539019     
   1476390851.0075881     
   1957475125.8116596     
   1001399251.3463677     
   1164305622.8750896     
   1425213945.9776797     
   1808664602.7760963     
   2334700869.7089744     
   1261938066.8866961     
   1446131373.1057086     
   1715475088.8432558     
   2110471042.6279900     
   2663476820.2794027     
   4670090122.3935766     
   4509475615.4501753     
   4357743982.3012705     
   4214743385.1660800     
   4080706957.4337530     
   4309343004.6686211     
   4183714718.1037021     
   4064041383.9710722     
   3950391580.1344318     
   3842990978.9428954     
   3999623274.6116695     
   3902115398.4536686     
   3806893911.2873726     
   3714099017.2350588     
   3623916227.2627425     
   3739001702.3261251     
   3664095161.2973814     
   3587390747.3136797     
   3508810510.2868009     
   3428334873.9717774     
   3524680807.7849112     
   3468224059.9966874     
   3406061941.6804595     
   3337447432.0855927     
   3261841050.2332339     
   4080706957.4337530     
   3956149583.4731464     
   3832399320.8747253     
   3709583041.8169742     
   3587856575.4389663     
   3842990978.9428954     
   3726353469.1495876     
   3611794443.1322722     
   3499540462.5212078     
   3389867998.4498897     
   3623916227.2627425     
   3517837958.5232868     
   3415404797.3322458     
   3316950714.8052497     
   3222882156.0502782     
   3428334873.9717774     
   3335015720.8468132     
   3247183298.1631260     
   3165258435.2004862     
   3089751213.7329335     
   3261841050.2332339     
   3182761940.8996434     
   3111242198.3322310     
   3047736087.4450727     
   2992792934.0662189     
   3587856575.4389663     
   3441810137.5086026     
   3299696794.9811406     
   3161906561.4622068     
   3028983613.3403506     
   3389867998.4498897     
   3260831808.4897780     
   3136072594.6050882     
   3016028277.1784806     
   2901266286.5644302     
   3222882156.0502782     
   3110338251.3689241     
   3002296119.7679229     
   2899215057.0216746     
   2801656119.0073586     
   3089751213.7329335     
   2993351235.7646651     
   2901519982.2680798     
   2814707008.4606419     
   2733435289.8168182     
   2992792934.0662189     
   2912311570.6290240     
   2836271853.7992363     
   2765082095.3667974     
   2699198602.8386135     
   3028983613.3403506     
   2895719379.4030371     
   2764251230.5903406     
   2634866106.8241296     
   2507929100.4693084     
   2901266286.5644302     
   2778772187.2901583     
   2659528794.7290869     
   2543982048.9672947     
   2432682451.9786072     
   2801656119.0073586     
   2692165479.3441954     
   2587586777.7186265     
   2488501437.6401563     
   2395603117.5338316     
   2733435289.8168182     
   2638573007.5178232     
   2550356432.1939616     
   2469435285.0259461     
   2396554988.9065742     
   2699198602.8386135     
   2619705665.2880297     
   2548521878.2739797     
   2486275024.7721462     
   2433656144.3882041     
   2507929100.4693084     
   2368936851.0859632     
   2233959304.7737513     
   2103525304.5008926     
   1978330972.8361154     
   2432682451.9786072     
   2308742880.7029481     
   2189974151.6109366     
   2077076595.5947745     
   1970916505.4807386     
   2395603117.5338316     
   2288434002.0624866     
   2187577899.0456901     
   2093822569.2090521     
   2008084566.8875620     
   2396554988.9065742     
   2307257237.9772115     
   2225219881.7886868     
   2151212268.2974038     
   2086075969.1218145     
   2433656144.3882041     
   2362554607.1901112     
   2299344998.2290373     
   2244693579.8704085     
   2199287278.8853431     
   1978330972.8361154     
   1847738822.4495180     
   1717014446.3489439     
   1586491362.1757617     
   1456663346.8939707     
   1970916505.4807386     
   1854583232.4834013     
   1742595361.4548500     
   1635875742.1496429     
   1535558739.2197988     
   2008084566.8875620     
   1911229960.4114330     
   1823279771.0570364     
   1745451235.2815187     
   1679055117.5078404     
   2086075969.1218145     
   2010291189.2712626     
   1947140692.8898439     
   1897723671.7285640     
   1863091552.9816802     
   2199287278.8853431     
   2143064850.9926133     
   2102195226.6844609     
   2077457985.7008350     
   2069551068.8254023     
   1456663346.8939707     
   1347513721.6728814     
   1273417663.0499835     
   1242530594.4887359     
   1261938066.8866961     
   1535558739.2197988     
   1474768140.7629011     
   1446668148.5227580     
   1455229980.3108594     
   1503761516.9089022     
   1679055117.5078404     
   1650804801.0651183     
   1650204261.4595327     
   1679623406.3599992     
   1741671040.1726906     
   1863091552.9816802     
   1853023980.3234246     
   1865798378.3618851     
   1903625346.1893570     
   1969524484.6137621     
   2069551068.8254023     
   2066754681.0629508     
   2083010170.8554647     
   2120950487.9690855     
   2184362661.4641709     
   1261938066.8866961     
   1446131373.1057086     
   1715475088.8432558     
   2110471042.6279900     
   2663476820.2794027     
   1503761516.9089022     
   1612580258.7603550     
   1788576694.2935703     
   2066449506.5788689     
   2476337785.8766909     
   1741671040.1726906     
   1786881610.5617175     
   1884264588.2352011     
   2060703393.0656831     
   2341383601.8588800     
   1969524484.6137621     
   1968002490.0301397     
   2003101334.2612627     
   2093493741.9886415     
   2257822560.1135750     
   2184362661.4641709     
   2155232567.2439351     
   2145826073.7053096     
   2166687253.8564959     
   2228898979.6134787     
   3524680807.7849112     
   3468224059.9966874     
   3406061941.6804595     
   3337447432.0855927     
   3261841050.2332339     
   3431016604.3679004     
   3343947442.4459238     
   3260672073.3603153     
   3181492845.8146563     
   3106747619.7802548     
   3352534071.2512646     
   3235497064.5420389     
   3135067209.1530032     
   3051368189.3668900     
   2984781916.2560644     
   3333003123.4069209     
   3175670190.9970150     
   3052187524.3091002     
   2961122222.5053840     
   2901639563.7599406     
   3423243814.1365070     
   3203213747.2143373     
   3038666161.4076309     
   2926013442.1674705     
   2862297553.2117248     
   3261841050.2332339     
   3182761940.8996434     
   3111242198.3322310     
   3047736087.4450727     
   2992792934.0662189     
   3106747619.7802548     
   3040653627.3160911     
   2982436601.4846272     
   2932447392.5214057     
   2891106153.9601603     
   2984781916.2560644     
   2929576003.7833495     
   2882510453.7588625     
   2843833125.6624494     
   2813840050.8881545     
   2901639563.7599406     
   2854861921.7206578     
   2816421823.1819415     
   2786473368.3702250     
   2765202858.5681787     
   2862297553.2117248     
   2821190940.8985209     
   2788544307.6126413     
   2764436256.5546660     
   2748966564.4204960     
   2992792934.0662189     
   2912311570.6290240     
   2836271853.7992363     
   2765082095.3667974     
   2699198602.8386135     
   2891106153.9601603     
   2820539857.5634260     
   2756259583.0597506     
   2698717369.8399906     
   2648406730.9765210     
   2813840050.8881545     
   2753668004.3864408     
   2701660474.6441898     
   2658251878.3996654     
   2623905721.2139177     
   2765202858.5681787     
   2714799264.8496065     
   2674425697.0979757     
   2644437915.0895333     
   2625208584.2957740     
   2748966564.4204960     
   2706448104.9128127     
   2675804079.7183151     
   2657269650.6774225     
   2651090184.3342271     
   2699198602.8386135     
   2619705665.2880297     
   2548521878.2739797     
   2486275024.7721462     
   2433656144.3882041     
   2648406730.9765210     
   2584864584.1707864     
   2529743590.1419830     
   2483558274.7015123     
   2446854539.4217358     
   2623905721.2139177     
   2575327137.0281277     
   2535109821.0924006     
   2503647877.1640048     
   2481347044.1881027     
   2625208584.2957740     
   2590342149.1692858     
   2563631242.9572525     
   2545357228.4314842     
   2535804867.5101376     
   2651090184.3342271     
   2628490936.4340053     
   2613740572.0119061     
   2607025260.6953678     
   2608534962.8895378     
   2433656144.3882041     
   2362554607.1901112     
   2299344998.2290373     
   2244693579.8704085     
   2199287278.8853431     
   2446854539.4217358     
   2390336011.1845431     
   2343186553.5064430     
   2305967122.6601343     
   2279221457.6737785     
   2481347044.1881027     
   2438397377.5221238     
   2406020625.2290411     
   2384632340.0585623     
   2374612442.0407577     
   2535804867.5101376     
   2504588430.7128496     
   2484945788.7982960     
   2477142885.9043694     
   2481411488.4683304     
   2608534962.8895378     
   2586581996.3077068     
   2577114190.2680383     
   2580267931.1943827     
   2596160459.3738995     
   2199287278.8853431     
   2143064850.9926133     
   2102195226.6844609     
   2077457985.7008350     
   2069551068.8254023     
   2279221457.6737785     
   2238720614.2875886     
   2212187167.6632333     
   2200068040.3573532     
   2202752311.0383773     
   2374612442.0407577     
   2346899203.7994943     
   2331769486.0151982     
   2329469203.2868319     
   2340214478.9804416     
   2481411488.4683304     
   2463976584.1305733     
   2457851751.9615989     
   2463172635.6165428     
   2480066536.6330242     
   2596160459.3738995     
   2586963702.9622540     
   2587963237.9381838     
   2599241065.9658160     
   2620883887.7529602     
   2069551068.8254023     
   2066754681.0629508     
   2083010170.8554647     
   2120950487.9690855     
   2184362661.4641709     
   2202752311.0383773     
   2189047459.0334945     
   2190245135.8545246     
   2208319981.4167771     
   2246185110.7135186     
   2340214478.9804416     
   2316360287.8309174     
   2304030783.9078565     
   2304638861.1947598     
   2320279847.0379391     
   2480066536.6330242     
   2447747729.3449497     
   2424056538.0899210     
   2409946859.2036982     
   2406811176.4579506     
   2620883887.7529602     
   2582449364.5243549     
   2550044892.2409091     
   2524261729.8770494     
   2505928776.3313508     
   2184362661.4641709     
   2155232567.2439351     
   2145826073.7053096     
   2166687253.8564959     
   2228898979.6134787     
   2246185110.7135186     
   2181761611.3704615     
   2133857714.3580353     
   2112153316.8980768     
   2127587235.5217967     
   2320279847.0379391     
   2223931494.1212239     
   2140945101.7743521     
   2079692536.4869988     
   2050342473.9321036     
   2406811176.4579506     
   2282030780.1778607     
   2167731617.0324507     
   2070655078.8562977     
   1999559570.5334427     
   2505928776.3313508     
   2356263614.6609960     
   2214685705.7480807     
   2086173404.4680235     
   1977587619.0247433     
   3423243814.1365070     
   3203213747.2143373     
   3038666161.4076309     
   2926013442.1674705     
   2862297553.2117248     
   2825136990.6046290     
   2729097128.5483041     
   2659673163.7945108     
   2616248053.6940260     
   2598150383.2716012     
   2254939048.6304493     
   2278256486.6279697     
   2305887973.2485137     
   2336359097.8462629     
   2368750958.9400330     
   1715416552.1359332     
   1832968260.0270367     
   1956673725.2929354     
   2070618139.5185297     
   2166442987.9347224     
   1320721175.3981309     
   1417530809.1801729     
   1606663857.8254371     
   1808159131.8648393     
   1983870570.7986963     
   2862297553.2117248     
   2821190940.8985209     
   2788544307.6126413     
   2764436256.5546660     
   2748966564.4204960     
   2598150383.2716012     
   2596638415.6998200     
   2599057805.5435610     
   2605446057.2794094     
   2615847502.3504024     
   2368750958.9400330     
   2405620113.3965988     
   2441662165.6861897     
   2476849633.6891689     
   2511166996.1751509     
   2166442987.9347224     
   2240966707.7430172     
   2309964219.0489588     
   2373288183.7605815     
   2430831589.1085525     
   1983870570.7986963     
   2095434244.6901460     
   2197262222.8007083     
   2288944352.4645123     
   2370195982.1643386     
   2748966564.4204960     
   2706448104.9128127     
   2675804079.7183151     
   2657269650.6774225     
   2651090184.3342271     
   2615847502.3504024     
   2597095249.2289200     
   2587699968.5793152     
   2587774850.0108480     
   2597431616.5382490     
   2511166996.1751509     
   2514110454.0729651     
   2523737444.0746403     
   2540090644.7045894     
   2563211462.9616680     
   2430831589.1085525     
   2453913951.2401552     
   2480951239.2935987     
   2511946809.4580460     
   2546908389.5520706     
   2370195982.1643386     
   2412437154.8806434     
   2455946652.7711411     
   2500694960.5506358     
   2546666414.6648617     
   2651090184.3342271     
   2628490936.4340053     
   2613740572.0119061     
   2607025260.6953678     
   2608534962.8895378     
   2597431616.5382490     
   2589038223.6109347     
   2588762361.0700655     
   2596698250.1244373     
   2612932885.1527252     
   2563211462.9616680     
   2566287765.7864575     
   2577616684.5986190     
   2597231283.4307504     
   2625159954.3283782     
   2546908389.5520706     
   2558400868.0917664     
   2578212905.5106211     
   2606354452.1635108     
   2642842699.6073618     
   2546666414.6648617     
   2563352702.4206648     
   2588415944.6710062     
   2621881862.3134012     
   2663801524.6570129     
   2608534962.8895378     
   2586581996.3077068     
   2577114190.2680383     
   2580267931.1943827     
   2596160459.3738995     
   2612932885.1527252     
   2602810027.4919696     
   2603002963.4375653     
   2613581477.9209671     
   2634603436.9677024     
   2625159954.3283782     
   2625789518.7339492     
   2634732606.6243138     
   2652021187.1393971     
   2677685012.2644629     
   2642842699.6073618     
   2653694695.6895785     
   2671014690.2678976     
   2694800580.5189052     
   2725062827.3722191     
   2663801524.6570129     
   2684844073.9775839     
   2710652148.5786462     
   2741175351.3578782     
   2776398251.0232716     
   2596160459.3738995     
   2586963702.9622540     
   2587963237.9381838     
   2599241065.9658160     
   2620883887.7529602     
   2634603436.9677024     
   2626453044.2991481     
   2628032081.9991665     
   2639381224.5750656     
   2660548042.8315272     
   2677685012.2644629     
   2670005457.7273855     
   2671733135.0340209     
   2682881228.5340176     
   2703469911.0489669     
   2725062827.3722191     
   2717343836.8541408     
   2718848874.3490567     
   2729575882.0740905     
   2749528359.6333523     
   2776398251.0232716     
   2768194189.6618614     
   2769163824.7721868     
   2779300939.1923022     
   2798602342.8912935     
   2620883887.7529602     
   2582449364.5243549     
   2550044892.2409091     
   2524261729.8770494     
   2505928776.3313508     
   2660548042.8315272     
   2615199217.6719251     
   2575551833.6757331     
   2541940294.8180289     
   2514834730.0183926     
   2703469911.0489669     
   2653393679.2303209     
   2608836491.1576581     
   2569945716.0456996     
   2536927946.5677557     
   2749528359.6333523     
   2696928941.0847311     
   2649809517.8328242     
   2608205602.1238708     
   2572166076.4992051     
   2798602342.8912935     
   2745694176.1946979     
   2698367695.8069930     
   2656622808.8566480     
   2620459544.8370180     
   2505928776.3313508     
   2356263614.6609960     
   2214685705.7480807     
   2086173404.4680235     
   1977587619.0247433     
   2514834730.0183926     
   2347510523.1310515     
   2183710432.1924205     
   2026548410.4477007     
   1880604595.9262252     
   2536927946.5677557     
   2356951935.2620339     
   2176728986.0200095     
   1997751054.8554301     
   1822328192.6647072     
   2572166076.4992051     
   2384698307.6829281     
   2194213018.2943358     
   2001104044.8968639     
   1806002911.3636420     
   2620459544.8370180     
   2430724361.2663116     
   2236309770.8845239     
   2037215867.7557428     
   1833443079.6534162     
   1320721175.3981309     
   1417530809.1801729     
   1606663857.8254371     
   1808159131.8648393     
   1983870570.7986963     
   1792427957.4264336     
   1940347395.7733312     
   2090225983.9301531     
   2230532765.8400717     
   2355107309.2899451     
   2597477640.2708521     
   2631891468.8275447     
   2671508637.3381538     
   2716269468.4594340     
   2766108036.4787111     
   3671442304.1422439     
   3510830512.6918325     
   3388223547.4239836     
   3299782673.5402503     
   3242420121.2972989     
   5008394158.6389551     
   4602400969.8377771     
   4272836638.1294727     
   4010233000.5611367     
   3806213414.4773717     
   1983870570.7986963     
   2095434244.6901460     
   2197262222.8007083     
   2288944352.4645123     
   2370195982.1643386     
   2355107309.2899451     
   2395258870.8091207     
   2436801445.5542040     
   2479693473.4646697     
   2523894732.5535550     
   2766108036.4787111     
   2731517084.1080198     
   2709749027.6214132     
   2700746944.3358235     
   2704465815.0693641     
   3242420121.2972989     
   3126336815.6549478     
   3034395106.6895413     
   2966326795.3672900     
   2921939091.6189308     
   3806213414.4773717     
   3599221140.6416502     
   3427024932.0448298     
   3289107472.5765166     
   3185149227.9930201     
   2370195982.1643386     
   2412437154.8806434     
   2455946652.7711411     
   2500694960.5506358     
   2546666414.6648617     
   2523894732.5535550     
   2535048048.5229440     
   2552268094.1409740     
   2575540437.1034956     
   2604854104.5586677     
   2704465815.0693641     
   2681906823.1518741     
   2670129934.9975209     
   2669142401.5341096     
   2678954045.3884850     
   2921939091.6189308     
   2861792904.9361281     
   2816938346.1156940     
   2787442683.4151983     
   2773391785.3091092     
   3185149227.9930201     
   3082563411.9057813     
   2999415478.1142473     
   2935892973.7477489     
   2892251649.4479375     
   2546666414.6648617     
   2563352702.4206648     
   2588415944.6710062     
   2621881862.3134012     
   2663801524.6570129     
   2604854104.5586677     
   2602231300.2406521     
   2608490502.7135539     
   2623649480.0385690     
   2647733425.1514235     
   2678954045.3884850     
   2656561412.9244785     
   2643620580.6935034     
   2640166903.4710236     
   2646233986.3487687     
   2773391785.3091092     
   2730805164.9956102     
   2698215901.6612005     
   2675706598.1807146     
   2663361811.1800690     
   2892251649.4479375     
   2829175112.0199862     
   2776544104.1588058     
   2734512798.1007996     
   2703257644.8919320     
   2663801524.6570129     
   2684844073.9775839     
   2710652148.5786462     
   2741175351.3578782     
   2776398251.0232716     
   2647733425.1514235     
   2658329624.5909715     
   2676792829.0790944     
   2703104450.4293947     
   2737253077.2804732     
   2646233986.3487687     
   2642897329.3601227     
   2650535186.1545091     
   2669172186.0119982     
   2698830833.6931677     
   2663361811.1800690     
   2641676651.9550104     
   2634118237.7376285     
   2640792974.7734756     
   2661813927.4292765     
   2703257644.8919320     
   2657926253.7626133     
   2629913359.5846472     
   2619488513.3265719     
   2626957723.4922018     
   2776398251.0232716     
   2768194189.6618614     
   2769163824.7721868     
   2779300939.1923022     
   2798602342.8912935     
   2737253077.2804732     
   2726328912.6788216     
   2724937420.1680269     
   2733083616.9550190     
   2750771984.2183342     
   2698830833.6931677     
   2685640977.4572191     
   2682515722.8466697     
   2689472239.2293367     
   2706532958.6690969     
   2661813927.4292765     
   2646651280.3539677     
   2642275847.6498499     
   2648721703.6754999     
   2666042591.1299667     
   2626957723.4922018     
   2609927661.1168017     
   2604620961.1996026     
   2611097619.7385168     
   2629458912.4634514     
   2798602342.8912935     
   2745694176.1946979     
   2698367695.8069930     
   2656622808.8566480     
   2620459544.8370180     
   2750771984.2183342     
   2698162450.6184225     
   2651091127.3743606     
   2609595060.8436093     
   2573727222.6516371     
   2706532958.6690969     
   2656195870.4793739     
   2611495145.0905643     
   2572576426.2039027     
   2539643581.7567854     
   2666042591.1299667     
   2619933079.5723543     
   2579702935.7818341     
   2545677054.4540682     
   2518305383.1300516     
   2629458912.4634514     
   2589506579.6371455     
   2555824630.1282430     
   2528983151.2242241     
   2509763910.8285933     
   2620459544.8370180     
   2430724361.2663116     
   2236309770.8845239     
   2037215867.7557428     
   1833443079.6534162     
   2573727222.6516371     
   2385653915.6010771     
   2194566122.0932198     
   2000827891.5295017     
   1805018078.1030440     
   2539643581.7567854     
   2358645310.3365259     
   2177414009.8531322     
   1997406284.3582118     
   1820877657.3665922     
   2518305383.1300516     
   2349729964.2399712     
   2184712363.4581504     
   2026350801.5178268     
   1879216686.6204445     
   2509763910.8285933     
   2358804779.0137401     
   2215995259.1748586     
   2086338295.4549849     
   1976761713.6277292     
   5008394158.6389551     
   4602400969.8377771     
   4272836638.1294727     
   4010233000.5611367     
   3806213414.4773717     
   4299554115.5306358     
   4060730060.9623256     
   3850924552.5991869     
   3667375751.3880253     
   3507895449.3138885     
   3707554511.3832293     
   3595765593.6859841     
   3487255951.5938258     
   3382073258.9575219     
   3280348959.0540199     
   3328480975.9556303     
   3239197509.5526409     
   3177677152.6151342     
   3132896234.5560746     
   3096313493.8031645     
   3372214357.7221031     
   3107878206.0226879     
   2970768659.5072346     
   2926533290.2743754     
   2940428177.6629553     
   3806213414.4773717     
   3599221140.6416502     
   3427024932.0448298     
   3289107472.5765166     
   3185149227.9930201     
   3507895449.3138885     
   3361727788.2766595     
   3234164936.8182235     
   3125299542.8367867     
   3035433325.9216151     
   3280348959.0540199     
   3183197186.5846720     
   3092358338.6935787     
   3008233468.8750925     
   2931293102.8306565     
   3096313493.8031645     
   3037612847.5648203     
   2979100782.8580151     
   2920376412.5539908     
   2861059540.8535776     
   2940428177.6629553     
   2907753964.0303769     
   2877884292.4000859     
   2847616626.0516095     
   2814142203.4492373     
   3185149227.9930201     
   3082563411.9057813     
   2999415478.1142473     
   2935892973.7477489     
   2892251649.4479375     
   3035433325.9216151     
   2949935214.4534745     
   2878166502.5366292     
   2820568945.9407487     
   2777655770.5822086     
   2931293102.8306565     
   2857402753.7030668     
   2792493887.7301126     
   2737143969.1340985     
   2691979924.7788997     
   2861059540.8535776     
   2795164670.1457191     
   2734741864.5669589     
   2680273626.7470675     
   2632260513.0763154     
   2814142203.4492373     
   2754166100.7809510     
   2697627311.4706435     
   2644622801.5329652     
   2595247326.0837960     
   2892251649.4479375     
   2829175112.0199862     
   2776544104.1588058     
   2734512798.1007996     
   2703257644.8919320     
   2777655770.5822086     
   2722170049.6770988     
   2676279953.8694472     
   2640242166.4943676     
   2614323916.8427362     
   2691979924.7788997     
   2639119858.4816656     
   2595088710.9033175     
   2560297015.5930681     
   2535161585.0825133     
   2632260513.0763154     
   2577381234.8419614     
   2530638326.0896826     
   2492637355.2397795     
   2463997362.2788296     
   2595247326.0837960     
   2534240192.1181579     
   2480701167.6054101     
   2435459193.7527704     
   2399381343.9030304     
   2703257644.8919320     
   2657926253.7626133     
   2629913359.5846472     
   2619488513.3265719     
   2626957723.4922018     
   2614323916.8427362     
   2564601226.2235241     
   2528739230.6139984     
   2507207815.2819552     
   2500469853.5851240     
   2535161585.0825133     
   2480738734.0898280     
   2436972252.8846278     
   2404418985.0417166     
   2383610154.5881820     
   2463997362.2788296     
   2405817493.0894752     
   2355307819.3479667     
   2312942480.6310592     
   2279174476.7331538     
   2399381343.9030304     
   2339474482.8669763     
   2284542211.8839955     
   2234770726.1356544     
   2190345501.8994842     
   2626957723.4922018     
   2609927661.1168017     
   2604620961.1996026     
   2611097619.7385168     
   2629458912.4634514     
   2500469853.5851240     
   2478880452.1504207     
   2469569066.6893549     
   2472657577.6201205     
   2488281196.8718357     
   2383610154.5881820     
   2354853142.8966928     
   2339082425.5310030     
   2336536741.3905902     
   2347431759.6813903     
   2279174476.7331538     
   2240361002.4320350     
   2215331115.3135476     
   2204520612.5917640     
   2208300292.1096749     
   2190345501.8994842     
   2138393972.8553584     
   2100995156.8798633     
   2078889233.7589264     
   2072714700.1167023     
   2629458912.4634514     
   2589506579.6371455     
   2555824630.1282430     
   2528983151.2242241     
   2509763910.8285933     
   2488281196.8718357     
   2454403704.4773049     
   2429325783.5868921     
   2413985829.2354636     
   2409740579.9698672     
   2347431759.6813903     
   2322190558.0143762     
   2308584114.1232448     
   2308013259.3993654     
   2322556676.2733459     
   2208300292.1096749     
   2193595253.2651029     
   2193850520.0528398     
   2211028303.7976561     
   2248050704.5892100     
   2072714700.1167023     
   2069523084.1984746     
   2085404340.7359474     
   2122971176.5992832     
   2186048220.9781914     
   2509763910.8285933     
   2358804779.0137401     
   2215995259.1748586     
   2086338295.4549849     
   1976761713.6277292     
   2409740579.9698672     
   2284027932.1800895     
   2168788502.3102837     
   2070783653.5699198     
   1998827789.3767385     
   2322556676.2733459     
   2225567942.7374659     
   2141868967.7018640     
   2079841662.3130538     
   2049692422.5256937     
   2248050704.5892100     
   2183213036.7986350     
   2134764105.0257683     
   2112378993.2436492     
   2127011315.0200882     
   2186048220.9781914     
   2156666217.5097203     
   2146823289.2419965     
   2167039859.6231813     
   2228388786.7525105     
   3372214357.7221031     
   3107878206.0226879     
   2970768659.5072346     
   2926533290.2743754     
   2940428177.6629553     
   3054750734.9412365     
   2980566127.3858862     
   2971459160.1631155     
   3010391284.6226993     
   3081792209.1312256     
   3090708841.1313791     
   3128700339.4228759     
   3180296562.4998932     
   3244670877.3806443     
   3320979619.0725455     
   3571740952.6269078     
   3586845883.4012866     
   3606769165.9903431     
   3630207558.9294462     
   3657772846.7641907     
   4495310274.3229971     
   4356682188.8989439     
   4252619498.4692349     
   4168050625.0923443     
   4093704100.7530985     
   2940428177.6629553     
   2907753964.0303769     
   2877884292.4000859     
   2847616626.0516095     
   2814142203.4492373     
   3081792209.1312256     
   3047530955.9703312     
   3014502784.8178306     
   2981758201.7769179     
   2948423969.6195183     
   3320979619.0725455     
   3267200020.3636107     
   3216224261.1138120     
   3168095123.4282537     
   3122867804.2405295     
   3657772846.7641907     
   3568474682.1904607     
   3485548372.7386618     
   3409017017.1566162     
   3339053408.4960375     
   4093704100.7530985     
   3953892799.2785873     
   3825056333.4630470     
   3706530117.2546782     
   3598034345.2589469     
   2814142203.4492373     
   2754166100.7809510     
   2697627311.4706435     
   2644622801.5329652     
   2595247326.0837960     
   2948423969.6195183     
   2870302466.5303073     
   2795557711.0181623     
   2724525177.3286343     
   2657563793.6503615     
   3122867804.2405295     
   3025014614.4104214     
   2930665384.9713397     
   2840242632.2056327     
   2754232698.1533561     
   3339053408.4960375     
   3219731888.2471023     
   3104183646.1820340     
   2992785667.1968741     
   2886022391.1943197     
   3598034345.2589469     
   3455222290.5378151     
   3316565624.5357423     
   3182288678.9087157     
   3052761572.9154592     
   2595247326.0837960     
   2534240192.1181579     
   2480701167.6054101     
   2435459193.7527704     
   2399381343.9030304     
   2657563793.6503615     
   2573063745.9963808     
   2494653040.8189025     
   2423108077.0942340     
   2359294376.3526320     
   2754232698.1533561     
   2648472641.0431652     
   2547379115.0793595     
   2451575650.6131973     
   2361798885.9197135     
   2886022391.1943197     
   2761701102.0314121     
   2640774527.6999941     
   2523656153.7977977     
   2410862179.2327690     
   3052761572.9154592     
   2912770859.6375442     
   2775203529.4445677     
   2640265620.9305863     
   2508233531.6813231     
   2399381343.9030304     
   2339474482.8669763     
   2284542211.8839955     
   2234770726.1356544     
   2190345501.8994842     
   2359294376.3526320     
   2280180026.1937737     
   2206749361.4853067     
   2139456517.5242326     
   2078782596.7843969     
   2361798885.9197135     
   2262409212.3144736     
   2168903977.5155673     
   2081934295.9746027     
   2002244029.4162490     
   2410862179.2327690     
   2290680155.1068668     
   2176099208.2765594     
   2067827227.8225558     
   1966749202.4052966     
   2508233531.6813231     
   2367184095.9494305     
   2231114506.8926010     
   2100614656.7068706     
   1976518773.1181686     
   2190345501.8994842     
   2138393972.8553584     
   2100995156.8798633     
   2078889233.7589264     
   2072714700.1167023     
   2078782596.7843969     
   2006239105.7393472     
   1945780489.6188078     
   1898458238.8287599     
   1865263694.4009297     
   2002244029.4162490     
   1907768973.8228385     
   1821886498.1262305     
   1745774944.0847597     
   1680696958.2310929     
   1966749202.4052966     
   1851970554.1277149     
   1741455505.7191064     
   1636114398.3058453     
   1537064811.3144126     
   1976518773.1181686     
   1846575637.1257813     
   1716626792.4543457     
   1587020972.1807094     
   1458269635.6986094     
   2072714700.1167023     
   2069523084.1984746     
   2085404340.7359474     
   2122971176.5992832     
   2186048220.9781914     
   1865263694.4009297     
   1855029135.3010948     
   1867671518.4124355     
   1905379115.5990534     
   1971183739.2339966     
   1680696958.2310929     
   1652390024.8340292     
   1651765321.6295888     
   1681174789.4578753     
   1743220807.4659402     
   1537064811.3144126     
   1476248014.9937589     
   1448121969.5934687     
   1456651129.4747543     
   1505127823.3024900     
   1458269635.6986094     
   1349117944.1961265     
   1274947332.7142935     
   1243911131.4781940     
   1263075879.4891021     
   2186048220.9781914     
   2156666217.5097203     
   2146823289.2419965     
   2167039859.6231813     
   2228388786.7525105     
   1971183739.2339966     
   1969264952.6775947     
   2003850092.3133814     
   2093616382.8626585     
   2257233237.9345899     
   1743220807.4659402     
   1787953948.5382543     
   1884808735.7294791     
   2060704045.8596566     
   2340884867.4518371     
   1505127823.3024900     
   1613449340.3457000     
   1788958207.7597365     
   2066421057.1858609     
   2476061882.6946907     
   1263075879.4891021     
   1446793930.8495417     
   1715733299.7988298     
   2110498311.8559279     
   2663546212.8845840     
   4495310274.3229971     
   4356682188.8989439     
   4252619498.4692349     
   4168050625.0923443     
   4093704100.7530985     
   4919325925.3397226     
   4770728647.9206514     
   4631178758.2193508     
   4495364842.6603012     
   4360064092.7289467     
   5316883358.7582388     
   5148463050.4245329     
   4979460058.0123806     
   4809235575.7853165     
   4637491663.6159525     
   5680012419.9144258     
   5481627211.9777222     
   5287299379.1005459     
   5096794644.0371532     
   4909942783.7635317     
   6024269933.5931416     
   5778806183.8603230     
   5556493343.8798218     
   5353760061.3309021     
   5167704546.3011580     
   4093704100.7530985     
   3953892799.2785873     
   3825056333.4630470     
   3706530117.2546782     
   3598034345.2589469     
   4360064092.7289467     
   4211252685.2837138     
   4067302739.6973577     
   3928075995.2890787     
   3793624464.4348989     
   4637491663.6159525     
   4480841069.3402395     
   4325838571.8345385     
   4172535569.9608035     
   4021038670.8793993     
   4909942783.7635317     
   4749340294.4472256     
   4589564185.1782751     
   4430597012.6304026     
   4272424882.9595151     
   5167704546.3011580     
   5008296699.2013340     
   4850981612.5946245     
   4695448544.6631432     
   4541419968.9641800     
   3598034345.2589469     
   3455222290.5378151     
   3316565624.5357423     
   3182288678.9087157     
   3052761572.9154592     
   3793624464.4348989     
   3637780097.6326241     
   3484541305.7569013     
   3334088267.9697089     
   3186730374.3144774     
   4021038670.8793993     
   3852018184.9516306     
   3684329653.1580701     
   3518097697.6016479     
   3353551957.5567279     
   4272424882.9595151     
   4090472217.3738713     
   3908851984.5677109     
   3727634692.0169978     
   3546969776.9122510     
   4541419968.9641800     
   4347021617.5987043     
   4152209435.2703886     
   3957008933.9044838     
   3761500642.6802130     
   3052761572.9154592     
   2912770859.6375442     
   2775203529.4445677     
   2640265620.9305863     
   2508233531.6813231     
   3186730374.3144774     
   3039022521.9920316     
   2893233507.0510855     
   2749529966.6151600     
   2608148643.6992259     
   3353551957.5567279     
   3197173051.8981447     
   3042197764.5882626     
   2888752855.5817251     
   2737033806.1014910     
   3546969776.9122510     
   3380877601.5247273     
   3215672987.7475328     
   3051444244.9045916     
   2888346431.3600736     
   3761500642.6802130     
   3584613174.7078676     
   3408102636.0869489     
   3232021074.2998695     
   3056485049.8112874     
   2508233531.6813231     
   2367184095.9494305     
   2231114506.8926010     
   2100614656.7068706     
   1976518773.1181686     
   2608148643.6992259     
   2456035872.9657741     
   2306501591.3095393     
   2159892923.8660965     
   2016711668.8280568     
   2737033806.1014910     
   2577067153.2007527     
   2418009640.3410072     
   2259997228.7781606     
   2103227593.3168089     
   2888346431.3600736     
   2724177068.1091919     
   2560002293.8920045     
   2395843240.6510172     
   2231729982.6606917     
   3056485049.8112874     
   2891828394.8023009     
   2726932023.3733268     
   2561803613.2131405     
   2396456956.2625585     
   1976518773.1181686     
   1846575637.1257813     
   1716626792.4543457     
   1587020972.1807094     
   1458269635.6986094     
   2016711668.8280568     
   1880259481.5750535     
   1744153236.5710001     
   1608528121.4212072     
   1473569544.9572866     
   2103227593.3168089     
   1962852765.4952819     
   1823507716.1331573     
   1685227645.1125135     
   1548078830.1341486     
   2231729982.6606917     
   2088241068.6520092     
   1946501172.6822164     
   1806507368.6127796     
   1668339511.1669745     
   2396456956.2625585     
   2248988344.6118889     
   2103805030.3574064     
   1960894509.5621395     
   1820425196.6438520     
   1458269635.6986094     
   1349117944.1961265     
   1274947332.7142935     
   1243911131.4781940     
   1263075879.4891021     
   1473569544.9572866     
   1329203302.0645342     
   1199277957.6927841     
   1088290206.7282343     
   1002163890.6753919     
   1548078830.1341486     
   1398111942.4060273     
   1244548204.4310157     
   1085118214.7540765     
   917792109.97276962     
   1668339511.1669745     
   1552909586.5869567     
   1428326634.3365424     
   1294953983.2735016     
   1158937798.8667042     
   1820425196.6438520     
   1779867981.9861574     
   1735768751.1802917     
   1696777638.3720670     
   1681437875.0355675     
   1263075879.4891021     
   1446793930.8495417     
   1715733299.7988298     
   2110498311.8559279     
   2663546212.8845840     
   1002163890.6753919     
   1164785907.5215251     
   1425442854.7504854     
   1808744389.9514611     
   2334796132.6866040     
   917792109.97276962     
   963150013.98094857     
   1144918264.1417658     
   1476471833.7849538     
   1957518557.5210638     
   1158937798.8667042     
   1008439249.1941216     
   985195382.44772208     
   1161486443.8102412     
   1544230470.5962729     
   1681437875.0355675     
   1383827829.8623116     
   1129489833.2113202     
   1010173737.3905026     
   1153217556.6012728     
 </DataArray>
 <DataArray  type="Float64" Name="strain" NumberOfComponents="3" format="ascii">
   9.9805931523495595E-002  -2.8996310681922655E-002  -7.1527383660963118E-004
   9.6536180529389393E-002  -2.8602612172996533E-002  -2.9628757577360165E-004
   9.3266429535283191E-002  -2.8019809881619395E-002   2.8933973746703145E-005
   8.9996678541176989E-002  -2.7247903807790810E-002   2.6039081195067260E-004
   8.6726927547070787E-002  -2.6286893951510848E-002   3.9808293883902834E-004
   9.4349781426008694E-002  -2.7672323893285000E-002   7.1253314349858377E-003
   9.1067812224642664E-002  -2.7050103447419982E-002   7.1853136507795679E-003
   8.7785843023276799E-002  -2.6334913136512816E-002   7.3146241633696985E-003
   8.4503873821910797E-002  -2.5526752960563420E-002   7.5132629727563682E-003
   8.1221904620544905E-002  -2.4625622919571821E-002   7.7812300789397160E-003
   8.8312043955676378E-002  -2.6348337104647235E-002   1.5242525602224999E-002
   8.5180949555163143E-002  -2.5497594721843264E-002   1.4847369855567338E-002
   8.2049855154649853E-002  -2.4650016391406099E-002   1.4684635413818509E-002
   7.8918760754136535E-002  -2.3805602113336023E-002   1.4754322276978191E-002
   7.5787666353623218E-002  -2.2964351887632795E-002   1.5056430445047120E-002
   8.1692719112498813E-002  -2.5024350316009553E-002   2.3636308665108172E-002
   7.8875592520950638E-002  -2.3945085996266380E-002   2.2689881038589488E-002
   7.6058465929402380E-002  -2.2965119646299395E-002   2.2138967725092211E-002
   7.3241339337854178E-002  -2.2084451266108630E-002   2.1983568724616192E-002
   7.0424212746305948E-002  -2.1303080855693990E-002   2.2223684037161684E-002
   7.4491806896475776E-002  -2.3700363527371870E-002   3.2306680623634620E-002
   7.2151741122005120E-002  -2.2392577270689606E-002   3.0712847199846183E-002
   6.9811675347534435E-002  -2.1280222901192664E-002   2.9677621097191353E-002
   6.7471609573063709E-002  -2.0363300418881090E-002   2.9201002315670493E-002
   6.5131543798592983E-002  -1.9641809823754963E-002   2.9282990855283075E-002
   8.6726927547070787E-002  -2.6286893951510848E-002   3.9808293883902834E-004
   8.3920799264174506E-002  -2.5259027358154662E-002   1.0857923338702946E-004
   8.1114670981278114E-002  -2.4286551073097851E-002   6.9735989787544916E-005
   7.8308542698381722E-002  -2.3369465096340192E-002   2.8155320804093553E-004
   7.5502414415485442E-002  -2.2507769427882129E-002   7.4403088814678497E-004
   8.1221904620544905E-002  -2.4625622919571821E-002   7.7812300789397160E-003
   7.8645198179259607E-002  -2.3694389372370867E-002   7.4971958323888643E-003
   7.6068491737974336E-002  -2.2795918677793403E-002   7.4213448072076027E-003
   7.3491785296689094E-002  -2.1930210835838876E-002   7.5536770033958200E-003
   7.0915078855403824E-002  -2.1097265846507840E-002   7.8941924209537939E-003
   7.5787666353623218E-002  -2.2964351887632795E-002   1.5056430445047120E-002
   7.3397904513465867E-002  -2.2129751386587071E-002   1.4800493113073854E-002
   7.1008142673308489E-002  -2.1305286282488511E-002   1.4710261761986587E-002
   6.8618380833151082E-002  -2.0490956575337449E-002   1.4785736391786056E-002
   6.6228618992993704E-002  -1.9686762265133662E-002   1.5026917002471496E-002
   7.0424212746305948E-002  -2.1303080855693990E-002   2.2223684037161684E-002
   6.8178918266793204E-002  -2.0565113400803164E-002   2.2018471075441609E-002
   6.5933623787280501E-002  -1.9814653887183842E-002   2.1936486854124554E-002
   6.3688329307767771E-002  -1.9051702314835967E-002   2.1977731373210664E-002
   6.1443034828254986E-002  -1.8276258683759539E-002   2.2142204632699836E-002
   6.5131543798592983E-002  -1.9641809823754963E-002   2.9282990855283075E-002
   6.2988239439241700E-002  -1.9000475415019341E-002   2.9151129719492158E-002
   6.0844935079890361E-002  -1.8324021491879144E-002   2.9100020083621281E-002
   5.8701630720539077E-002  -1.7612448054334505E-002   2.9129661947669999E-002
   5.6558326361187738E-002  -1.6865755102385471E-002   2.9240055311638646E-002
   7.5502414415485442E-002  -2.2507769427882129E-002   7.4403088814678497E-004
   7.2260882625912015E-002  -2.1655477633043874E-002   5.3033649643863257E-004
   6.9019350836338533E-002  -2.0766603277147855E-002   4.6075295875003253E-004
   6.5777819046765051E-002  -1.9841146360192963E-002   5.3528027508067955E-004
   6.2536287257191625E-002  -1.8879106882180308E-002   7.5391844543037934E-004
   7.0915078855403824E-002  -2.1097265846507840E-002   7.8941924209537939E-003
   6.7830955771056245E-002  -2.0269474864588410E-002   7.6241902775530668E-003
   6.4746832686708611E-002  -1.9419229044868591E-002   7.5248946905847325E-003
   6.1662709602361004E-002  -1.8546528387348910E-002   7.5963056600485690E-003
   5.8578586518013454E-002  -1.7651372892028783E-002   7.8384231859457421E-003
   6.6228618992993704E-002  -1.9686762265133662E-002   1.5026917002471496E-002
   6.3328500316285091E-002  -1.8883472096132670E-002   1.4686479384119766E-002
   6.0428381639576423E-002  -1.8071854812589772E-002   1.4543344024613936E-002
   5.7528262962867838E-002  -1.7251910414504412E-002   1.4597510923953158E-002
   5.4628144286159169E-002  -1.6423638901877813E-002   1.4848980082138141E-002
   6.1443034828254986E-002  -1.8276258683759539E-002   2.2142204632699836E-002
   5.8753516261598464E-002  -1.7497469327676957E-002   2.1717203816139008E-002
   5.6063997694941969E-002  -1.6724480580310730E-002   2.1516100960837031E-002
   5.3374479128285419E-002  -1.5957292441660470E-002   2.1538896066793711E-002
   5.0684960561628897E-002  -1.5195904911726454E-002   2.1785589134009062E-002
   5.6558326361187738E-002  -1.6865755102385471E-002   2.9240055311638646E-002
   5.4106003606996467E-002  -1.6111466559221382E-002   2.8716363573610681E-002
   5.1653680852805167E-002  -1.5377106348031605E-002   2.8443165499254630E-002
   4.9201358098613895E-002  -1.4662674468816063E-002   2.8420461088570118E-002
   4.6749035344422596E-002  -1.3968170921575151E-002   2.8648250341557546E-002
   6.2536287257191625E-002  -1.8879106882180308E-002   7.5391844543037934E-004
   5.9616662891633476E-002  -1.7924870771501733E-002   4.3314242313652329E-004
   5.6697038526075327E-002  -1.7022823956549360E-002   3.2321378259053679E-004
   5.3777414160517178E-002  -1.6172966437324257E-002   4.2413252379219779E-004
   5.0857789794959030E-002  -1.5375298213825550E-002   7.3589864674117322E-004
   5.8578586518013454E-002  -1.7651372892028783E-002   7.8384231859457421E-003
   5.5856102903741212E-002  -1.6760605276927021E-002   7.4694890935321778E-003
   5.3133619289468970E-002  -1.5901068260061602E-002   7.2839891219428354E-003
   5.0411135675196728E-002  -1.5072761841432150E-002   7.2819232711772985E-003
   4.7688652060924486E-002  -1.4275686021039458E-002   7.4632915412362610E-003
   5.4628144286159169E-002  -1.6423638901877813E-002   1.4848980082138141E-002
   5.2075388162249159E-002  -1.5596339782352808E-002   1.4452846617095783E-002
   4.9522632038339148E-002  -1.4779312563573704E-002   1.4212734011953887E-002
   4.6969875914429166E-002  -1.3972557245540813E-002   1.4128642266712052E-002
   4.4417119790519127E-002  -1.3176073828253920E-002   1.4200571381370597E-002
   5.0684960561628897E-002  -1.5195904911726454E-002   2.1785589134009062E-002
   4.8274518667157443E-002  -1.4432074287778346E-002   2.1383214993827879E-002
   4.5864076772685967E-002  -1.3657556867085877E-002   2.1109448452623199E-002
   4.3453634878214450E-002  -1.2872352649649203E-002   2.0964289510395372E-002
   4.1043192983742989E-002  -1.2076461635468105E-002   2.0947738167144403E-002
   4.6749035344422596E-002  -1.3968170921575151E-002   2.8648250341557546E-002
   4.4453494418465966E-002  -1.3267808793203939E-002   2.8260594223728064E-002
   4.2157953492509309E-002  -1.2535801170598201E-002   2.7974132443951444E-002
   3.9862412566552721E-002  -1.1772148053757574E-002   2.7788865002227839E-002
   3.7566871640596078E-002  -1.0976849442682401E-002   2.7704791898557346E-002
   5.0857789794959030E-002  -1.5375298213825550E-002   7.3589864674117322E-004
   4.8112461956298702E-002  -1.4583947715851364E-002   5.0219069885681922E-004
   4.5367134117638319E-002  -1.3753043373198826E-002   3.0553562927349009E-004
   4.2621806278977964E-002  -1.2882585185868073E-002   1.4593343799224057E-004
   3.9876478440317609E-002  -1.1972573153859134E-002   2.3384125011682855E-005
   4.7688652060924486E-002  -1.4275686021039458E-002   7.4632915412362610E-003
   4.4993802931261595E-002  -1.3483727287166625E-002   7.1708900226147287E-003
   4.2298953801598649E-002  -1.2670772128096391E-002   6.9423930436863790E-003
   3.9604104671935703E-002  -1.1836820543829972E-002   6.7778006044519890E-003
   3.6909255542272756E-002  -1.0981872534366000E-002   6.6771127049107815E-003
   4.4417119790519127E-002  -1.3176073828253920E-002   1.4200571381370597E-002
   4.1799601031245803E-002  -1.2383506858481996E-002   1.3830918872530878E-002
   3.9182082271972493E-002  -1.1588500882994401E-002   1.3552022564776389E-002
   3.6564563512699190E-002  -1.0791055901791427E-002   1.3363882458107948E-002
   3.3947044753425859E-002  -9.9911719148721989E-003   1.3266498552524764E-002
   4.1043192983742989E-002  -1.2076461635468105E-002   2.0947738167144403E-002
   3.8529856256251438E-002  -1.1283286429797534E-002   2.0482277248605026E-002
   3.6016519528759852E-002  -1.0506229637892300E-002   2.0134424192542986E-002
   3.3503182801268343E-002  -9.7452912597528821E-003   1.9904178998959236E-002
   3.0989846073776722E-002  -9.0004712953789534E-003   1.9791541667852949E-002
   3.7566871640596078E-002  -1.0976849442682401E-002   2.7704791898557346E-002
   3.5184568606278444E-002  -1.0183066001112739E-002   2.7124965150837010E-002
   3.2802265571960809E-002  -9.4239583927902826E-003   2.6689597926986719E-002
   3.0419962537643203E-002  -8.6995266177147465E-003   2.6398690227006388E-002
   2.8037659503325596E-002  -8.0097706758854859E-003   2.6252242050895935E-002
   3.9876478440317609E-002  -1.1972573153859134E-002   2.3384125011682855E-005
   3.7456123582814915E-002  -1.1126776219428813E-002  -2.8288204249093951E-004
   3.5035768725312166E-002  -1.0448963324835081E-002  -4.9121675478103199E-004
   3.2615413867809417E-002  -9.9391344700760637E-003  -6.0162001185898317E-004
   3.0195059010306724E-002  -9.5972896551534959E-003  -6.1409181372407140E-004
   3.6909255542272756E-002  -1.0981872534366000E-002   6.6771127049107815E-003
   3.4567077461340245E-002  -1.0171431177690704E-002   6.2171070826589903E-003
   3.2224899380407679E-002  -9.4709995517895385E-003   5.8155235583349785E-003
   2.9882721299475140E-002  -8.8805776566620309E-003   5.4723621319389681E-003
   2.7540543218542657E-002  -8.4001654923089308E-003   5.1876228034708483E-003
   3.3947044753425859E-002  -9.9911719148721989E-003   1.3266498552524764E-002
   3.1643534091778974E-002  -9.2160861359516510E-003   1.2710727784585041E-002
   2.9340023430131978E-002  -8.4930357787437460E-003   1.2173869757288985E-002
   2.7036512768485094E-002  -7.8220208432477692E-003   1.1655924470635931E-002
   2.4733002106838181E-002  -7.2030413294643658E-003   1.1156891924626711E-002
   3.0989846073776722E-002  -9.0004712953789534E-003   1.9791541667852949E-002
   2.8685493474130914E-002  -8.2607410942129589E-003   1.9197980063287573E-002
   2.6381140874485051E-002  -7.5150720056977455E-003   1.8583821842080621E-002
   2.4076788274839118E-002  -6.7634640298335109E-003   1.7949067004233165E-002
   2.1772435675193325E-002  -6.0059171666198008E-003   1.7293715549743613E-002
   2.8037659503325596E-002  -8.0097706758854859E-003   2.6252242050895935E-002
   2.5692955608396184E-002  -7.3053960524744332E-003   2.5678863918765948E-002
   2.3348251713466828E-002  -6.5371082326519114E-003   2.5045379812710433E-002
   2.1003547818537444E-002  -5.7049072164195164E-003   2.4351789732728890E-002
   1.8658843923608059E-002  -4.8087930037753468E-003   2.3598093678821597E-002
   3.0195059010306724E-002  -9.5972896551534959E-003  -6.1409181372407140E-004
   2.9592189609359165E-002  -9.1345010764751766E-003  -3.6036316782950273E-004
   2.8989320208411717E-002  -8.2618409304511808E-003  -1.7925941632516151E-003
   2.8386450807464214E-002  -6.9793092170821330E-003  -4.9107847999898535E-003
   2.7783581406516711E-002  -5.2869059363660487E-003  -9.7149350780456611E-003
   2.7540543218542657E-002  -8.4001654923089308E-003   5.1876228034708483E-003
   2.5522180493312174E-002  -7.8689172443450195E-003   5.8695691791296190E-003
   2.3503817768081720E-002  -7.1259870983859108E-003   5.4064885475390567E-003
   2.1485455042851306E-002  -6.1713750544312024E-003   3.7983809086993281E-003
   1.9467092317620893E-002  -5.0050811124808803E-003   1.0452462626102665E-003
   2.4733002106838181E-002  -7.2030413294643658E-003   1.1156891924626711E-002
   2.1840078691392262E-002  -6.6033334122145293E-003   1.2068866360698982E-002
   1.8947155275946426E-002  -5.9901332663199469E-003   1.2376746423589519E-002
   1.6054231860500548E-002  -5.3634408917802648E-003   1.2080532113298501E-002
   1.3161308445054670E-002  -4.7232562885956009E-003   1.1180223429825553E-002
   2.1772435675193325E-002  -6.0059171666198008E-003   1.7293715549743613E-002
   1.8545884203599469E-002  -5.3377495800842056E-003   1.8237528376879003E-002
   1.5319332732005655E-002  -4.8542794342543300E-003   1.9118179464900402E-002
   1.2092781260411824E-002  -4.5555067291297748E-003   1.9935668813807140E-002
   8.8662297888179933E-003  -4.4414314647101549E-003   2.0689996423600129E-002
   1.8658843923608059E-002  -4.8087930037753468E-003   2.3598093678821597E-002
   1.5639597029933727E-002  -4.0721657479541040E-003   2.4375555227669876E-002
   1.2620350136259451E-002  -3.7184256021886575E-003   2.5630787671471200E-002
   9.6011032425851045E-003  -3.7475725664789378E-003   2.7363791010225902E-002
   6.5818563489108417E-003  -4.1596066408245980E-003   2.9574565243933981E-002
   2.7783581406516711E-002  -5.2869059363660487E-003  -9.7149350780456611E-003
   2.3355382506176414E-002  -4.2038320467558954E-003  -4.1896917910555498E-003
   1.8927183605836173E-002  -4.7492885067039192E-003   2.6028064649673555E-003
   1.4498984705495960E-002  -6.9232753162098842E-003   1.0662559690021445E-002
   1.0070785805155635E-002  -1.0725792475272833E-002   1.9989567884106663E-002
   1.9467092317620893E-002  -5.0050811124808803E-003   1.0452462626102665E-003
   1.6233153844413206E-002  -4.6894615656204452E-003   6.7374197051649487E-003
   1.2999215371205519E-002  -6.2868727069337327E-003   1.3550859032953388E-002
   9.7652768979977211E-003  -9.7973145364207703E-003   2.1485564245974476E-002
   6.5313384247900341E-003  -1.5220787054082585E-002   3.0541535344229320E-002
   1.3161308445054670E-002  -4.7232562885956009E-003   1.1180223429825553E-002
   1.0975641315180945E-002  -5.1750910844836628E-003   1.6754826689328262E-002
   8.7899741853072061E-003  -7.8244569071624637E-003   2.3304706750265830E-002
   6.6043070554335850E-003  -1.2671353756631441E-002   3.0829863612637773E-002
   4.4186399255596309E-003  -1.9715781632891893E-002   3.9330297276445103E-002
   8.8662297888179933E-003  -4.4414314647101549E-003   2.0689996423600129E-002
   7.5828449184797142E-003  -5.6607206033471025E-003   2.5862529161434195E-002
   6.2994600481414871E-003  -9.3620411073912918E-003   3.1864349616904354E-002
   5.0160751778033658E-003  -1.5545392976843108E-002   3.8695457790010490E-002
   3.7326903074650780E-003  -2.4210776211701424E-002   4.6355853680753401E-002
   6.5818563489108417E-003  -4.1596066408245980E-003   2.9574565243933981E-002
   6.0547646543095968E-003  -6.1463501222107642E-003   3.4060527121482664E-002
   5.5276729597082963E-003  -1.0899625307620425E-002   3.9229787632869384E-002
   5.0005812651069959E-003  -1.8419432197053907E-002   4.5082346778093835E-002
   4.4734895705057509E-003  -2.8705770790510954E-002   5.1618204557155600E-002
   7.4491806896475776E-002  -2.3700363527371870E-002   3.2306680623634620E-002
   7.2151741122005120E-002  -2.2392577270689606E-002   3.0712847199846183E-002
   6.9811675347534435E-002  -2.1280222901192664E-002   2.9677621097191353E-002
   6.7471609573063709E-002  -2.0363300418881090E-002   2.9201002315670493E-002
   6.5131543798592983E-002  -1.9641809823754963E-002   2.9282990855283075E-002
   6.7359486823460490E-002  -2.1150630145388372E-002   3.6535685683267149E-002
   6.5477537289929916E-002  -2.0254259568297656E-002   3.5421928265287422E-002
   6.3595587756399286E-002  -1.9438866249738063E-002   3.4665796008054361E-002
   6.1713638222868655E-002  -1.8704450189709593E-002   3.4267288911567620E-002
   5.9831688689338081E-002  -1.8051011388212163E-002   3.4226406975827600E-002
   6.0945938409305858E-002  -1.8600896763404901E-002   4.0296047748980879E-002
   5.9321122956328132E-002  -1.8115941865905733E-002   3.9776820965464227E-002
   5.7696307503350426E-002  -1.7597509598283420E-002   3.9414237182307063E-002
   5.6071492050372679E-002  -1.7045599960537932E-002   3.9208296399509117E-002
   5.4446676597394938E-002  -1.6460212952669251E-002   3.9158998617070395E-002
   5.5251161654011796E-002  -1.6051163381421429E-002   4.3587766820775968E-002
   5.3682498121199809E-002  -1.5977624163513823E-002   4.3777525300376749E-002
   5.2113834588387760E-002  -1.5756152946828798E-002   4.3922944619949653E-002
   5.0545171055575676E-002  -1.5386749731366297E-002   4.4024024779494540E-002
   4.8976507522763654E-002  -1.4869414517126367E-002   4.4080765779011495E-002
   5.0275156557578415E-002  -1.3501429999437931E-002   4.6410842898652438E-002
   4.8561662784544823E-002  -1.3839306461121886E-002   4.7424041270024808E-002
   4.6848169011511287E-002  -1.3914796295374135E-002   4.8191918320982102E-002
   4.5134675238477723E-002  -1.3727899502194722E-002   4.8714474051524168E-002
   4.3421181465444131E-002  -1.3278616081583483E-002   4.8991708461651129E-002
   6.5131543798592983E-002  -1.9641809823754963E-002   2.9282990855283075E-002
   6.2988239439241700E-002  -1.9000475415019341E-002   2.9151129719492158E-002
   6.0844935079890361E-002  -1.8324021491879144E-002   2.9100020083621281E-002
   5.8701630720539077E-002  -1.7612448054334505E-002   2.9129661947669999E-002
   5.6558326361187738E-002  -1.6865755102385471E-002   2.9240055311638646E-002
   5.9831688689338081E-002  -1.8051011388212163E-002   3.4226406975827600E-002
   5.7792701158262613E-002  -1.7428185020084669E-002   3.4060390138802382E-002
   5.5753713627187104E-002  -1.6785606260165627E-002   3.4022255458408937E-002
   5.3714726096111623E-002  -1.6123275108455473E-002   3.4112002934647563E-002
   5.1675738565036128E-002  -1.5441191564953938E-002   3.4329632567517893E-002
   5.4446676597394938E-002  -1.6460212952669251E-002   3.9158998617070395E-002
   5.2559136551307284E-002  -1.5855894625149899E-002   3.8943458956197795E-002
   5.0671596505219629E-002  -1.5247191028452275E-002   3.8902932108668978E-002
   4.8784056459131933E-002  -1.4634102162576445E-002   3.9037418074484180E-002
   4.6896516413044306E-002  -1.4016628027522265E-002   3.9346916853643027E-002
   4.8976507522763654E-002  -1.4869414517126367E-002   4.4080765779011495E-002
   4.7287545618375788E-002  -1.4283604230215206E-002   4.3800336171678514E-002
   4.5598583713987950E-002  -1.3708775796738897E-002   4.3742050034401278E-002
   4.3909621809600126E-002  -1.3144929216697373E-002   4.3905907367179801E-002
   4.2220659905212302E-002  -1.2592064490090746E-002   4.4291908170014237E-002
   4.3421181465444131E-002  -1.3278616081583483E-002   4.8991708461651129E-002
   4.1977928359468064E-002  -1.2711313835280458E-002   4.8631021785244505E-002
   4.0534675253492067E-002  -1.2170360565025379E-002   4.8539609235605657E-002
   3.9091422147516021E-002  -1.1655756270818322E-002   4.8717470812734559E-002
   3.7648169041540003E-002  -1.1167500952659060E-002   4.9164606516631293E-002
   5.6558326361187738E-002  -1.6865755102385471E-002   2.9240055311638646E-002
   5.4106003606996467E-002  -1.6111466559221382E-002   2.8716363573610681E-002
   5.1653680852805167E-002  -1.5377106348031605E-002   2.8443165499254630E-002
   4.9201358098613895E-002  -1.4662674468816063E-002   2.8420461088570118E-002
   4.6749035344422596E-002  -1.3968170921575151E-002   2.8648250341557546E-002
   5.1675738565036128E-002  -1.5441191564953938E-002   3.4329632567517893E-002
   4.9457647040850067E-002  -1.4752699559985566E-002   3.3879612139567167E-002
   4.7239555516663978E-002  -1.4071143023875188E-002   3.3647560507954741E-002
   4.5021463992477889E-002  -1.3396521956622651E-002   3.3633477672681204E-002
   4.2803372468291828E-002  -1.2728836358227968E-002   3.3837363633746231E-002
   4.6896516413044306E-002  -1.4016628027522265E-002   3.9346916853643027E-002
   4.4880131251530328E-002  -1.3393932560749791E-002   3.8983560598885719E-002
   4.2863746090016294E-002  -1.2765179699718701E-002   3.8805648273134000E-002
   4.0847360928502309E-002  -1.2130369444429124E-002   3.8813179876387709E-002
   3.8830975766988338E-002  -1.1489501794880869E-002   3.9006155408647034E-002
   4.2220659905212302E-002  -1.2592064490090746E-002   4.4291908170014237E-002
   4.0373456239037236E-002  -1.2035165561514051E-002   4.4028208951567033E-002
   3.8526252572862192E-002  -1.1459216375562277E-002   4.3917428794792018E-002
   3.6679048906687092E-002  -1.0864216932235571E-002   4.3959567699689554E-002
   3.4831845240512097E-002  -1.0250167231533727E-002   4.4154625666259356E-002
   3.7648169041540003E-002  -1.1167500952659060E-002   4.9164606516631293E-002
   3.5937622003370778E-002  -1.0676398562278172E-002   4.9013557197610580E-002
   3.4227074965201540E-002  -1.0153253051405756E-002   4.8982902072929074E-002
   3.2516527927032295E-002  -9.5980644200420080E-003   4.9072641142586651E-002
   3.0805980888863077E-002  -9.0108326681865303E-003   4.9282774406583629E-002
   4.6749035344422596E-002  -1.3968170921575151E-002   2.8648250341557546E-002
   4.4453494418465966E-002  -1.3267808793203939E-002   2.8260594223728064E-002
   4.2157953492509309E-002  -1.2535801170598201E-002   2.7974132443951444E-002
   3.9862412566552721E-002  -1.1772148053757574E-002   2.7788865002227839E-002
   3.7566871640596078E-002  -1.0976849442682401E-002   2.7704791898557346E-002
   4.2803372468291828E-002  -1.2728836358227968E-002   3.3837363633746231E-002
   4.0623511650881128E-002  -1.2053666417048720E-002   3.3464234285568023E-002
   3.8443650833470441E-002  -1.1356592321442094E-002   3.3221270816428478E-002
   3.6263790016059734E-002  -1.0637614071408244E-002   3.3108473226327692E-002
   3.4083929198649054E-002  -9.8967316669469341E-003   3.3125841515265875E-002
   3.8830975766988338E-002  -1.1489501794880869E-002   3.9006155408647034E-002
   3.6795766599109450E-002  -1.0839524040893417E-002   3.8637811490312368E-002
   3.4760557431230500E-002  -1.0177383472286104E-002   3.8428604992002437E-002
   3.2725348263351564E-002  -9.5030800890588598E-003   3.8378535913717149E-002
   3.0690139095472663E-002  -8.8166138912116332E-003   3.8487604255456637E-002
   3.4831845240512097E-002  -1.0250167231533727E-002   4.4154625666259356E-002
   3.2970259263150767E-002  -9.6253816647381002E-003   4.3781325837961113E-002
   3.1108673285789416E-002  -8.9981746231300556E-003   4.3596134970673474E-002
   2.9247087308428121E-002  -8.3685461067093923E-003   4.3599053064396327E-002
   2.7385501331066799E-002  -7.7364961154762490E-003   4.3790080119129444E-002
   3.0805980888863077E-002  -9.0108326681865303E-003   4.9282774406583629E-002
   2.9146989643005189E-002  -8.4112392885827836E-003   4.8894777328514327E-002
   2.7487998397147329E-002  -7.8189657739740487E-003   4.8723860752441644E-002
   2.5829007151289454E-002  -7.2340121243600446E-003   4.8770024678365040E-002
   2.4170015905431580E-002  -6.6563783397409759E-003   4.9033269106285027E-002
   3.7566871640596078E-002  -1.0976849442682401E-002   2.7704791898557346E-002
   3.5184568606278444E-002  -1.0183066001112739E-002   2.7124965150837010E-002
   3.2802265571960809E-002  -9.4239583927902826E-003   2.6689597926986719E-002
   3.0419962537643203E-002  -8.6995266177147465E-003   2.6398690227006388E-002
   2.8037659503325596E-002  -8.0097706758854859E-003   2.6252242050895935E-002
   3.4083929198649054E-002  -9.8967316669469341E-003   3.3125841515265875E-002
   3.1846615453918314E-002  -9.1559187318437374E-003   3.2607337408837922E-002
   2.9609301709187547E-002  -8.4371488898835612E-003   3.2234352357713797E-002
   2.7371987964456820E-002  -7.7404221410669327E-003   3.2006886361893416E-002
   2.5134674219726122E-002  -7.0657384853936023E-003   3.1924939421376530E-002
   3.0690139095472663E-002  -8.8166138912116332E-003   3.8487604255456637E-002
   2.8598874171762545E-002  -8.1287714625742358E-003   3.8043055530424585E-002
   2.6507609248052441E-002  -7.4503393869768536E-003   3.7745085392130062E-002
   2.4416344324342289E-002  -6.7813176644193444E-003   3.7593693840573046E-002
   2.2325079400632178E-002  -6.1217062949017187E-003   3.7588880875753461E-002
   2.7385501331066799E-002  -7.7364961154762490E-003   4.3790080119129444E-002
   2.5441344759811066E-002  -7.1016241933049284E-003   4.3432119515596959E-002
   2.3497188188555309E-002  -6.4635298840700836E-003   4.3221797030235362E-002
   2.1553031617299580E-002  -5.8222131877718099E-003   4.3159112663045326E-002
   1.9608875046043875E-002  -5.1776741044097796E-003   4.3244066414026242E-002
   2.4170015905431580E-002  -6.6563783397409759E-003   4.9033269106285027E-002
   2.2374027218063974E-002  -6.0744769240356211E-003   4.8774529364354835E-002
   2.0578038530696327E-002  -5.4767203811633136E-003   4.8664487272030044E-002
   1.8782049843328728E-002  -4.8631087111240257E-003   4.8703142829309792E-002
   1.6986061155961102E-002  -4.2336419139179515E-003   4.8890496036194886E-002
   2.8037659503325596E-002  -8.0097706758854859E-003   2.6252242050895935E-002
   2.5692955608396184E-002  -7.3053960524744332E-003   2.5678863918765948E-002
   2.3348251713466828E-002  -6.5371082326519114E-003   2.5045379812710433E-002
   2.1003547818537444E-002  -5.7049072164195164E-003   2.4351789732728890E-002
   1.8658843923608059E-002  -4.8087930037753468E-003   2.3598093678821597E-002
   2.5134674219726122E-002  -7.0657384853936023E-003   3.1924939421376530E-002
   2.2771066164986586E-002  -6.3937824153453282E-003   3.1526404127019958E-002
   2.0407458110247051E-002  -5.7052384234038689E-003   3.1150166486968861E-002
   1.8043850055507543E-002  -5.0001065095693076E-003   3.0796226501223226E-002
   1.5680242000768035E-002  -4.2783866738420606E-003   3.0464584169783038E-002
   2.2325079400632178E-002  -6.1217062949017187E-003   3.7588880875753461E-002
   2.0024970814313828E-002  -5.4821687782164730E-003   3.7317863144652214E-002
   1.7724862227995464E-002  -4.8733686141556321E-003   3.7151546696087501E-002
   1.5424753641677107E-002  -4.2953058027198829E-003   3.7089931530059697E-002
   1.3124645055358750E-002  -3.7479803439088299E-003   3.7133017646569011E-002
   1.9608875046043875E-002  -5.1776741044097796E-003   4.3244066414026242E-002
   1.7454669556377967E-002  -4.5705551410874373E-003   4.3053240971662285E-002
   1.5300464066712080E-002  -4.0414988049074924E-003   4.3049520440066678E-002
   1.3146258577046193E-002  -3.5905050958703437E-003   4.3232904819239290E-002
   1.0992053087380337E-002  -3.2175740139754605E-003   4.3603394109179877E-002
   1.6986061155961102E-002  -4.2336419139179515E-003   4.8890496036194886E-002
   1.5060162391178966E-002  -3.6589415039586237E-003   4.8732537608050630E-002
   1.3134263626396844E-002  -3.2096289956593804E-003   4.8844087718906248E-002
   1.1208364861614743E-002  -2.8857043890203118E-003   4.9225146368761241E-002
   9.2824660968326422E-003  -2.6871676840422021E-003   4.9875713557615442E-002
   1.8658843923608059E-002  -4.8087930037753468E-003   2.3598093678821597E-002
   1.5639597029933727E-002  -4.0721657479541040E-003   2.4375555227669876E-002
   1.2620350136259451E-002  -3.7184256021886575E-003   2.5630787671471200E-002
   9.6011032425851045E-003  -3.7475725664789378E-003   2.7363791010225902E-002
   6.5818563489108417E-003  -4.1596066408245980E-003   2.9574565243933981E-002
   1.5680242000768035E-002  -4.2783866738420606E-003   3.0464584169783038E-002
   1.3119287524053391E-002  -3.7671311600582236E-003   3.1235370380150340E-002
   1.0558333047338844E-002  -3.6933922120543916E-003   3.2444970529484141E-002
   7.9973785706242348E-003  -4.0571698298309117E-003   3.4093384617783995E-002
   5.4364240939096531E-003  -4.8584640133870760E-003   3.6180612645049681E-002
   1.3124645055358750E-002  -3.7479803439088299E-003   3.7133017646569011E-002
   1.0983026039616775E-002  -3.4620965721623431E-003   3.7842499062731516E-002
   8.8414070238747380E-003  -3.6683588219201535E-003   3.8951837461873001E-002
   6.6997880081326976E-003  -4.3667670931826705E-003   4.0461032843993522E-002
   4.5581689923907265E-003  -5.5573213859493875E-003   4.2370085209092995E-002
   1.0992053087380337E-002  -3.2175740139754605E-003   4.3603394109179877E-002
   9.2308125766237710E-003  -3.1570619842662406E-003   4.4196941275413001E-002
   7.4695720658672308E-003  -3.6433254317859015E-003   4.5151388468637900E-002
   5.7083315551106342E-003  -4.6763643565344258E-003   4.6466735688854635E-002
   3.9470910443541798E-003  -6.2561787585115602E-003   4.8142982936063512E-002
   9.2824660968326422E-003  -2.6871676840422021E-003   4.9875713557615442E-002
   7.8626471350744243E-003  -2.8520273963705822E-003   5.0298697018194782E-002
   6.4428281733162340E-003  -3.6182920416516773E-003   5.1043623549779094E-002
   5.0230092115580299E-003  -4.9859616198865767E-003   5.2110493152368237E-002
   3.6031902497998258E-003  -6.9550361310739550E-003   5.3499305825961851E-002
   6.5818563489108417E-003  -4.1596066408245980E-003   2.9574565243933981E-002
   6.0547646543095968E-003  -6.1463501222107642E-003   3.4060527121482664E-002
   5.5276729597082963E-003  -1.0899625307620425E-002   3.9229787632869384E-002
   5.0005812651069959E-003  -1.8419432197053907E-002   4.5082346778093835E-002
   4.4734895705057509E-003  -2.8705770790510954E-002   5.1618204557155600E-002
   5.4364240939096531E-003  -4.8584640133870760E-003   3.6180612645049681E-002
   5.4893173341309665E-003  -6.9958089850566396E-003   3.8329879619830476E-002
   5.5422105743523076E-003  -1.1367738967173635E-002   4.0955817830418573E-002
   5.5951038145734960E-003  -1.7974253959736744E-002   4.4058427276814277E-002
   5.6479970547949065E-003  -2.6815353962746924E-002   4.7637707959018005E-002
   4.5581689923907265E-003  -5.5573213859493875E-003   4.2370085209092995E-002
   4.9844197694043912E-003  -7.8452678479031812E-003   4.2714603974682824E-002
   5.4106705464180838E-003  -1.1835852626726748E-002   4.3329166578049735E-002
   5.8369213234317624E-003  -1.7529075722419806E-002   4.4213773019193721E-002
   6.2631721004454965E-003  -2.4924937134982672E-002   4.5368423298115301E-002
   3.9470910443541798E-003  -6.2561787585115602E-003   4.8142982936063512E-002
   4.5400719601298746E-003  -8.6947267107493897E-003   4.7214700186039349E-002
   5.1330528759057290E-003  -1.2303966286279798E-002   4.6349833875762303E-002
   5.7260337916814723E-003  -1.7083897485103090E-002   4.5548384005231486E-002
   6.3190147074572781E-003  -2.3034520307218420E-002   4.4810350574449237E-002
   3.6031902497998258E-003  -6.9550361310739550E-003   5.3499305825961851E-002
   4.1562739063074894E-003  -9.5441855735958203E-003   5.1830168253900522E-002
   4.7093575628151529E-003  -1.2772079945833237E-002   5.0017819723556012E-002
   5.2624412193228443E-003  -1.6638719247785858E-002   4.8062260234928933E-002
   5.8155248758304801E-003  -2.1144103479454390E-002   4.5963489788017675E-002
   5.0275156557578415E-002  -1.3501429999437931E-002   4.6410842898652438E-002
   4.8561662784544823E-002  -1.3839306461121886E-002   4.7424041270024808E-002
   4.6848169011511287E-002  -1.3914796295374135E-002   4.8191918320982102E-002
   4.5134675238477723E-002  -1.3727899502194722E-002   4.8714474051524168E-002
   4.3421181465444131E-002  -1.3278616081583483E-002   4.8991708461651129E-002
   4.4892830630380354E-002  -1.3312415041549897E-002   5.3234286666974218E-002
   4.3112078927734498E-002  -1.2892483986537168E-002   5.3034762632546056E-002
   4.1331327225088588E-002  -1.2453684511382859E-002   5.2946044059308306E-002
   3.9550575522442719E-002  -1.1996016616086975E-002   5.2968130947261396E-002
   3.7769823819796863E-002  -1.1519480300649504E-002   5.3101023296404870E-002
   3.7979091382792166E-002  -1.3123400083661835E-002   6.0937297055637815E-002
   3.6487208532139659E-002  -1.1945661511952491E-002   5.9281532408118967E-002
   3.4995325681487235E-002  -1.0992572727391604E-002   5.8092700003396246E-002
   3.3503442830834798E-002  -1.0264133729979337E-002   5.7370799841469866E-002
   3.2011559980182284E-002  -9.7603445197154970E-003   5.7115831922339794E-002
   2.9533938814813865E-002  -1.2934385125773815E-002   6.9519874064642995E-002
   2.8687051597760502E-002  -1.0998839037367737E-002   6.6164350596743290E-002
   2.7840164380707202E-002  -9.5314609434003945E-003   6.3631886153245512E-002
   2.6993277163653840E-002  -8.5322508438716166E-003   6.1922480734149743E-002
   2.6146389946600505E-002  -8.0012087387815040E-003   6.1036134339455879E-002
   1.9557372926445493E-002  -1.2745370167885739E-002   7.8982017693989992E-002
   1.9711608124596991E-002  -1.0052016562783067E-002   7.3683217198419415E-002
   1.9865843322748461E-002  -8.0703491594091153E-003   6.9563602508856376E-002
   2.0020078520899917E-002  -6.8003679577639913E-003   6.6623173625300999E-002
   2.0174313719051415E-002  -6.2420729578475109E-003   6.4861930547753355E-002
   4.3421181465444131E-002  -1.3278616081583483E-002   4.8991708461651129E-002
   4.1977928359468064E-002  -1.2711313835280458E-002   4.8631021785244505E-002
   4.0534675253492067E-002  -1.2170360565025379E-002   4.8539609235605657E-002
   3.9091422147516021E-002  -1.1655756270818322E-002   4.8717470812734559E-002
   3.7648169041540003E-002  -1.1167500952659060E-002   4.9164606516631293E-002
   3.7769823819796863E-002  -1.1519480300649504E-002   5.3101023296404870E-002
   3.6591499483210721E-002  -1.1040800709347071E-002   5.2608619646423077E-002
   3.5413175146624586E-002  -1.0576702986456167E-002   5.2376799408453523E-002
   3.4234850810038478E-002  -1.0127187131977253E-002   5.2405562582495777E-002
   3.3056526473452308E-002  -9.6922531459096017E-003   5.2694909168549936E-002
   3.2011559980182284E-002  -9.7603445197154970E-003   5.7115831922339794E-002
   3.1089473698230258E-002  -9.3702875834136834E-003   5.6503478406419359E-002
   3.0167387416278179E-002  -8.9830454078871219E-003   5.6143017587755084E-002
   2.9245301134326142E-002  -8.5986179931360172E-003   5.6034449466347190E-002
   2.8323214852374066E-002  -8.2170053391601439E-003   5.6177774042195192E-002
   2.6146389946600505E-002  -8.0012087387815040E-003   6.1036134339455879E-002
   2.5471851004526671E-002  -7.6997744574802129E-003   6.0315598065233254E-002
   2.4797312062452830E-002  -7.3893878293180768E-003   5.9838263773510716E-002
   2.4122773120378999E-002  -7.0700488542948092E-003   5.9604131464288626E-002
   2.3448234178305126E-002  -6.7417575324107970E-003   5.9613201137566726E-002
   2.0174313719051415E-002  -6.2420729578475109E-003   6.4861930547753355E-002
   1.9738631402099957E-002  -6.0292613315469090E-003   6.4044978622864540E-002
   1.9302949085148520E-002  -5.7957302507488373E-003   6.3462537965720184E-002
   1.8867266768197079E-002  -5.5414797154537607E-003   6.3114608576320286E-002
   1.8431584451245625E-002  -5.2665097256611726E-003   6.3001190454664902E-002
   3.7648169041540003E-002  -1.1167500952659060E-002   4.9164606516631293E-002
   3.5937622003370778E-002  -1.0676398562278172E-002   4.9013557197610580E-002
   3.4227074965201540E-002  -1.0153253051405756E-002   4.8982902072929074E-002
   3.2516527927032295E-002  -9.5980644200420080E-003   4.9072641142586651E-002
   3.0805980888863077E-002  -9.0108326681865303E-003   4.9282774406583629E-002
   3.3056526473452308E-002  -9.6922531459096017E-003   5.2694909168549936E-002
   3.1489218188223853E-002  -9.2548769732448966E-003   5.2450790036188882E-002
   2.9921909902995356E-002  -8.7980345589741271E-003   5.2372754215369896E-002
   2.8354601617766886E-002  -8.3217259030972726E-003   5.2460801706093345E-002
   2.6787293332538403E-002  -7.8259510056142290E-003   5.2714932508358903E-002
   2.8323214852374066E-002  -8.2170053391601439E-003   5.6177774042195192E-002
   2.6944834437289324E-002  -7.8333553842116904E-003   5.5828008217608360E-002
   2.5566454022204598E-002  -7.4428160665424917E-003   5.5690014821766685E-002
   2.4188073607119845E-002  -7.0453873861525910E-003   5.5763793854670382E-002
   2.2809693192035102E-002  -6.6410693430419554E-003   5.6049345316319180E-002
   2.3448234178305126E-002  -6.7417575324107970E-003   5.9613201137566726E-002
   2.2304470750567143E-002  -6.4118337951784218E-003   5.9145211741868785E-002
   2.1160707322829184E-002  -6.0875975741107764E-003   5.8934683892119151E-002
   2.0016943895091198E-002  -5.7690488692079380E-003   5.8981617588317756E-002
   1.8873180467353215E-002  -5.4561876804696680E-003   5.9286012830464488E-002
   1.8431584451245625E-002  -5.2665097256611726E-003   6.3001190454664902E-002
   1.7568127128057415E-002  -4.9903122061451533E-003   6.2402400608970565E-002
   1.6704669804869163E-002  -4.7323790816791167E-003   6.2106761426427293E-002
   1.5841212481680932E-002  -4.4927103522632295E-003   6.2114272907035417E-002
   1.4977755158492700E-002  -4.2713060178973250E-003   6.2424935050794550E-002
   3.0805980888863077E-002  -9.0108326681865303E-003   4.9282774406583629E-002
   2.9146989643005189E-002  -8.4112392885827836E-003   4.8894777328514327E-002
   2.7487998397147329E-002  -7.8189657739740487E-003   4.8723860752441644E-002
   2.5829007151289454E-002  -7.2340121243600446E-003   4.8770024678365040E-002
   2.4170015905431580E-002  -6.6563783397409759E-003   4.9033269106285027E-002
   2.6787293332538403E-002  -7.8259510056142290E-003   5.2714932508358903E-002
   2.5341979327145742E-002  -7.3173002260676634E-003   5.2364102413343022E-002
   2.3896665321753080E-002  -6.8023639240006040E-003   5.2223546297261170E-002
   2.2451351316360439E-002  -6.2811420994122250E-003   5.2293264160113290E-002
   2.1006037310967757E-002  -5.7536347523031717E-003   5.2573256001899549E-002
   2.2809693192035102E-002  -6.6410693430419554E-003   5.6049345316319180E-002
   2.1571249904045318E-002  -6.2233611635526542E-003   5.5749287591872282E-002
   2.0332806616055604E-002  -5.7857620740269441E-003   5.5652697323297105E-002
   1.9094363328065848E-002  -5.3282720744644626E-003   5.5759574510593629E-002
   1.7855920040076086E-002  -4.8508911648655340E-003   5.6069919153761971E-002
   1.8873180467353215E-002  -5.4561876804696680E-003   5.9286012830464488E-002
   1.7834801373704086E-002  -5.1294221010374785E-003   5.9050332864102155E-002
   1.6796422280054957E-002  -4.7691602240532253E-003   5.9011313830549382E-002
   1.5758043186405855E-002  -4.3754020495167271E-003   5.9168955729806044E-002
   1.4719664092756700E-002  -3.9481475774279240E-003   5.9523258561872100E-002
   1.4977755158492700E-002  -4.2713060178973250E-003   6.2424935050794550E-002
   1.4132633736121891E-002  -4.0354830385225249E-003   6.2267238230032718E-002
   1.3287512313751110E-002  -3.7525583740797702E-003   6.2299395819017805E-002
   1.2442390891380301E-002  -3.4225320245688910E-003   6.2521407817750355E-002
   1.1597269469009519E-002  -3.0454039899902030E-003   6.2933274226229963E-002
   2.4170015905431580E-002  -6.6563783397409759E-003   4.9033269106285027E-002
   2.2374027218063974E-002  -6.0744769240356211E-003   4.8774529364354835E-002
   2.0578038530696327E-002  -5.4767203811633136E-003   4.8664487272030044E-002
   1.8782049843328728E-002  -4.8631087111240257E-003   4.8703142829309792E-002
   1.6986061155961102E-002  -4.2336419139179515E-003   4.8890496036194886E-002
   2.1006037310967757E-002  -5.7536347523031717E-003   5.2573256001899549E-002
   1.9376387744025184E-002  -5.2230582615731547E-003   5.2353873000305917E-002
   1.7746738177082638E-002  -4.6926290061221343E-003   5.2318470589957533E-002
   1.6117088610140065E-002  -4.1623469859499787E-003   5.2467048770853980E-002
   1.4487439043197547E-002  -3.6322122010565838E-003   5.2799607542995619E-002
   1.7855920040076086E-002  -4.8508911648655340E-003   5.6069919153761971E-002
   1.6427892535198781E-002  -4.3716395991107437E-003   5.5873890530058701E-002
   1.4999865030321465E-002  -3.9085376310807329E-003   5.5897125439240775E-002
   1.3571837525444127E-002  -3.4615852607754877E-003   5.6139623881308220E-002
   1.2143810020566838E-002  -3.0307824881953271E-003   5.6601385856260872E-002
   1.4719664092756700E-002  -3.9481475774279240E-003   5.9523258561872100E-002
   1.3528541591584758E-002  -3.5202209366480830E-003   5.9334581953613387E-002
   1.2337419090412829E-002  -3.1244462560395536E-003   5.9400451819879935E-002
   1.1146296589240897E-002  -2.7608235356012187E-003   5.9720868160672326E-002
   9.9551740880689608E-003  -2.4293527753338484E-003   6.0295830975989916E-002
   1.1597269469009519E-002  -3.0454039899902030E-003   6.2933274226229963E-002
   1.0678334913183124E-002  -2.6688022741858664E-003   6.2735947270969816E-002
   9.7594003573567290E-003  -2.3403548809980967E-003   6.2828449731875347E-002
   8.8404658015303339E-003  -2.0600618104268248E-003   6.3210781608946387E-002
   7.9215312457039389E-003  -1.8279230624727028E-003   6.3882942902183104E-002
   1.6986061155961102E-002  -4.2336419139179515E-003   4.8890496036194886E-002
   1.5060162391178966E-002  -3.6589415039586237E-003   4.8732537608050630E-002
   1.3134263626396844E-002  -3.2096289956593804E-003   4.8844087718906248E-002
   1.1208364861614743E-002  -2.8857043890203118E-003   4.9225146368761241E-002
   9.2824660968326422E-003  -2.6871676840422021E-003   4.9875713557615442E-002
   1.4487439043197547E-002  -3.6322122010565838E-003   5.2799607542995619E-002
   1.2825516352958422E-002  -3.1607295623336529E-003   5.2669837261167252E-002
   1.1163593662719351E-002  -2.8064039806716401E-003   5.2798510589425474E-002
   9.5016709724802667E-003  -2.5692354560711214E-003   5.3185627527770368E-002
   7.8397482822411546E-003  -2.4492239885322009E-003   5.3831188076201575E-002
   1.2143810020566838E-002  -3.0307824881953271E-003   5.6601385856260872E-002
   1.0734798475957937E-002  -2.6625176207085155E-003   5.6508034565346976E-002
   9.3257869313490803E-003  -2.4031789656842190E-003   5.6662061955606982E-002
   7.9167753867401946E-003  -2.2527665231218165E-003   5.7063468027040813E-002
   6.5077638421313228E-003  -2.2112802930221442E-003   5.7712252779648282E-002
   9.9551740880689608E-003  -2.4293527753338484E-003   6.0295830975989916E-002
   8.7880087601774973E-003  -2.1643056790835169E-003   6.0247129520589630E-002
   7.6208434322860381E-003  -1.9999539506966382E-003   6.0434741817450413E-002
   6.4536781043945633E-003  -1.9362975901728464E-003   6.0858667866572333E-002
   5.2865127765031154E-003  -1.9733365975121153E-003   6.1518907667955015E-002
   7.9215312457039389E-003  -1.8279230624727028E-003   6.3882942902183104E-002
   6.9851472056170899E-003  -1.6660937374585183E-003   6.3887122126895513E-002
   6.0487631655302271E-003  -1.5967289357091408E-003   6.4116550174956322E-002
   5.1123791254433712E-003  -1.6198286572230644E-003   6.4571227046365087E-002
   4.1759950853565153E-003  -1.7353929020020864E-003   6.5251152741122143E-002
   9.2824660968326422E-003  -2.6871676840422021E-003   4.9875713557615442E-002
   7.8626471350744243E-003  -2.8520273963705822E-003   5.0298697018194782E-002
   6.4428281733162340E-003  -3.6182920416516773E-003   5.1043623549779094E-002
   5.0230092115580299E-003  -4.9859616198865767E-003   5.2110493152368237E-002
   3.6031902497998258E-003  -6.9550361310739550E-003   5.3499305825961851E-002
   7.8397482822411546E-003  -2.4492239885322009E-003   5.3831188076201575E-002
   6.7168904303227944E-003  -2.6431569396307419E-003   5.3783854593513925E-002
   5.5940325784043371E-003  -3.3478216709431352E-003   5.4008500259501657E-002
   4.4711747264859422E-003  -4.5632181824699844E-003   5.4505125074163885E-002
   3.3483168745675196E-003  -6.2893464742104221E-003   5.5273729037500940E-002
   6.5077638421313228E-003  -2.2112802930221442E-003   5.7712252779648282E-002
   5.6319031777227538E-003  -2.4342864828909017E-003   5.7285275506433114E-002
   4.7560425133141640E-003  -3.0773513002346903E-003   5.7080313459562729E-002
   3.8801818489056124E-003  -4.1404747450531666E-003   5.7097366639036994E-002
   3.0043211844970052E-003  -5.6236568173467782E-003   5.7336435044856415E-002
   5.2865127765031154E-003  -1.9733365975121153E-003   6.1518907667955015E-002
   4.6076853772743925E-003  -2.2254160261510614E-003   6.0802959756951137E-002
   3.9288579780456471E-003  -2.8068809295261413E-003   6.0259063149962197E-002
   3.2500305788169407E-003  -3.7177313076367947E-003   5.9887217846987847E-002
   2.5712031795881787E-003  -4.9579671604833009E-003   5.9687423848028817E-002
   4.1759950853565153E-003  -1.7353929020020864E-003   6.5251152741122143E-002
   3.6442370289776760E-003  -2.0165455694110546E-003   6.4336907345068695E-002
   3.1124789725988367E-003  -2.5364105588176200E-003   6.3544749330699923E-002
   2.5807209162199973E-003  -3.2949878702197358E-003   6.2874678698015968E-002
   2.0489628598411580E-003  -4.2922775036197125E-003   6.2326695447016855E-002
   3.6031902497998258E-003  -6.9550361310739550E-003   5.3499305825961851E-002
   4.1562739063074894E-003  -9.5441855735958203E-003   5.1830168253900522E-002
   4.7093575628151529E-003  -1.2772079945833237E-002   5.0017819723556012E-002
   5.2624412193228443E-003  -1.6638719247785858E-002   4.8062260234928933E-002
   5.8155248758304801E-003  -2.1144103479454390E-002   4.5963489788017675E-002
   3.3483168745675196E-003  -6.2893464742104221E-003   5.5273729037500940E-002
   3.7750117085619539E-003  -8.5591415786563374E-003   5.2924617898915227E-002
   4.2017065425563743E-003  -1.1405538528298731E-002   5.0465940073586402E-002
   4.6284013765507948E-003  -1.4828537323137880E-002   4.7897695561514436E-002
   5.0550962105452291E-003  -1.8828137963173619E-002   4.5219884362698748E-002
   3.0043211844970052E-003  -5.6236568173467782E-003   5.7336435044856415E-002
   3.3382714675181738E-003  -7.5740975837167435E-003   5.4369493424265503E-002
   3.6722217505393145E-003  -1.0038997110764253E-002   5.1326629388471351E-002
   4.0061720335604761E-003  -1.3018355398489799E-002   4.8207842937473391E-002
   4.3401223165816516E-003  -1.6512172446892626E-002   4.5013134071272942E-002
   2.5712031795881787E-003  -4.9579671604833009E-003   5.9687423848028817E-002
   2.8460531831761091E-003  -6.5890535887773161E-003   5.6164794829950876E-002
   3.1209031867640118E-003  -8.6724556932300939E-003   5.2599887668210034E-002
   3.3957531903518606E-003  -1.1208173473841215E-002   4.8992702362806034E-002
   3.6706031939397893E-003  -1.4196206930611854E-002   4.5343238913738426E-002
   2.0489628598411580E-003  -4.2922775036197125E-003   6.2326695447016855E-002
   2.2983568555357825E-003  -5.6040095938375556E-003   5.8310522115971875E-002
   2.5477508512304070E-003  -7.3059142756954076E-003   5.4285714912803595E-002
   2.7971448469250315E-003  -9.3979915491936641E-003   5.0252273837511990E-002
   3.0465388426196283E-003  -1.1880241414330861E-002   4.6210198890096699E-002
   1.9557372926445493E-002  -1.2745370167885739E-002   7.8982017693989992E-002
   1.9711608124596991E-002  -1.0052016562783067E-002   7.3683217198419415E-002
   1.9865843322748461E-002  -8.0703491594091153E-003   6.9563602508856376E-002
   2.0020078520899917E-002  -6.8003679577639913E-003   6.6623173625300999E-002
   2.0174313719051415E-002  -6.2420729578475109E-003   6.4861930547753355E-002
   1.0470493785810830E-002  -5.7894146206586283E-003   6.8601661958349491E-002
   1.1508999133816936E-002  -5.1021610953168040E-003   6.5869240455089878E-002
   1.2547504481823027E-002  -4.6022057030331576E-003   6.3726173445531636E-002
   1.3586009829829125E-002  -4.2895484438077586E-003   6.2172460929675058E-002
   1.4624515177835223E-002  -4.1641893176403710E-003   6.1208102907520101E-002
   4.6944014610336912E-003   1.1665409265684545E-003   5.5953012108612629E-002
   6.0273456465883071E-003  -1.5230562785059631E-004   5.6311357666334438E-002
   7.3602898321429022E-003  -1.1340622466572622E-003   5.6669226405451835E-002
   8.6932340176975043E-003  -1.7787289298514444E-003   5.7026618325964659E-002
   1.0026178203252110E-002  -2.0863056774331756E-003   5.7383533427872863E-002
   2.2290959521140599E-003   8.1224964737955513E-003   4.1036068144779461E-002
   3.2666476629110829E-003   4.7975498396155974E-003   4.5009568832153637E-002
   4.3041993737080782E-003   2.3340812097186643E-003   4.8392761388617055E-002
   5.3417510845050866E-003   7.3209058410488460E-004   5.1185645814169949E-002
   6.3793027953020958E-003  -8.4220372259802279E-006   5.3388222108812090E-002
   3.0745772590519554E-003   1.5078452021022648E-002   2.3850830066850293E-002
   3.2269051827852613E-003   9.7474053070818190E-003   3.1963873952547239E-002
   3.3792331065185532E-003   5.8022246660946186E-003   3.8896778395027309E-002
   3.5315610302518556E-003   3.2429100980610262E-003   4.4649543394290753E-002
   3.6838889539851580E-003   2.0694616029812152E-003   4.9222168950337375E-002
   2.0174313719051415E-002  -6.2420729578475109E-003   6.4861930547753355E-002
   1.9738631402099957E-002  -6.0292613315469090E-003   6.4044978622864540E-002
   1.9302949085148520E-002  -5.7957302507488373E-003   6.3462537965720184E-002
   1.8867266768197079E-002  -5.5414797154537607E-003   6.3114608576320286E-002
   1.8431584451245625E-002  -5.2665097256611726E-003   6.3001190454664902E-002
   1.4624515177835223E-002  -4.1641893176403710E-003   6.1208102907520101E-002
   1.4358659771334097E-002  -4.1148622529265100E-003   6.1305904924294358E-002
   1.4092804364832977E-002  -4.0303011780615031E-003   6.1508849494224888E-002
   1.3826948958331847E-002  -3.9105060930453659E-003   6.1816936617311510E-002
   1.3561093551830730E-002  -3.7554769978779268E-003   6.2230166293554323E-002
   1.0026178203252110E-002  -2.0863056774331756E-003   5.7383533427872863E-002
   9.8007809926129938E-003  -2.2004631743061664E-003   5.8410603941964283E-002
   9.5753837819738726E-003  -2.2648721053741133E-003   5.9413448294623583E-002
   9.3499865713347514E-003  -2.2795324706369711E-003   6.0392066485850625E-002
   9.1245893606956355E-003  -2.2444442700947087E-003   6.1346458515645574E-002
   6.3793027953020958E-003  -8.4220372259802279E-006   5.3388222108812090E-002
   6.0649950659366599E-003  -2.8606409568579516E-004   5.5359075675874343E-002
   5.7506873365712197E-003  -4.9944303268666806E-004   5.7176334366916270E-002
   5.4363796072057846E-003  -6.4855884822860414E-004   5.8839998181937622E-002
   5.1220718778403496E-003  -7.3341154231144901E-004   6.0350067120938600E-002
   3.6838889539851580E-003   2.0694616029812152E-003   4.9222168950337375E-002
   3.1513019913050888E-003   1.6283349829345484E-003   5.2151320126024553E-002
   2.6187150286250231E-003   1.2659860400006384E-003   5.4797507711102950E-002
   2.0861280659449540E-003   9.8241477417985307E-004   5.7160731705572634E-002
   1.5535411032648883E-003   7.7762118547181069E-004   5.9240992109433455E-002
   1.8431584451245625E-002  -5.2665097256611726E-003   6.3001190454664902E-002
   1.7568127128057415E-002  -4.9903122061451533E-003   6.2402400608970565E-002
   1.6704669804869163E-002  -4.7323790816791167E-003   6.2106761426427293E-002
   1.5841212481680932E-002  -4.4927103522632295E-003   6.2114272907035417E-002
   1.4977755158492700E-002  -4.2713060178973250E-003   6.2424935050794550E-002
   1.3561093551830730E-002  -3.7554769978779268E-003   6.2230166293554323E-002
   1.2966368693198553E-002  -3.5828273424867163E-003   6.2021816315167760E-002
   1.2371643834566369E-002  -3.4101705767987656E-003   6.2047780602742131E-002
   1.1776918975934188E-002  -3.2375067008139219E-003   6.2308059156277226E-002
   1.1182194117302008E-002  -3.0648357145325877E-003   6.2802651975773283E-002
   9.1245893606956355E-003  -2.2444442700947087E-003   6.1346458515645574E-002
   8.7297605694291250E-003  -2.1753424788282516E-003   6.1546819909913758E-002
   8.3349317781626180E-003  -2.0879620719181924E-003   6.1912659172952383E-002
   7.9401029868961127E-003  -1.9823030493647809E-003   6.2443976304761520E-002
   7.5452741956296004E-003  -1.8583654111678782E-003   6.3140771305341195E-002
   5.1220718778403496E-003  -7.3341154231144901E-004   6.0350067120938600E-002
   4.8583027567491322E-003  -7.6785761516977302E-004   6.0977411393208225E-002
   4.5945336356579105E-003  -7.6575356703789677E-004   6.1701397137057953E-002
   4.3307645145666922E-003  -7.2709939791572309E-004   6.2522024352487868E-002
   4.0669953934754713E-003  -6.5189510780309934E-004   6.3439293039497746E-002
   1.5535411032648883E-003   7.7762118547181069E-004   5.9240992109433455E-002
   1.3519952551585730E-003   6.3962724848867780E-004   6.0313590765051328E-002
   1.1504494070522543E-003   5.5645493784282907E-004   6.1413994495058938E-002
   9.4890355894593735E-004   5.2810425353360876E-004   6.2542203299456242E-002
   7.4735771083962038E-004   5.5457519556156853E-004   6.3698217178243199E-002
   1.4977755158492700E-002  -4.2713060178973250E-003   6.2424935050794550E-002
   1.4132633736121891E-002  -4.0354830385225249E-003   6.2267238230032718E-002
   1.3287512313751110E-002  -3.7525583740797702E-003   6.2299395819017805E-002
   1.2442390891380301E-002  -3.4225320245688910E-003   6.2521407817750355E-002
   1.1597269469009519E-002  -3.0454039899902030E-003   6.2933274226229963E-002
   1.1182194117302008E-002  -3.0648357145325877E-003   6.2802651975773283E-002
   1.0529587133677264E-002  -2.8847046005650301E-003   6.2837263718600406E-002
   9.8769801500525056E-003  -2.6896603415214326E-003   6.3067049929172558E-002
   9.2243731664277615E-003  -2.4797029374019133E-003   6.3492010607489491E-002
   8.5717661828030173E-003  -2.2548323882066179E-003   6.4112145753551231E-002
   7.5452741956296004E-003  -1.8583654111678782E-003   6.3140771305341195E-002
   7.0905017087486144E-003  -1.7339261626073688E-003   6.3335503071765276E-002
   6.6357292218676249E-003  -1.6267623089630465E-003   6.3730729363932037E-002
   6.1809567349866354E-003  -1.5368738502348264E-003   6.4326450181841202E-002
   5.7261842481056494E-003  -1.4642607864230883E-003   6.5122665525493284E-002
   4.0669953934754713E-003  -6.5189510780309934E-004   6.3439293039497746E-002
   3.8153774613359642E-003  -5.8314772464984621E-004   6.3761956289526661E-002
   3.5637595291964528E-003  -5.6386427640468459E-004   6.4290434123295964E-002
   3.3121415970569432E-003  -5.9404476306779402E-004   6.5024726540805600E-002
   3.0605236649174413E-003  -6.7368918463936445E-004   6.5964833542055526E-002
   7.4735771083962038E-004   5.5457519556156853E-004   6.3698217178243199E-002
   7.0421439143930620E-004   5.6763071330784287E-004   6.4116623371885062E-002
   6.6107107203898854E-004   4.9903375615359402E-004   6.4746164207264811E-002
   6.1792775263866916E-004   3.4878432409932852E-004   6.5586839684382753E-002
   5.7478443323835671E-004   1.1688241714413738E-004   6.6638649803238525E-002
   1.1597269469009519E-002  -3.0454039899902030E-003   6.2933274226229963E-002
   1.0678334913183124E-002  -2.6688022741858664E-003   6.2735947270969816E-002
   9.7594003573567290E-003  -2.3403548809980967E-003   6.2828449731875347E-002
   8.8404658015303339E-003  -2.0600618104268248E-003   6.3210781608946387E-002
   7.9215312457039389E-003  -1.8279230624727028E-003   6.3882942902183104E-002
   8.5717661828030173E-003  -2.2548323882066179E-003   6.4112145753551231E-002
   7.9211726800909044E-003  -2.0287864867390426E-003   6.4042893405174939E-002
   7.2705791773787914E-003  -1.8153030258029751E-003   6.4220493746861729E-002
   6.6199856746666889E-003  -1.6143820053982523E-003   6.4644946778611018E-002
   5.9693921719545795E-003  -1.4260234255247806E-003   6.5316252500423888E-002
   5.7261842481056494E-003  -1.4642607864230883E-003   6.5122665525493284E-002
   5.3009550724051578E-003  -1.3887706992923299E-003   6.5217079666085934E-002
   4.8757258967046732E-003  -1.2902511706076314E-003   6.5515369770638932E-002
   4.4504967210041851E-003  -1.1687022003691802E-003   6.6017535839152194E-002
   4.0252675453036971E-003  -1.0241237885767474E-003   6.6723577871625722E-002
   3.0605236649174413E-003  -6.7368918463936445E-004   6.5964833542055526E-002
   2.8176820901258948E-003  -7.4875491184556164E-004   6.6258506053702620E-002
   2.5748405153343500E-003  -7.6519931541245423E-004   6.6713077803207566E-002
   2.3319989405428147E-003  -7.2302239534035792E-004   6.7328548790569639E-002
   2.0891573657512725E-003  -6.2222415162882516E-004   6.8104919015789800E-002
   5.7478443323835671E-004   1.1688241714413738E-004   6.6638649803238525E-002
   4.7135373325309787E-004  -1.0873912439868239E-004   6.7167172568025291E-002
   3.6792303326783904E-004  -2.4014746021708278E-004   6.7813617844566909E-002
   2.6449233328258021E-004  -2.7734259031134828E-004   6.8577985632863381E-002
   1.6106163329732137E-004  -2.2032451468090297E-004   6.9460275932914928E-002
   7.9215312457039389E-003  -1.8279230624727028E-003   6.3882942902183104E-002
   6.9851472056170899E-003  -1.6660937374585183E-003   6.3887122126895513E-002
   6.0487631655302271E-003  -1.5967289357091408E-003   6.4116550174956322E-002
   5.1123791254433712E-003  -1.6198286572230644E-003   6.4571227046365087E-002
   4.1759950853565153E-003  -1.7353929020020864E-003   6.5251152741122143E-002
   5.9693921719545795E-003  -1.4260234255247806E-003   6.5316252500423888E-002
   5.2587521052125108E-003  -1.2822434008691319E-003   6.5244411725647045E-002
   4.5481120384704421E-003  -1.2150580461183225E-003   6.5398810074211333E-002
   3.8374719717283977E-003  -1.2244673612713253E-003   6.5779447546117226E-002
   3.1268319049863186E-003  -1.3104713463294448E-003   6.6386324141364417E-002
   4.0252675453036971E-003  -1.0241237885767474E-003   6.6723577871625722E-002
   3.5413617518995841E-003  -8.9839306427969001E-004   6.6591586950719484E-002
   3.0574559584954746E-003  -8.3338715652751805E-004   6.6686825453147566E-002
   2.5735501650913737E-003  -8.2910606531981165E-004   6.7009293378910373E-002
   2.0896443716872659E-003  -8.8554979065680328E-004   6.7558990728007556E-002
   2.0891573657512725E-003  -6.2222415162882516E-004   6.8104919015789800E-002
   1.8329761456782976E-003  -5.1454272769010934E-004   6.7928647802113606E-002
   1.5767949256053218E-003  -4.5171626693676220E-004   6.7980596311765173E-002
   1.3206137055323535E-003  -4.3374476936807425E-004   6.8260764544744432E-002
   1.0644324854593712E-003  -4.6062823498416172E-004   6.8769152501051534E-002
   1.6106163329732137E-004  -2.2032451468090297E-004   6.9460275932914928E-002
   1.3359528654865310E-004  -1.3069239110097275E-004   6.9255594279828858E-002
   1.0612893979998136E-004  -7.0045377345950843E-005   6.9280122650063780E-002
   7.8662593051309626E-005  -3.8383473416350733E-005   6.9533861043619472E-002
   5.1196246302641357E-005  -3.5706679311520162E-005   7.0016809460496043E-002
   4.1759950853565153E-003  -1.7353929020020864E-003   6.5251152741122143E-002
   3.6442370289776760E-003  -2.0165455694110546E-003   6.4336907345068695E-002
   3.1124789725988367E-003  -2.5364105588176200E-003   6.3544749330699923E-002
   2.5807209162199973E-003  -3.2949878702197358E-003   6.2874678698015968E-002
   2.0489628598411580E-003  -4.2922775036197125E-003   6.2326695447016855E-002
   3.1268319049863186E-003  -1.3104713463294448E-003   6.6386324141364417E-002
   2.7193564612745524E-003  -1.5235833526947573E-003   6.5278082776010771E-002
   2.3118810175627932E-003  -1.9143167317698384E-003   6.4296319254306317E-002
   1.9044055738510202E-003  -2.4826714835550073E-003   6.3441033576251180E-002
   1.4969301301392679E-003  -3.2286476080503057E-003   6.2712225741844985E-002
   2.0896443716872659E-003  -8.8554979065680328E-004   6.7558990728007556E-002
   1.8108420026069216E-003  -1.0306211359777662E-003   6.6317844342640597E-002
   1.5320396335265843E-003  -1.2922229047221540E-003   6.5207566262887193E-002
   1.2532372644462365E-003  -1.6703550968897203E-003   6.4228156488747329E-002
   9.7443489536590266E-004  -2.1650177124808434E-003   6.3379615020221131E-002
   1.0644324854593712E-003  -4.6062823498416172E-004   6.8769152501051534E-002
   9.1869365297480091E-004  -5.3765891926112197E-004   6.7456192044957994E-002
   7.7295482049024450E-004  -6.7012907767453195E-004   6.6278490356441969E-002
   6.2721598800567074E-004  -8.5803871022471258E-004   6.5236047435504041E-002
   4.8147715552110393E-004  -1.1013878169116309E-003   6.4328863282144128E-002
   5.1196246302641357E-005  -3.5706679311520162E-005   7.0016809460496043E-002
   4.2911412378200675E-005  -4.4696702544477773E-005   6.8693125882962502E-002
   3.4626578453756524E-005  -4.8035250626771164E-005   6.7509091534971088E-002
   2.6341744529319311E-005  -4.5722323559559130E-005   6.6464706416522218E-002
   1.8056910604871690E-005  -3.7757921341863288E-005   6.5559970527615641E-002
   2.0489628598411580E-003  -4.2922775036197125E-003   6.2326695447016855E-002
   2.2983568555357825E-003  -5.6040095938375556E-003   5.8310522115971875E-002
   2.5477508512304070E-003  -7.3059142756954076E-003   5.4285714912803595E-002
   2.7971448469250315E-003  -9.3979915491936641E-003   5.0252273837511990E-002
   3.0465388426196283E-003  -1.1880241414330861E-002   4.6210198890096699E-002
   1.4969301301392679E-003  -3.2286476080503057E-003   6.2712225741844985E-002
   1.7241345160251137E-003  -4.2106424579696489E-003   5.8369739833153966E-002
   1.9513389019109595E-003  -5.4870533860272852E-003   5.3991508576968772E-002
   2.1785432877967983E-003  -7.0578803922234645E-003   4.9577531973289291E-002
   2.4057476736826511E-003  -8.9231234765576595E-003   4.5127810022114856E-002
   9.7443489536590266E-004  -2.1650177124808434E-003   6.3379615020221131E-002
   1.1523381960719808E-003  -2.8172753221017977E-003   5.8806573047385513E-002
   1.3302414967780521E-003  -3.6681924963591489E-003   5.4170674251684800E-002
   1.5081447974841372E-003  -4.7177692352535390E-003   4.9471918633118568E-002
   1.6860480981902015E-003  -5.9660055387840139E-003   4.4710306191687255E-002
   4.8147715552110393E-004  -1.1013878169116309E-003   6.4328863282144128E-002
   5.8296789567640478E-004  -1.4239081862340297E-003   5.9621021758666237E-002
   6.8445863583171951E-004  -1.8493316066911306E-003   5.4823211936951929E-002
   7.8594937598700301E-004  -2.3776580782832544E-003   4.9935433817001502E-002
   8.8744011614232121E-004  -3.0088876010107013E-003   4.4957687398814367E-002
   1.8056910604871690E-005  -3.7757921341863288E-005   6.5559970527615641E-002
   1.6023614838399369E-005  -3.0541050365928690E-005   6.0813085966996416E-002
   1.3990319071920110E-005  -3.0470717022973437E-005   5.5949121632770271E-002
   1.1957023305447789E-005  -3.7546921313823256E-005   5.0968077524935956E-002
   9.9237275389685298E-006  -5.1769663237166696E-005   4.5869953643495887E-002
   3.0745772590519554E-003   1.5078452021022648E-002   2.3850830066850293E-002
   3.2269051827852613E-003   9.7474053070818190E-003   3.1963873952547239E-002
   3.3792331065185532E-003   5.8022246660946186E-003   3.8896778395027309E-002
   3.5315610302518556E-003   3.2429100980610262E-003   4.4649543394290753E-002
   3.6838889539851580E-003   2.0694616029812152E-003   4.9222168950337375E-002
   3.2412192870060544E-003   8.1975241708671653E-003   4.2848354919644699E-002
   2.5344766286809726E-003   5.6085271557660410E-003   4.7653924845696832E-002
   1.8277339703559221E-003   3.7135091737554304E-003   5.1921493050849130E-002
   1.1209913120308578E-003   2.5124702248349590E-003   5.5651059535101251E-002
   4.1424865370579336E-004   2.0054103090049458E-003   5.8842624298453577E-002
  -1.2606040588649461E-003   1.3165963207115716E-003   6.4933872991210589E-002
  -2.1842795769315936E-003   1.4696490044503324E-003   6.5740081917754711E-002
  -3.1079550949982280E-003   1.6247936814161174E-003   6.6650426845715621E-002
  -4.0316306130648762E-003   1.7820303516088605E-003   6.7664907775093430E-002
  -4.9553061311315098E-003   1.9413590150286486E-003   6.8783524705887916E-002
  -1.0430892778561041E-002  -5.5643315294439943E-003   9.0107384281547798E-002
  -1.0929363434052496E-002  -2.6692291468654109E-003   8.6222345168720640E-002
  -1.1427834089543908E-002  -4.6392181092318879E-004   8.3083579779626937E-002
  -1.1926304745035343E-002   1.0515904783827499E-003   8.0691088114266923E-002
  -1.2424775400526776E-002   1.8773077210523376E-003   7.9044870172640586E-002
  -2.4269646872082232E-002  -1.2445259379599505E-002  0.11836888879065655     
  -2.3700774942681677E-002  -6.8081072981811819E-003  0.10910071459859472     
  -2.3131903013281101E-002  -2.5526373032624394E-003  0.10122095185258312     
  -2.2563031083880535E-002   3.2115060515665317E-004   9.4729600552621973E-002
  -2.1994159154479970E-002   1.8132564270760820E-003   8.9626660698711336E-002
   3.6838889539851580E-003   2.0694616029812152E-003   4.9222168950337375E-002
   3.1513019913050888E-003   1.6283349829345484E-003   5.2151320126024553E-002
   2.6187150286250231E-003   1.2659860400006384E-003   5.4797507711102950E-002
   2.0861280659449540E-003   9.8241477417985307E-004   5.7160731705572634E-002
   1.5535411032648883E-003   7.7762118547181069E-004   5.9240992109433455E-002
   4.1424865370579336E-004   2.0054103090049458E-003   5.8842624298453577E-002
  -2.5139687437185018E-004   1.8486935068449534E-003   5.9864508450475404E-002
  -9.1704240244948679E-004   1.6986838989346761E-003   6.0903239062310807E-002
  -1.5826879305271251E-003   1.5553814852743968E-003   6.1958816133959919E-002
  -2.2483334586047600E-003   1.4187862658638362E-003   6.3031239665422650E-002
  -4.9553061311315098E-003   1.9413590150286486E-003   6.8783524705887916E-002
  -5.4542001741842939E-003   2.0690520307552890E-003   6.7826071351381328E-002
  -5.9530942172370703E-003   2.1313817578686584E-003   6.7185274507110843E-002
  -6.4519882602898397E-003   2.1283481963689406E-003   6.6861134173076292E-002
  -6.9508823033426308E-003   2.0599513462557784E-003   6.6853650349278079E-002
  -1.2424775400526776E-002   1.8773077210523376E-003   7.9044870172640586E-002
  -1.2457107908132252E-002   2.2894105546657148E-003   7.6036008828742452E-002
  -1.2489440415737732E-002   2.5640796168026406E-003   7.3643614045502792E-002
  -1.2521772923343199E-002   2.7013149074634289E-003   7.1867685822921731E-002
  -1.2554105430948682E-002   2.7011164266477344E-003   7.0708224160999034E-002
  -2.1994159154479970E-002   1.8132564270760820E-003   8.9626660698711336E-002
  -2.1260120076215708E-002   2.5097690785760018E-003   8.4494320882558649E-002
  -2.0526080997951460E-002   2.9967774757366783E-003   8.0278257677486864E-002
  -1.9792041919687212E-002   3.2742816185580004E-003   7.6978471083496092E-002
  -1.9058002841422950E-002   3.3422815070397460E-003   7.4594961100586221E-002
   1.5535411032648883E-003   7.7762118547181069E-004   5.9240992109433455E-002
   1.3519952551585730E-003   6.3962724848867780E-004   6.0313590765051328E-002
   1.1504494070522543E-003   5.5645493784282907E-004   6.1413994495058938E-002
   9.4890355894593735E-004   5.2810425353360876E-004   6.2542203299456242E-002
   7.4735771083962038E-004   5.5457519556156853E-004   6.3698217178243199E-002
  -2.2483334586047600E-003   1.4187862658638362E-003   6.3031239665422650E-002
  -2.3609437833720711E-003   1.3009640352251717E-003   6.3307124691937278E-002
  -2.4735541081393839E-003   1.2139805878807336E-003   6.3733075690740146E-002
  -2.5861644329066820E-003   1.1578359238301299E-003   6.4309092661831296E-002
  -2.6987747576740009E-003   1.1325300430737872E-003   6.5035175605210938E-002
  -6.9508823033426308E-003   2.0599513462557784E-003   6.6853650349278079E-002
  -6.8522962068723195E-003   1.9623008219616517E-003   6.6308838903646208E-002
  -6.7537101104020161E-003   1.8715062379187006E-003   6.6036354328201430E-002
  -6.6551240139317049E-003   1.7875675941268748E-003   6.6036196622943563E-002
  -6.5565379174614014E-003   1.7104848905862280E-003   6.6308365787872414E-002
  -1.2554105430948682E-002   2.7011164266477344E-003   7.0708224160999034E-002
  -1.2122062015342164E-002   2.6236376086981664E-003   6.9318733400178245E-002
  -1.1690018599735650E-002   2.5290318879566363E-003   6.8323830407442762E-002
  -1.1257975184129123E-002   2.4172992644235633E-003   6.7723515182792973E-002
  -1.0825931768522621E-002   2.2884397380986132E-003   6.7517787726228573E-002
  -1.9058002841422950E-002   3.3422815070397460E-003   7.4594961100586221E-002
  -1.8170241208781614E-002   3.2849743954346255E-003   7.2336808181533208E-002
  -1.7282479576140285E-002   3.1865575379945998E-003   7.0595503928464254E-002
  -1.6394717943498956E-002   3.0470309347202032E-003   6.9371048341379360E-002
  -1.5506956310857620E-002   2.8663945856108874E-003   6.8663441420278803E-002
   7.4735771083962038E-004   5.5457519556156853E-004   6.3698217178243199E-002
   7.0421439143930620E-004   5.6763071330784287E-004   6.4116623371885062E-002
   6.6107107203898854E-004   4.9903375615359402E-004   6.4746164207264811E-002
   6.1792775263866916E-004   3.4878432409932852E-004   6.5586839684382753E-002
   5.7478443323835671E-004   1.1688241714413738E-004   6.6638649803238525E-002
  -2.6987747576740009E-003   1.1325300430737872E-003   6.5035175605210938E-002
  -2.5249146288772936E-003   1.1006333187125183E-003   6.4984983441335520E-002
  -2.3510545000805898E-003   1.0247161238470803E-003   6.5157663532116078E-002
  -2.1771943712838946E-003   9.0477845847754257E-004   6.5553215877552654E-002
  -2.0033342424871786E-003   7.4082032260380792E-004   6.6171640477645177E-002
  -6.5565379174614014E-003   1.7104848905862280E-003   6.6308365787872414E-002
  -6.1539367275497657E-003   1.6336359241172771E-003   6.5827207270876403E-002
  -5.7513355376381152E-003   1.5503984915404417E-003   6.5580658621454138E-002
  -5.3487343477264786E-003   1.4607725928558642E-003   6.5568719839605771E-002
  -4.9461331578148290E-003   1.3647582280634230E-003   6.5791390925331400E-002
  -1.0825931768522621E-002   2.2884397380986132E-003   6.7517787726228573E-002
  -1.0182851904578108E-002   2.1666385295220497E-003   6.6643294860507810E-002
  -9.5397720406335904E-003   2.0760808592338101E-003   6.6015149475278992E-002
  -8.8966921766890812E-003   2.0167667272341875E-003   6.5633351570541940E-002
  -8.2536123127445581E-003   1.9886961335228992E-003   6.5497901146296666E-002
  -1.5506956310857620E-002   2.8663945856108874E-003   6.8663441420278803E-002
  -1.4611660159962306E-002   2.6996411349266558E-003   6.7433246210229780E-002
  -1.3716364009067013E-002   2.6017632269272617E-003   6.6461136093590556E-002
  -1.2821067858171716E-002   2.5727608616125039E-003   6.5747111070361186E-002
  -1.1925771707276406E-002   2.6126340389825975E-003   6.5291171140541393E-002
   5.7478443323835671E-004   1.1688241714413738E-004   6.6638649803238525E-002
   4.7135373325309787E-004  -1.0873912439868239E-004   6.7167172568025291E-002
   3.6792303326783904E-004  -2.4014746021708278E-004   6.7813617844566909E-002
   2.6449233328258021E-004  -2.7734259031134828E-004   6.8577985632863381E-002
   1.6106163329732137E-004  -2.2032451468090297E-004   6.9460275932914928E-002
  -2.0033342424871786E-003   7.4082032260380792E-004   6.6171640477645177E-002
  -1.9500037128789664E-003   5.7654848667187952E-004   6.6443124858724445E-002
  -1.8966731832707334E-003   4.5566972112820459E-004   6.6910209187235892E-002
  -1.8433426536625074E-003   3.7818402597256107E-004   6.7572893463179406E-002
  -1.7900121240542882E-003   3.4409140120472692E-004   6.8431177686554545E-002
  -4.9461331578148290E-003   1.3647582280634230E-003   6.5791390925331400E-002
  -4.6583639629360386E-003   1.2618360977427190E-003   6.5755016787366838E-002
  -4.3705947680572482E-003   1.1514869024736168E-003   6.5991920032511517E-002
  -4.0828255731784439E-003   1.0337106422560853E-003   6.6502100660765145E-002
  -3.7950563782996535E-003   9.0850731709019028E-004   6.7285558672127987E-002
  -8.2536123127445581E-003   1.9886961335228992E-003   6.5497901146296666E-002
  -7.6537270169181274E-003   1.9471237088131976E-003   6.5102848353951942E-002
  -7.0538417210916846E-003   1.8473040838190777E-003   6.5058750380393479E-002
  -6.4539564252652486E-003   1.6892372585395801E-003   6.5365607225621167E-002
  -5.8540711294388110E-003   1.4729232329755149E-003   6.6023418889635102E-002
  -1.1925771707276406E-002   2.6126340389825975E-003   6.5291171140541393E-002
  -1.0936092874825241E-002   2.6324113198840093E-003   6.4486619558480229E-002
  -9.9464140423740632E-003   2.5431212651643442E-003   6.4110700230882056E-002
  -8.9567352099228989E-003   2.3447638748233593E-003   6.4163413157747179E-002
  -7.9670563774717207E-003   2.0373391488612835E-003   6.4644758339075681E-002
   1.6106163329732137E-004  -2.2032451468090297E-004   6.9460275932914928E-002
   1.3359528654865310E-004  -1.3069239110097275E-004   6.9255594279828858E-002
   1.0612893979998136E-004  -7.0045377345950843E-005   6.9280122650063780E-002
   7.8662593051309626E-005  -3.8383473416350733E-005   6.9533861043619472E-002
   5.1196246302641357E-005  -3.5706679311520162E-005   7.0016809460496043E-002
  -1.7900121240542882E-003   3.4409140120472692E-004   6.8431177686554545E-002
  -1.5842483514755500E-003   3.3814570632412222E-004   6.8168503472362141E-002
  -1.3784845788968290E-003   3.4510080083033357E-004   6.8143079473503620E-002
  -1.1727208063181012E-003   3.6495668472318055E-004   6.8354905689978845E-002
  -9.6695703373936986E-004   3.9771335800287133E-004   6.8803982121788176E-002
  -3.7950563782996535E-003   9.0850731709019028E-004   6.7285558672127987E-002
  -3.3480222943805156E-003   8.0698380374905065E-004   6.7006777796040917E-002
  -2.9009882104613777E-003   7.6024697900664573E-004   6.6973287327300596E-002
  -2.4539541265422467E-003   7.6829684286249672E-004   6.7185087265907259E-002
  -2.0069200426231018E-003   8.3113339531715180E-004   6.7642177611860671E-002
  -5.8540711294388110E-003   1.4729232329755149E-003   6.6023418889635102E-002
  -5.1577265421662430E-003   1.2758219011742844E-003   6.5770417250865007E-002
  -4.4613819548936819E-003   1.1753931571829995E-003   6.5770746211454817E-002
  -3.7650373676211069E-003   1.1716370010020315E-003   6.6024405771404532E-002
  -3.0686927803485527E-003   1.2645534326313768E-003   6.6531395930714193E-002
  -7.9670563774717207E-003   2.0373391488612835E-003   6.4644758339075681E-002
  -7.0133610948327138E-003   1.7446599985991851E-003   6.4459421836834396E-002
  -6.0596658121937243E-003   1.5905393353591868E-003   6.4535456125966284E-002
  -5.1059705295547278E-003   1.5749771591413303E-003   6.4872861206470955E-002
  -4.1522752469157279E-003   1.6979734699458238E-003   6.5471637078348577E-002
   5.1196246302641357E-005  -3.5706679311520162E-005   7.0016809460496043E-002
   4.2911412378200675E-005  -4.4696702544477773E-005   6.8693125882962502E-002
   3.4626578453756524E-005  -4.8035250626771164E-005   6.7509091534971088E-002
   2.6341744529319311E-005  -4.5722323559559130E-005   6.6464706416522218E-002
   1.8056910604871690E-005  -3.7757921341863288E-005   6.5559970527615641E-002
  -9.6695703373936986E-004   3.9771335800287133E-004   6.8803982121788176E-002
  -8.3695861576054201E-004   4.6721673330663016E-004   6.7490244882679518E-002
  -7.0696019778170721E-004   5.9731272327234741E-004   6.6313424917835484E-002
  -5.7696177980287588E-004   7.8800132789913491E-004   6.5273522227255409E-002
  -4.4696336182404456E-004   1.0392825471876588E-003   6.4370536810939627E-002
  -2.0069200426231018E-003   8.3113339531715180E-004   6.7642177611860671E-002
  -1.7413703280190554E-003   9.7913016915740503E-004   6.6393327850689021E-002
  -1.4758206134150020E-003   1.2426606971710080E-003   6.5278663408503454E-002
  -1.2102708988109522E-003   1.6217249793576034E-003   6.4298184285304205E-002
  -9.4472118420690226E-004   2.1163230157177915E-003   6.3451890481090872E-002
  -3.0686927803485527E-003   1.2645534326313768E-003   6.6531395930714193E-002
  -2.6703237243973308E-003   1.4910436050082909E-003   6.5402374786990902E-002
  -2.2719546684461158E-003   1.8880086710700641E-003   6.4404807006975401E-002
  -1.8735856124948973E-003   2.4554486308165178E-003   6.3538692590668300E-002
  -1.4752165565436789E-003   3.1933634842476188E-003   6.2804031538069183E-002
  -4.1522752469157279E-003   1.6979734699458238E-003   6.5471637078348577E-002
  -3.6238188048953943E-003   2.0029570408593433E-003   6.4517385691584939E-002
  -3.0953623628750641E-003   2.5333566449690093E-003   6.3691855713251311E-002
  -2.5669059208547236E-003   3.2891722822748215E-003   6.2995047143347971E-002
  -2.0384494788344004E-003   4.2704039527776683E-003   6.2426959981874530E-002
   1.8056910604871690E-005  -3.7757921341863288E-005   6.5559970527615641E-002
   1.6023614838399369E-005  -3.0541050365928690E-005   6.0813085966996416E-002
   1.3990319071920110E-005  -3.0470717022973437E-005   5.5949121632770271E-002
   1.1957023305447789E-005  -3.7546921313823256E-005   5.0968077524935956E-002
   9.9237275389685298E-006  -5.1769663237166696E-005   4.5869953643495887E-002
  -4.4696336182404456E-004   1.0392825471876588E-003   6.4370536810939627E-002
  -5.5210186350422574E-004   1.3677579391266348E-003   5.9648213864562927E-002
  -6.5724036518440346E-004   1.7900290617040016E-003   5.4836760279965868E-002
  -7.6237886686457250E-004   2.3060959149192317E-003   4.9936176057149256E-002
  -8.6751736854476236E-004   2.9159584987734632E-003   4.4946461196111676E-002
  -9.4472118420690226E-004   2.1163230157177915E-003   6.3451890481090872E-002
  -1.1250157564136193E-003   2.7660569286192538E-003   5.8855071417227817E-002
  -1.3053103286203432E-003   3.6105288404308516E-003   5.4197070850531673E-002
  -1.4856049008270672E-003   4.6497387511523942E-003   4.9477888781002531E-002
  -1.6658994730337981E-003   5.8836866607836491E-003   4.4697525208640787E-002
  -1.4752165565436789E-003   3.1933634842476188E-003   6.2804031538069183E-002
  -1.7027180638897899E-003   4.1643559181120671E-003   5.8433658624991475E-002
  -1.9302195712359079E-003   5.4310286191579862E-003   5.4030053344467907E-002
  -2.1577210785820016E-003   6.9933815873855030E-003   4.9593215696498570E-002
  -2.3852225859281231E-003   8.8514148227941680E-003   4.5123145681083471E-002
  -2.0384494788344004E-003   4.2704039527776683E-003   6.2426959981874530E-002
  -2.2852087859327394E-003   5.5626549076045473E-003   5.8383975487853679E-002
  -2.5319680930310715E-003   7.2515283978848433E-003   5.4335707761774210E-002
  -2.7787274001294018E-003   9.3370244236184313E-003   5.0282156803635902E-002
  -3.0254867072277425E-003   1.1819142984804465E-002   4.6223322613438977E-002
  -2.4269646872082232E-002  -1.2445259379599505E-002  0.11836888879065655     
  -2.3700774942681677E-002  -6.8081072981811819E-003  0.10910071459859472     
  -2.3131903013281101E-002  -2.5526373032624394E-003  0.10122095185258312     
  -2.2563031083880535E-002   3.2115060515665317E-004   9.4729600552621973E-002
  -2.1994159154479970E-002   1.8132564270760820E-003   8.9626660698711336E-002
  -3.7861724814066765E-002  -5.2379351075976244E-004   9.2102579520810524E-002
  -3.6241427824421489E-002   1.9213601159734361E-003   8.6664171498908316E-002
  -3.4621130834776206E-002   3.7580655873401397E-003   8.1940202151445152E-002
  -3.3000833845130952E-002   4.9863229033404143E-003   7.7930671478420990E-002
  -3.1380536855485648E-002   5.6061320639742007E-003   7.4635579479835956E-002
  -4.6291985079152900E-002   1.1397672358080035E-002   6.2257654830712800E-002
  -4.4294235800874285E-002   1.0650827530128054E-002   6.1422246910103520E-002
  -4.2296486522595642E-002   1.0068768477942774E-002   6.0627304892321793E-002
  -4.0298737244317019E-002   9.6514952015241753E-003   5.9872828777367770E-002
  -3.8300987966038411E-002   9.3990077008723194E-003   5.9158818565241411E-002
  -4.9560427667340673E-002   2.3319138226919778E-002   2.8834114720363402E-002
  -4.7859198872040022E-002   1.9380294944282714E-002   3.3374940832180067E-002
  -4.6157970076739434E-002   1.6379471368545326E-002   3.7282260075213063E-002
  -4.4456741281438797E-002   1.4316667499707936E-002   4.0556072449462272E-002
  -4.2755512486138160E-002   1.3191883337770494E-002   4.3196377954927846E-002
  -4.7667052578629993E-002   3.5240604095759576E-002  -8.1680408102378088E-003
  -4.6936317037918757E-002   2.8109762358437290E-002   2.5222532651380525E-003
  -4.6205581497207493E-002   2.2690174259148016E-002   1.1905067700118788E-002
  -4.5474845956496243E-002   1.8981839797891732E-002   1.9980402494704591E-002
  -4.4744110415784979E-002   1.6984758974668557E-002   2.6748257648895213E-002
  -2.1994159154479970E-002   1.8132564270760820E-003   8.9626660698711336E-002
  -2.1260120076215708E-002   2.5097690785760018E-003   8.4494320882558649E-002
  -2.0526080997951460E-002   2.9967774757366783E-003   8.0278257677486864E-002
  -1.9792041919687212E-002   3.2742816185580004E-003   7.6978471083496092E-002
  -1.9058002841422950E-002   3.3422815070397460E-003   7.4594961100586221E-002
  -3.1380536855485648E-002   5.6061320639742007E-003   7.4635579479835956E-002
  -2.9911956451803681E-002   5.8565718595630367E-003   7.1617533553941515E-002
  -2.8443376048121739E-002   5.9767210804281545E-003   6.9152293667801470E-002
  -2.6974795644439768E-002   5.9665797265699219E-003   6.7239859821415948E-002
  -2.5506215240757805E-002   5.8261477979879572E-003   6.5880232014784823E-002
  -3.8300987966038411E-002   9.3990077008723194E-003   5.9158818565241411E-002
  -3.6461336808265209E-002   9.2033746405498634E-003   5.8334280209220976E-002
  -3.4621685650492000E-002   8.9566646851198528E-003   5.7699077321628614E-002
  -3.2782034492718798E-002   8.6588778345817324E-003   5.7253209902464228E-002
  -3.0942383334945589E-002   8.3100140889360574E-003   5.6996677951727748E-002
  -4.2755512486138160E-002   1.3191883337770494E-002   4.3196377954927846E-002
  -4.0908261145600207E-002   1.2550177421536766E-002   4.4644560848397304E-002
  -3.9061009805062261E-002   1.1936608289811329E-002   4.5918608638968218E-002
  -3.7213758464524314E-002   1.1351175942593765E-002   4.7018521326640701E-002
  -3.5366507123986368E-002   1.0793880379884185E-002   4.7944298911414628E-002
  -4.4744110415784979E-002   1.6984758974668557E-002   2.6748257648895213E-002
  -4.3252729463808759E-002   1.5896980202523670E-002   3.0548375471470268E-002
  -4.1761348511832531E-002   1.4916551894503041E-002   3.3810887619820373E-002
  -4.0269967559856304E-002   1.4043474050605607E-002   3.6535794093945445E-002
  -3.8778586607880070E-002   1.3277746670832369E-002   3.8723094893845678E-002
  -1.9058002841422950E-002   3.3422815070397460E-003   7.4594961100586221E-002
  -1.8170241208781614E-002   3.2849743954346255E-003   7.2336808181533208E-002
  -1.7282479576140285E-002   3.1865575379945998E-003   7.0595503928464254E-002
  -1.6394717943498956E-002   3.0470309347202032E-003   6.9371048341379360E-002
  -1.5506956310857620E-002   2.8663945856108874E-003   6.8663441420278803E-002
  -2.5506215240757805E-002   5.8261477979879572E-003   6.5880232014784823E-002
  -2.4172038508078447E-002   5.6055114830072528E-003   6.4528075862978512E-002
  -2.2837861775399107E-002   5.3547569699526620E-003   6.3551901245263998E-002
  -2.1503685042719777E-002   5.0738842588239005E-003   6.2951708161641390E-002
  -2.0169508310040416E-002   4.7628933496214332E-003   6.2727496612110745E-002
  -3.0942383334945589E-002   8.3100140889360574E-003   5.6996677951727748E-002
  -2.9302658634120422E-002   7.9260485705798800E-003   5.6561510114928687E-002
  -2.7662933933295289E-002   7.5229564019103773E-003   5.6361456680329394E-002
  -2.6023209232470128E-002   7.1007375829278720E-003   5.6396517647929724E-002
  -2.4383484531644958E-002   6.6593921136319789E-003   5.6666693017729863E-002
  -3.5366507123986368E-002   1.0793880379884185E-002   4.7944298911414628E-002
  -3.3562101586907603E-002   1.0246585658152479E-002   4.8437110937383780E-002
  -3.1757696049828837E-002   9.6911558338683493E-003   4.9024170233660291E-002
  -2.9953290512750086E-002   9.1275909070316508E-003   4.9705476800244459E-002
  -2.8148884975671321E-002   8.5558908776425247E-003   5.0481030637136055E-002
  -3.8778586607880070E-002   1.3277746670832369E-002   3.8723094893845678E-002
  -3.6950367366439918E-002   1.2567122745725134E-002   4.0154878330343646E-002
  -3.5122148124999746E-002   1.1859355265826113E-002   4.1540041905256897E-002
  -3.3293928883559573E-002   1.1154444231135503E-002   4.2878585618585360E-002
  -3.1465709642119422E-002   1.0452389641653015E-002   4.4170509470329355E-002
  -1.5506956310857620E-002   2.8663945856108874E-003   6.8663441420278803E-002
  -1.4611660159962306E-002   2.6996411349266558E-003   6.7433246210229780E-002
  -1.3716364009067013E-002   2.6017632269272617E-003   6.6461136093590556E-002
  -1.2821067858171716E-002   2.5727608616125039E-003   6.5747111070361186E-002
  -1.1925771707276406E-002   2.6126340389825975E-003   6.5291171140541393E-002
  -2.0169508310040416E-002   4.7628933496214332E-003   6.2727496612110745E-002
  -1.9028870063016103E-002   4.4574346807261800E-003   6.1988163293045795E-002
  -1.7888231815991799E-002   4.1931586905190332E-003   6.1481429072829080E-002
  -1.6747593568967507E-002   3.9700653790005688E-003   6.1207293951460531E-002
  -1.5606955321943183E-002   3.7881547461701137E-003   6.1165757928940467E-002
  -2.4383484531644958E-002   6.6593921136319789E-003   5.6666693017729863E-002
  -2.3022990183053166E-002   6.2152282265256209E-003   5.6390528725652478E-002
  -2.1662495834461393E-002   5.7845541541111517E-003   5.6321477537861889E-002
  -2.0302001485869588E-002   5.3673698963884707E-003   5.6459539454357936E-002
  -1.8941507137277797E-002   4.9636754533577965E-003   5.6804714475140877E-002
  -2.8148884975671321E-002   8.5558908776425247E-003   5.0481030637136055E-002
  -2.6594020520073532E-002   7.9730217723249924E-003   5.0640342508049892E-002
  -2.5039156064475748E-002   7.3759496177030967E-003   5.0981281488688829E-002
  -2.3484291608877994E-002   6.7646744137765651E-003   5.1503847579053207E-002
  -2.1929427153280175E-002   6.1391961605455070E-003   5.2208040779142671E-002
  -3.1465709642119422E-002   1.0452389641653015E-002   4.4170509470329355E-002
  -2.9741961074077172E-002   9.7308153181245860E-003   4.4737604640237905E-002
  -2.8018212506034923E-002   8.9673450812950001E-003   4.5460840925310192E-002
  -2.6294463937992674E-002   8.1619789311645381E-003   4.6340218325546259E-002
  -2.4570715369950424E-002   7.3147168677331065E-003   4.7375736840945981E-002
  -1.1925771707276406E-002   2.6126340389825975E-003   6.5291171140541393E-002
  -1.0936092874825241E-002   2.6324113198840093E-003   6.4486619558480229E-002
  -9.9464140423740632E-003   2.5431212651643442E-003   6.4110700230882056E-002
  -8.9567352099228989E-003   2.3447638748233593E-003   6.4163413157747179E-002
  -7.9670563774717207E-003   2.0373391488612835E-003   6.4644758339075681E-002
  -1.5606955321943183E-002   3.7881547461701137E-003   6.1165757928940467E-002
  -1.4241554121109251E-002   3.5936487177726240E-003   6.0567207857408822E-002
  -1.2876152920275314E-002   3.3327692195529168E-003   6.0291470268179492E-002
  -1.1510751719441378E-002   3.0055162515104858E-003   6.0338545161252505E-002
  -1.0145350518607450E-002   2.6118898136453517E-003   6.0708432536627499E-002
  -1.8941507137277797E-002   4.9636754533577965E-003   5.6804714475140877E-002
  -1.7306203340222089E-002   4.5548861156611831E-003   5.6454859779937916E-002
  -1.5670899543166413E-002   4.1224171739410315E-003   5.6321997794876080E-002
  -1.4035595746110709E-002   3.6662686281969982E-003   5.6406128519955641E-002
  -1.2400291949055002E-002   3.1864404784295308E-003   5.6707251955176258E-002
  -2.1929427153280175E-002   6.1391961605455070E-003   5.2208040779142671E-002
  -2.0130040532163725E-002   5.5161235135497699E-003   5.2149575326067059E-002
  -1.8330653911047302E-002   4.9120651283292641E-003   5.2202282810971848E-002
  -1.6531267289930884E-002   4.3270210048839287E-003   5.2366163233856726E-002
  -1.4731880668814427E-002   3.7609911432136545E-003   5.2641216594721901E-002
  -2.4570715369950424E-002   7.3147168677331065E-003   4.7375736840945981E-002
  -2.2713065696934237E-002   6.4773609114383013E-003   4.7651354495796772E-002
  -2.0855416023918036E-002   5.7017130827176354E-003   4.7932325316466629E-002
  -1.8997766350901849E-002   4.9877733815705053E-003   4.8218649302955857E-002
  -1.7140116677885647E-002   4.3355418079978891E-003   4.8510326455264208E-002
  -7.9670563774717207E-003   2.0373391488612835E-003   6.4644758339075681E-002
  -7.0133610948327138E-003   1.7446599985991851E-003   6.4459421836834396E-002
  -6.0596658121937243E-003   1.5905393353591868E-003   6.4535456125966284E-002
  -5.1059705295547278E-003   1.5749771591413303E-003   6.4872861206470955E-002
  -4.1522752469157279E-003   1.6979734699458238E-003   6.5471637078348577E-002
  -1.0145350518607450E-002   2.6118898136453517E-003   6.0708432536627499E-002
  -8.9330650219349855E-003   2.2510363628227559E-003   6.0578907133199800E-002
  -7.7207795252625753E-003   2.0221023559075513E-003   6.0705191366465905E-002
  -6.5084940285901139E-003   1.9250877929002236E-003   6.1087285236426009E-002
  -5.2962085319177010E-003   1.9599926737998707E-003   6.1725188743079917E-002
  -1.2400291949055002E-002   3.1864404784295308E-003   5.6707251955176258E-002
  -1.0934977393028154E-002   2.7574127270466042E-003   5.6626898607447351E-002
  -9.4696628370012394E-003   2.4536653764562766E-003   5.6796793741733187E-002
  -8.0043482809743390E-003   2.2751984266589018E-003   5.7216937358034167E-002
  -6.5390337249474767E-003   2.2220118776540287E-003   5.7887329456349779E-002
  -1.4731880668814427E-002   3.7609911432136545E-003   5.2641216594721901E-002
  -1.3019098208112066E-002   3.2637890912703693E-003   5.2603396259577023E-002
  -1.1306315747409782E-002   2.8852283970048215E-003   5.2810263251767998E-002
  -9.5935332867074230E-003   2.6253090604174655E-003   5.3261817571294945E-002
  -7.8807508260051347E-003   2.4840310815081867E-003   5.3958059218157856E-002
  -1.7140116677885647E-002   4.3355418079978891E-003   4.8510326455264208E-002
  -1.5185427467186902E-002   3.7701654554939679E-003   4.8508400089588677E-002
  -1.3230738256488128E-002   3.3167914175531443E-003   4.8745599896570180E-002
  -1.1276049045789362E-002   2.9754196941761957E-003   4.9221925876208522E-002
  -9.3213598350906091E-003   2.7460502853623447E-003   4.9937378028503843E-002
  -4.1522752469157279E-003   1.6979734699458238E-003   6.5471637078348577E-002
  -3.6238188048953943E-003   2.0029570408593433E-003   6.4517385691584939E-002
  -3.0953623628750641E-003   2.5333566449690093E-003   6.3691855713251311E-002
  -2.5669059208547236E-003   3.2891722822748215E-003   6.2995047143347971E-002
  -2.0384494788344004E-003   4.2704039527776683E-003   6.2426959981874530E-002
  -5.2962085319177010E-003   1.9599926737998707E-003   6.1725188743079917E-002
  -4.6149621967240713E-003   2.2218073074084521E-003   6.0969771980385057E-002
  -3.9337158615305040E-003   2.8055220025270944E-003   6.0391213595606424E-002
  -3.2524695263368968E-003   3.7111367591560612E-003   5.9989513588744200E-002
  -2.5712231911433105E-003   4.9386515772947837E-003   5.9764671959798399E-002
  -6.5390337249474767E-003   2.2220118776540287E-003   5.7887329456349779E-002
  -5.6568605270942967E-003   2.4406575739575331E-003   5.7427231346037139E-002
  -4.7746873292411028E-003   3.0776873600851795E-003   5.7192128583127222E-002
  -3.8925141313879341E-003   4.1331012360366348E-003   5.7182021167620112E-002
  -3.0103409335347272E-003   5.6068992018120101E-003   5.7396909099515614E-002
  -7.8807508260051347E-003   2.4840310815081867E-003   5.3958059218157856E-002
  -6.7495137960060167E-003   2.6595078405068501E-003   5.3889763788541239E-002
  -5.6182767660068978E-003   3.3498527176432646E-003   5.4094600675813856E-002
  -4.4870397360077651E-003   4.5550657129174305E-003   5.4572569879975497E-002
  -3.3558027060086606E-003   6.2751468263294030E-003   5.5323671401026411E-002
  -9.3213598350906091E-003   2.7460502853623447E-003   4.9937378028503843E-002
  -7.8929220034592296E-003   2.8783581070560005E-003   5.0357369307897248E-002
  -6.4644841718278501E-003   3.6220180752015996E-003   5.1098629873666090E-002
  -5.0360463401964636E-003   4.9770301897984551E-003   5.2161159725810397E-002
  -3.6076085085650911E-003   6.9433944508463519E-003   5.3544958864330194E-002
  -2.0384494788344004E-003   4.2704039527776683E-003   6.2426959981874530E-002
  -2.2852087859327394E-003   5.5626549076045473E-003   5.8383975487853679E-002
  -2.5319680930310715E-003   7.2515283978848433E-003   5.4335707761774210E-002
  -2.7787274001294018E-003   9.3370244236184313E-003   5.0282156803635902E-002
  -3.0254867072277425E-003   1.1819142984804465E-002   4.6223322613438977E-002
  -2.5712231911433105E-003   4.9386515772947837E-003   5.9764671959798399E-002
  -2.8408879221211540E-003   6.5553542797981423E-003   5.6224270365209883E-002
  -3.1105526530989542E-003   8.6285326895193526E-003   5.2643341154920920E-002
  -3.3802173840768281E-003   1.1158186806458609E-002   4.9021884328932092E-002
  -3.6498821150545979E-003   1.4144316630616771E-002   4.5359899887241761E-002
  -3.0103409335347272E-003   5.6068992018120101E-003   5.7396909099515614E-002
  -3.3381554720337027E-003   7.5480536519912378E-003   5.4418943576124645E-002
  -3.6659700105326652E-003   1.0005536981153668E-002   5.1365206053391510E-002
  -3.9937845490316346E-003   1.2979349189299459E-002   4.8235696531315833E-002
  -4.3215990875306032E-003   1.6469490276428633E-002   4.5030415009899682E-002
  -3.3558027060086606E-003   6.2751468263294030E-003   5.5323671401026411E-002
  -3.7770114356704210E-003   8.5407530241843610E-003   5.2967995120597577E-002
  -4.1982201653321680E-003   1.1382541272788080E-002   5.0501302457185517E-002
  -4.6194288949939289E-003   1.4800511572140195E-002   4.7923593410789722E-002
  -5.0406376246556481E-003   1.8794663922240828E-002   4.5234867981410493E-002
  -3.6076085085650911E-003   6.9433944508463519E-003   5.3544958864330194E-002
  -4.1574558130312994E-003   9.5334523963777063E-003   5.1871424998629512E-002
  -4.7073031174974661E-003   1.2759545564422603E-002   5.0051630366303557E-002
  -5.2571504219636050E-003   1.6621673954980626E-002   4.8085574967352496E-002
  -5.8069977264298411E-003   2.1119837568052802E-002   4.5973258801775607E-002
  -4.7667052578629993E-002   3.5240604095759576E-002  -8.1680408102378088E-003
  -4.6936317037918757E-002   2.8109762358437290E-002   2.5222532651380525E-003
  -4.6205581497207493E-002   2.2690174259148016E-002   1.1905067700118788E-002
  -4.5474845956496243E-002   1.8981839797891732E-002   1.9980402494704591E-002
  -4.4744110415784979E-002   1.6984758974668557E-002   2.6748257648895213E-002
  -4.5496437953465377E-002   2.8725812797057937E-002   2.9223744316181077E-003
  -4.5729010075368150E-002   2.4461953368867473E-002   1.0669413101093206E-002
  -4.5961582197270812E-002   2.1126662743261360E-002   1.7797316085735246E-002
  -4.6194154319173578E-002   1.8719940920239542E-002   2.4306083385544582E-002
  -4.6426726441076295E-002   1.7241787899801908E-002   3.0195715000520901E-002
  -4.7933161932291524E-002   2.2211021498356243E-002   1.7271114400330523E-002
  -4.8440697761245897E-002   2.0814144379297780E-002   2.1292212828455864E-002
  -4.8948233590200396E-002   1.9563151227374745E-002   2.5382519527310604E-002
  -4.9455769419154895E-002   1.8458042042587292E-002   2.9542034496894569E-002
  -4.9963305248109324E-002   1.7498816824935204E-002   3.3770757737208001E-002
  -5.4977224515108038E-002   1.5696230199654576E-002   3.4878179095899020E-002
  -5.5071380095552104E-002   1.7166335389727942E-002   3.4390652447226125E-002
  -5.5165535675996191E-002   1.7999639711488151E-002   3.4660678024844530E-002
  -5.5259691256440258E-002   1.8196143164934987E-002   3.5688255828754629E-002
  -5.5353846836884289E-002   1.7755845750068638E-002   3.7473385858956085E-002
  -6.6628625701915301E-002   9.1814389009529096E-003   5.5743568518323960E-002
  -6.5621057078286693E-002   1.3518526400158160E-002   4.9964731957403807E-002
  -6.4613488454658197E-002   1.6436128195601557E-002   4.5631791578337355E-002
  -6.3605919831029645E-002   1.7934244287282804E-002   4.2744747381124576E-002
  -6.2598351207401093E-002   1.8012874675201851E-002   4.1303599365765498E-002
  -4.4744110415784979E-002   1.6984758974668557E-002   2.6748257648895213E-002
  -4.3252729463808759E-002   1.5896980202523670E-002   3.0548375471470268E-002
  -4.1761348511832531E-002   1.4916551894503041E-002   3.3810887619820373E-002
  -4.0269967559856304E-002   1.4043474050605607E-002   3.6535794093945445E-002
  -3.8778586607880070E-002   1.3277746670832369E-002   3.8723094893845678E-002
  -4.6426726441076295E-002   1.7241787899801908E-002   3.0195715000520901E-002
  -4.5324403368978118E-002   1.6270188245459602E-002   3.2386362032566188E-002
  -4.4222080296879990E-002   1.5383126520723919E-002   3.4336498979080227E-002
  -4.3119757224781806E-002   1.4580602725594274E-002   3.6046125840063073E-002
  -4.2017434152683664E-002   1.3862616860071286E-002   3.7515242615514754E-002
  -4.9963305248109324E-002   1.7498816824935204E-002   3.3770757737208001E-002
  -4.8952944467195510E-002   1.6643396288395479E-002   3.4329121444205898E-002
  -4.7942583686281674E-002   1.5849701146944790E-002   3.4944070654366367E-002
  -4.6932222905367811E-002   1.5117731400582883E-002   3.5615605367689498E-002
  -4.5921862124454024E-002   1.4447487049310148E-002   3.6343725584175021E-002
  -5.5353846836884289E-002   1.7755845750068638E-002   3.7473385858956085E-002
  -5.4138352758461010E-002   1.7016604331331356E-002   3.6376653706389428E-002
  -5.2922858680037738E-002   1.6316275773165582E-002   3.5633602645679018E-002
  -5.1707364601614444E-002   1.5654860075571576E-002   3.5244232676824944E-002
  -5.0491870523191131E-002   1.5032357238549038E-002   3.5208543799827283E-002
  -6.2598351207401093E-002   1.8012874675201851E-002   4.1303599365765498E-002
  -6.0880628242774598E-002   1.7389812374267233E-002   3.8528958819116665E-002
  -5.9162905278148076E-002   1.6782850399386595E-002   3.6405094953017830E-002
  -5.7445182313521553E-002   1.6191988750560229E-002   3.4932007767469297E-002
  -5.5727459348895059E-002   1.5617227427787927E-002   3.4109697262470817E-002
  -3.8778586607880070E-002   1.3277746670832369E-002   3.8723094893845678E-002
  -3.6950367366439918E-002   1.2567122745725134E-002   4.0154878330343646E-002
  -3.5122148124999746E-002   1.1859355265826113E-002   4.1540041905256897E-002
  -3.3293928883559573E-002   1.1154444231135503E-002   4.2878585618585360E-002
  -3.1465709642119422E-002   1.0452389641653015E-002   4.4170509470329355E-002
  -4.2017434152683664E-002   1.3862616860071286E-002   3.7515242615514754E-002
  -4.0194977770713070E-002   1.3185574452607235E-002   3.8322405343020921E-002
  -3.8372521388742455E-002   1.2505881031654620E-002   3.9164662213172718E-002
  -3.6550065006771812E-002   1.1823536597213663E-002   4.0042013225970230E-002
  -3.4727608624801232E-002   1.1138541149284253E-002   4.0954458381413095E-002
  -4.5921862124454024E-002   1.4447487049310148E-002   3.6343725584175021E-002
  -4.4023454597722667E-002   1.3804026159489224E-002   3.6520760143992886E-002
  -4.2125047070991288E-002   1.3152406797483064E-002   3.6814602850686613E-002
  -4.0226639544259930E-002   1.2492628963291711E-002   3.7225253704256236E-002
  -3.8328232017528552E-002   1.1824692656915187E-002   3.7752712704701749E-002
  -5.0491870523191131E-002   1.5032357238549038E-002   3.5208543799827283E-002
  -4.8435797847468751E-002   1.4422477866371158E-002   3.4749942733259792E-002
  -4.6379725171746343E-002   1.3798932563311540E-002   3.4489863817798547E-002
  -4.4323652496023901E-002   1.3161721329369869E-002   3.4428307053443519E-002
  -4.2267579820301548E-002   1.2510844164546328E-002   3.4565272440194486E-002
  -5.5727459348895059E-002   1.5617227427787927E-002   3.4109697262470817E-002
  -5.3432007519951308E-002   1.5040929573253314E-002   3.3009953110821388E-002
  -5.1136555691007557E-002   1.4445458329139987E-002   3.2190445114508526E-002
  -4.8841103862063806E-002   1.3830813695447967E-002   3.1651173273532091E-002
  -4.6545652033120055E-002   1.3196995672177247E-002   3.1392137587892166E-002
  -3.1465709642119422E-002   1.0452389641653015E-002   4.4170509470329355E-002
  -2.9741961074077172E-002   9.7308153181245860E-003   4.4737604640237905E-002
  -2.8018212506034923E-002   8.9673450812950001E-003   4.5460840925310192E-002
  -2.6294463937992674E-002   8.1619789311645381E-003   4.6340218325546259E-002
  -2.4570715369950424E-002   7.3147168677331065E-003   4.7375736840945981E-002
  -3.4727608624801232E-002   1.1138541149284253E-002   4.0954458381413095E-002
  -3.2850626714127931E-002   1.0435793464190490E-002   4.1142546681672998E-002
  -3.0973644803454638E-002   9.7001923182564453E-003   4.1480960552031154E-002
  -2.9096662892781327E-002   8.9317377114823890E-003   4.1969699992487688E-002
  -2.7219680982108030E-002   8.1304296438682311E-003   4.2608765003042559E-002
  -3.8328232017528552E-002   1.1824692656915187E-002   3.7752712704701749E-002
  -3.6303832309289616E-002   1.1140771610256395E-002   3.7570836587773410E-002
  -3.4279432601050680E-002   1.0433039555218106E-002   3.7533470495878192E-002
  -3.2255032892811765E-002   9.7014964918004602E-003   3.7640614429015937E-002
  -3.0230633184572808E-002   8.9461424200033002E-003   3.7892268387186540E-002
  -4.2267579820301548E-002   1.2510844164546328E-002   3.4565272440194486E-002
  -4.0101577859562268E-002   1.1845749756322410E-002   3.4022474358539091E-002
  -3.7935575898823064E-002   1.1165886792179659E-002   3.3618370756851042E-002
  -3.5769573938083818E-002   1.0471255272118531E-002   3.3352961635130976E-002
  -3.3603571977344579E-002   9.7618551961385081E-003   3.3226246993378040E-002
  -4.6545652033120055E-002   1.3196995672177247E-002   3.1392137587892166E-002
  -4.4243863364945901E-002   1.2550727902388259E-002   3.0497459993970133E-002
  -4.1942074696771747E-002   1.1898734029141350E-002   2.9735661334950148E-002
  -3.9640286028597621E-002   1.1241014052436389E-002   2.9106741610832515E-002
  -3.7338497360423439E-002   1.0577567972273494E-002   2.8610700821617208E-002
  -2.4570715369950424E-002   7.3147168677331065E-003   4.7375736840945981E-002
  -2.2713065696934237E-002   6.4773609114383013E-003   4.7651354495796772E-002
  -2.0855416023918036E-002   5.7017130827176354E-003   4.7932325316466629E-002
  -1.8997766350901849E-002   4.9877733815705053E-003   4.8218649302955857E-002
  -1.7140116677885647E-002   4.3355418079978891E-003   4.8510326455264208E-002
  -2.7219680982108030E-002   8.1304296438682311E-003   4.2608765003042559E-002
  -2.5328136769758078E-002   7.3362076642085050E-003   4.2605304323262427E-002
  -2.3436592557408049E-002   6.5890113212981327E-003   4.2664279556330759E-002
  -2.1545048345058059E-002   5.8888406151372114E-003   4.2785690702247484E-002
  -1.9653504132708013E-002   5.2356955457258936E-003   4.2969537761012477E-002
  -3.0230633184572808E-002   8.9461424200033002E-003   3.7892268387186540E-002
  -2.8248111685859806E-002   8.1950544169788475E-003   3.7595046881951005E-002
  -2.6265590187146859E-002   7.4763095598791712E-003   3.7417344036592998E-002
  -2.4283068688433856E-002   6.7899078487040805E-003   3.7359159851112468E-002
  -2.2300547189720854E-002   6.1358492834538425E-003   3.7420494325509646E-002
  -3.3603571977344579E-002   9.7618551961385081E-003   3.3226246993378040E-002
  -3.1472990445239518E-002   9.0539011697492316E-003   3.2620582171862395E-002
  -2.9342408913134388E-002   8.3636077984599946E-003   3.2191518757253540E-002
  -2.7211827381029296E-002   7.6909750822708681E-003   3.1939056749551255E-002
  -2.5081245848924197E-002   7.0360030211818192E-003   3.1863196148755879E-002
  -3.7338497360423439E-002   1.0577567972273494E-002   2.8610700821617208E-002
  -3.5002773047897062E-002   9.9127479225193382E-003   2.7681910192996650E-002
  -3.2667048735370685E-002   9.2509060370407625E-003   2.6986803718312136E-002
  -3.0331324422844280E-002   8.5920423158377252E-003   2.6525381397563524E-002
  -2.7995600110317903E-002   7.9361567589097959E-003   2.6297643230750678E-002
  -1.7140116677885647E-002   4.3355418079978891E-003   4.8510326455264208E-002
  -1.5185427467186902E-002   3.7701654554939679E-003   4.8508400089588677E-002
  -1.3230738256488128E-002   3.3167914175531443E-003   4.8745599896570180E-002
  -1.1276049045789362E-002   2.9754196941761957E-003   4.9221925876208522E-002
  -9.3213598350906091E-003   2.7460502853623447E-003   4.9937378028503843E-002
  -1.9653504132708013E-002   5.2356955457258936E-003   4.2969537761012477E-002
  -1.7496039524463596E-002   4.6399021023073028E-003   4.2887444982935341E-002
  -1.5338574916219178E-002   4.1117862741257283E-003   4.2971776827292696E-002
  -1.3181110307974701E-002   3.6513480611806842E-003   4.3222533294084334E-002
  -1.1023645699730342E-002   3.2585874634725176E-003   4.3639714383310435E-002
  -2.2300547189720854E-002   6.1358492834538425E-003   3.7420494325509646E-002
  -2.0013008734153306E-002   5.5096387491207766E-003   3.7213910435704073E-002
  -1.7725470278585679E-002   4.9067811306979792E-003   3.7101049618110782E-002
  -1.5437931823018150E-002   4.3272764281852838E-003   3.7081911872729217E-002
  -1.3150393367450504E-002   3.7711246415826349E-003   3.7156497199559463E-002
  -2.5081245848924197E-002   7.0360030211818192E-003   3.1863196148755879E-002
  -2.2736335096255958E-002   6.3793753959346250E-003   3.1487796447895289E-002
  -2.0391424343587726E-002   5.7017759872703966E-003   3.1133418269024313E-002
  -1.8046513590919494E-002   5.0032047951897723E-003   3.0800061612142514E-002
  -1.5701602838251311E-002   4.2836618196930021E-003   3.0487726477250295E-002
  -2.7995600110317903E-002   7.9361567589097959E-003   2.6297643230750678E-002
  -2.5666018610771585E-002   7.2491120427475852E-003   2.5709103019508572E-002
  -2.3336437111225253E-002   6.4967708438427030E-003   2.5068882780033552E-002
  -2.1006855611678928E-002   5.6791331621943997E-003   2.4376982512325091E-002
  -1.8677274112132602E-002   4.7961989978029251E-003   2.3633402216383659E-002
  -9.3213598350906091E-003   2.7460502853623447E-003   4.9937378028503843E-002
  -7.8929220034592296E-003   2.8783581070560005E-003   5.0357369307897248E-002
  -6.4644841718278501E-003   3.6220180752015996E-003   5.1098629873666090E-002
  -5.0360463401964636E-003   4.9770301897984551E-003   5.2161159725810397E-002
  -3.6076085085650911E-003   6.9433944508463519E-003   5.3544958864330194E-002
  -1.1023645699730342E-002   3.2585874634725176E-003   4.3639714383310435E-002
  -9.2545924417873904E-003   3.1761898461858395E-003   4.4236790245588298E-002
  -7.4855391838445084E-003   3.6468405745051780E-003   4.5193827674113701E-002
  -5.7164859259016196E-003   4.6705396484308451E-003   4.6510826668886715E-002
  -3.9474326679586752E-003   6.2472870679629589E-003   4.8187787229907353E-002
  -1.3150393367450504E-002   3.7711246415826349E-003   3.7156497199559463E-002
  -1.1002032403323904E-002   3.4740215853155398E-003   3.7872353843876272E-002
  -8.8536714391973872E-003   3.6716630738091866E-003   3.8986864334312685E-002
  -6.7053104750708550E-003   4.3640491070637867E-003   4.0500028670869111E-002
  -4.5569495109443262E-003   5.5511796850791217E-003   4.2411846853545265E-002
  -1.5701602838251311E-002   4.2836618196930021E-003   3.0487726477250295E-002
  -1.3135241888068911E-002   3.7718533244453095E-003   3.1264060102760956E-002
  -1.0568880937886539E-002   3.6964855731130911E-003   3.2477739854263332E-002
  -8.0025199877041629E-003   4.0575585656966746E-003   3.4128765731757729E-002
  -5.4361590375217612E-003   4.8550723021952846E-003   3.6217137735244098E-002
  -1.8677274112132602E-002   4.7961989978029251E-003   2.3633402216383659E-002
  -1.5654220896022253E-002   4.0696850635751902E-003   2.4411909022242551E-002
  -1.2631167679911903E-002   3.7213080724168845E-003   2.5666454233965408E-002
  -9.6081144638015537E-003   3.7510680243292016E-003   2.7397037851552536E-002
  -6.5850612476912040E-003   4.1589649193116696E-003   2.9603659875003574E-002
  -3.6076085085650911E-003   6.9433944508463519E-003   5.3544958864330194E-002
  -4.1574558130312994E-003   9.5334523963777063E-003   5.1871424998629512E-002
  -4.7073031174974661E-003   1.2759545564422603E-002   5.0051630366303557E-002
  -5.2571504219636050E-003   1.6621673954980626E-002   4.8085574967352496E-002
  -5.8069977264298411E-003   2.1119837568052802E-002   4.5973258801775607E-002
  -3.9474326679586752E-003   6.2472870679629589E-003   4.8187787229907353E-002
  -4.5395888516710364E-003   8.6853311917542420E-003   4.7251302710707210E-002
  -5.1317450353833213E-003   1.2292920378458388E-002   4.6376461199640062E-002
  -5.7239012190955958E-003   1.7070054628075780E-002   4.5563262696705742E-002
  -6.3160574028079119E-003   2.3016733940605771E-002   4.4811707201905415E-002
  -4.5569495109443262E-003   5.5511796850791217E-003   4.2411846853545265E-002
  -4.9835107991443271E-003   7.8372099871309997E-003   4.2745921521244873E-002
  -5.4100720873443246E-003   1.1826295192494840E-002   4.3349542971836103E-002
  -5.8366333755444054E-003   1.7518435301170879E-002   4.4222711205318413E-002
  -6.2631946637443231E-003   2.4913630313158963E-002   4.5365426221692817E-002
  -5.4361590375217612E-003   4.8550723021952846E-003   3.6217137735244098E-002
  -5.4892216554512365E-003   6.9890887825075354E-003   3.8355281430242895E-002
  -5.5422842733806824E-003   1.1359670006530959E-002   4.0970875682890928E-002
  -5.5953468913100607E-003   1.7966815974265783E-002   4.4063920493188774E-002
  -5.6484095092395499E-003   2.6810526685712044E-002   4.7634415861136731E-002
  -6.5850612476912040E-003   4.1589649193116696E-003   2.9603659875003574E-002
  -6.0567214205916875E-003   6.1409675778845152E-003   3.4079382437700367E-002
  -5.5283815934921432E-003   1.0893044820567410E-002   3.9240459332805400E-002
  -5.0000417663925850E-003   1.8415196647361048E-002   4.5086890560318171E-002
  -4.4717019392931379E-003   2.8707423058265125E-002   5.1618676120239293E-002
  -6.6628625701915301E-002   9.1814389009529096E-003   5.5743568518323960E-002
  -6.5621057078286693E-002   1.3518526400158160E-002   4.9964731957403807E-002
  -6.4613488454658197E-002   1.6436128195601557E-002   4.5631791578337355E-002
  -6.3605919831029645E-002   1.7934244287282804E-002   4.2744747381124576E-002
  -6.2598351207401093E-002   1.8012874675201851E-002   4.1303599365765498E-002
  -7.8972432140530430E-002   1.6481782906052012E-002   3.9322252958948978E-002
  -7.6769466110862966E-002   1.8765902961629694E-002   3.5370094821628811E-002
  -7.4566500081195600E-002   2.0178806919049302E-002   3.2362835314532601E-002
  -7.2363534051528122E-002   2.0720494778310887E-002   3.0300474437660430E-002
  -7.0160568021860714E-002   2.0390966539414135E-002   2.9183012191012242E-002
  -8.8093710478770626E-002   2.3782126911151058E-002   2.0573835153144621E-002
  -8.5196344594693996E-002   2.4013279523101172E-002   1.8996625045028234E-002
  -8.2298978710617407E-002   2.3921485642497228E-002   1.7863316015506212E-002
  -7.9401612826540763E-002   2.3506745269338967E-002   1.7173908064578546E-002
  -7.6504246942464188E-002   2.2769058403626363E-002   1.6928401192245091E-002
  -9.3992460716635876E-002   3.1082470916250077E-002  -5.0168489908938158E-004
  -9.0901692529779810E-002   2.9260656084572567E-002   8.4432262760202395E-004
  -8.7810924342923771E-002   2.7664164365944953E-002   2.1332336812580101E-003
  -8.4720156156067622E-002   2.6292995760366936E-002   3.3650482618791094E-003
  -8.1629387969211542E-002   2.5147150267838508E-002   4.5397663694642584E-003
  -9.6668682854126331E-002   3.8382814921349206E-002  -2.3904307197752939E-002
  -9.3885509916120546E-002   3.4508032646044184E-002  -1.9086812430649747E-002
  -9.1102336978114540E-002   3.1406843089392900E-002  -1.4827411688211722E-002
  -8.8319164040108644E-002   2.9079246251395130E-002  -1.1126104970438686E-002
  -8.5535991102102749E-002   2.7525242132050765E-002  -7.9828922773306221E-003
  -6.2598351207401093E-002   1.8012874675201851E-002   4.1303599365765498E-002
  -6.0880628242774598E-002   1.7389812374267233E-002   3.8528958819116665E-002
  -5.9162905278148076E-002   1.6782850399386595E-002   3.6405094953017830E-002
  -5.7445182313521553E-002   1.6191988750560229E-002   3.4932007767469297E-002
  -5.5727459348895059E-002   1.5617227427787927E-002   3.4109697262470817E-002
  -7.0160568021860714E-002   2.0390966539414135E-002   2.9183012191012242E-002
  -6.7905695370756164E-002   1.9639181553483293E-002   2.7534684009219490E-002
  -6.5650822719651586E-002   1.8914099171642315E-002   2.6309878519832824E-002
  -6.3395950068547063E-002   1.8215719393890936E-002   2.5508595722852023E-002
  -6.1141077417442458E-002   1.7544042220229650E-002   2.5130835618277308E-002
  -7.6504246942464188E-002   2.2769058403626363E-002   1.6928401192245091E-002
  -7.3939478593025715E-002   2.1888550732699436E-002   1.6416987653344067E-002
  -7.1374710243587242E-002   2.1045347943897980E-002   1.6101842818705081E-002
  -6.8809941894148796E-002   2.0239450037221753E-002   1.5982966688327771E-002
  -6.6245173544710295E-002   1.9470857012671428E-002   1.6060359262212276E-002
  -8.1629387969211542E-002   2.5147150267838508E-002   4.5397663694642584E-003
  -7.8981977909583251E-002   2.4137919911915537E-002   5.1758697514906610E-003
  -7.6334567849954932E-002   2.3176596716153866E-002   5.7809878496344336E-003
  -7.3687157790326627E-002   2.2263180680552903E-002   6.3551206638963100E-003
  -7.1039747730698294E-002   2.1397671805113205E-002   6.8982681942759277E-003
  -8.5535991102102749E-002   2.7525242132050765E-002  -7.9828922773306221E-003
  -8.3033193320428744E-002   2.6387289091131749E-002  -6.1886696963412979E-003
  -8.0530395538754740E-002   2.5307845488409281E-002  -4.6526863873786184E-003
  -7.8027597757080736E-002   2.4286911323883560E-002  -3.3749423504420076E-003
  -7.5524799975406731E-002   2.3324486597554928E-002  -2.3554375855318055E-003
  -5.5727459348895059E-002   1.5617227427787927E-002   3.4109697262470817E-002
  -5.3432007519951308E-002   1.5040929573253314E-002   3.3009953110821388E-002
  -5.1136555691007557E-002   1.4445458329139987E-002   3.2190445114508526E-002
  -4.8841103862063806E-002   1.3830813695447967E-002   3.1651173273532091E-002
  -4.6545652033120055E-002   1.3196995672177247E-002   3.1392137587892166E-002
  -6.1141077417442458E-002   1.7544042220229650E-002   2.5130835618277308E-002
  -5.8575925368953452E-002   1.6876231877340747E-002   2.4311006306054511E-002
  -5.6010773320464391E-002   1.6189452591906989E-002   2.3750341277586046E-002
  -5.3445621271975302E-002   1.5483704363928437E-002   2.3448840532871634E-002
  -5.0880469223486269E-002   1.4758987193405237E-002   2.3406504071911305E-002
  -6.6245173544710295E-002   1.9470857012671428E-002   1.6060359262212276E-002
  -6.3431393148258339E-002   1.8711534181428069E-002   1.5520649236450398E-002
  -6.0617612751806299E-002   1.7933446854673893E-002   1.5219031622859966E-002
  -5.7803832355354259E-002   1.7136595032408965E-002   1.5155506421441638E-002
  -5.4990051958902234E-002   1.6320978714632950E-002   1.5330073632194852E-002
  -7.1039747730698294E-002   2.1397671805113205E-002   6.8982681942759277E-003
  -6.7998410857865704E-002   2.0546836485515502E-002   6.6388819020087066E-003
  -6.4957073985033170E-002   1.9677441117440568E-002   6.5965161503306162E-003
  -6.1915737112200636E-002   1.8789485700889133E-002   6.7711709392420816E-003
  -5.8874400239368040E-002   1.7882970235860690E-002   7.1628462687428132E-003
  -7.5524799975406731E-002   2.3324486597554928E-002  -2.3554375855318055E-003
  -7.2276978497775979E-002   2.2382138789602934E-002  -2.3342956972705053E-003
  -6.9029157020145171E-002   2.1421435380207521E-002  -2.1172051400022152E-003
  -6.5781335542514363E-002   2.0442376369369950E-002  -1.7041659137271778E-003
  -6.2533514064883611E-002   1.9444961757088541E-002  -1.0951780184449422E-003
  -4.6545652033120055E-002   1.3196995672177247E-002   3.1392137587892166E-002
  -4.4243863364945901E-002   1.2550727902388259E-002   3.0497459993970133E-002
  -4.1942074696771747E-002   1.1898734029141350E-002   2.9735661334950148E-002
  -3.9640286028597621E-002   1.1241014052436389E-002   2.9106741610832515E-002
  -3.7338497360423439E-002   1.0577567972273494E-002   2.8610700821617208E-002
  -5.0880469223486269E-002   1.4758987193405237E-002   2.3406504071911305E-002
  -4.8440274687227558E-002   1.4026669469017039E-002   2.2741608731800561E-002
  -4.6000080150968875E-002   1.3298119579444406E-002   2.2220646192956550E-002
  -4.3559885614710164E-002   1.2573337524687041E-002   2.1843616455379300E-002
  -4.1119691078451426E-002   1.1852323304745005E-002   2.1610519519069282E-002
  -5.4990051958902234E-002   1.6320978714632950E-002   1.5330073632194852E-002
  -5.2400397688194329E-002   1.5502611035645791E-002   1.4904454484168550E-002
  -4.9810743417486411E-002   1.4697505129747504E-002   1.4633822003773861E-002
  -4.7221089146778444E-002   1.3905660996937800E-002   1.4518176191010819E-002
  -4.4631434876070533E-002   1.3127078637216738E-002   1.4557517045878959E-002
  -5.8874400239368040E-002   1.7882970235860690E-002   7.1628462687428132E-003
  -5.6124232367846173E-002   1.6978552602274558E-002   6.9859972510743218E-003
  -5.3374064496324439E-002   1.6096890680050692E-002   6.9751887674023259E-003
  -5.0623896624802635E-002   1.5237984469188672E-002   7.1304208177260138E-003
  -4.7873728753280831E-002   1.4401833969688693E-002   7.4516934020463430E-003
  -6.2533514064883611E-002   1.9444961757088541E-002  -1.0951780184449422E-003
  -5.9611778726183284E-002   1.8454494168903324E-002  -1.0137629674821791E-003
  -5.6690043387482902E-002   1.7496276230353741E-002  -7.5525351615857161E-004
  -5.3768308048782576E-002   1.6570307941439287E-002  -3.1964966447411980E-004
  -5.0846572710082194E-002   1.5676589302159982E-002   2.9304858757128738E-004
  -3.7338497360423439E-002   1.0577567972273494E-002   2.8610700821617208E-002
  -3.5002773047897062E-002   9.9127479225193382E-003   2.7681910192996650E-002
  -3.2667048735370685E-002   9.2509060370407625E-003   2.6986803718312136E-002
  -3.0331324422844280E-002   8.5920423158377252E-003   2.6525381397563524E-002
  -2.7995600110317903E-002   7.9361567589097959E-003   2.6297643230750678E-002
  -4.1119691078451426E-002   1.1852323304745005E-002   2.1610519519069282E-002
  -3.8584124962013688E-002   1.1132118762860521E-002   2.0917751303620724E-002
  -3.6048558845575993E-002   1.0409765742275465E-002   2.0390982542058650E-002
  -3.3512992729138269E-002   9.6852642429894296E-003   2.0030213234383754E-002
  -3.0977426612700559E-002   8.9586142650028844E-003   1.9835443380595397E-002
  -4.4631434876070533E-002   1.3127078637216738E-002   1.4557517045878959E-002
  -4.1963711655770564E-002   1.2351489603201843E-002   1.4095644600626026E-002
  -3.9295988435470518E-002   1.1568625447510056E-002   1.3732086909210850E-002
  -3.6628265215170486E-002   1.0778486170141467E-002   1.3466843971633224E-002
  -3.3960541994870509E-002   9.9810717710963059E-003   1.3299915787893524E-002
  -4.7873728753280831E-002   1.4401833969688693E-002   7.4516934020463430E-003
  -4.5141533129167480E-002   1.3570860443543595E-002   7.2155900840126623E-003
  -4.2409337505054268E-002   1.2727485152744702E-002   7.0101168197676846E-003
  -3.9677141880941035E-002   1.1871708097293338E-002   6.8352736093119960E-003
  -3.6944946256827697E-002   1.1003529277189728E-002   6.6910604526448578E-003
  -5.0846572710082194E-002   1.5676589302159982E-002   2.9304858757128738E-004
  -4.8117589382204784E-002   1.4790231283884125E-002   2.7758775378128320E-004
  -4.5388606054327263E-002   1.3886344857978794E-002   2.2507227373080863E-004
  -4.2659622726449825E-002   1.2964930024445404E-002   1.3550214742011346E-004
  -3.9930639398572332E-002   1.2025986783282816E-002   8.8773748492254612E-006
  -2.7995600110317903E-002   7.9361567589097959E-003   2.6297643230750678E-002
  -2.5666018610771585E-002   7.2491120427475852E-003   2.5709103019508572E-002
  -2.3336437111225253E-002   6.4967708438427030E-003   2.5068882780033552E-002
  -2.1006855611678928E-002   5.6791331621943997E-003   2.4376982512325091E-002
  -1.8677274112132602E-002   4.7961989978029251E-003   2.3633402216383659E-002
  -3.0977426612700559E-002   8.9586142650028844E-003   1.9835443380595397E-002
  -2.8680385011813331E-002   8.2278298956777185E-003   1.9229046025780350E-002
  -2.6383343410926144E-002   7.4909252223759049E-003   1.8609248901879899E-002
  -2.4086301810038874E-002   6.7479002450977141E-003   1.7976052008894489E-002
  -2.1789260209151784E-002   5.9987549638431670E-003   1.7329455346824063E-002
  -3.3960541994870509E-002   9.9810717710963059E-003   1.3299915787893524E-002
  -3.1657760033494318E-002   9.2065477486075187E-003   1.2734837468271670E-002
  -2.9354978072118201E-002   8.4850796009089957E-003   1.2194639638712895E-002
  -2.7052196110742013E-002   7.8166673280011395E-003   1.1679322299217296E-002
  -2.4749414149365892E-002   7.2013109298829647E-003   1.1188885449784275E-002
  -3.6944946256827697E-002   1.1003529277189728E-002   6.6910604526448578E-003
  -3.4598143675814562E-002   1.0185265601537596E-002   6.2264773469831933E-003
  -3.2251341094801420E-002   9.4792339794425862E-003   5.8250549905326937E-003
  -2.9904538513788305E-002   8.8854344109041763E-003   5.4867933832932134E-003
  -2.7557735932775142E-002   8.4038668959227625E-003   5.2116925252647800E-003
  -3.9930639398572332E-002   1.2025986783282816E-002   8.8773748492254612E-006
  -3.7501535938774033E-002   1.1163983454467674E-002  -2.9603433808533808E-004
  -3.5072432478975901E-002   1.0473388357975177E-002  -4.9950504266102480E-004
  -3.2643329019177686E-002   9.9542014938078516E-003  -6.0153473887752246E-004
  -3.0214225559379471E-002   9.6064228619627823E-003  -6.0212342673471309E-004
  -1.8677274112132602E-002   4.7961989978029251E-003   2.3633402216383659E-002
  -1.5654220896022253E-002   4.0696850635751902E-003   2.4411909022242551E-002
  -1.2631167679911903E-002   3.7213080724168845E-003   2.5666454233965408E-002
  -9.6081144638015537E-003   3.7510680243292016E-003   2.7397037851552536E-002
  -6.5850612476912040E-003   4.1589649193116696E-003   2.9603659875003574E-002
  -2.1789260209151784E-002   5.9987549638431670E-003   1.7329455346824063E-002
  -1.8560087542016282E-002   5.3372717653599744E-003   1.8269666060944156E-002
  -1.5330914874880822E-002   4.8572330363974292E-003   1.9146077271250450E-002
  -1.2101742207745285E-002   4.5586387769551776E-003   1.9958688977743000E-002
  -8.8725695406098593E-003   4.4414889870331153E-003   2.0707501180421639E-002
  -2.4749414149365892E-002   7.2013109298829647E-003   1.1188885449784275E-002
  -2.1853959940883176E-002   6.6048584671451471E-003   1.2094107598615927E-002
  -1.8958505732400474E-002   5.9931580003777518E-003   1.2395692333955780E-002
  -1.6063051523917793E-002   5.3662095295810425E-003   1.2093639655804109E-002
  -1.3167597315435056E-002   4.7240130547546721E-003   1.1187949564160693E-002
  -2.7557735932775142E-002   8.4038668959227625E-003   5.2116925252647800E-003
  -2.5535838092623053E-002   7.8724451689302366E-003   5.8852336352583495E-003
  -2.3513940252471017E-002   7.1290829643585740E-003   5.4152994220819442E-003
  -2.1492042412318967E-002   6.1737802822067409E-003   3.8018898857359873E-003
  -1.9470144572166895E-002   5.0065371224762845E-003   1.0450050262201804E-003
  -3.0214225559379471E-002   9.6064228619627823E-003  -6.0212342673471309E-004
  -2.9605721997235879E-002   9.1400318707148820E-003  -3.5695582912947943E-004
  -2.8997218435092342E-002   8.2650079283387856E-003  -1.7951014643718122E-003
  -2.8388714872948778E-002   6.9813510348330360E-003  -4.9165603324619125E-003
  -2.7780211310805214E-002   5.2890611901976747E-003  -9.7213324333990103E-003
  -6.5850612476912040E-003   4.1589649193116696E-003   2.9603659875003574E-002
  -6.0567214205916875E-003   6.1409675778845152E-003   3.4079382437700367E-002
  -5.5283815934921432E-003   1.0893044820567410E-002   3.9240459332805400E-002
  -5.0000417663925850E-003   1.8415196647361048E-002   4.5086890560318171E-002
  -4.4717019392931379E-003   2.8707423058265125E-002   5.1618676120239293E-002
  -8.8725695406098593E-003   4.4414889870331153E-003   2.0707501180421639E-002
  -7.5865948931685134E-003   5.6573136357649378E-003   2.5875274245095059E-002
  -6.3006202457270427E-003   9.3576426922855338E-003   3.1872962618043565E-002
  -5.0146455982856761E-003   1.5542476156593397E-002   3.8700566299267658E-002
  -3.7286709508442262E-003   2.4211814028689327E-002   4.6358085288767725E-002
  -1.3167597315435056E-002   4.7240130547546721E-003   1.1187949564160693E-002
  -1.0979426871784444E-002   5.1736596936465817E-003   1.6762202954487576E-002
  -8.7912564281338243E-003   7.8222405640039905E-003   2.3310932628957642E-002
  -6.6030859844829794E-003   1.2669755665825691E-002   3.0834138587570836E-002
  -4.4149155408323704E-003   1.9716204999113751E-002   3.9331820830326714E-002
  -1.9470144572166895E-002   5.0065371224762845E-003   1.0450050262201804E-003
  -1.6235217356439392E-002   4.6900057515278371E-003   6.7401685658784669E-003
  -1.3000290140711966E-002   6.2868384357219476E-003   1.3554369365547464E-002
  -9.7653629249843735E-003   9.7970351750583454E-003   2.1487607425226520E-002
  -6.5304357092570361E-003   1.5220595969537842E-002   3.0539882744916508E-002
  -2.7780211310805214E-002   5.2890611901976747E-003  -9.7213324333990103E-003
  -2.3353966347133492E-002   4.2063518094090924E-003  -4.1908289207320260E-003
  -1.8927721383461771E-002   4.7514363074407928E-003   2.6032728278124195E-003
  -1.4501476419789938E-002   6.9243146842909442E-003   1.0660972812234951E-002
  -1.0075231456118328E-002   1.0724986939962378E-002   1.9982271032535914E-002
 </DataArray>
 </PointData>
 </Piece>
 </UnstructuredGrid>
 </VTKFile>
