 <VTKFile type="UnstructuredGrid"  version="0.1"   >
 <UnstructuredGrid>
 <Piece  NumberOfPoints="          1600 "  NumberOfCells="         1024 ">
 <Points>
 <DataArray  type="Float64" NumberOfComponents="3"  format="ascii" >
   0.0000000000000000        0.0000000000000000        0.0000000000000000     
   3.1250000000000000E-002   0.0000000000000000        0.0000000000000000     
   6.2500000000000000E-002   0.0000000000000000        0.0000000000000000     
   9.3750000000000000E-002   0.0000000000000000        0.0000000000000000     
  0.12500000000000000        0.0000000000000000        0.0000000000000000     
   0.0000000000000000        3.1250000000000000E-002   0.0000000000000000     
   3.1250000000000000E-002   3.1250000000000000E-002   0.0000000000000000     
   6.2500000000000000E-002   3.1250000000000000E-002   0.0000000000000000     
   9.3750000000000000E-002   3.1250000000000000E-002   0.0000000000000000     
  0.12500000000000000        3.1250000000000000E-002   0.0000000000000000     
   0.0000000000000000        6.2500000000000000E-002   0.0000000000000000     
   3.1250000000000000E-002   6.2500000000000000E-002   0.0000000000000000     
   6.2500000000000000E-002   6.2500000000000000E-002   0.0000000000000000     
   9.3750000000000000E-002   6.2500000000000000E-002   0.0000000000000000     
  0.12500000000000000        6.2500000000000000E-002   0.0000000000000000     
   0.0000000000000000        9.3750000000000000E-002   0.0000000000000000     
   3.1250000000000000E-002   9.3750000000000000E-002   0.0000000000000000     
   6.2500000000000000E-002   9.3750000000000000E-002   0.0000000000000000     
   9.3750000000000000E-002   9.3750000000000000E-002   0.0000000000000000     
  0.12500000000000000        9.3750000000000000E-002   0.0000000000000000     
   0.0000000000000000       0.12500000000000000        0.0000000000000000     
   3.1250000000000000E-002  0.12500000000000000        0.0000000000000000     
   6.2500000000000000E-002  0.12500000000000000        0.0000000000000000     
   9.3750000000000000E-002  0.12500000000000000        0.0000000000000000     
  0.12500000000000000       0.12500000000000000        0.0000000000000000     
  0.12500000000000000        0.0000000000000000        0.0000000000000000     
  0.15625000000000000        0.0000000000000000        0.0000000000000000     
  0.18750000000000000        0.0000000000000000        0.0000000000000000     
  0.21875000000000000        0.0000000000000000        0.0000000000000000     
  0.25000000000000000        0.0000000000000000        0.0000000000000000     
  0.12500000000000000        3.1250000000000000E-002   0.0000000000000000     
  0.15625000000000000        3.1250000000000000E-002   0.0000000000000000     
  0.18750000000000000        3.1250000000000000E-002   0.0000000000000000     
  0.21875000000000000        3.1250000000000000E-002   0.0000000000000000     
  0.25000000000000000        3.1250000000000000E-002   0.0000000000000000     
  0.12500000000000000        6.2500000000000000E-002   0.0000000000000000     
  0.15625000000000000        6.2500000000000000E-002   0.0000000000000000     
  0.18750000000000000        6.2500000000000000E-002   0.0000000000000000     
  0.21875000000000000        6.2500000000000000E-002   0.0000000000000000     
  0.25000000000000000        6.2500000000000000E-002   0.0000000000000000     
  0.12500000000000000        9.3750000000000000E-002   0.0000000000000000     
  0.15625000000000000        9.3750000000000000E-002   0.0000000000000000     
  0.18750000000000000        9.3750000000000000E-002   0.0000000000000000     
  0.21875000000000000        9.3750000000000000E-002   0.0000000000000000     
  0.25000000000000000        9.3750000000000000E-002   0.0000000000000000     
  0.12500000000000000       0.12500000000000000        0.0000000000000000     
  0.15625000000000000       0.12500000000000000        0.0000000000000000     
  0.18750000000000000       0.12500000000000000        0.0000000000000000     
  0.21875000000000000       0.12500000000000000        0.0000000000000000     
  0.25000000000000000       0.12500000000000000        0.0000000000000000     
  0.25000000000000000        0.0000000000000000        0.0000000000000000     
  0.28125000000000000        0.0000000000000000        0.0000000000000000     
  0.31250000000000000        0.0000000000000000        0.0000000000000000     
  0.34375000000000000        0.0000000000000000        0.0000000000000000     
  0.37500000000000000        0.0000000000000000        0.0000000000000000     
  0.25000000000000000        3.1250000000000000E-002   0.0000000000000000     
  0.28125000000000000        3.1250000000000000E-002   0.0000000000000000     
  0.31250000000000000        3.1250000000000000E-002   0.0000000000000000     
  0.34375000000000000        3.1250000000000000E-002   0.0000000000000000     
  0.37500000000000000        3.1250000000000000E-002   0.0000000000000000     
  0.25000000000000000        6.2500000000000000E-002   0.0000000000000000     
  0.28125000000000000        6.2500000000000000E-002   0.0000000000000000     
  0.31250000000000000        6.2500000000000000E-002   0.0000000000000000     
  0.34375000000000000        6.2500000000000000E-002   0.0000000000000000     
  0.37500000000000000        6.2500000000000000E-002   0.0000000000000000     
  0.25000000000000000        9.3750000000000000E-002   0.0000000000000000     
  0.28125000000000000        9.3750000000000000E-002   0.0000000000000000     
  0.31250000000000000        9.3750000000000000E-002   0.0000000000000000     
  0.34375000000000000        9.3750000000000000E-002   0.0000000000000000     
  0.37500000000000000        9.3750000000000000E-002   0.0000000000000000     
  0.25000000000000000       0.12500000000000000        0.0000000000000000     
  0.28125000000000000       0.12500000000000000        0.0000000000000000     
  0.31250000000000000       0.12500000000000000        0.0000000000000000     
  0.34375000000000000       0.12500000000000000        0.0000000000000000     
  0.37500000000000000       0.12500000000000000        0.0000000000000000     
  0.37500000000000000        0.0000000000000000        0.0000000000000000     
  0.40625000000000000        0.0000000000000000        0.0000000000000000     
  0.43750000000000000        0.0000000000000000        0.0000000000000000     
  0.46875000000000000        0.0000000000000000        0.0000000000000000     
  0.50000000000000000        0.0000000000000000        0.0000000000000000     
  0.37500000000000000        3.1250000000000000E-002   0.0000000000000000     
  0.40625000000000000        3.1250000000000000E-002   0.0000000000000000     
  0.43750000000000000        3.1250000000000000E-002   0.0000000000000000     
  0.46875000000000000        3.1250000000000000E-002   0.0000000000000000     
  0.50000000000000000        3.1250000000000000E-002   0.0000000000000000     
  0.37500000000000000        6.2500000000000000E-002   0.0000000000000000     
  0.40625000000000000        6.2500000000000000E-002   0.0000000000000000     
  0.43750000000000000        6.2500000000000000E-002   0.0000000000000000     
  0.46875000000000000        6.2500000000000000E-002   0.0000000000000000     
  0.50000000000000000        6.2500000000000000E-002   0.0000000000000000     
  0.37500000000000000        9.3750000000000000E-002   0.0000000000000000     
  0.40625000000000000        9.3750000000000000E-002   0.0000000000000000     
  0.43750000000000000        9.3750000000000000E-002   0.0000000000000000     
  0.46875000000000000        9.3750000000000000E-002   0.0000000000000000     
  0.50000000000000000        9.3750000000000000E-002   0.0000000000000000     
  0.37500000000000000       0.12500000000000000        0.0000000000000000     
  0.40625000000000000       0.12500000000000000        0.0000000000000000     
  0.43750000000000000       0.12500000000000000        0.0000000000000000     
  0.46875000000000000       0.12500000000000000        0.0000000000000000     
  0.50000000000000000       0.12500000000000000        0.0000000000000000     
  0.50000000000000000        0.0000000000000000        0.0000000000000000     
  0.53125000000000000        0.0000000000000000        0.0000000000000000     
  0.56250000000000000        0.0000000000000000        0.0000000000000000     
  0.59375000000000000        0.0000000000000000        0.0000000000000000     
  0.62500000000000000        0.0000000000000000        0.0000000000000000     
  0.50000000000000000        3.1250000000000000E-002   0.0000000000000000     
  0.53125000000000000        3.1250000000000000E-002   0.0000000000000000     
  0.56250000000000000        3.1250000000000000E-002   0.0000000000000000     
  0.59375000000000000        3.1250000000000000E-002   0.0000000000000000     
  0.62500000000000000        3.1250000000000000E-002   0.0000000000000000     
  0.50000000000000000        6.2500000000000000E-002   0.0000000000000000     
  0.53125000000000000        6.2500000000000000E-002   0.0000000000000000     
  0.56250000000000000        6.2500000000000000E-002   0.0000000000000000     
  0.59375000000000000        6.2500000000000000E-002   0.0000000000000000     
  0.62500000000000000        6.2500000000000000E-002   0.0000000000000000     
  0.50000000000000000        9.3750000000000000E-002   0.0000000000000000     
  0.53125000000000000        9.3750000000000000E-002   0.0000000000000000     
  0.56250000000000000        9.3750000000000000E-002   0.0000000000000000     
  0.59375000000000000        9.3750000000000000E-002   0.0000000000000000     
  0.62500000000000000        9.3750000000000000E-002   0.0000000000000000     
  0.50000000000000000       0.12500000000000000        0.0000000000000000     
  0.53125000000000000       0.12500000000000000        0.0000000000000000     
  0.56250000000000000       0.12500000000000000        0.0000000000000000     
  0.59375000000000000       0.12500000000000000        0.0000000000000000     
  0.62500000000000000       0.12500000000000000        0.0000000000000000     
  0.62500000000000000        0.0000000000000000        0.0000000000000000     
  0.65625000000000000        0.0000000000000000        0.0000000000000000     
  0.68750000000000000        0.0000000000000000        0.0000000000000000     
  0.71875000000000000        0.0000000000000000        0.0000000000000000     
  0.75000000000000000        0.0000000000000000        0.0000000000000000     
  0.62500000000000000        3.1250000000000000E-002   0.0000000000000000     
  0.65625000000000000        3.1250000000000000E-002   0.0000000000000000     
  0.68750000000000000        3.1250000000000000E-002   0.0000000000000000     
  0.71875000000000000        3.1250000000000000E-002   0.0000000000000000     
  0.75000000000000000        3.1250000000000000E-002   0.0000000000000000     
  0.62500000000000000        6.2500000000000000E-002   0.0000000000000000     
  0.65625000000000000        6.2500000000000000E-002   0.0000000000000000     
  0.68750000000000000        6.2500000000000000E-002   0.0000000000000000     
  0.71875000000000000        6.2500000000000000E-002   0.0000000000000000     
  0.75000000000000000        6.2500000000000000E-002   0.0000000000000000     
  0.62500000000000000        9.3750000000000000E-002   0.0000000000000000     
  0.65625000000000000        9.3750000000000000E-002   0.0000000000000000     
  0.68750000000000000        9.3750000000000000E-002   0.0000000000000000     
  0.71875000000000000        9.3750000000000000E-002   0.0000000000000000     
  0.75000000000000000        9.3750000000000000E-002   0.0000000000000000     
  0.62500000000000000       0.12500000000000000        0.0000000000000000     
  0.65625000000000000       0.12500000000000000        0.0000000000000000     
  0.68750000000000000       0.12500000000000000        0.0000000000000000     
  0.71875000000000000       0.12500000000000000        0.0000000000000000     
  0.75000000000000000       0.12500000000000000        0.0000000000000000     
  0.75000000000000000        0.0000000000000000        0.0000000000000000     
  0.78125000000000000        0.0000000000000000        0.0000000000000000     
  0.81250000000000000        0.0000000000000000        0.0000000000000000     
  0.84375000000000000        0.0000000000000000        0.0000000000000000     
  0.87500000000000000        0.0000000000000000        0.0000000000000000     
  0.75000000000000000        3.1250000000000000E-002   0.0000000000000000     
  0.78125000000000000        3.1250000000000000E-002   0.0000000000000000     
  0.81250000000000000        3.1250000000000000E-002   0.0000000000000000     
  0.84375000000000000        3.1250000000000000E-002   0.0000000000000000     
  0.87500000000000000        3.1250000000000000E-002   0.0000000000000000     
  0.75000000000000000        6.2500000000000000E-002   0.0000000000000000     
  0.78125000000000000        6.2500000000000000E-002   0.0000000000000000     
  0.81250000000000000        6.2500000000000000E-002   0.0000000000000000     
  0.84375000000000000        6.2500000000000000E-002   0.0000000000000000     
  0.87500000000000000        6.2500000000000000E-002   0.0000000000000000     
  0.75000000000000000        9.3750000000000000E-002   0.0000000000000000     
  0.78125000000000000        9.3750000000000000E-002   0.0000000000000000     
  0.81250000000000000        9.3750000000000000E-002   0.0000000000000000     
  0.84375000000000000        9.3750000000000000E-002   0.0000000000000000     
  0.87500000000000000        9.3750000000000000E-002   0.0000000000000000     
  0.75000000000000000       0.12500000000000000        0.0000000000000000     
  0.78125000000000000       0.12500000000000000        0.0000000000000000     
  0.81250000000000000       0.12500000000000000        0.0000000000000000     
  0.84375000000000000       0.12500000000000000        0.0000000000000000     
  0.87500000000000000       0.12500000000000000        0.0000000000000000     
  0.87500000000000000        0.0000000000000000        0.0000000000000000     
  0.90625000000000000        0.0000000000000000        0.0000000000000000     
  0.93750000000000000        0.0000000000000000        0.0000000000000000     
  0.96875000000000000        0.0000000000000000        0.0000000000000000     
   1.0000000000000000        0.0000000000000000        0.0000000000000000     
  0.87500000000000000        3.1250000000000000E-002   0.0000000000000000     
  0.90625000000000000        3.1250000000000000E-002   0.0000000000000000     
  0.93750000000000000        3.1250000000000000E-002   0.0000000000000000     
  0.96875000000000000        3.1250000000000000E-002   0.0000000000000000     
   1.0000000000000000        3.1250000000000000E-002   0.0000000000000000     
  0.87500000000000000        6.2500000000000000E-002   0.0000000000000000     
  0.90625000000000000        6.2500000000000000E-002   0.0000000000000000     
  0.93750000000000000        6.2500000000000000E-002   0.0000000000000000     
  0.96875000000000000        6.2500000000000000E-002   0.0000000000000000     
   1.0000000000000000        6.2500000000000000E-002   0.0000000000000000     
  0.87500000000000000        9.3750000000000000E-002   0.0000000000000000     
  0.90625000000000000        9.3750000000000000E-002   0.0000000000000000     
  0.93750000000000000        9.3750000000000000E-002   0.0000000000000000     
  0.96875000000000000        9.3750000000000000E-002   0.0000000000000000     
   1.0000000000000000        9.3750000000000000E-002   0.0000000000000000     
  0.87500000000000000       0.12500000000000000        0.0000000000000000     
  0.90625000000000000       0.12500000000000000        0.0000000000000000     
  0.93750000000000000       0.12500000000000000        0.0000000000000000     
  0.96875000000000000       0.12500000000000000        0.0000000000000000     
   1.0000000000000000       0.12500000000000000        0.0000000000000000     
   0.0000000000000000       0.12500000000000000        0.0000000000000000     
   3.1250000000000000E-002  0.12500000000000000        0.0000000000000000     
   6.2500000000000000E-002  0.12500000000000000        0.0000000000000000     
   9.3750000000000000E-002  0.12500000000000000        0.0000000000000000     
  0.12500000000000000       0.12500000000000000        0.0000000000000000     
   0.0000000000000000       0.15625000000000000        0.0000000000000000     
   3.1250000000000000E-002  0.15625000000000000        0.0000000000000000     
   6.2500000000000000E-002  0.15625000000000000        0.0000000000000000     
   9.3750000000000000E-002  0.15625000000000000        0.0000000000000000     
  0.12500000000000000       0.15625000000000000        0.0000000000000000     
   0.0000000000000000       0.18750000000000000        0.0000000000000000     
   3.1250000000000000E-002  0.18750000000000000        0.0000000000000000     
   6.2500000000000000E-002  0.18750000000000000        0.0000000000000000     
   9.3750000000000000E-002  0.18750000000000000        0.0000000000000000     
  0.12500000000000000       0.18750000000000000        0.0000000000000000     
   0.0000000000000000       0.21875000000000000        0.0000000000000000     
   3.1250000000000000E-002  0.21875000000000000        0.0000000000000000     
   6.2500000000000000E-002  0.21875000000000000        0.0000000000000000     
   9.3750000000000000E-002  0.21875000000000000        0.0000000000000000     
  0.12500000000000000       0.21875000000000000        0.0000000000000000     
   0.0000000000000000       0.25000000000000000        0.0000000000000000     
   3.1250000000000000E-002  0.25000000000000000        0.0000000000000000     
   6.2500000000000000E-002  0.25000000000000000        0.0000000000000000     
   9.3750000000000000E-002  0.25000000000000000        0.0000000000000000     
  0.12500000000000000       0.25000000000000000        0.0000000000000000     
  0.12500000000000000       0.12500000000000000        0.0000000000000000     
  0.15625000000000000       0.12500000000000000        0.0000000000000000     
  0.18750000000000000       0.12500000000000000        0.0000000000000000     
  0.21875000000000000       0.12500000000000000        0.0000000000000000     
  0.25000000000000000       0.12500000000000000        0.0000000000000000     
  0.12500000000000000       0.15625000000000000        0.0000000000000000     
  0.15625000000000000       0.15625000000000000        0.0000000000000000     
  0.18750000000000000       0.15625000000000000        0.0000000000000000     
  0.21875000000000000       0.15625000000000000        0.0000000000000000     
  0.25000000000000000       0.15625000000000000        0.0000000000000000     
  0.12500000000000000       0.18750000000000000        0.0000000000000000     
  0.15625000000000000       0.18750000000000000        0.0000000000000000     
  0.18750000000000000       0.18750000000000000        0.0000000000000000     
  0.21875000000000000       0.18750000000000000        0.0000000000000000     
  0.25000000000000000       0.18750000000000000        0.0000000000000000     
  0.12500000000000000       0.21875000000000000        0.0000000000000000     
  0.15625000000000000       0.21875000000000000        0.0000000000000000     
  0.18750000000000000       0.21875000000000000        0.0000000000000000     
  0.21875000000000000       0.21875000000000000        0.0000000000000000     
  0.25000000000000000       0.21875000000000000        0.0000000000000000     
  0.12500000000000000       0.25000000000000000        0.0000000000000000     
  0.15625000000000000       0.25000000000000000        0.0000000000000000     
  0.18750000000000000       0.25000000000000000        0.0000000000000000     
  0.21875000000000000       0.25000000000000000        0.0000000000000000     
  0.25000000000000000       0.25000000000000000        0.0000000000000000     
  0.25000000000000000       0.12500000000000000        0.0000000000000000     
  0.28125000000000000       0.12500000000000000        0.0000000000000000     
  0.31250000000000000       0.12500000000000000        0.0000000000000000     
  0.34375000000000000       0.12500000000000000        0.0000000000000000     
  0.37500000000000000       0.12500000000000000        0.0000000000000000     
  0.25000000000000000       0.15625000000000000        0.0000000000000000     
  0.28125000000000000       0.15625000000000000        0.0000000000000000     
  0.31250000000000000       0.15625000000000000        0.0000000000000000     
  0.34375000000000000       0.15625000000000000        0.0000000000000000     
  0.37500000000000000       0.15625000000000000        0.0000000000000000     
  0.25000000000000000       0.18750000000000000        0.0000000000000000     
  0.28125000000000000       0.18750000000000000        0.0000000000000000     
  0.31250000000000000       0.18750000000000000        0.0000000000000000     
  0.34375000000000000       0.18750000000000000        0.0000000000000000     
  0.37500000000000000       0.18750000000000000        0.0000000000000000     
  0.25000000000000000       0.21875000000000000        0.0000000000000000     
  0.28125000000000000       0.21875000000000000        0.0000000000000000     
  0.31250000000000000       0.21875000000000000        0.0000000000000000     
  0.34375000000000000       0.21875000000000000        0.0000000000000000     
  0.37500000000000000       0.21875000000000000        0.0000000000000000     
  0.25000000000000000       0.25000000000000000        0.0000000000000000     
  0.28125000000000000       0.25000000000000000        0.0000000000000000     
  0.31250000000000000       0.25000000000000000        0.0000000000000000     
  0.34375000000000000       0.25000000000000000        0.0000000000000000     
  0.37500000000000000       0.25000000000000000        0.0000000000000000     
  0.37500000000000000       0.12500000000000000        0.0000000000000000     
  0.40625000000000000       0.12500000000000000        0.0000000000000000     
  0.43750000000000000       0.12500000000000000        0.0000000000000000     
  0.46875000000000000       0.12500000000000000        0.0000000000000000     
  0.50000000000000000       0.12500000000000000        0.0000000000000000     
  0.37500000000000000       0.15625000000000000        0.0000000000000000     
  0.40625000000000000       0.15625000000000000        0.0000000000000000     
  0.43750000000000000       0.15625000000000000        0.0000000000000000     
  0.46875000000000000       0.15625000000000000        0.0000000000000000     
  0.50000000000000000       0.15625000000000000        0.0000000000000000     
  0.37500000000000000       0.18750000000000000        0.0000000000000000     
  0.40625000000000000       0.18750000000000000        0.0000000000000000     
  0.43750000000000000       0.18750000000000000        0.0000000000000000     
  0.46875000000000000       0.18750000000000000        0.0000000000000000     
  0.50000000000000000       0.18750000000000000        0.0000000000000000     
  0.37500000000000000       0.21875000000000000        0.0000000000000000     
  0.40625000000000000       0.21875000000000000        0.0000000000000000     
  0.43750000000000000       0.21875000000000000        0.0000000000000000     
  0.46875000000000000       0.21875000000000000        0.0000000000000000     
  0.50000000000000000       0.21875000000000000        0.0000000000000000     
  0.37500000000000000       0.25000000000000000        0.0000000000000000     
  0.40625000000000000       0.25000000000000000        0.0000000000000000     
  0.43750000000000000       0.25000000000000000        0.0000000000000000     
  0.46875000000000000       0.25000000000000000        0.0000000000000000     
  0.50000000000000000       0.25000000000000000        0.0000000000000000     
  0.50000000000000000       0.12500000000000000        0.0000000000000000     
  0.53125000000000000       0.12500000000000000        0.0000000000000000     
  0.56250000000000000       0.12500000000000000        0.0000000000000000     
  0.59375000000000000       0.12500000000000000        0.0000000000000000     
  0.62500000000000000       0.12500000000000000        0.0000000000000000     
  0.50000000000000000       0.15625000000000000        0.0000000000000000     
  0.53125000000000000       0.15625000000000000        0.0000000000000000     
  0.56250000000000000       0.15625000000000000        0.0000000000000000     
  0.59375000000000000       0.15625000000000000        0.0000000000000000     
  0.62500000000000000       0.15625000000000000        0.0000000000000000     
  0.50000000000000000       0.18750000000000000        0.0000000000000000     
  0.53125000000000000       0.18750000000000000        0.0000000000000000     
  0.56250000000000000       0.18750000000000000        0.0000000000000000     
  0.59375000000000000       0.18750000000000000        0.0000000000000000     
  0.62500000000000000       0.18750000000000000        0.0000000000000000     
  0.50000000000000000       0.21875000000000000        0.0000000000000000     
  0.53125000000000000       0.21875000000000000        0.0000000000000000     
  0.56250000000000000       0.21875000000000000        0.0000000000000000     
  0.59375000000000000       0.21875000000000000        0.0000000000000000     
  0.62500000000000000       0.21875000000000000        0.0000000000000000     
  0.50000000000000000       0.25000000000000000        0.0000000000000000     
  0.53125000000000000       0.25000000000000000        0.0000000000000000     
  0.56250000000000000       0.25000000000000000        0.0000000000000000     
  0.59375000000000000       0.25000000000000000        0.0000000000000000     
  0.62500000000000000       0.25000000000000000        0.0000000000000000     
  0.62500000000000000       0.12500000000000000        0.0000000000000000     
  0.65625000000000000       0.12500000000000000        0.0000000000000000     
  0.68750000000000000       0.12500000000000000        0.0000000000000000     
  0.71875000000000000       0.12500000000000000        0.0000000000000000     
  0.75000000000000000       0.12500000000000000        0.0000000000000000     
  0.62500000000000000       0.15625000000000000        0.0000000000000000     
  0.65625000000000000       0.15625000000000000        0.0000000000000000     
  0.68750000000000000       0.15625000000000000        0.0000000000000000     
  0.71875000000000000       0.15625000000000000        0.0000000000000000     
  0.75000000000000000       0.15625000000000000        0.0000000000000000     
  0.62500000000000000       0.18750000000000000        0.0000000000000000     
  0.65625000000000000       0.18750000000000000        0.0000000000000000     
  0.68750000000000000       0.18750000000000000        0.0000000000000000     
  0.71875000000000000       0.18750000000000000        0.0000000000000000     
  0.75000000000000000       0.18750000000000000        0.0000000000000000     
  0.62500000000000000       0.21875000000000000        0.0000000000000000     
  0.65625000000000000       0.21875000000000000        0.0000000000000000     
  0.68750000000000000       0.21875000000000000        0.0000000000000000     
  0.71875000000000000       0.21875000000000000        0.0000000000000000     
  0.75000000000000000       0.21875000000000000        0.0000000000000000     
  0.62500000000000000       0.25000000000000000        0.0000000000000000     
  0.65625000000000000       0.25000000000000000        0.0000000000000000     
  0.68750000000000000       0.25000000000000000        0.0000000000000000     
  0.71875000000000000       0.25000000000000000        0.0000000000000000     
  0.75000000000000000       0.25000000000000000        0.0000000000000000     
  0.75000000000000000       0.12500000000000000        0.0000000000000000     
  0.78125000000000000       0.12500000000000000        0.0000000000000000     
  0.81250000000000000       0.12500000000000000        0.0000000000000000     
  0.84375000000000000       0.12500000000000000        0.0000000000000000     
  0.87500000000000000       0.12500000000000000        0.0000000000000000     
  0.75000000000000000       0.15625000000000000        0.0000000000000000     
  0.78125000000000000       0.15625000000000000        0.0000000000000000     
  0.81250000000000000       0.15625000000000000        0.0000000000000000     
  0.84375000000000000       0.15625000000000000        0.0000000000000000     
  0.87500000000000000       0.15625000000000000        0.0000000000000000     
  0.75000000000000000       0.18750000000000000        0.0000000000000000     
  0.78125000000000000       0.18750000000000000        0.0000000000000000     
  0.81250000000000000       0.18750000000000000        0.0000000000000000     
  0.84375000000000000       0.18750000000000000        0.0000000000000000     
  0.87500000000000000       0.18750000000000000        0.0000000000000000     
  0.75000000000000000       0.21875000000000000        0.0000000000000000     
  0.78125000000000000       0.21875000000000000        0.0000000000000000     
  0.81250000000000000       0.21875000000000000        0.0000000000000000     
  0.84375000000000000       0.21875000000000000        0.0000000000000000     
  0.87500000000000000       0.21875000000000000        0.0000000000000000     
  0.75000000000000000       0.25000000000000000        0.0000000000000000     
  0.78125000000000000       0.25000000000000000        0.0000000000000000     
  0.81250000000000000       0.25000000000000000        0.0000000000000000     
  0.84375000000000000       0.25000000000000000        0.0000000000000000     
  0.87500000000000000       0.25000000000000000        0.0000000000000000     
  0.87500000000000000       0.12500000000000000        0.0000000000000000     
  0.90625000000000000       0.12500000000000000        0.0000000000000000     
  0.93750000000000000       0.12500000000000000        0.0000000000000000     
  0.96875000000000000       0.12500000000000000        0.0000000000000000     
   1.0000000000000000       0.12500000000000000        0.0000000000000000     
  0.87500000000000000       0.15625000000000000        0.0000000000000000     
  0.90625000000000000       0.15625000000000000        0.0000000000000000     
  0.93750000000000000       0.15625000000000000        0.0000000000000000     
  0.96875000000000000       0.15625000000000000        0.0000000000000000     
   1.0000000000000000       0.15625000000000000        0.0000000000000000     
  0.87500000000000000       0.18750000000000000        0.0000000000000000     
  0.90625000000000000       0.18750000000000000        0.0000000000000000     
  0.93750000000000000       0.18750000000000000        0.0000000000000000     
  0.96875000000000000       0.18750000000000000        0.0000000000000000     
   1.0000000000000000       0.18750000000000000        0.0000000000000000     
  0.87500000000000000       0.21875000000000000        0.0000000000000000     
  0.90625000000000000       0.21875000000000000        0.0000000000000000     
  0.93750000000000000       0.21875000000000000        0.0000000000000000     
  0.96875000000000000       0.21875000000000000        0.0000000000000000     
   1.0000000000000000       0.21875000000000000        0.0000000000000000     
  0.87500000000000000       0.25000000000000000        0.0000000000000000     
  0.90625000000000000       0.25000000000000000        0.0000000000000000     
  0.93750000000000000       0.25000000000000000        0.0000000000000000     
  0.96875000000000000       0.25000000000000000        0.0000000000000000     
   1.0000000000000000       0.25000000000000000        0.0000000000000000     
   0.0000000000000000       0.25000000000000000        0.0000000000000000     
   3.1250000000000000E-002  0.25000000000000000        0.0000000000000000     
   6.2500000000000000E-002  0.25000000000000000        0.0000000000000000     
   9.3750000000000000E-002  0.25000000000000000        0.0000000000000000     
  0.12500000000000000       0.25000000000000000        0.0000000000000000     
   0.0000000000000000       0.28125000000000000        0.0000000000000000     
   3.1250000000000000E-002  0.28125000000000000        0.0000000000000000     
   6.2500000000000000E-002  0.28125000000000000        0.0000000000000000     
   9.3750000000000000E-002  0.28125000000000000        0.0000000000000000     
  0.12500000000000000       0.28125000000000000        0.0000000000000000     
   0.0000000000000000       0.31250000000000000        0.0000000000000000     
   3.1250000000000000E-002  0.31250000000000000        0.0000000000000000     
   6.2500000000000000E-002  0.31250000000000000        0.0000000000000000     
   9.3750000000000000E-002  0.31250000000000000        0.0000000000000000     
  0.12500000000000000       0.31250000000000000        0.0000000000000000     
   0.0000000000000000       0.34375000000000000        0.0000000000000000     
   3.1250000000000000E-002  0.34375000000000000        0.0000000000000000     
   6.2500000000000000E-002  0.34375000000000000        0.0000000000000000     
   9.3750000000000000E-002  0.34375000000000000        0.0000000000000000     
  0.12500000000000000       0.34375000000000000        0.0000000000000000     
   0.0000000000000000       0.37500000000000000        0.0000000000000000     
   3.1250000000000000E-002  0.37500000000000000        0.0000000000000000     
   6.2500000000000000E-002  0.37500000000000000        0.0000000000000000     
   9.3750000000000000E-002  0.37500000000000000        0.0000000000000000     
  0.12500000000000000       0.37500000000000000        0.0000000000000000     
  0.12500000000000000       0.25000000000000000        0.0000000000000000     
  0.15625000000000000       0.25000000000000000        0.0000000000000000     
  0.18750000000000000       0.25000000000000000        0.0000000000000000     
  0.21875000000000000       0.25000000000000000        0.0000000000000000     
  0.25000000000000000       0.25000000000000000        0.0000000000000000     
  0.12500000000000000       0.28125000000000000        0.0000000000000000     
  0.15625000000000000       0.28125000000000000        0.0000000000000000     
  0.18750000000000000       0.28125000000000000        0.0000000000000000     
  0.21875000000000000       0.28125000000000000        0.0000000000000000     
  0.25000000000000000       0.28125000000000000        0.0000000000000000     
  0.12500000000000000       0.31250000000000000        0.0000000000000000     
  0.15625000000000000       0.31250000000000000        0.0000000000000000     
  0.18750000000000000       0.31250000000000000        0.0000000000000000     
  0.21875000000000000       0.31250000000000000        0.0000000000000000     
  0.25000000000000000       0.31250000000000000        0.0000000000000000     
  0.12500000000000000       0.34375000000000000        0.0000000000000000     
  0.15625000000000000       0.34375000000000000        0.0000000000000000     
  0.18750000000000000       0.34375000000000000        0.0000000000000000     
  0.21875000000000000       0.34375000000000000        0.0000000000000000     
  0.25000000000000000       0.34375000000000000        0.0000000000000000     
  0.12500000000000000       0.37500000000000000        0.0000000000000000     
  0.15625000000000000       0.37500000000000000        0.0000000000000000     
  0.18750000000000000       0.37500000000000000        0.0000000000000000     
  0.21875000000000000       0.37500000000000000        0.0000000000000000     
  0.25000000000000000       0.37500000000000000        0.0000000000000000     
  0.25000000000000000       0.25000000000000000        0.0000000000000000     
  0.28125000000000000       0.25000000000000000        0.0000000000000000     
  0.31250000000000000       0.25000000000000000        0.0000000000000000     
  0.34375000000000000       0.25000000000000000        0.0000000000000000     
  0.37500000000000000       0.25000000000000000        0.0000000000000000     
  0.25000000000000000       0.28125000000000000        0.0000000000000000     
  0.28125000000000000       0.28125000000000000        0.0000000000000000     
  0.31250000000000000       0.28125000000000000        0.0000000000000000     
  0.34375000000000000       0.28125000000000000        0.0000000000000000     
  0.37500000000000000       0.28125000000000000        0.0000000000000000     
  0.25000000000000000       0.31250000000000000        0.0000000000000000     
  0.28125000000000000       0.31250000000000000        0.0000000000000000     
  0.31250000000000000       0.31250000000000000        0.0000000000000000     
  0.34375000000000000       0.31250000000000000        0.0000000000000000     
  0.37500000000000000       0.31250000000000000        0.0000000000000000     
  0.25000000000000000       0.34375000000000000        0.0000000000000000     
  0.28125000000000000       0.34375000000000000        0.0000000000000000     
  0.31250000000000000       0.34375000000000000        0.0000000000000000     
  0.34375000000000000       0.34375000000000000        0.0000000000000000     
  0.37500000000000000       0.34375000000000000        0.0000000000000000     
  0.25000000000000000       0.37500000000000000        0.0000000000000000     
  0.28125000000000000       0.37500000000000000        0.0000000000000000     
  0.31250000000000000       0.37500000000000000        0.0000000000000000     
  0.34375000000000000       0.37500000000000000        0.0000000000000000     
  0.37500000000000000       0.37500000000000000        0.0000000000000000     
  0.37500000000000000       0.25000000000000000        0.0000000000000000     
  0.40625000000000000       0.25000000000000000        0.0000000000000000     
  0.43750000000000000       0.25000000000000000        0.0000000000000000     
  0.46875000000000000       0.25000000000000000        0.0000000000000000     
  0.50000000000000000       0.25000000000000000        0.0000000000000000     
  0.37500000000000000       0.28125000000000000        0.0000000000000000     
  0.40625000000000000       0.28125000000000000        0.0000000000000000     
  0.43750000000000000       0.28125000000000000        0.0000000000000000     
  0.46875000000000000       0.28125000000000000        0.0000000000000000     
  0.50000000000000000       0.28125000000000000        0.0000000000000000     
  0.37500000000000000       0.31250000000000000        0.0000000000000000     
  0.40625000000000000       0.31250000000000000        0.0000000000000000     
  0.43750000000000000       0.31250000000000000        0.0000000000000000     
  0.46875000000000000       0.31250000000000000        0.0000000000000000     
  0.50000000000000000       0.31250000000000000        0.0000000000000000     
  0.37500000000000000       0.34375000000000000        0.0000000000000000     
  0.40625000000000000       0.34375000000000000        0.0000000000000000     
  0.43750000000000000       0.34375000000000000        0.0000000000000000     
  0.46875000000000000       0.34375000000000000        0.0000000000000000     
  0.50000000000000000       0.34375000000000000        0.0000000000000000     
  0.37500000000000000       0.37500000000000000        0.0000000000000000     
  0.40625000000000000       0.37500000000000000        0.0000000000000000     
  0.43750000000000000       0.37500000000000000        0.0000000000000000     
  0.46875000000000000       0.37500000000000000        0.0000000000000000     
  0.50000000000000000       0.37500000000000000        0.0000000000000000     
  0.50000000000000000       0.25000000000000000        0.0000000000000000     
  0.53125000000000000       0.25000000000000000        0.0000000000000000     
  0.56250000000000000       0.25000000000000000        0.0000000000000000     
  0.59375000000000000       0.25000000000000000        0.0000000000000000     
  0.62500000000000000       0.25000000000000000        0.0000000000000000     
  0.50000000000000000       0.28125000000000000        0.0000000000000000     
  0.53125000000000000       0.28125000000000000        0.0000000000000000     
  0.56250000000000000       0.28125000000000000        0.0000000000000000     
  0.59375000000000000       0.28125000000000000        0.0000000000000000     
  0.62500000000000000       0.28125000000000000        0.0000000000000000     
  0.50000000000000000       0.31250000000000000        0.0000000000000000     
  0.53125000000000000       0.31250000000000000        0.0000000000000000     
  0.56250000000000000       0.31250000000000000        0.0000000000000000     
  0.59375000000000000       0.31250000000000000        0.0000000000000000     
  0.62500000000000000       0.31250000000000000        0.0000000000000000     
  0.50000000000000000       0.34375000000000000        0.0000000000000000     
  0.53125000000000000       0.34375000000000000        0.0000000000000000     
  0.56250000000000000       0.34375000000000000        0.0000000000000000     
  0.59375000000000000       0.34375000000000000        0.0000000000000000     
  0.62500000000000000       0.34375000000000000        0.0000000000000000     
  0.50000000000000000       0.37500000000000000        0.0000000000000000     
  0.53125000000000000       0.37500000000000000        0.0000000000000000     
  0.56250000000000000       0.37500000000000000        0.0000000000000000     
  0.59375000000000000       0.37500000000000000        0.0000000000000000     
  0.62500000000000000       0.37500000000000000        0.0000000000000000     
  0.62500000000000000       0.25000000000000000        0.0000000000000000     
  0.65625000000000000       0.25000000000000000        0.0000000000000000     
  0.68750000000000000       0.25000000000000000        0.0000000000000000     
  0.71875000000000000       0.25000000000000000        0.0000000000000000     
  0.75000000000000000       0.25000000000000000        0.0000000000000000     
  0.62500000000000000       0.28125000000000000        0.0000000000000000     
  0.65625000000000000       0.28125000000000000        0.0000000000000000     
  0.68750000000000000       0.28125000000000000        0.0000000000000000     
  0.71875000000000000       0.28125000000000000        0.0000000000000000     
  0.75000000000000000       0.28125000000000000        0.0000000000000000     
  0.62500000000000000       0.31250000000000000        0.0000000000000000     
  0.65625000000000000       0.31250000000000000        0.0000000000000000     
  0.68750000000000000       0.31250000000000000        0.0000000000000000     
  0.71875000000000000       0.31250000000000000        0.0000000000000000     
  0.75000000000000000       0.31250000000000000        0.0000000000000000     
  0.62500000000000000       0.34375000000000000        0.0000000000000000     
  0.65625000000000000       0.34375000000000000        0.0000000000000000     
  0.68750000000000000       0.34375000000000000        0.0000000000000000     
  0.71875000000000000       0.34375000000000000        0.0000000000000000     
  0.75000000000000000       0.34375000000000000        0.0000000000000000     
  0.62500000000000000       0.37500000000000000        0.0000000000000000     
  0.65625000000000000       0.37500000000000000        0.0000000000000000     
  0.68750000000000000       0.37500000000000000        0.0000000000000000     
  0.71875000000000000       0.37500000000000000        0.0000000000000000     
  0.75000000000000000       0.37500000000000000        0.0000000000000000     
  0.75000000000000000       0.25000000000000000        0.0000000000000000     
  0.78125000000000000       0.25000000000000000        0.0000000000000000     
  0.81250000000000000       0.25000000000000000        0.0000000000000000     
  0.84375000000000000       0.25000000000000000        0.0000000000000000     
  0.87500000000000000       0.25000000000000000        0.0000000000000000     
  0.75000000000000000       0.28125000000000000        0.0000000000000000     
  0.78125000000000000       0.28125000000000000        0.0000000000000000     
  0.81250000000000000       0.28125000000000000        0.0000000000000000     
  0.84375000000000000       0.28125000000000000        0.0000000000000000     
  0.87500000000000000       0.28125000000000000        0.0000000000000000     
  0.75000000000000000       0.31250000000000000        0.0000000000000000     
  0.78125000000000000       0.31250000000000000        0.0000000000000000     
  0.81250000000000000       0.31250000000000000        0.0000000000000000     
  0.84375000000000000       0.31250000000000000        0.0000000000000000     
  0.87500000000000000       0.31250000000000000        0.0000000000000000     
  0.75000000000000000       0.34375000000000000        0.0000000000000000     
  0.78125000000000000       0.34375000000000000        0.0000000000000000     
  0.81250000000000000       0.34375000000000000        0.0000000000000000     
  0.84375000000000000       0.34375000000000000        0.0000000000000000     
  0.87500000000000000       0.34375000000000000        0.0000000000000000     
  0.75000000000000000       0.37500000000000000        0.0000000000000000     
  0.78125000000000000       0.37500000000000000        0.0000000000000000     
  0.81250000000000000       0.37500000000000000        0.0000000000000000     
  0.84375000000000000       0.37500000000000000        0.0000000000000000     
  0.87500000000000000       0.37500000000000000        0.0000000000000000     
  0.87500000000000000       0.25000000000000000        0.0000000000000000     
  0.90625000000000000       0.25000000000000000        0.0000000000000000     
  0.93750000000000000       0.25000000000000000        0.0000000000000000     
  0.96875000000000000       0.25000000000000000        0.0000000000000000     
   1.0000000000000000       0.25000000000000000        0.0000000000000000     
  0.87500000000000000       0.28125000000000000        0.0000000000000000     
  0.90625000000000000       0.28125000000000000        0.0000000000000000     
  0.93750000000000000       0.28125000000000000        0.0000000000000000     
  0.96875000000000000       0.28125000000000000        0.0000000000000000     
   1.0000000000000000       0.28125000000000000        0.0000000000000000     
  0.87500000000000000       0.31250000000000000        0.0000000000000000     
  0.90625000000000000       0.31250000000000000        0.0000000000000000     
  0.93750000000000000       0.31250000000000000        0.0000000000000000     
  0.96875000000000000       0.31250000000000000        0.0000000000000000     
   1.0000000000000000       0.31250000000000000        0.0000000000000000     
  0.87500000000000000       0.34375000000000000        0.0000000000000000     
  0.90625000000000000       0.34375000000000000        0.0000000000000000     
  0.93750000000000000       0.34375000000000000        0.0000000000000000     
  0.96875000000000000       0.34375000000000000        0.0000000000000000     
   1.0000000000000000       0.34375000000000000        0.0000000000000000     
  0.87500000000000000       0.37500000000000000        0.0000000000000000     
  0.90625000000000000       0.37500000000000000        0.0000000000000000     
  0.93750000000000000       0.37500000000000000        0.0000000000000000     
  0.96875000000000000       0.37500000000000000        0.0000000000000000     
   1.0000000000000000       0.37500000000000000        0.0000000000000000     
   0.0000000000000000       0.37500000000000000        0.0000000000000000     
   3.1250000000000000E-002  0.37500000000000000        0.0000000000000000     
   6.2500000000000000E-002  0.37500000000000000        0.0000000000000000     
   9.3750000000000000E-002  0.37500000000000000        0.0000000000000000     
  0.12500000000000000       0.37500000000000000        0.0000000000000000     
   0.0000000000000000       0.40625000000000000        0.0000000000000000     
   3.1250000000000000E-002  0.40625000000000000        0.0000000000000000     
   6.2500000000000000E-002  0.40625000000000000        0.0000000000000000     
   9.3750000000000000E-002  0.40625000000000000        0.0000000000000000     
  0.12500000000000000       0.40625000000000000        0.0000000000000000     
   0.0000000000000000       0.43750000000000000        0.0000000000000000     
   3.1250000000000000E-002  0.43750000000000000        0.0000000000000000     
   6.2500000000000000E-002  0.43750000000000000        0.0000000000000000     
   9.3750000000000000E-002  0.43750000000000000        0.0000000000000000     
  0.12500000000000000       0.43750000000000000        0.0000000000000000     
   0.0000000000000000       0.46875000000000000        0.0000000000000000     
   3.1250000000000000E-002  0.46875000000000000        0.0000000000000000     
   6.2500000000000000E-002  0.46875000000000000        0.0000000000000000     
   9.3750000000000000E-002  0.46875000000000000        0.0000000000000000     
  0.12500000000000000       0.46875000000000000        0.0000000000000000     
   0.0000000000000000       0.50000000000000000        0.0000000000000000     
   3.1250000000000000E-002  0.50000000000000000        0.0000000000000000     
   6.2500000000000000E-002  0.50000000000000000        0.0000000000000000     
   9.3750000000000000E-002  0.50000000000000000        0.0000000000000000     
  0.12500000000000000       0.50000000000000000        0.0000000000000000     
  0.12500000000000000       0.37500000000000000        0.0000000000000000     
  0.15625000000000000       0.37500000000000000        0.0000000000000000     
  0.18750000000000000       0.37500000000000000        0.0000000000000000     
  0.21875000000000000       0.37500000000000000        0.0000000000000000     
  0.25000000000000000       0.37500000000000000        0.0000000000000000     
  0.12500000000000000       0.40625000000000000        0.0000000000000000     
  0.15625000000000000       0.40625000000000000        0.0000000000000000     
  0.18750000000000000       0.40625000000000000        0.0000000000000000     
  0.21875000000000000       0.40625000000000000        0.0000000000000000     
  0.25000000000000000       0.40625000000000000        0.0000000000000000     
  0.12500000000000000       0.43750000000000000        0.0000000000000000     
  0.15625000000000000       0.43750000000000000        0.0000000000000000     
  0.18750000000000000       0.43750000000000000        0.0000000000000000     
  0.21875000000000000       0.43750000000000000        0.0000000000000000     
  0.25000000000000000       0.43750000000000000        0.0000000000000000     
  0.12500000000000000       0.46875000000000000        0.0000000000000000     
  0.15625000000000000       0.46875000000000000        0.0000000000000000     
  0.18750000000000000       0.46875000000000000        0.0000000000000000     
  0.21875000000000000       0.46875000000000000        0.0000000000000000     
  0.25000000000000000       0.46875000000000000        0.0000000000000000     
  0.12500000000000000       0.50000000000000000        0.0000000000000000     
  0.15625000000000000       0.50000000000000000        0.0000000000000000     
  0.18750000000000000       0.50000000000000000        0.0000000000000000     
  0.21875000000000000       0.50000000000000000        0.0000000000000000     
  0.25000000000000000       0.50000000000000000        0.0000000000000000     
  0.25000000000000000       0.37500000000000000        0.0000000000000000     
  0.28125000000000000       0.37500000000000000        0.0000000000000000     
  0.31250000000000000       0.37500000000000000        0.0000000000000000     
  0.34375000000000000       0.37500000000000000        0.0000000000000000     
  0.37500000000000000       0.37500000000000000        0.0000000000000000     
  0.25000000000000000       0.40625000000000000        0.0000000000000000     
  0.28125000000000000       0.40625000000000000        0.0000000000000000     
  0.31250000000000000       0.40625000000000000        0.0000000000000000     
  0.34375000000000000       0.40625000000000000        0.0000000000000000     
  0.37500000000000000       0.40625000000000000        0.0000000000000000     
  0.25000000000000000       0.43750000000000000        0.0000000000000000     
  0.28125000000000000       0.43750000000000000        0.0000000000000000     
  0.31250000000000000       0.43750000000000000        0.0000000000000000     
  0.34375000000000000       0.43750000000000000        0.0000000000000000     
  0.37500000000000000       0.43750000000000000        0.0000000000000000     
  0.25000000000000000       0.46875000000000000        0.0000000000000000     
  0.28125000000000000       0.46875000000000000        0.0000000000000000     
  0.31250000000000000       0.46875000000000000        0.0000000000000000     
  0.34375000000000000       0.46875000000000000        0.0000000000000000     
  0.37500000000000000       0.46875000000000000        0.0000000000000000     
  0.25000000000000000       0.50000000000000000        0.0000000000000000     
  0.28125000000000000       0.50000000000000000        0.0000000000000000     
  0.31250000000000000       0.50000000000000000        0.0000000000000000     
  0.34375000000000000       0.50000000000000000        0.0000000000000000     
  0.37500000000000000       0.50000000000000000        0.0000000000000000     
  0.37500000000000000       0.37500000000000000        0.0000000000000000     
  0.40625000000000000       0.37500000000000000        0.0000000000000000     
  0.43750000000000000       0.37500000000000000        0.0000000000000000     
  0.46875000000000000       0.37500000000000000        0.0000000000000000     
  0.50000000000000000       0.37500000000000000        0.0000000000000000     
  0.37500000000000000       0.40625000000000000        0.0000000000000000     
  0.40625000000000000       0.40625000000000000        0.0000000000000000     
  0.43750000000000000       0.40625000000000000        0.0000000000000000     
  0.46875000000000000       0.40625000000000000        0.0000000000000000     
  0.50000000000000000       0.40625000000000000        0.0000000000000000     
  0.37500000000000000       0.43750000000000000        0.0000000000000000     
  0.40625000000000000       0.43750000000000000        0.0000000000000000     
  0.43750000000000000       0.43750000000000000        0.0000000000000000     
  0.46875000000000000       0.43750000000000000        0.0000000000000000     
  0.50000000000000000       0.43750000000000000        0.0000000000000000     
  0.37500000000000000       0.46875000000000000        0.0000000000000000     
  0.40625000000000000       0.46875000000000000        0.0000000000000000     
  0.43750000000000000       0.46875000000000000        0.0000000000000000     
  0.46875000000000000       0.46875000000000000        0.0000000000000000     
  0.50000000000000000       0.46875000000000000        0.0000000000000000     
  0.37500000000000000       0.50000000000000000        0.0000000000000000     
  0.40625000000000000       0.50000000000000000        0.0000000000000000     
  0.43750000000000000       0.50000000000000000        0.0000000000000000     
  0.46875000000000000       0.50000000000000000        0.0000000000000000     
  0.50000000000000000       0.50000000000000000        0.0000000000000000     
  0.50000000000000000       0.37500000000000000        0.0000000000000000     
  0.53125000000000000       0.37500000000000000        0.0000000000000000     
  0.56250000000000000       0.37500000000000000        0.0000000000000000     
  0.59375000000000000       0.37500000000000000        0.0000000000000000     
  0.62500000000000000       0.37500000000000000        0.0000000000000000     
  0.50000000000000000       0.40625000000000000        0.0000000000000000     
  0.53125000000000000       0.40625000000000000        0.0000000000000000     
  0.56250000000000000       0.40625000000000000        0.0000000000000000     
  0.59375000000000000       0.40625000000000000        0.0000000000000000     
  0.62500000000000000       0.40625000000000000        0.0000000000000000     
  0.50000000000000000       0.43750000000000000        0.0000000000000000     
  0.53125000000000000       0.43750000000000000        0.0000000000000000     
  0.56250000000000000       0.43750000000000000        0.0000000000000000     
  0.59375000000000000       0.43750000000000000        0.0000000000000000     
  0.62500000000000000       0.43750000000000000        0.0000000000000000     
  0.50000000000000000       0.46875000000000000        0.0000000000000000     
  0.53125000000000000       0.46875000000000000        0.0000000000000000     
  0.56250000000000000       0.46875000000000000        0.0000000000000000     
  0.59375000000000000       0.46875000000000000        0.0000000000000000     
  0.62500000000000000       0.46875000000000000        0.0000000000000000     
  0.50000000000000000       0.50000000000000000        0.0000000000000000     
  0.53125000000000000       0.50000000000000000        0.0000000000000000     
  0.56250000000000000       0.50000000000000000        0.0000000000000000     
  0.59375000000000000       0.50000000000000000        0.0000000000000000     
  0.62500000000000000       0.50000000000000000        0.0000000000000000     
  0.62500000000000000       0.37500000000000000        0.0000000000000000     
  0.65625000000000000       0.37500000000000000        0.0000000000000000     
  0.68750000000000000       0.37500000000000000        0.0000000000000000     
  0.71875000000000000       0.37500000000000000        0.0000000000000000     
  0.75000000000000000       0.37500000000000000        0.0000000000000000     
  0.62500000000000000       0.40625000000000000        0.0000000000000000     
  0.65625000000000000       0.40625000000000000        0.0000000000000000     
  0.68750000000000000       0.40625000000000000        0.0000000000000000     
  0.71875000000000000       0.40625000000000000        0.0000000000000000     
  0.75000000000000000       0.40625000000000000        0.0000000000000000     
  0.62500000000000000       0.43750000000000000        0.0000000000000000     
  0.65625000000000000       0.43750000000000000        0.0000000000000000     
  0.68750000000000000       0.43750000000000000        0.0000000000000000     
  0.71875000000000000       0.43750000000000000        0.0000000000000000     
  0.75000000000000000       0.43750000000000000        0.0000000000000000     
  0.62500000000000000       0.46875000000000000        0.0000000000000000     
  0.65625000000000000       0.46875000000000000        0.0000000000000000     
  0.68750000000000000       0.46875000000000000        0.0000000000000000     
  0.71875000000000000       0.46875000000000000        0.0000000000000000     
  0.75000000000000000       0.46875000000000000        0.0000000000000000     
  0.62500000000000000       0.50000000000000000        0.0000000000000000     
  0.65625000000000000       0.50000000000000000        0.0000000000000000     
  0.68750000000000000       0.50000000000000000        0.0000000000000000     
  0.71875000000000000       0.50000000000000000        0.0000000000000000     
  0.75000000000000000       0.50000000000000000        0.0000000000000000     
  0.75000000000000000       0.37500000000000000        0.0000000000000000     
  0.78125000000000000       0.37500000000000000        0.0000000000000000     
  0.81250000000000000       0.37500000000000000        0.0000000000000000     
  0.84375000000000000       0.37500000000000000        0.0000000000000000     
  0.87500000000000000       0.37500000000000000        0.0000000000000000     
  0.75000000000000000       0.40625000000000000        0.0000000000000000     
  0.78125000000000000       0.40625000000000000        0.0000000000000000     
  0.81250000000000000       0.40625000000000000        0.0000000000000000     
  0.84375000000000000       0.40625000000000000        0.0000000000000000     
  0.87500000000000000       0.40625000000000000        0.0000000000000000     
  0.75000000000000000       0.43750000000000000        0.0000000000000000     
  0.78125000000000000       0.43750000000000000        0.0000000000000000     
  0.81250000000000000       0.43750000000000000        0.0000000000000000     
  0.84375000000000000       0.43750000000000000        0.0000000000000000     
  0.87500000000000000       0.43750000000000000        0.0000000000000000     
  0.75000000000000000       0.46875000000000000        0.0000000000000000     
  0.78125000000000000       0.46875000000000000        0.0000000000000000     
  0.81250000000000000       0.46875000000000000        0.0000000000000000     
  0.84375000000000000       0.46875000000000000        0.0000000000000000     
  0.87500000000000000       0.46875000000000000        0.0000000000000000     
  0.75000000000000000       0.50000000000000000        0.0000000000000000     
  0.78125000000000000       0.50000000000000000        0.0000000000000000     
  0.81250000000000000       0.50000000000000000        0.0000000000000000     
  0.84375000000000000       0.50000000000000000        0.0000000000000000     
  0.87500000000000000       0.50000000000000000        0.0000000000000000     
  0.87500000000000000       0.37500000000000000        0.0000000000000000     
  0.90625000000000000       0.37500000000000000        0.0000000000000000     
  0.93750000000000000       0.37500000000000000        0.0000000000000000     
  0.96875000000000000       0.37500000000000000        0.0000000000000000     
   1.0000000000000000       0.37500000000000000        0.0000000000000000     
  0.87500000000000000       0.40625000000000000        0.0000000000000000     
  0.90625000000000000       0.40625000000000000        0.0000000000000000     
  0.93750000000000000       0.40625000000000000        0.0000000000000000     
  0.96875000000000000       0.40625000000000000        0.0000000000000000     
   1.0000000000000000       0.40625000000000000        0.0000000000000000     
  0.87500000000000000       0.43750000000000000        0.0000000000000000     
  0.90625000000000000       0.43750000000000000        0.0000000000000000     
  0.93750000000000000       0.43750000000000000        0.0000000000000000     
  0.96875000000000000       0.43750000000000000        0.0000000000000000     
   1.0000000000000000       0.43750000000000000        0.0000000000000000     
  0.87500000000000000       0.46875000000000000        0.0000000000000000     
  0.90625000000000000       0.46875000000000000        0.0000000000000000     
  0.93750000000000000       0.46875000000000000        0.0000000000000000     
  0.96875000000000000       0.46875000000000000        0.0000000000000000     
   1.0000000000000000       0.46875000000000000        0.0000000000000000     
  0.87500000000000000       0.50000000000000000        0.0000000000000000     
  0.90625000000000000       0.50000000000000000        0.0000000000000000     
  0.93750000000000000       0.50000000000000000        0.0000000000000000     
  0.96875000000000000       0.50000000000000000        0.0000000000000000     
   1.0000000000000000       0.50000000000000000        0.0000000000000000     
   0.0000000000000000       0.50000000000000000        0.0000000000000000     
   3.1250000000000000E-002  0.50000000000000000        0.0000000000000000     
   6.2500000000000000E-002  0.50000000000000000        0.0000000000000000     
   9.3750000000000000E-002  0.50000000000000000        0.0000000000000000     
  0.12500000000000000       0.50000000000000000        0.0000000000000000     
   0.0000000000000000       0.53125000000000000        0.0000000000000000     
   3.1250000000000000E-002  0.53125000000000000        0.0000000000000000     
   6.2500000000000000E-002  0.53125000000000000        0.0000000000000000     
   9.3750000000000000E-002  0.53125000000000000        0.0000000000000000     
  0.12500000000000000       0.53125000000000000        0.0000000000000000     
   0.0000000000000000       0.56250000000000000        0.0000000000000000     
   3.1250000000000000E-002  0.56250000000000000        0.0000000000000000     
   6.2500000000000000E-002  0.56250000000000000        0.0000000000000000     
   9.3750000000000000E-002  0.56250000000000000        0.0000000000000000     
  0.12500000000000000       0.56250000000000000        0.0000000000000000     
   0.0000000000000000       0.59375000000000000        0.0000000000000000     
   3.1250000000000000E-002  0.59375000000000000        0.0000000000000000     
   6.2500000000000000E-002  0.59375000000000000        0.0000000000000000     
   9.3750000000000000E-002  0.59375000000000000        0.0000000000000000     
  0.12500000000000000       0.59375000000000000        0.0000000000000000     
   0.0000000000000000       0.62500000000000000        0.0000000000000000     
   3.1250000000000000E-002  0.62500000000000000        0.0000000000000000     
   6.2500000000000000E-002  0.62500000000000000        0.0000000000000000     
   9.3750000000000000E-002  0.62500000000000000        0.0000000000000000     
  0.12500000000000000       0.62500000000000000        0.0000000000000000     
  0.12500000000000000       0.50000000000000000        0.0000000000000000     
  0.15625000000000000       0.50000000000000000        0.0000000000000000     
  0.18750000000000000       0.50000000000000000        0.0000000000000000     
  0.21875000000000000       0.50000000000000000        0.0000000000000000     
  0.25000000000000000       0.50000000000000000        0.0000000000000000     
  0.12500000000000000       0.53125000000000000        0.0000000000000000     
  0.15625000000000000       0.53125000000000000        0.0000000000000000     
  0.18750000000000000       0.53125000000000000        0.0000000000000000     
  0.21875000000000000       0.53125000000000000        0.0000000000000000     
  0.25000000000000000       0.53125000000000000        0.0000000000000000     
  0.12500000000000000       0.56250000000000000        0.0000000000000000     
  0.15625000000000000       0.56250000000000000        0.0000000000000000     
  0.18750000000000000       0.56250000000000000        0.0000000000000000     
  0.21875000000000000       0.56250000000000000        0.0000000000000000     
  0.25000000000000000       0.56250000000000000        0.0000000000000000     
  0.12500000000000000       0.59375000000000000        0.0000000000000000     
  0.15625000000000000       0.59375000000000000        0.0000000000000000     
  0.18750000000000000       0.59375000000000000        0.0000000000000000     
  0.21875000000000000       0.59375000000000000        0.0000000000000000     
  0.25000000000000000       0.59375000000000000        0.0000000000000000     
  0.12500000000000000       0.62500000000000000        0.0000000000000000     
  0.15625000000000000       0.62500000000000000        0.0000000000000000     
  0.18750000000000000       0.62500000000000000        0.0000000000000000     
  0.21875000000000000       0.62500000000000000        0.0000000000000000     
  0.25000000000000000       0.62500000000000000        0.0000000000000000     
  0.25000000000000000       0.50000000000000000        0.0000000000000000     
  0.28125000000000000       0.50000000000000000        0.0000000000000000     
  0.31250000000000000       0.50000000000000000        0.0000000000000000     
  0.34375000000000000       0.50000000000000000        0.0000000000000000     
  0.37500000000000000       0.50000000000000000        0.0000000000000000     
  0.25000000000000000       0.53125000000000000        0.0000000000000000     
  0.28125000000000000       0.53125000000000000        0.0000000000000000     
  0.31250000000000000       0.53125000000000000        0.0000000000000000     
  0.34375000000000000       0.53125000000000000        0.0000000000000000     
  0.37500000000000000       0.53125000000000000        0.0000000000000000     
  0.25000000000000000       0.56250000000000000        0.0000000000000000     
  0.28125000000000000       0.56250000000000000        0.0000000000000000     
  0.31250000000000000       0.56250000000000000        0.0000000000000000     
  0.34375000000000000       0.56250000000000000        0.0000000000000000     
  0.37500000000000000       0.56250000000000000        0.0000000000000000     
  0.25000000000000000       0.59375000000000000        0.0000000000000000     
  0.28125000000000000       0.59375000000000000        0.0000000000000000     
  0.31250000000000000       0.59375000000000000        0.0000000000000000     
  0.34375000000000000       0.59375000000000000        0.0000000000000000     
  0.37500000000000000       0.59375000000000000        0.0000000000000000     
  0.25000000000000000       0.62500000000000000        0.0000000000000000     
  0.28125000000000000       0.62500000000000000        0.0000000000000000     
  0.31250000000000000       0.62500000000000000        0.0000000000000000     
  0.34375000000000000       0.62500000000000000        0.0000000000000000     
  0.37500000000000000       0.62500000000000000        0.0000000000000000     
  0.37500000000000000       0.50000000000000000        0.0000000000000000     
  0.40625000000000000       0.50000000000000000        0.0000000000000000     
  0.43750000000000000       0.50000000000000000        0.0000000000000000     
  0.46875000000000000       0.50000000000000000        0.0000000000000000     
  0.50000000000000000       0.50000000000000000        0.0000000000000000     
  0.37500000000000000       0.53125000000000000        0.0000000000000000     
  0.40625000000000000       0.53125000000000000        0.0000000000000000     
  0.43750000000000000       0.53125000000000000        0.0000000000000000     
  0.46875000000000000       0.53125000000000000        0.0000000000000000     
  0.50000000000000000       0.53125000000000000        0.0000000000000000     
  0.37500000000000000       0.56250000000000000        0.0000000000000000     
  0.40625000000000000       0.56250000000000000        0.0000000000000000     
  0.43750000000000000       0.56250000000000000        0.0000000000000000     
  0.46875000000000000       0.56250000000000000        0.0000000000000000     
  0.50000000000000000       0.56250000000000000        0.0000000000000000     
  0.37500000000000000       0.59375000000000000        0.0000000000000000     
  0.40625000000000000       0.59375000000000000        0.0000000000000000     
  0.43750000000000000       0.59375000000000000        0.0000000000000000     
  0.46875000000000000       0.59375000000000000        0.0000000000000000     
  0.50000000000000000       0.59375000000000000        0.0000000000000000     
  0.37500000000000000       0.62500000000000000        0.0000000000000000     
  0.40625000000000000       0.62500000000000000        0.0000000000000000     
  0.43750000000000000       0.62500000000000000        0.0000000000000000     
  0.46875000000000000       0.62500000000000000        0.0000000000000000     
  0.50000000000000000       0.62500000000000000        0.0000000000000000     
  0.50000000000000000       0.50000000000000000        0.0000000000000000     
  0.53125000000000000       0.50000000000000000        0.0000000000000000     
  0.56250000000000000       0.50000000000000000        0.0000000000000000     
  0.59375000000000000       0.50000000000000000        0.0000000000000000     
  0.62500000000000000       0.50000000000000000        0.0000000000000000     
  0.50000000000000000       0.53125000000000000        0.0000000000000000     
  0.53125000000000000       0.53125000000000000        0.0000000000000000     
  0.56250000000000000       0.53125000000000000        0.0000000000000000     
  0.59375000000000000       0.53125000000000000        0.0000000000000000     
  0.62500000000000000       0.53125000000000000        0.0000000000000000     
  0.50000000000000000       0.56250000000000000        0.0000000000000000     
  0.53125000000000000       0.56250000000000000        0.0000000000000000     
  0.56250000000000000       0.56250000000000000        0.0000000000000000     
  0.59375000000000000       0.56250000000000000        0.0000000000000000     
  0.62500000000000000       0.56250000000000000        0.0000000000000000     
  0.50000000000000000       0.59375000000000000        0.0000000000000000     
  0.53125000000000000       0.59375000000000000        0.0000000000000000     
  0.56250000000000000       0.59375000000000000        0.0000000000000000     
  0.59375000000000000       0.59375000000000000        0.0000000000000000     
  0.62500000000000000       0.59375000000000000        0.0000000000000000     
  0.50000000000000000       0.62500000000000000        0.0000000000000000     
  0.53125000000000000       0.62500000000000000        0.0000000000000000     
  0.56250000000000000       0.62500000000000000        0.0000000000000000     
  0.59375000000000000       0.62500000000000000        0.0000000000000000     
  0.62500000000000000       0.62500000000000000        0.0000000000000000     
  0.62500000000000000       0.50000000000000000        0.0000000000000000     
  0.65625000000000000       0.50000000000000000        0.0000000000000000     
  0.68750000000000000       0.50000000000000000        0.0000000000000000     
  0.71875000000000000       0.50000000000000000        0.0000000000000000     
  0.75000000000000000       0.50000000000000000        0.0000000000000000     
  0.62500000000000000       0.53125000000000000        0.0000000000000000     
  0.65625000000000000       0.53125000000000000        0.0000000000000000     
  0.68750000000000000       0.53125000000000000        0.0000000000000000     
  0.71875000000000000       0.53125000000000000        0.0000000000000000     
  0.75000000000000000       0.53125000000000000        0.0000000000000000     
  0.62500000000000000       0.56250000000000000        0.0000000000000000     
  0.65625000000000000       0.56250000000000000        0.0000000000000000     
  0.68750000000000000       0.56250000000000000        0.0000000000000000     
  0.71875000000000000       0.56250000000000000        0.0000000000000000     
  0.75000000000000000       0.56250000000000000        0.0000000000000000     
  0.62500000000000000       0.59375000000000000        0.0000000000000000     
  0.65625000000000000       0.59375000000000000        0.0000000000000000     
  0.68750000000000000       0.59375000000000000        0.0000000000000000     
  0.71875000000000000       0.59375000000000000        0.0000000000000000     
  0.75000000000000000       0.59375000000000000        0.0000000000000000     
  0.62500000000000000       0.62500000000000000        0.0000000000000000     
  0.65625000000000000       0.62500000000000000        0.0000000000000000     
  0.68750000000000000       0.62500000000000000        0.0000000000000000     
  0.71875000000000000       0.62500000000000000        0.0000000000000000     
  0.75000000000000000       0.62500000000000000        0.0000000000000000     
  0.75000000000000000       0.50000000000000000        0.0000000000000000     
  0.78125000000000000       0.50000000000000000        0.0000000000000000     
  0.81250000000000000       0.50000000000000000        0.0000000000000000     
  0.84375000000000000       0.50000000000000000        0.0000000000000000     
  0.87500000000000000       0.50000000000000000        0.0000000000000000     
  0.75000000000000000       0.53125000000000000        0.0000000000000000     
  0.78125000000000000       0.53125000000000000        0.0000000000000000     
  0.81250000000000000       0.53125000000000000        0.0000000000000000     
  0.84375000000000000       0.53125000000000000        0.0000000000000000     
  0.87500000000000000       0.53125000000000000        0.0000000000000000     
  0.75000000000000000       0.56250000000000000        0.0000000000000000     
  0.78125000000000000       0.56250000000000000        0.0000000000000000     
  0.81250000000000000       0.56250000000000000        0.0000000000000000     
  0.84375000000000000       0.56250000000000000        0.0000000000000000     
  0.87500000000000000       0.56250000000000000        0.0000000000000000     
  0.75000000000000000       0.59375000000000000        0.0000000000000000     
  0.78125000000000000       0.59375000000000000        0.0000000000000000     
  0.81250000000000000       0.59375000000000000        0.0000000000000000     
  0.84375000000000000       0.59375000000000000        0.0000000000000000     
  0.87500000000000000       0.59375000000000000        0.0000000000000000     
  0.75000000000000000       0.62500000000000000        0.0000000000000000     
  0.78125000000000000       0.62500000000000000        0.0000000000000000     
  0.81250000000000000       0.62500000000000000        0.0000000000000000     
  0.84375000000000000       0.62500000000000000        0.0000000000000000     
  0.87500000000000000       0.62500000000000000        0.0000000000000000     
  0.87500000000000000       0.50000000000000000        0.0000000000000000     
  0.90625000000000000       0.50000000000000000        0.0000000000000000     
  0.93750000000000000       0.50000000000000000        0.0000000000000000     
  0.96875000000000000       0.50000000000000000        0.0000000000000000     
   1.0000000000000000       0.50000000000000000        0.0000000000000000     
  0.87500000000000000       0.53125000000000000        0.0000000000000000     
  0.90625000000000000       0.53125000000000000        0.0000000000000000     
  0.93750000000000000       0.53125000000000000        0.0000000000000000     
  0.96875000000000000       0.53125000000000000        0.0000000000000000     
   1.0000000000000000       0.53125000000000000        0.0000000000000000     
  0.87500000000000000       0.56250000000000000        0.0000000000000000     
  0.90625000000000000       0.56250000000000000        0.0000000000000000     
  0.93750000000000000       0.56250000000000000        0.0000000000000000     
  0.96875000000000000       0.56250000000000000        0.0000000000000000     
   1.0000000000000000       0.56250000000000000        0.0000000000000000     
  0.87500000000000000       0.59375000000000000        0.0000000000000000     
  0.90625000000000000       0.59375000000000000        0.0000000000000000     
  0.93750000000000000       0.59375000000000000        0.0000000000000000     
  0.96875000000000000       0.59375000000000000        0.0000000000000000     
   1.0000000000000000       0.59375000000000000        0.0000000000000000     
  0.87500000000000000       0.62500000000000000        0.0000000000000000     
  0.90625000000000000       0.62500000000000000        0.0000000000000000     
  0.93750000000000000       0.62500000000000000        0.0000000000000000     
  0.96875000000000000       0.62500000000000000        0.0000000000000000     
   1.0000000000000000       0.62500000000000000        0.0000000000000000     
   0.0000000000000000       0.62500000000000000        0.0000000000000000     
   3.1250000000000000E-002  0.62500000000000000        0.0000000000000000     
   6.2500000000000000E-002  0.62500000000000000        0.0000000000000000     
   9.3750000000000000E-002  0.62500000000000000        0.0000000000000000     
  0.12500000000000000       0.62500000000000000        0.0000000000000000     
   0.0000000000000000       0.65625000000000000        0.0000000000000000     
   3.1250000000000000E-002  0.65625000000000000        0.0000000000000000     
   6.2500000000000000E-002  0.65625000000000000        0.0000000000000000     
   9.3750000000000000E-002  0.65625000000000000        0.0000000000000000     
  0.12500000000000000       0.65625000000000000        0.0000000000000000     
   0.0000000000000000       0.68750000000000000        0.0000000000000000     
   3.1250000000000000E-002  0.68750000000000000        0.0000000000000000     
   6.2500000000000000E-002  0.68750000000000000        0.0000000000000000     
   9.3750000000000000E-002  0.68750000000000000        0.0000000000000000     
  0.12500000000000000       0.68750000000000000        0.0000000000000000     
   0.0000000000000000       0.71875000000000000        0.0000000000000000     
   3.1250000000000000E-002  0.71875000000000000        0.0000000000000000     
   6.2500000000000000E-002  0.71875000000000000        0.0000000000000000     
   9.3750000000000000E-002  0.71875000000000000        0.0000000000000000     
  0.12500000000000000       0.71875000000000000        0.0000000000000000     
   0.0000000000000000       0.75000000000000000        0.0000000000000000     
   3.1250000000000000E-002  0.75000000000000000        0.0000000000000000     
   6.2500000000000000E-002  0.75000000000000000        0.0000000000000000     
   9.3750000000000000E-002  0.75000000000000000        0.0000000000000000     
  0.12500000000000000       0.75000000000000000        0.0000000000000000     
  0.12500000000000000       0.62500000000000000        0.0000000000000000     
  0.15625000000000000       0.62500000000000000        0.0000000000000000     
  0.18750000000000000       0.62500000000000000        0.0000000000000000     
  0.21875000000000000       0.62500000000000000        0.0000000000000000     
  0.25000000000000000       0.62500000000000000        0.0000000000000000     
  0.12500000000000000       0.65625000000000000        0.0000000000000000     
  0.15625000000000000       0.65625000000000000        0.0000000000000000     
  0.18750000000000000       0.65625000000000000        0.0000000000000000     
  0.21875000000000000       0.65625000000000000        0.0000000000000000     
  0.25000000000000000       0.65625000000000000        0.0000000000000000     
  0.12500000000000000       0.68750000000000000        0.0000000000000000     
  0.15625000000000000       0.68750000000000000        0.0000000000000000     
  0.18750000000000000       0.68750000000000000        0.0000000000000000     
  0.21875000000000000       0.68750000000000000        0.0000000000000000     
  0.25000000000000000       0.68750000000000000        0.0000000000000000     
  0.12500000000000000       0.71875000000000000        0.0000000000000000     
  0.15625000000000000       0.71875000000000000        0.0000000000000000     
  0.18750000000000000       0.71875000000000000        0.0000000000000000     
  0.21875000000000000       0.71875000000000000        0.0000000000000000     
  0.25000000000000000       0.71875000000000000        0.0000000000000000     
  0.12500000000000000       0.75000000000000000        0.0000000000000000     
  0.15625000000000000       0.75000000000000000        0.0000000000000000     
  0.18750000000000000       0.75000000000000000        0.0000000000000000     
  0.21875000000000000       0.75000000000000000        0.0000000000000000     
  0.25000000000000000       0.75000000000000000        0.0000000000000000     
  0.25000000000000000       0.62500000000000000        0.0000000000000000     
  0.28125000000000000       0.62500000000000000        0.0000000000000000     
  0.31250000000000000       0.62500000000000000        0.0000000000000000     
  0.34375000000000000       0.62500000000000000        0.0000000000000000     
  0.37500000000000000       0.62500000000000000        0.0000000000000000     
  0.25000000000000000       0.65625000000000000        0.0000000000000000     
  0.28125000000000000       0.65625000000000000        0.0000000000000000     
  0.31250000000000000       0.65625000000000000        0.0000000000000000     
  0.34375000000000000       0.65625000000000000        0.0000000000000000     
  0.37500000000000000       0.65625000000000000        0.0000000000000000     
  0.25000000000000000       0.68750000000000000        0.0000000000000000     
  0.28125000000000000       0.68750000000000000        0.0000000000000000     
  0.31250000000000000       0.68750000000000000        0.0000000000000000     
  0.34375000000000000       0.68750000000000000        0.0000000000000000     
  0.37500000000000000       0.68750000000000000        0.0000000000000000     
  0.25000000000000000       0.71875000000000000        0.0000000000000000     
  0.28125000000000000       0.71875000000000000        0.0000000000000000     
  0.31250000000000000       0.71875000000000000        0.0000000000000000     
  0.34375000000000000       0.71875000000000000        0.0000000000000000     
  0.37500000000000000       0.71875000000000000        0.0000000000000000     
  0.25000000000000000       0.75000000000000000        0.0000000000000000     
  0.28125000000000000       0.75000000000000000        0.0000000000000000     
  0.31250000000000000       0.75000000000000000        0.0000000000000000     
  0.34375000000000000       0.75000000000000000        0.0000000000000000     
  0.37500000000000000       0.75000000000000000        0.0000000000000000     
  0.37500000000000000       0.62500000000000000        0.0000000000000000     
  0.40625000000000000       0.62500000000000000        0.0000000000000000     
  0.43750000000000000       0.62500000000000000        0.0000000000000000     
  0.46875000000000000       0.62500000000000000        0.0000000000000000     
  0.50000000000000000       0.62500000000000000        0.0000000000000000     
  0.37500000000000000       0.65625000000000000        0.0000000000000000     
  0.40625000000000000       0.65625000000000000        0.0000000000000000     
  0.43750000000000000       0.65625000000000000        0.0000000000000000     
  0.46875000000000000       0.65625000000000000        0.0000000000000000     
  0.50000000000000000       0.65625000000000000        0.0000000000000000     
  0.37500000000000000       0.68750000000000000        0.0000000000000000     
  0.40625000000000000       0.68750000000000000        0.0000000000000000     
  0.43750000000000000       0.68750000000000000        0.0000000000000000     
  0.46875000000000000       0.68750000000000000        0.0000000000000000     
  0.50000000000000000       0.68750000000000000        0.0000000000000000     
  0.37500000000000000       0.71875000000000000        0.0000000000000000     
  0.40625000000000000       0.71875000000000000        0.0000000000000000     
  0.43750000000000000       0.71875000000000000        0.0000000000000000     
  0.46875000000000000       0.71875000000000000        0.0000000000000000     
  0.50000000000000000       0.71875000000000000        0.0000000000000000     
  0.37500000000000000       0.75000000000000000        0.0000000000000000     
  0.40625000000000000       0.75000000000000000        0.0000000000000000     
  0.43750000000000000       0.75000000000000000        0.0000000000000000     
  0.46875000000000000       0.75000000000000000        0.0000000000000000     
  0.50000000000000000       0.75000000000000000        0.0000000000000000     
  0.50000000000000000       0.62500000000000000        0.0000000000000000     
  0.53125000000000000       0.62500000000000000        0.0000000000000000     
  0.56250000000000000       0.62500000000000000        0.0000000000000000     
  0.59375000000000000       0.62500000000000000        0.0000000000000000     
  0.62500000000000000       0.62500000000000000        0.0000000000000000     
  0.50000000000000000       0.65625000000000000        0.0000000000000000     
  0.53125000000000000       0.65625000000000000        0.0000000000000000     
  0.56250000000000000       0.65625000000000000        0.0000000000000000     
  0.59375000000000000       0.65625000000000000        0.0000000000000000     
  0.62500000000000000       0.65625000000000000        0.0000000000000000     
  0.50000000000000000       0.68750000000000000        0.0000000000000000     
  0.53125000000000000       0.68750000000000000        0.0000000000000000     
  0.56250000000000000       0.68750000000000000        0.0000000000000000     
  0.59375000000000000       0.68750000000000000        0.0000000000000000     
  0.62500000000000000       0.68750000000000000        0.0000000000000000     
  0.50000000000000000       0.71875000000000000        0.0000000000000000     
  0.53125000000000000       0.71875000000000000        0.0000000000000000     
  0.56250000000000000       0.71875000000000000        0.0000000000000000     
  0.59375000000000000       0.71875000000000000        0.0000000000000000     
  0.62500000000000000       0.71875000000000000        0.0000000000000000     
  0.50000000000000000       0.75000000000000000        0.0000000000000000     
  0.53125000000000000       0.75000000000000000        0.0000000000000000     
  0.56250000000000000       0.75000000000000000        0.0000000000000000     
  0.59375000000000000       0.75000000000000000        0.0000000000000000     
  0.62500000000000000       0.75000000000000000        0.0000000000000000     
  0.62500000000000000       0.62500000000000000        0.0000000000000000     
  0.65625000000000000       0.62500000000000000        0.0000000000000000     
  0.68750000000000000       0.62500000000000000        0.0000000000000000     
  0.71875000000000000       0.62500000000000000        0.0000000000000000     
  0.75000000000000000       0.62500000000000000        0.0000000000000000     
  0.62500000000000000       0.65625000000000000        0.0000000000000000     
  0.65625000000000000       0.65625000000000000        0.0000000000000000     
  0.68750000000000000       0.65625000000000000        0.0000000000000000     
  0.71875000000000000       0.65625000000000000        0.0000000000000000     
  0.75000000000000000       0.65625000000000000        0.0000000000000000     
  0.62500000000000000       0.68750000000000000        0.0000000000000000     
  0.65625000000000000       0.68750000000000000        0.0000000000000000     
  0.68750000000000000       0.68750000000000000        0.0000000000000000     
  0.71875000000000000       0.68750000000000000        0.0000000000000000     
  0.75000000000000000       0.68750000000000000        0.0000000000000000     
  0.62500000000000000       0.71875000000000000        0.0000000000000000     
  0.65625000000000000       0.71875000000000000        0.0000000000000000     
  0.68750000000000000       0.71875000000000000        0.0000000000000000     
  0.71875000000000000       0.71875000000000000        0.0000000000000000     
  0.75000000000000000       0.71875000000000000        0.0000000000000000     
  0.62500000000000000       0.75000000000000000        0.0000000000000000     
  0.65625000000000000       0.75000000000000000        0.0000000000000000     
  0.68750000000000000       0.75000000000000000        0.0000000000000000     
  0.71875000000000000       0.75000000000000000        0.0000000000000000     
  0.75000000000000000       0.75000000000000000        0.0000000000000000     
  0.75000000000000000       0.62500000000000000        0.0000000000000000     
  0.78125000000000000       0.62500000000000000        0.0000000000000000     
  0.81250000000000000       0.62500000000000000        0.0000000000000000     
  0.84375000000000000       0.62500000000000000        0.0000000000000000     
  0.87500000000000000       0.62500000000000000        0.0000000000000000     
  0.75000000000000000       0.65625000000000000        0.0000000000000000     
  0.78125000000000000       0.65625000000000000        0.0000000000000000     
  0.81250000000000000       0.65625000000000000        0.0000000000000000     
  0.84375000000000000       0.65625000000000000        0.0000000000000000     
  0.87500000000000000       0.65625000000000000        0.0000000000000000     
  0.75000000000000000       0.68750000000000000        0.0000000000000000     
  0.78125000000000000       0.68750000000000000        0.0000000000000000     
  0.81250000000000000       0.68750000000000000        0.0000000000000000     
  0.84375000000000000       0.68750000000000000        0.0000000000000000     
  0.87500000000000000       0.68750000000000000        0.0000000000000000     
  0.75000000000000000       0.71875000000000000        0.0000000000000000     
  0.78125000000000000       0.71875000000000000        0.0000000000000000     
  0.81250000000000000       0.71875000000000000        0.0000000000000000     
  0.84375000000000000       0.71875000000000000        0.0000000000000000     
  0.87500000000000000       0.71875000000000000        0.0000000000000000     
  0.75000000000000000       0.75000000000000000        0.0000000000000000     
  0.78125000000000000       0.75000000000000000        0.0000000000000000     
  0.81250000000000000       0.75000000000000000        0.0000000000000000     
  0.84375000000000000       0.75000000000000000        0.0000000000000000     
  0.87500000000000000       0.75000000000000000        0.0000000000000000     
  0.87500000000000000       0.62500000000000000        0.0000000000000000     
  0.90625000000000000       0.62500000000000000        0.0000000000000000     
  0.93750000000000000       0.62500000000000000        0.0000000000000000     
  0.96875000000000000       0.62500000000000000        0.0000000000000000     
   1.0000000000000000       0.62500000000000000        0.0000000000000000     
  0.87500000000000000       0.65625000000000000        0.0000000000000000     
  0.90625000000000000       0.65625000000000000        0.0000000000000000     
  0.93750000000000000       0.65625000000000000        0.0000000000000000     
  0.96875000000000000       0.65625000000000000        0.0000000000000000     
   1.0000000000000000       0.65625000000000000        0.0000000000000000     
  0.87500000000000000       0.68750000000000000        0.0000000000000000     
  0.90625000000000000       0.68750000000000000        0.0000000000000000     
  0.93750000000000000       0.68750000000000000        0.0000000000000000     
  0.96875000000000000       0.68750000000000000        0.0000000000000000     
   1.0000000000000000       0.68750000000000000        0.0000000000000000     
  0.87500000000000000       0.71875000000000000        0.0000000000000000     
  0.90625000000000000       0.71875000000000000        0.0000000000000000     
  0.93750000000000000       0.71875000000000000        0.0000000000000000     
  0.96875000000000000       0.71875000000000000        0.0000000000000000     
   1.0000000000000000       0.71875000000000000        0.0000000000000000     
  0.87500000000000000       0.75000000000000000        0.0000000000000000     
  0.90625000000000000       0.75000000000000000        0.0000000000000000     
  0.93750000000000000       0.75000000000000000        0.0000000000000000     
  0.96875000000000000       0.75000000000000000        0.0000000000000000     
   1.0000000000000000       0.75000000000000000        0.0000000000000000     
   0.0000000000000000       0.75000000000000000        0.0000000000000000     
   3.1250000000000000E-002  0.75000000000000000        0.0000000000000000     
   6.2500000000000000E-002  0.75000000000000000        0.0000000000000000     
   9.3750000000000000E-002  0.75000000000000000        0.0000000000000000     
  0.12500000000000000       0.75000000000000000        0.0000000000000000     
   0.0000000000000000       0.78125000000000000        0.0000000000000000     
   3.1250000000000000E-002  0.78125000000000000        0.0000000000000000     
   6.2500000000000000E-002  0.78125000000000000        0.0000000000000000     
   9.3750000000000000E-002  0.78125000000000000        0.0000000000000000     
  0.12500000000000000       0.78125000000000000        0.0000000000000000     
   0.0000000000000000       0.81250000000000000        0.0000000000000000     
   3.1250000000000000E-002  0.81250000000000000        0.0000000000000000     
   6.2500000000000000E-002  0.81250000000000000        0.0000000000000000     
   9.3750000000000000E-002  0.81250000000000000        0.0000000000000000     
  0.12500000000000000       0.81250000000000000        0.0000000000000000     
   0.0000000000000000       0.84375000000000000        0.0000000000000000     
   3.1250000000000000E-002  0.84375000000000000        0.0000000000000000     
   6.2500000000000000E-002  0.84375000000000000        0.0000000000000000     
   9.3750000000000000E-002  0.84375000000000000        0.0000000000000000     
  0.12500000000000000       0.84375000000000000        0.0000000000000000     
   0.0000000000000000       0.87500000000000000        0.0000000000000000     
   3.1250000000000000E-002  0.87500000000000000        0.0000000000000000     
   6.2500000000000000E-002  0.87500000000000000        0.0000000000000000     
   9.3750000000000000E-002  0.87500000000000000        0.0000000000000000     
  0.12500000000000000       0.87500000000000000        0.0000000000000000     
  0.12500000000000000       0.75000000000000000        0.0000000000000000     
  0.15625000000000000       0.75000000000000000        0.0000000000000000     
  0.18750000000000000       0.75000000000000000        0.0000000000000000     
  0.21875000000000000       0.75000000000000000        0.0000000000000000     
  0.25000000000000000       0.75000000000000000        0.0000000000000000     
  0.12500000000000000       0.78125000000000000        0.0000000000000000     
  0.15625000000000000       0.78125000000000000        0.0000000000000000     
  0.18750000000000000       0.78125000000000000        0.0000000000000000     
  0.21875000000000000       0.78125000000000000        0.0000000000000000     
  0.25000000000000000       0.78125000000000000        0.0000000000000000     
  0.12500000000000000       0.81250000000000000        0.0000000000000000     
  0.15625000000000000       0.81250000000000000        0.0000000000000000     
  0.18750000000000000       0.81250000000000000        0.0000000000000000     
  0.21875000000000000       0.81250000000000000        0.0000000000000000     
  0.25000000000000000       0.81250000000000000        0.0000000000000000     
  0.12500000000000000       0.84375000000000000        0.0000000000000000     
  0.15625000000000000       0.84375000000000000        0.0000000000000000     
  0.18750000000000000       0.84375000000000000        0.0000000000000000     
  0.21875000000000000       0.84375000000000000        0.0000000000000000     
  0.25000000000000000       0.84375000000000000        0.0000000000000000     
  0.12500000000000000       0.87500000000000000        0.0000000000000000     
  0.15625000000000000       0.87500000000000000        0.0000000000000000     
  0.18750000000000000       0.87500000000000000        0.0000000000000000     
  0.21875000000000000       0.87500000000000000        0.0000000000000000     
  0.25000000000000000       0.87500000000000000        0.0000000000000000     
  0.25000000000000000       0.75000000000000000        0.0000000000000000     
  0.28125000000000000       0.75000000000000000        0.0000000000000000     
  0.31250000000000000       0.75000000000000000        0.0000000000000000     
  0.34375000000000000       0.75000000000000000        0.0000000000000000     
  0.37500000000000000       0.75000000000000000        0.0000000000000000     
  0.25000000000000000       0.78125000000000000        0.0000000000000000     
  0.28125000000000000       0.78125000000000000        0.0000000000000000     
  0.31250000000000000       0.78125000000000000        0.0000000000000000     
  0.34375000000000000       0.78125000000000000        0.0000000000000000     
  0.37500000000000000       0.78125000000000000        0.0000000000000000     
  0.25000000000000000       0.81250000000000000        0.0000000000000000     
  0.28125000000000000       0.81250000000000000        0.0000000000000000     
  0.31250000000000000       0.81250000000000000        0.0000000000000000     
  0.34375000000000000       0.81250000000000000        0.0000000000000000     
  0.37500000000000000       0.81250000000000000        0.0000000000000000     
  0.25000000000000000       0.84375000000000000        0.0000000000000000     
  0.28125000000000000       0.84375000000000000        0.0000000000000000     
  0.31250000000000000       0.84375000000000000        0.0000000000000000     
  0.34375000000000000       0.84375000000000000        0.0000000000000000     
  0.37500000000000000       0.84375000000000000        0.0000000000000000     
  0.25000000000000000       0.87500000000000000        0.0000000000000000     
  0.28125000000000000       0.87500000000000000        0.0000000000000000     
  0.31250000000000000       0.87500000000000000        0.0000000000000000     
  0.34375000000000000       0.87500000000000000        0.0000000000000000     
  0.37500000000000000       0.87500000000000000        0.0000000000000000     
  0.37500000000000000       0.75000000000000000        0.0000000000000000     
  0.40625000000000000       0.75000000000000000        0.0000000000000000     
  0.43750000000000000       0.75000000000000000        0.0000000000000000     
  0.46875000000000000       0.75000000000000000        0.0000000000000000     
  0.50000000000000000       0.75000000000000000        0.0000000000000000     
  0.37500000000000000       0.78125000000000000        0.0000000000000000     
  0.40625000000000000       0.78125000000000000        0.0000000000000000     
  0.43750000000000000       0.78125000000000000        0.0000000000000000     
  0.46875000000000000       0.78125000000000000        0.0000000000000000     
  0.50000000000000000       0.78125000000000000        0.0000000000000000     
  0.37500000000000000       0.81250000000000000        0.0000000000000000     
  0.40625000000000000       0.81250000000000000        0.0000000000000000     
  0.43750000000000000       0.81250000000000000        0.0000000000000000     
  0.46875000000000000       0.81250000000000000        0.0000000000000000     
  0.50000000000000000       0.81250000000000000        0.0000000000000000     
  0.37500000000000000       0.84375000000000000        0.0000000000000000     
  0.40625000000000000       0.84375000000000000        0.0000000000000000     
  0.43750000000000000       0.84375000000000000        0.0000000000000000     
  0.46875000000000000       0.84375000000000000        0.0000000000000000     
  0.50000000000000000       0.84375000000000000        0.0000000000000000     
  0.37500000000000000       0.87500000000000000        0.0000000000000000     
  0.40625000000000000       0.87500000000000000        0.0000000000000000     
  0.43750000000000000       0.87500000000000000        0.0000000000000000     
  0.46875000000000000       0.87500000000000000        0.0000000000000000     
  0.50000000000000000       0.87500000000000000        0.0000000000000000     
  0.50000000000000000       0.75000000000000000        0.0000000000000000     
  0.53125000000000000       0.75000000000000000        0.0000000000000000     
  0.56250000000000000       0.75000000000000000        0.0000000000000000     
  0.59375000000000000       0.75000000000000000        0.0000000000000000     
  0.62500000000000000       0.75000000000000000        0.0000000000000000     
  0.50000000000000000       0.78125000000000000        0.0000000000000000     
  0.53125000000000000       0.78125000000000000        0.0000000000000000     
  0.56250000000000000       0.78125000000000000        0.0000000000000000     
  0.59375000000000000       0.78125000000000000        0.0000000000000000     
  0.62500000000000000       0.78125000000000000        0.0000000000000000     
  0.50000000000000000       0.81250000000000000        0.0000000000000000     
  0.53125000000000000       0.81250000000000000        0.0000000000000000     
  0.56250000000000000       0.81250000000000000        0.0000000000000000     
  0.59375000000000000       0.81250000000000000        0.0000000000000000     
  0.62500000000000000       0.81250000000000000        0.0000000000000000     
  0.50000000000000000       0.84375000000000000        0.0000000000000000     
  0.53125000000000000       0.84375000000000000        0.0000000000000000     
  0.56250000000000000       0.84375000000000000        0.0000000000000000     
  0.59375000000000000       0.84375000000000000        0.0000000000000000     
  0.62500000000000000       0.84375000000000000        0.0000000000000000     
  0.50000000000000000       0.87500000000000000        0.0000000000000000     
  0.53125000000000000       0.87500000000000000        0.0000000000000000     
  0.56250000000000000       0.87500000000000000        0.0000000000000000     
  0.59375000000000000       0.87500000000000000        0.0000000000000000     
  0.62500000000000000       0.87500000000000000        0.0000000000000000     
  0.62500000000000000       0.75000000000000000        0.0000000000000000     
  0.65625000000000000       0.75000000000000000        0.0000000000000000     
  0.68750000000000000       0.75000000000000000        0.0000000000000000     
  0.71875000000000000       0.75000000000000000        0.0000000000000000     
  0.75000000000000000       0.75000000000000000        0.0000000000000000     
  0.62500000000000000       0.78125000000000000        0.0000000000000000     
  0.65625000000000000       0.78125000000000000        0.0000000000000000     
  0.68750000000000000       0.78125000000000000        0.0000000000000000     
  0.71875000000000000       0.78125000000000000        0.0000000000000000     
  0.75000000000000000       0.78125000000000000        0.0000000000000000     
  0.62500000000000000       0.81250000000000000        0.0000000000000000     
  0.65625000000000000       0.81250000000000000        0.0000000000000000     
  0.68750000000000000       0.81250000000000000        0.0000000000000000     
  0.71875000000000000       0.81250000000000000        0.0000000000000000     
  0.75000000000000000       0.81250000000000000        0.0000000000000000     
  0.62500000000000000       0.84375000000000000        0.0000000000000000     
  0.65625000000000000       0.84375000000000000        0.0000000000000000     
  0.68750000000000000       0.84375000000000000        0.0000000000000000     
  0.71875000000000000       0.84375000000000000        0.0000000000000000     
  0.75000000000000000       0.84375000000000000        0.0000000000000000     
  0.62500000000000000       0.87500000000000000        0.0000000000000000     
  0.65625000000000000       0.87500000000000000        0.0000000000000000     
  0.68750000000000000       0.87500000000000000        0.0000000000000000     
  0.71875000000000000       0.87500000000000000        0.0000000000000000     
  0.75000000000000000       0.87500000000000000        0.0000000000000000     
  0.75000000000000000       0.75000000000000000        0.0000000000000000     
  0.78125000000000000       0.75000000000000000        0.0000000000000000     
  0.81250000000000000       0.75000000000000000        0.0000000000000000     
  0.84375000000000000       0.75000000000000000        0.0000000000000000     
  0.87500000000000000       0.75000000000000000        0.0000000000000000     
  0.75000000000000000       0.78125000000000000        0.0000000000000000     
  0.78125000000000000       0.78125000000000000        0.0000000000000000     
  0.81250000000000000       0.78125000000000000        0.0000000000000000     
  0.84375000000000000       0.78125000000000000        0.0000000000000000     
  0.87500000000000000       0.78125000000000000        0.0000000000000000     
  0.75000000000000000       0.81250000000000000        0.0000000000000000     
  0.78125000000000000       0.81250000000000000        0.0000000000000000     
  0.81250000000000000       0.81250000000000000        0.0000000000000000     
  0.84375000000000000       0.81250000000000000        0.0000000000000000     
  0.87500000000000000       0.81250000000000000        0.0000000000000000     
  0.75000000000000000       0.84375000000000000        0.0000000000000000     
  0.78125000000000000       0.84375000000000000        0.0000000000000000     
  0.81250000000000000       0.84375000000000000        0.0000000000000000     
  0.84375000000000000       0.84375000000000000        0.0000000000000000     
  0.87500000000000000       0.84375000000000000        0.0000000000000000     
  0.75000000000000000       0.87500000000000000        0.0000000000000000     
  0.78125000000000000       0.87500000000000000        0.0000000000000000     
  0.81250000000000000       0.87500000000000000        0.0000000000000000     
  0.84375000000000000       0.87500000000000000        0.0000000000000000     
  0.87500000000000000       0.87500000000000000        0.0000000000000000     
  0.87500000000000000       0.75000000000000000        0.0000000000000000     
  0.90625000000000000       0.75000000000000000        0.0000000000000000     
  0.93750000000000000       0.75000000000000000        0.0000000000000000     
  0.96875000000000000       0.75000000000000000        0.0000000000000000     
   1.0000000000000000       0.75000000000000000        0.0000000000000000     
  0.87500000000000000       0.78125000000000000        0.0000000000000000     
  0.90625000000000000       0.78125000000000000        0.0000000000000000     
  0.93750000000000000       0.78125000000000000        0.0000000000000000     
  0.96875000000000000       0.78125000000000000        0.0000000000000000     
   1.0000000000000000       0.78125000000000000        0.0000000000000000     
  0.87500000000000000       0.81250000000000000        0.0000000000000000     
  0.90625000000000000       0.81250000000000000        0.0000000000000000     
  0.93750000000000000       0.81250000000000000        0.0000000000000000     
  0.96875000000000000       0.81250000000000000        0.0000000000000000     
   1.0000000000000000       0.81250000000000000        0.0000000000000000     
  0.87500000000000000       0.84375000000000000        0.0000000000000000     
  0.90625000000000000       0.84375000000000000        0.0000000000000000     
  0.93750000000000000       0.84375000000000000        0.0000000000000000     
  0.96875000000000000       0.84375000000000000        0.0000000000000000     
   1.0000000000000000       0.84375000000000000        0.0000000000000000     
  0.87500000000000000       0.87500000000000000        0.0000000000000000     
  0.90625000000000000       0.87500000000000000        0.0000000000000000     
  0.93750000000000000       0.87500000000000000        0.0000000000000000     
  0.96875000000000000       0.87500000000000000        0.0000000000000000     
   1.0000000000000000       0.87500000000000000        0.0000000000000000     
   0.0000000000000000       0.87500000000000000        0.0000000000000000     
   3.1250000000000000E-002  0.87500000000000000        0.0000000000000000     
   6.2500000000000000E-002  0.87500000000000000        0.0000000000000000     
   9.3750000000000000E-002  0.87500000000000000        0.0000000000000000     
  0.12500000000000000       0.87500000000000000        0.0000000000000000     
   0.0000000000000000       0.90625000000000000        0.0000000000000000     
   3.1250000000000000E-002  0.90625000000000000        0.0000000000000000     
   6.2500000000000000E-002  0.90625000000000000        0.0000000000000000     
   9.3750000000000000E-002  0.90625000000000000        0.0000000000000000     
  0.12500000000000000       0.90625000000000000        0.0000000000000000     
   0.0000000000000000       0.93750000000000000        0.0000000000000000     
   3.1250000000000000E-002  0.93750000000000000        0.0000000000000000     
   6.2500000000000000E-002  0.93750000000000000        0.0000000000000000     
   9.3750000000000000E-002  0.93750000000000000        0.0000000000000000     
  0.12500000000000000       0.93750000000000000        0.0000000000000000     
   0.0000000000000000       0.96875000000000000        0.0000000000000000     
   3.1250000000000000E-002  0.96875000000000000        0.0000000000000000     
   6.2500000000000000E-002  0.96875000000000000        0.0000000000000000     
   9.3750000000000000E-002  0.96875000000000000        0.0000000000000000     
  0.12500000000000000       0.96875000000000000        0.0000000000000000     
   0.0000000000000000        1.0000000000000000        0.0000000000000000     
   3.1250000000000000E-002   1.0000000000000000        0.0000000000000000     
   6.2500000000000000E-002   1.0000000000000000        0.0000000000000000     
   9.3750000000000000E-002   1.0000000000000000        0.0000000000000000     
  0.12500000000000000        1.0000000000000000        0.0000000000000000     
  0.12500000000000000       0.87500000000000000        0.0000000000000000     
  0.15625000000000000       0.87500000000000000        0.0000000000000000     
  0.18750000000000000       0.87500000000000000        0.0000000000000000     
  0.21875000000000000       0.87500000000000000        0.0000000000000000     
  0.25000000000000000       0.87500000000000000        0.0000000000000000     
  0.12500000000000000       0.90625000000000000        0.0000000000000000     
  0.15625000000000000       0.90625000000000000        0.0000000000000000     
  0.18750000000000000       0.90625000000000000        0.0000000000000000     
  0.21875000000000000       0.90625000000000000        0.0000000000000000     
  0.25000000000000000       0.90625000000000000        0.0000000000000000     
  0.12500000000000000       0.93750000000000000        0.0000000000000000     
  0.15625000000000000       0.93750000000000000        0.0000000000000000     
  0.18750000000000000       0.93750000000000000        0.0000000000000000     
  0.21875000000000000       0.93750000000000000        0.0000000000000000     
  0.25000000000000000       0.93750000000000000        0.0000000000000000     
  0.12500000000000000       0.96875000000000000        0.0000000000000000     
  0.15625000000000000       0.96875000000000000        0.0000000000000000     
  0.18750000000000000       0.96875000000000000        0.0000000000000000     
  0.21875000000000000       0.96875000000000000        0.0000000000000000     
  0.25000000000000000       0.96875000000000000        0.0000000000000000     
  0.12500000000000000        1.0000000000000000        0.0000000000000000     
  0.15625000000000000        1.0000000000000000        0.0000000000000000     
  0.18750000000000000        1.0000000000000000        0.0000000000000000     
  0.21875000000000000        1.0000000000000000        0.0000000000000000     
  0.25000000000000000        1.0000000000000000        0.0000000000000000     
  0.25000000000000000       0.87500000000000000        0.0000000000000000     
  0.28125000000000000       0.87500000000000000        0.0000000000000000     
  0.31250000000000000       0.87500000000000000        0.0000000000000000     
  0.34375000000000000       0.87500000000000000        0.0000000000000000     
  0.37500000000000000       0.87500000000000000        0.0000000000000000     
  0.25000000000000000       0.90625000000000000        0.0000000000000000     
  0.28125000000000000       0.90625000000000000        0.0000000000000000     
  0.31250000000000000       0.90625000000000000        0.0000000000000000     
  0.34375000000000000       0.90625000000000000        0.0000000000000000     
  0.37500000000000000       0.90625000000000000        0.0000000000000000     
  0.25000000000000000       0.93750000000000000        0.0000000000000000     
  0.28125000000000000       0.93750000000000000        0.0000000000000000     
  0.31250000000000000       0.93750000000000000        0.0000000000000000     
  0.34375000000000000       0.93750000000000000        0.0000000000000000     
  0.37500000000000000       0.93750000000000000        0.0000000000000000     
  0.25000000000000000       0.96875000000000000        0.0000000000000000     
  0.28125000000000000       0.96875000000000000        0.0000000000000000     
  0.31250000000000000       0.96875000000000000        0.0000000000000000     
  0.34375000000000000       0.96875000000000000        0.0000000000000000     
  0.37500000000000000       0.96875000000000000        0.0000000000000000     
  0.25000000000000000        1.0000000000000000        0.0000000000000000     
  0.28125000000000000        1.0000000000000000        0.0000000000000000     
  0.31250000000000000        1.0000000000000000        0.0000000000000000     
  0.34375000000000000        1.0000000000000000        0.0000000000000000     
  0.37500000000000000        1.0000000000000000        0.0000000000000000     
  0.37500000000000000       0.87500000000000000        0.0000000000000000     
  0.40625000000000000       0.87500000000000000        0.0000000000000000     
  0.43750000000000000       0.87500000000000000        0.0000000000000000     
  0.46875000000000000       0.87500000000000000        0.0000000000000000     
  0.50000000000000000       0.87500000000000000        0.0000000000000000     
  0.37500000000000000       0.90625000000000000        0.0000000000000000     
  0.40625000000000000       0.90625000000000000        0.0000000000000000     
  0.43750000000000000       0.90625000000000000        0.0000000000000000     
  0.46875000000000000       0.90625000000000000        0.0000000000000000     
  0.50000000000000000       0.90625000000000000        0.0000000000000000     
  0.37500000000000000       0.93750000000000000        0.0000000000000000     
  0.40625000000000000       0.93750000000000000        0.0000000000000000     
  0.43750000000000000       0.93750000000000000        0.0000000000000000     
  0.46875000000000000       0.93750000000000000        0.0000000000000000     
  0.50000000000000000       0.93750000000000000        0.0000000000000000     
  0.37500000000000000       0.96875000000000000        0.0000000000000000     
  0.40625000000000000       0.96875000000000000        0.0000000000000000     
  0.43750000000000000       0.96875000000000000        0.0000000000000000     
  0.46875000000000000       0.96875000000000000        0.0000000000000000     
  0.50000000000000000       0.96875000000000000        0.0000000000000000     
  0.37500000000000000        1.0000000000000000        0.0000000000000000     
  0.40625000000000000        1.0000000000000000        0.0000000000000000     
  0.43750000000000000        1.0000000000000000        0.0000000000000000     
  0.46875000000000000        1.0000000000000000        0.0000000000000000     
  0.50000000000000000        1.0000000000000000        0.0000000000000000     
  0.50000000000000000       0.87500000000000000        0.0000000000000000     
  0.53125000000000000       0.87500000000000000        0.0000000000000000     
  0.56250000000000000       0.87500000000000000        0.0000000000000000     
  0.59375000000000000       0.87500000000000000        0.0000000000000000     
  0.62500000000000000       0.87500000000000000        0.0000000000000000     
  0.50000000000000000       0.90625000000000000        0.0000000000000000     
  0.53125000000000000       0.90625000000000000        0.0000000000000000     
  0.56250000000000000       0.90625000000000000        0.0000000000000000     
  0.59375000000000000       0.90625000000000000        0.0000000000000000     
  0.62500000000000000       0.90625000000000000        0.0000000000000000     
  0.50000000000000000       0.93750000000000000        0.0000000000000000     
  0.53125000000000000       0.93750000000000000        0.0000000000000000     
  0.56250000000000000       0.93750000000000000        0.0000000000000000     
  0.59375000000000000       0.93750000000000000        0.0000000000000000     
  0.62500000000000000       0.93750000000000000        0.0000000000000000     
  0.50000000000000000       0.96875000000000000        0.0000000000000000     
  0.53125000000000000       0.96875000000000000        0.0000000000000000     
  0.56250000000000000       0.96875000000000000        0.0000000000000000     
  0.59375000000000000       0.96875000000000000        0.0000000000000000     
  0.62500000000000000       0.96875000000000000        0.0000000000000000     
  0.50000000000000000        1.0000000000000000        0.0000000000000000     
  0.53125000000000000        1.0000000000000000        0.0000000000000000     
  0.56250000000000000        1.0000000000000000        0.0000000000000000     
  0.59375000000000000        1.0000000000000000        0.0000000000000000     
  0.62500000000000000        1.0000000000000000        0.0000000000000000     
  0.62500000000000000       0.87500000000000000        0.0000000000000000     
  0.65625000000000000       0.87500000000000000        0.0000000000000000     
  0.68750000000000000       0.87500000000000000        0.0000000000000000     
  0.71875000000000000       0.87500000000000000        0.0000000000000000     
  0.75000000000000000       0.87500000000000000        0.0000000000000000     
  0.62500000000000000       0.90625000000000000        0.0000000000000000     
  0.65625000000000000       0.90625000000000000        0.0000000000000000     
  0.68750000000000000       0.90625000000000000        0.0000000000000000     
  0.71875000000000000       0.90625000000000000        0.0000000000000000     
  0.75000000000000000       0.90625000000000000        0.0000000000000000     
  0.62500000000000000       0.93750000000000000        0.0000000000000000     
  0.65625000000000000       0.93750000000000000        0.0000000000000000     
  0.68750000000000000       0.93750000000000000        0.0000000000000000     
  0.71875000000000000       0.93750000000000000        0.0000000000000000     
  0.75000000000000000       0.93750000000000000        0.0000000000000000     
  0.62500000000000000       0.96875000000000000        0.0000000000000000     
  0.65625000000000000       0.96875000000000000        0.0000000000000000     
  0.68750000000000000       0.96875000000000000        0.0000000000000000     
  0.71875000000000000       0.96875000000000000        0.0000000000000000     
  0.75000000000000000       0.96875000000000000        0.0000000000000000     
  0.62500000000000000        1.0000000000000000        0.0000000000000000     
  0.65625000000000000        1.0000000000000000        0.0000000000000000     
  0.68750000000000000        1.0000000000000000        0.0000000000000000     
  0.71875000000000000        1.0000000000000000        0.0000000000000000     
  0.75000000000000000        1.0000000000000000        0.0000000000000000     
  0.75000000000000000       0.87500000000000000        0.0000000000000000     
  0.78125000000000000       0.87500000000000000        0.0000000000000000     
  0.81250000000000000       0.87500000000000000        0.0000000000000000     
  0.84375000000000000       0.87500000000000000        0.0000000000000000     
  0.87500000000000000       0.87500000000000000        0.0000000000000000     
  0.75000000000000000       0.90625000000000000        0.0000000000000000     
  0.78125000000000000       0.90625000000000000        0.0000000000000000     
  0.81250000000000000       0.90625000000000000        0.0000000000000000     
  0.84375000000000000       0.90625000000000000        0.0000000000000000     
  0.87500000000000000       0.90625000000000000        0.0000000000000000     
  0.75000000000000000       0.93750000000000000        0.0000000000000000     
  0.78125000000000000       0.93750000000000000        0.0000000000000000     
  0.81250000000000000       0.93750000000000000        0.0000000000000000     
  0.84375000000000000       0.93750000000000000        0.0000000000000000     
  0.87500000000000000       0.93750000000000000        0.0000000000000000     
  0.75000000000000000       0.96875000000000000        0.0000000000000000     
  0.78125000000000000       0.96875000000000000        0.0000000000000000     
  0.81250000000000000       0.96875000000000000        0.0000000000000000     
  0.84375000000000000       0.96875000000000000        0.0000000000000000     
  0.87500000000000000       0.96875000000000000        0.0000000000000000     
  0.75000000000000000        1.0000000000000000        0.0000000000000000     
  0.78125000000000000        1.0000000000000000        0.0000000000000000     
  0.81250000000000000        1.0000000000000000        0.0000000000000000     
  0.84375000000000000        1.0000000000000000        0.0000000000000000     
  0.87500000000000000        1.0000000000000000        0.0000000000000000     
  0.87500000000000000       0.87500000000000000        0.0000000000000000     
  0.90625000000000000       0.87500000000000000        0.0000000000000000     
  0.93750000000000000       0.87500000000000000        0.0000000000000000     
  0.96875000000000000       0.87500000000000000        0.0000000000000000     
   1.0000000000000000       0.87500000000000000        0.0000000000000000     
  0.87500000000000000       0.90625000000000000        0.0000000000000000     
  0.90625000000000000       0.90625000000000000        0.0000000000000000     
  0.93750000000000000       0.90625000000000000        0.0000000000000000     
  0.96875000000000000       0.90625000000000000        0.0000000000000000     
   1.0000000000000000       0.90625000000000000        0.0000000000000000     
  0.87500000000000000       0.93750000000000000        0.0000000000000000     
  0.90625000000000000       0.93750000000000000        0.0000000000000000     
  0.93750000000000000       0.93750000000000000        0.0000000000000000     
  0.96875000000000000       0.93750000000000000        0.0000000000000000     
   1.0000000000000000       0.93750000000000000        0.0000000000000000     
  0.87500000000000000       0.96875000000000000        0.0000000000000000     
  0.90625000000000000       0.96875000000000000        0.0000000000000000     
  0.93750000000000000       0.96875000000000000        0.0000000000000000     
  0.96875000000000000       0.96875000000000000        0.0000000000000000     
   1.0000000000000000       0.96875000000000000        0.0000000000000000     
  0.87500000000000000        1.0000000000000000        0.0000000000000000     
  0.90625000000000000        1.0000000000000000        0.0000000000000000     
  0.93750000000000000        1.0000000000000000        0.0000000000000000     
  0.96875000000000000        1.0000000000000000        0.0000000000000000     
   1.0000000000000000        1.0000000000000000        0.0000000000000000     
 </DataArray>
 </Points>
 <Cells>
 <DataArray  type="Int32"  Name="connectivity"  format="ascii">
           0           1           6           5
           1           2           7           6
           2           3           8           7
           3           4           9           8
           5           6          11          10
           6           7          12          11
           7           8          13          12
           8           9          14          13
          10          11          16          15
          11          12          17          16
          12          13          18          17
          13          14          19          18
          15          16          21          20
          16          17          22          21
          17          18          23          22
          18          19          24          23
          25          26          31          30
          26          27          32          31
          27          28          33          32
          28          29          34          33
          30          31          36          35
          31          32          37          36
          32          33          38          37
          33          34          39          38
          35          36          41          40
          36          37          42          41
          37          38          43          42
          38          39          44          43
          40          41          46          45
          41          42          47          46
          42          43          48          47
          43          44          49          48
          50          51          56          55
          51          52          57          56
          52          53          58          57
          53          54          59          58
          55          56          61          60
          56          57          62          61
          57          58          63          62
          58          59          64          63
          60          61          66          65
          61          62          67          66
          62          63          68          67
          63          64          69          68
          65          66          71          70
          66          67          72          71
          67          68          73          72
          68          69          74          73
          75          76          81          80
          76          77          82          81
          77          78          83          82
          78          79          84          83
          80          81          86          85
          81          82          87          86
          82          83          88          87
          83          84          89          88
          85          86          91          90
          86          87          92          91
          87          88          93          92
          88          89          94          93
          90          91          96          95
          91          92          97          96
          92          93          98          97
          93          94          99          98
         100         101         106         105
         101         102         107         106
         102         103         108         107
         103         104         109         108
         105         106         111         110
         106         107         112         111
         107         108         113         112
         108         109         114         113
         110         111         116         115
         111         112         117         116
         112         113         118         117
         113         114         119         118
         115         116         121         120
         116         117         122         121
         117         118         123         122
         118         119         124         123
         125         126         131         130
         126         127         132         131
         127         128         133         132
         128         129         134         133
         130         131         136         135
         131         132         137         136
         132         133         138         137
         133         134         139         138
         135         136         141         140
         136         137         142         141
         137         138         143         142
         138         139         144         143
         140         141         146         145
         141         142         147         146
         142         143         148         147
         143         144         149         148
         150         151         156         155
         151         152         157         156
         152         153         158         157
         153         154         159         158
         155         156         161         160
         156         157         162         161
         157         158         163         162
         158         159         164         163
         160         161         166         165
         161         162         167         166
         162         163         168         167
         163         164         169         168
         165         166         171         170
         166         167         172         171
         167         168         173         172
         168         169         174         173
         175         176         181         180
         176         177         182         181
         177         178         183         182
         178         179         184         183
         180         181         186         185
         181         182         187         186
         182         183         188         187
         183         184         189         188
         185         186         191         190
         186         187         192         191
         187         188         193         192
         188         189         194         193
         190         191         196         195
         191         192         197         196
         192         193         198         197
         193         194         199         198
         200         201         206         205
         201         202         207         206
         202         203         208         207
         203         204         209         208
         205         206         211         210
         206         207         212         211
         207         208         213         212
         208         209         214         213
         210         211         216         215
         211         212         217         216
         212         213         218         217
         213         214         219         218
         215         216         221         220
         216         217         222         221
         217         218         223         222
         218         219         224         223
         225         226         231         230
         226         227         232         231
         227         228         233         232
         228         229         234         233
         230         231         236         235
         231         232         237         236
         232         233         238         237
         233         234         239         238
         235         236         241         240
         236         237         242         241
         237         238         243         242
         238         239         244         243
         240         241         246         245
         241         242         247         246
         242         243         248         247
         243         244         249         248
         250         251         256         255
         251         252         257         256
         252         253         258         257
         253         254         259         258
         255         256         261         260
         256         257         262         261
         257         258         263         262
         258         259         264         263
         260         261         266         265
         261         262         267         266
         262         263         268         267
         263         264         269         268
         265         266         271         270
         266         267         272         271
         267         268         273         272
         268         269         274         273
         275         276         281         280
         276         277         282         281
         277         278         283         282
         278         279         284         283
         280         281         286         285
         281         282         287         286
         282         283         288         287
         283         284         289         288
         285         286         291         290
         286         287         292         291
         287         288         293         292
         288         289         294         293
         290         291         296         295
         291         292         297         296
         292         293         298         297
         293         294         299         298
         300         301         306         305
         301         302         307         306
         302         303         308         307
         303         304         309         308
         305         306         311         310
         306         307         312         311
         307         308         313         312
         308         309         314         313
         310         311         316         315
         311         312         317         316
         312         313         318         317
         313         314         319         318
         315         316         321         320
         316         317         322         321
         317         318         323         322
         318         319         324         323
         325         326         331         330
         326         327         332         331
         327         328         333         332
         328         329         334         333
         330         331         336         335
         331         332         337         336
         332         333         338         337
         333         334         339         338
         335         336         341         340
         336         337         342         341
         337         338         343         342
         338         339         344         343
         340         341         346         345
         341         342         347         346
         342         343         348         347
         343         344         349         348
         350         351         356         355
         351         352         357         356
         352         353         358         357
         353         354         359         358
         355         356         361         360
         356         357         362         361
         357         358         363         362
         358         359         364         363
         360         361         366         365
         361         362         367         366
         362         363         368         367
         363         364         369         368
         365         366         371         370
         366         367         372         371
         367         368         373         372
         368         369         374         373
         375         376         381         380
         376         377         382         381
         377         378         383         382
         378         379         384         383
         380         381         386         385
         381         382         387         386
         382         383         388         387
         383         384         389         388
         385         386         391         390
         386         387         392         391
         387         388         393         392
         388         389         394         393
         390         391         396         395
         391         392         397         396
         392         393         398         397
         393         394         399         398
         400         401         406         405
         401         402         407         406
         402         403         408         407
         403         404         409         408
         405         406         411         410
         406         407         412         411
         407         408         413         412
         408         409         414         413
         410         411         416         415
         411         412         417         416
         412         413         418         417
         413         414         419         418
         415         416         421         420
         416         417         422         421
         417         418         423         422
         418         419         424         423
         425         426         431         430
         426         427         432         431
         427         428         433         432
         428         429         434         433
         430         431         436         435
         431         432         437         436
         432         433         438         437
         433         434         439         438
         435         436         441         440
         436         437         442         441
         437         438         443         442
         438         439         444         443
         440         441         446         445
         441         442         447         446
         442         443         448         447
         443         444         449         448
         450         451         456         455
         451         452         457         456
         452         453         458         457
         453         454         459         458
         455         456         461         460
         456         457         462         461
         457         458         463         462
         458         459         464         463
         460         461         466         465
         461         462         467         466
         462         463         468         467
         463         464         469         468
         465         466         471         470
         466         467         472         471
         467         468         473         472
         468         469         474         473
         475         476         481         480
         476         477         482         481
         477         478         483         482
         478         479         484         483
         480         481         486         485
         481         482         487         486
         482         483         488         487
         483         484         489         488
         485         486         491         490
         486         487         492         491
         487         488         493         492
         488         489         494         493
         490         491         496         495
         491         492         497         496
         492         493         498         497
         493         494         499         498
         500         501         506         505
         501         502         507         506
         502         503         508         507
         503         504         509         508
         505         506         511         510
         506         507         512         511
         507         508         513         512
         508         509         514         513
         510         511         516         515
         511         512         517         516
         512         513         518         517
         513         514         519         518
         515         516         521         520
         516         517         522         521
         517         518         523         522
         518         519         524         523
         525         526         531         530
         526         527         532         531
         527         528         533         532
         528         529         534         533
         530         531         536         535
         531         532         537         536
         532         533         538         537
         533         534         539         538
         535         536         541         540
         536         537         542         541
         537         538         543         542
         538         539         544         543
         540         541         546         545
         541         542         547         546
         542         543         548         547
         543         544         549         548
         550         551         556         555
         551         552         557         556
         552         553         558         557
         553         554         559         558
         555         556         561         560
         556         557         562         561
         557         558         563         562
         558         559         564         563
         560         561         566         565
         561         562         567         566
         562         563         568         567
         563         564         569         568
         565         566         571         570
         566         567         572         571
         567         568         573         572
         568         569         574         573
         575         576         581         580
         576         577         582         581
         577         578         583         582
         578         579         584         583
         580         581         586         585
         581         582         587         586
         582         583         588         587
         583         584         589         588
         585         586         591         590
         586         587         592         591
         587         588         593         592
         588         589         594         593
         590         591         596         595
         591         592         597         596
         592         593         598         597
         593         594         599         598
         600         601         606         605
         601         602         607         606
         602         603         608         607
         603         604         609         608
         605         606         611         610
         606         607         612         611
         607         608         613         612
         608         609         614         613
         610         611         616         615
         611         612         617         616
         612         613         618         617
         613         614         619         618
         615         616         621         620
         616         617         622         621
         617         618         623         622
         618         619         624         623
         625         626         631         630
         626         627         632         631
         627         628         633         632
         628         629         634         633
         630         631         636         635
         631         632         637         636
         632         633         638         637
         633         634         639         638
         635         636         641         640
         636         637         642         641
         637         638         643         642
         638         639         644         643
         640         641         646         645
         641         642         647         646
         642         643         648         647
         643         644         649         648
         650         651         656         655
         651         652         657         656
         652         653         658         657
         653         654         659         658
         655         656         661         660
         656         657         662         661
         657         658         663         662
         658         659         664         663
         660         661         666         665
         661         662         667         666
         662         663         668         667
         663         664         669         668
         665         666         671         670
         666         667         672         671
         667         668         673         672
         668         669         674         673
         675         676         681         680
         676         677         682         681
         677         678         683         682
         678         679         684         683
         680         681         686         685
         681         682         687         686
         682         683         688         687
         683         684         689         688
         685         686         691         690
         686         687         692         691
         687         688         693         692
         688         689         694         693
         690         691         696         695
         691         692         697         696
         692         693         698         697
         693         694         699         698
         700         701         706         705
         701         702         707         706
         702         703         708         707
         703         704         709         708
         705         706         711         710
         706         707         712         711
         707         708         713         712
         708         709         714         713
         710         711         716         715
         711         712         717         716
         712         713         718         717
         713         714         719         718
         715         716         721         720
         716         717         722         721
         717         718         723         722
         718         719         724         723
         725         726         731         730
         726         727         732         731
         727         728         733         732
         728         729         734         733
         730         731         736         735
         731         732         737         736
         732         733         738         737
         733         734         739         738
         735         736         741         740
         736         737         742         741
         737         738         743         742
         738         739         744         743
         740         741         746         745
         741         742         747         746
         742         743         748         747
         743         744         749         748
         750         751         756         755
         751         752         757         756
         752         753         758         757
         753         754         759         758
         755         756         761         760
         756         757         762         761
         757         758         763         762
         758         759         764         763
         760         761         766         765
         761         762         767         766
         762         763         768         767
         763         764         769         768
         765         766         771         770
         766         767         772         771
         767         768         773         772
         768         769         774         773
         775         776         781         780
         776         777         782         781
         777         778         783         782
         778         779         784         783
         780         781         786         785
         781         782         787         786
         782         783         788         787
         783         784         789         788
         785         786         791         790
         786         787         792         791
         787         788         793         792
         788         789         794         793
         790         791         796         795
         791         792         797         796
         792         793         798         797
         793         794         799         798
         800         801         806         805
         801         802         807         806
         802         803         808         807
         803         804         809         808
         805         806         811         810
         806         807         812         811
         807         808         813         812
         808         809         814         813
         810         811         816         815
         811         812         817         816
         812         813         818         817
         813         814         819         818
         815         816         821         820
         816         817         822         821
         817         818         823         822
         818         819         824         823
         825         826         831         830
         826         827         832         831
         827         828         833         832
         828         829         834         833
         830         831         836         835
         831         832         837         836
         832         833         838         837
         833         834         839         838
         835         836         841         840
         836         837         842         841
         837         838         843         842
         838         839         844         843
         840         841         846         845
         841         842         847         846
         842         843         848         847
         843         844         849         848
         850         851         856         855
         851         852         857         856
         852         853         858         857
         853         854         859         858
         855         856         861         860
         856         857         862         861
         857         858         863         862
         858         859         864         863
         860         861         866         865
         861         862         867         866
         862         863         868         867
         863         864         869         868
         865         866         871         870
         866         867         872         871
         867         868         873         872
         868         869         874         873
         875         876         881         880
         876         877         882         881
         877         878         883         882
         878         879         884         883
         880         881         886         885
         881         882         887         886
         882         883         888         887
         883         884         889         888
         885         886         891         890
         886         887         892         891
         887         888         893         892
         888         889         894         893
         890         891         896         895
         891         892         897         896
         892         893         898         897
         893         894         899         898
         900         901         906         905
         901         902         907         906
         902         903         908         907
         903         904         909         908
         905         906         911         910
         906         907         912         911
         907         908         913         912
         908         909         914         913
         910         911         916         915
         911         912         917         916
         912         913         918         917
         913         914         919         918
         915         916         921         920
         916         917         922         921
         917         918         923         922
         918         919         924         923
         925         926         931         930
         926         927         932         931
         927         928         933         932
         928         929         934         933
         930         931         936         935
         931         932         937         936
         932         933         938         937
         933         934         939         938
         935         936         941         940
         936         937         942         941
         937         938         943         942
         938         939         944         943
         940         941         946         945
         941         942         947         946
         942         943         948         947
         943         944         949         948
         950         951         956         955
         951         952         957         956
         952         953         958         957
         953         954         959         958
         955         956         961         960
         956         957         962         961
         957         958         963         962
         958         959         964         963
         960         961         966         965
         961         962         967         966
         962         963         968         967
         963         964         969         968
         965         966         971         970
         966         967         972         971
         967         968         973         972
         968         969         974         973
         975         976         981         980
         976         977         982         981
         977         978         983         982
         978         979         984         983
         980         981         986         985
         981         982         987         986
         982         983         988         987
         983         984         989         988
         985         986         991         990
         986         987         992         991
         987         988         993         992
         988         989         994         993
         990         991         996         995
         991         992         997         996
         992         993         998         997
         993         994         999         998
        1000        1001        1006        1005
        1001        1002        1007        1006
        1002        1003        1008        1007
        1003        1004        1009        1008
        1005        1006        1011        1010
        1006        1007        1012        1011
        1007        1008        1013        1012
        1008        1009        1014        1013
        1010        1011        1016        1015
        1011        1012        1017        1016
        1012        1013        1018        1017
        1013        1014        1019        1018
        1015        1016        1021        1020
        1016        1017        1022        1021
        1017        1018        1023        1022
        1018        1019        1024        1023
        1025        1026        1031        1030
        1026        1027        1032        1031
        1027        1028        1033        1032
        1028        1029        1034        1033
        1030        1031        1036        1035
        1031        1032        1037        1036
        1032        1033        1038        1037
        1033        1034        1039        1038
        1035        1036        1041        1040
        1036        1037        1042        1041
        1037        1038        1043        1042
        1038        1039        1044        1043
        1040        1041        1046        1045
        1041        1042        1047        1046
        1042        1043        1048        1047
        1043        1044        1049        1048
        1050        1051        1056        1055
        1051        1052        1057        1056
        1052        1053        1058        1057
        1053        1054        1059        1058
        1055        1056        1061        1060
        1056        1057        1062        1061
        1057        1058        1063        1062
        1058        1059        1064        1063
        1060        1061        1066        1065
        1061        1062        1067        1066
        1062        1063        1068        1067
        1063        1064        1069        1068
        1065        1066        1071        1070
        1066        1067        1072        1071
        1067        1068        1073        1072
        1068        1069        1074        1073
        1075        1076        1081        1080
        1076        1077        1082        1081
        1077        1078        1083        1082
        1078        1079        1084        1083
        1080        1081        1086        1085
        1081        1082        1087        1086
        1082        1083        1088        1087
        1083        1084        1089        1088
        1085        1086        1091        1090
        1086        1087        1092        1091
        1087        1088        1093        1092
        1088        1089        1094        1093
        1090        1091        1096        1095
        1091        1092        1097        1096
        1092        1093        1098        1097
        1093        1094        1099        1098
        1100        1101        1106        1105
        1101        1102        1107        1106
        1102        1103        1108        1107
        1103        1104        1109        1108
        1105        1106        1111        1110
        1106        1107        1112        1111
        1107        1108        1113        1112
        1108        1109        1114        1113
        1110        1111        1116        1115
        1111        1112        1117        1116
        1112        1113        1118        1117
        1113        1114        1119        1118
        1115        1116        1121        1120
        1116        1117        1122        1121
        1117        1118        1123        1122
        1118        1119        1124        1123
        1125        1126        1131        1130
        1126        1127        1132        1131
        1127        1128        1133        1132
        1128        1129        1134        1133
        1130        1131        1136        1135
        1131        1132        1137        1136
        1132        1133        1138        1137
        1133        1134        1139        1138
        1135        1136        1141        1140
        1136        1137        1142        1141
        1137        1138        1143        1142
        1138        1139        1144        1143
        1140        1141        1146        1145
        1141        1142        1147        1146
        1142        1143        1148        1147
        1143        1144        1149        1148
        1150        1151        1156        1155
        1151        1152        1157        1156
        1152        1153        1158        1157
        1153        1154        1159        1158
        1155        1156        1161        1160
        1156        1157        1162        1161
        1157        1158        1163        1162
        1158        1159        1164        1163
        1160        1161        1166        1165
        1161        1162        1167        1166
        1162        1163        1168        1167
        1163        1164        1169        1168
        1165        1166        1171        1170
        1166        1167        1172        1171
        1167        1168        1173        1172
        1168        1169        1174        1173
        1175        1176        1181        1180
        1176        1177        1182        1181
        1177        1178        1183        1182
        1178        1179        1184        1183
        1180        1181        1186        1185
        1181        1182        1187        1186
        1182        1183        1188        1187
        1183        1184        1189        1188
        1185        1186        1191        1190
        1186        1187        1192        1191
        1187        1188        1193        1192
        1188        1189        1194        1193
        1190        1191        1196        1195
        1191        1192        1197        1196
        1192        1193        1198        1197
        1193        1194        1199        1198
        1200        1201        1206        1205
        1201        1202        1207        1206
        1202        1203        1208        1207
        1203        1204        1209        1208
        1205        1206        1211        1210
        1206        1207        1212        1211
        1207        1208        1213        1212
        1208        1209        1214        1213
        1210        1211        1216        1215
        1211        1212        1217        1216
        1212        1213        1218        1217
        1213        1214        1219        1218
        1215        1216        1221        1220
        1216        1217        1222        1221
        1217        1218        1223        1222
        1218        1219        1224        1223
        1225        1226        1231        1230
        1226        1227        1232        1231
        1227        1228        1233        1232
        1228        1229        1234        1233
        1230        1231        1236        1235
        1231        1232        1237        1236
        1232        1233        1238        1237
        1233        1234        1239        1238
        1235        1236        1241        1240
        1236        1237        1242        1241
        1237        1238        1243        1242
        1238        1239        1244        1243
        1240        1241        1246        1245
        1241        1242        1247        1246
        1242        1243        1248        1247
        1243        1244        1249        1248
        1250        1251        1256        1255
        1251        1252        1257        1256
        1252        1253        1258        1257
        1253        1254        1259        1258
        1255        1256        1261        1260
        1256        1257        1262        1261
        1257        1258        1263        1262
        1258        1259        1264        1263
        1260        1261        1266        1265
        1261        1262        1267        1266
        1262        1263        1268        1267
        1263        1264        1269        1268
        1265        1266        1271        1270
        1266        1267        1272        1271
        1267        1268        1273        1272
        1268        1269        1274        1273
        1275        1276        1281        1280
        1276        1277        1282        1281
        1277        1278        1283        1282
        1278        1279        1284        1283
        1280        1281        1286        1285
        1281        1282        1287        1286
        1282        1283        1288        1287
        1283        1284        1289        1288
        1285        1286        1291        1290
        1286        1287        1292        1291
        1287        1288        1293        1292
        1288        1289        1294        1293
        1290        1291        1296        1295
        1291        1292        1297        1296
        1292        1293        1298        1297
        1293        1294        1299        1298
        1300        1301        1306        1305
        1301        1302        1307        1306
        1302        1303        1308        1307
        1303        1304        1309        1308
        1305        1306        1311        1310
        1306        1307        1312        1311
        1307        1308        1313        1312
        1308        1309        1314        1313
        1310        1311        1316        1315
        1311        1312        1317        1316
        1312        1313        1318        1317
        1313        1314        1319        1318
        1315        1316        1321        1320
        1316        1317        1322        1321
        1317        1318        1323        1322
        1318        1319        1324        1323
        1325        1326        1331        1330
        1326        1327        1332        1331
        1327        1328        1333        1332
        1328        1329        1334        1333
        1330        1331        1336        1335
        1331        1332        1337        1336
        1332        1333        1338        1337
        1333        1334        1339        1338
        1335        1336        1341        1340
        1336        1337        1342        1341
        1337        1338        1343        1342
        1338        1339        1344        1343
        1340        1341        1346        1345
        1341        1342        1347        1346
        1342        1343        1348        1347
        1343        1344        1349        1348
        1350        1351        1356        1355
        1351        1352        1357        1356
        1352        1353        1358        1357
        1353        1354        1359        1358
        1355        1356        1361        1360
        1356        1357        1362        1361
        1357        1358        1363        1362
        1358        1359        1364        1363
        1360        1361        1366        1365
        1361        1362        1367        1366
        1362        1363        1368        1367
        1363        1364        1369        1368
        1365        1366        1371        1370
        1366        1367        1372        1371
        1367        1368        1373        1372
        1368        1369        1374        1373
        1375        1376        1381        1380
        1376        1377        1382        1381
        1377        1378        1383        1382
        1378        1379        1384        1383
        1380        1381        1386        1385
        1381        1382        1387        1386
        1382        1383        1388        1387
        1383        1384        1389        1388
        1385        1386        1391        1390
        1386        1387        1392        1391
        1387        1388        1393        1392
        1388        1389        1394        1393
        1390        1391        1396        1395
        1391        1392        1397        1396
        1392        1393        1398        1397
        1393        1394        1399        1398
        1400        1401        1406        1405
        1401        1402        1407        1406
        1402        1403        1408        1407
        1403        1404        1409        1408
        1405        1406        1411        1410
        1406        1407        1412        1411
        1407        1408        1413        1412
        1408        1409        1414        1413
        1410        1411        1416        1415
        1411        1412        1417        1416
        1412        1413        1418        1417
        1413        1414        1419        1418
        1415        1416        1421        1420
        1416        1417        1422        1421
        1417        1418        1423        1422
        1418        1419        1424        1423
        1425        1426        1431        1430
        1426        1427        1432        1431
        1427        1428        1433        1432
        1428        1429        1434        1433
        1430        1431        1436        1435
        1431        1432        1437        1436
        1432        1433        1438        1437
        1433        1434        1439        1438
        1435        1436        1441        1440
        1436        1437        1442        1441
        1437        1438        1443        1442
        1438        1439        1444        1443
        1440        1441        1446        1445
        1441        1442        1447        1446
        1442        1443        1448        1447
        1443        1444        1449        1448
        1450        1451        1456        1455
        1451        1452        1457        1456
        1452        1453        1458        1457
        1453        1454        1459        1458
        1455        1456        1461        1460
        1456        1457        1462        1461
        1457        1458        1463        1462
        1458        1459        1464        1463
        1460        1461        1466        1465
        1461        1462        1467        1466
        1462        1463        1468        1467
        1463        1464        1469        1468
        1465        1466        1471        1470
        1466        1467        1472        1471
        1467        1468        1473        1472
        1468        1469        1474        1473
        1475        1476        1481        1480
        1476        1477        1482        1481
        1477        1478        1483        1482
        1478        1479        1484        1483
        1480        1481        1486        1485
        1481        1482        1487        1486
        1482        1483        1488        1487
        1483        1484        1489        1488
        1485        1486        1491        1490
        1486        1487        1492        1491
        1487        1488        1493        1492
        1488        1489        1494        1493
        1490        1491        1496        1495
        1491        1492        1497        1496
        1492        1493        1498        1497
        1493        1494        1499        1498
        1500        1501        1506        1505
        1501        1502        1507        1506
        1502        1503        1508        1507
        1503        1504        1509        1508
        1505        1506        1511        1510
        1506        1507        1512        1511
        1507        1508        1513        1512
        1508        1509        1514        1513
        1510        1511        1516        1515
        1511        1512        1517        1516
        1512        1513        1518        1517
        1513        1514        1519        1518
        1515        1516        1521        1520
        1516        1517        1522        1521
        1517        1518        1523        1522
        1518        1519        1524        1523
        1525        1526        1531        1530
        1526        1527        1532        1531
        1527        1528        1533        1532
        1528        1529        1534        1533
        1530        1531        1536        1535
        1531        1532        1537        1536
        1532        1533        1538        1537
        1533        1534        1539        1538
        1535        1536        1541        1540
        1536        1537        1542        1541
        1537        1538        1543        1542
        1538        1539        1544        1543
        1540        1541        1546        1545
        1541        1542        1547        1546
        1542        1543        1548        1547
        1543        1544        1549        1548
        1550        1551        1556        1555
        1551        1552        1557        1556
        1552        1553        1558        1557
        1553        1554        1559        1558
        1555        1556        1561        1560
        1556        1557        1562        1561
        1557        1558        1563        1562
        1558        1559        1564        1563
        1560        1561        1566        1565
        1561        1562        1567        1566
        1562        1563        1568        1567
        1563        1564        1569        1568
        1565        1566        1571        1570
        1566        1567        1572        1571
        1567        1568        1573        1572
        1568        1569        1574        1573
        1575        1576        1581        1580
        1576        1577        1582        1581
        1577        1578        1583        1582
        1578        1579        1584        1583
        1580        1581        1586        1585
        1581        1582        1587        1586
        1582        1583        1588        1587
        1583        1584        1589        1588
        1585        1586        1591        1590
        1586        1587        1592        1591
        1587        1588        1593        1592
        1588        1589        1594        1593
        1590        1591        1596        1595
        1591        1592        1597        1596
        1592        1593        1598        1597
        1593        1594        1599        1598
 </DataArray>
 <DataArray  type="Int32"  Name="offsets"  format="ascii"> 
           4
           8
          12
          16
          20
          24
          28
          32
          36
          40
          44
          48
          52
          56
          60
          64
          68
          72
          76
          80
          84
          88
          92
          96
         100
         104
         108
         112
         116
         120
         124
         128
         132
         136
         140
         144
         148
         152
         156
         160
         164
         168
         172
         176
         180
         184
         188
         192
         196
         200
         204
         208
         212
         216
         220
         224
         228
         232
         236
         240
         244
         248
         252
         256
         260
         264
         268
         272
         276
         280
         284
         288
         292
         296
         300
         304
         308
         312
         316
         320
         324
         328
         332
         336
         340
         344
         348
         352
         356
         360
         364
         368
         372
         376
         380
         384
         388
         392
         396
         400
         404
         408
         412
         416
         420
         424
         428
         432
         436
         440
         444
         448
         452
         456
         460
         464
         468
         472
         476
         480
         484
         488
         492
         496
         500
         504
         508
         512
         516
         520
         524
         528
         532
         536
         540
         544
         548
         552
         556
         560
         564
         568
         572
         576
         580
         584
         588
         592
         596
         600
         604
         608
         612
         616
         620
         624
         628
         632
         636
         640
         644
         648
         652
         656
         660
         664
         668
         672
         676
         680
         684
         688
         692
         696
         700
         704
         708
         712
         716
         720
         724
         728
         732
         736
         740
         744
         748
         752
         756
         760
         764
         768
         772
         776
         780
         784
         788
         792
         796
         800
         804
         808
         812
         816
         820
         824
         828
         832
         836
         840
         844
         848
         852
         856
         860
         864
         868
         872
         876
         880
         884
         888
         892
         896
         900
         904
         908
         912
         916
         920
         924
         928
         932
         936
         940
         944
         948
         952
         956
         960
         964
         968
         972
         976
         980
         984
         988
         992
         996
        1000
        1004
        1008
        1012
        1016
        1020
        1024
        1028
        1032
        1036
        1040
        1044
        1048
        1052
        1056
        1060
        1064
        1068
        1072
        1076
        1080
        1084
        1088
        1092
        1096
        1100
        1104
        1108
        1112
        1116
        1120
        1124
        1128
        1132
        1136
        1140
        1144
        1148
        1152
        1156
        1160
        1164
        1168
        1172
        1176
        1180
        1184
        1188
        1192
        1196
        1200
        1204
        1208
        1212
        1216
        1220
        1224
        1228
        1232
        1236
        1240
        1244
        1248
        1252
        1256
        1260
        1264
        1268
        1272
        1276
        1280
        1284
        1288
        1292
        1296
        1300
        1304
        1308
        1312
        1316
        1320
        1324
        1328
        1332
        1336
        1340
        1344
        1348
        1352
        1356
        1360
        1364
        1368
        1372
        1376
        1380
        1384
        1388
        1392
        1396
        1400
        1404
        1408
        1412
        1416
        1420
        1424
        1428
        1432
        1436
        1440
        1444
        1448
        1452
        1456
        1460
        1464
        1468
        1472
        1476
        1480
        1484
        1488
        1492
        1496
        1500
        1504
        1508
        1512
        1516
        1520
        1524
        1528
        1532
        1536
        1540
        1544
        1548
        1552
        1556
        1560
        1564
        1568
        1572
        1576
        1580
        1584
        1588
        1592
        1596
        1600
        1604
        1608
        1612
        1616
        1620
        1624
        1628
        1632
        1636
        1640
        1644
        1648
        1652
        1656
        1660
        1664
        1668
        1672
        1676
        1680
        1684
        1688
        1692
        1696
        1700
        1704
        1708
        1712
        1716
        1720
        1724
        1728
        1732
        1736
        1740
        1744
        1748
        1752
        1756
        1760
        1764
        1768
        1772
        1776
        1780
        1784
        1788
        1792
        1796
        1800
        1804
        1808
        1812
        1816
        1820
        1824
        1828
        1832
        1836
        1840
        1844
        1848
        1852
        1856
        1860
        1864
        1868
        1872
        1876
        1880
        1884
        1888
        1892
        1896
        1900
        1904
        1908
        1912
        1916
        1920
        1924
        1928
        1932
        1936
        1940
        1944
        1948
        1952
        1956
        1960
        1964
        1968
        1972
        1976
        1980
        1984
        1988
        1992
        1996
        2000
        2004
        2008
        2012
        2016
        2020
        2024
        2028
        2032
        2036
        2040
        2044
        2048
        2052
        2056
        2060
        2064
        2068
        2072
        2076
        2080
        2084
        2088
        2092
        2096
        2100
        2104
        2108
        2112
        2116
        2120
        2124
        2128
        2132
        2136
        2140
        2144
        2148
        2152
        2156
        2160
        2164
        2168
        2172
        2176
        2180
        2184
        2188
        2192
        2196
        2200
        2204
        2208
        2212
        2216
        2220
        2224
        2228
        2232
        2236
        2240
        2244
        2248
        2252
        2256
        2260
        2264
        2268
        2272
        2276
        2280
        2284
        2288
        2292
        2296
        2300
        2304
        2308
        2312
        2316
        2320
        2324
        2328
        2332
        2336
        2340
        2344
        2348
        2352
        2356
        2360
        2364
        2368
        2372
        2376
        2380
        2384
        2388
        2392
        2396
        2400
        2404
        2408
        2412
        2416
        2420
        2424
        2428
        2432
        2436
        2440
        2444
        2448
        2452
        2456
        2460
        2464
        2468
        2472
        2476
        2480
        2484
        2488
        2492
        2496
        2500
        2504
        2508
        2512
        2516
        2520
        2524
        2528
        2532
        2536
        2540
        2544
        2548
        2552
        2556
        2560
        2564
        2568
        2572
        2576
        2580
        2584
        2588
        2592
        2596
        2600
        2604
        2608
        2612
        2616
        2620
        2624
        2628
        2632
        2636
        2640
        2644
        2648
        2652
        2656
        2660
        2664
        2668
        2672
        2676
        2680
        2684
        2688
        2692
        2696
        2700
        2704
        2708
        2712
        2716
        2720
        2724
        2728
        2732
        2736
        2740
        2744
        2748
        2752
        2756
        2760
        2764
        2768
        2772
        2776
        2780
        2784
        2788
        2792
        2796
        2800
        2804
        2808
        2812
        2816
        2820
        2824
        2828
        2832
        2836
        2840
        2844
        2848
        2852
        2856
        2860
        2864
        2868
        2872
        2876
        2880
        2884
        2888
        2892
        2896
        2900
        2904
        2908
        2912
        2916
        2920
        2924
        2928
        2932
        2936
        2940
        2944
        2948
        2952
        2956
        2960
        2964
        2968
        2972
        2976
        2980
        2984
        2988
        2992
        2996
        3000
        3004
        3008
        3012
        3016
        3020
        3024
        3028
        3032
        3036
        3040
        3044
        3048
        3052
        3056
        3060
        3064
        3068
        3072
        3076
        3080
        3084
        3088
        3092
        3096
        3100
        3104
        3108
        3112
        3116
        3120
        3124
        3128
        3132
        3136
        3140
        3144
        3148
        3152
        3156
        3160
        3164
        3168
        3172
        3176
        3180
        3184
        3188
        3192
        3196
        3200
        3204
        3208
        3212
        3216
        3220
        3224
        3228
        3232
        3236
        3240
        3244
        3248
        3252
        3256
        3260
        3264
        3268
        3272
        3276
        3280
        3284
        3288
        3292
        3296
        3300
        3304
        3308
        3312
        3316
        3320
        3324
        3328
        3332
        3336
        3340
        3344
        3348
        3352
        3356
        3360
        3364
        3368
        3372
        3376
        3380
        3384
        3388
        3392
        3396
        3400
        3404
        3408
        3412
        3416
        3420
        3424
        3428
        3432
        3436
        3440
        3444
        3448
        3452
        3456
        3460
        3464
        3468
        3472
        3476
        3480
        3484
        3488
        3492
        3496
        3500
        3504
        3508
        3512
        3516
        3520
        3524
        3528
        3532
        3536
        3540
        3544
        3548
        3552
        3556
        3560
        3564
        3568
        3572
        3576
        3580
        3584
        3588
        3592
        3596
        3600
        3604
        3608
        3612
        3616
        3620
        3624
        3628
        3632
        3636
        3640
        3644
        3648
        3652
        3656
        3660
        3664
        3668
        3672
        3676
        3680
        3684
        3688
        3692
        3696
        3700
        3704
        3708
        3712
        3716
        3720
        3724
        3728
        3732
        3736
        3740
        3744
        3748
        3752
        3756
        3760
        3764
        3768
        3772
        3776
        3780
        3784
        3788
        3792
        3796
        3800
        3804
        3808
        3812
        3816
        3820
        3824
        3828
        3832
        3836
        3840
        3844
        3848
        3852
        3856
        3860
        3864
        3868
        3872
        3876
        3880
        3884
        3888
        3892
        3896
        3900
        3904
        3908
        3912
        3916
        3920
        3924
        3928
        3932
        3936
        3940
        3944
        3948
        3952
        3956
        3960
        3964
        3968
        3972
        3976
        3980
        3984
        3988
        3992
        3996
        4000
        4004
        4008
        4012
        4016
        4020
        4024
        4028
        4032
        4036
        4040
        4044
        4048
        4052
        4056
        4060
        4064
        4068
        4072
        4076
        4080
        4084
        4088
        4092
        4096
 </DataArray>
 <DataArray  type="UInt8"  Name="types"  format="ascii">
 9
 9
 9
 9
 9
 9
 9
 9
 9
 9
 9
 9
 9
 9
 9
 9
 9
 9
 9
 9
 9
 9
 9
 9
 9
 9
 9
 9
 9
 9
 9
 9
 9
 9
 9
 9
 9
 9
 9
 9
 9
 9
 9
 9
 9
 9
 9
 9
 9
 9
 9
 9
 9
 9
 9
 9
 9
 9
 9
 9
 9
 9
 9
 9
 9
 9
 9
 9
 9
 9
 9
 9
 9
 9
 9
 9
 9
 9
 9
 9
 9
 9
 9
 9
 9
 9
 9
 9
 9
 9
 9
 9
 9
 9
 9
 9
 9
 9
 9
 9
 9
 9
 9
 9
 9
 9
 9
 9
 9
 9
 9
 9
 9
 9
 9
 9
 9
 9
 9
 9
 9
 9
 9
 9
 9
 9
 9
 9
 9
 9
 9
 9
 9
 9
 9
 9
 9
 9
 9
 9
 9
 9
 9
 9
 9
 9
 9
 9
 9
 9
 9
 9
 9
 9
 9
 9
 9
 9
 9
 9
 9
 9
 9
 9
 9
 9
 9
 9
 9
 9
 9
 9
 9
 9
 9
 9
 9
 9
 9
 9
 9
 9
 9
 9
 9
 9
 9
 9
 9
 9
 9
 9
 9
 9
 9
 9
 9
 9
 9
 9
 9
 9
 9
 9
 9
 9
 9
 9
 9
 9
 9
 9
 9
 9
 9
 9
 9
 9
 9
 9
 9
 9
 9
 9
 9
 9
 9
 9
 9
 9
 9
 9
 9
 9
 9
 9
 9
 9
 9
 9
 9
 9
 9
 9
 9
 9
 9
 9
 9
 9
 9
 9
 9
 9
 9
 9
 9
 9
 9
 9
 9
 9
 9
 9
 9
 9
 9
 9
 9
 9
 9
 9
 9
 9
 9
 9
 9
 9
 9
 9
 9
 9
 9
 9
 9
 9
 9
 9
 9
 9
 9
 9
 9
 9
 9
 9
 9
 9
 9
 9
 9
 9
 9
 9
 9
 9
 9
 9
 9
 9
 9
 9
 9
 9
 9
 9
 9
 9
 9
 9
 9
 9
 9
 9
 9
 9
 9
 9
 9
 9
 9
 9
 9
 9
 9
 9
 9
 9
 9
 9
 9
 9
 9
 9
 9
 9
 9
 9
 9
 9
 9
 9
 9
 9
 9
 9
 9
 9
 9
 9
 9
 9
 9
 9
 9
 9
 9
 9
 9
 9
 9
 9
 9
 9
 9
 9
 9
 9
 9
 9
 9
 9
 9
 9
 9
 9
 9
 9
 9
 9
 9
 9
 9
 9
 9
 9
 9
 9
 9
 9
 9
 9
 9
 9
 9
 9
 9
 9
 9
 9
 9
 9
 9
 9
 9
 9
 9
 9
 9
 9
 9
 9
 9
 9
 9
 9
 9
 9
 9
 9
 9
 9
 9
 9
 9
 9
 9
 9
 9
 9
 9
 9
 9
 9
 9
 9
 9
 9
 9
 9
 9
 9
 9
 9
 9
 9
 9
 9
 9
 9
 9
 9
 9
 9
 9
 9
 9
 9
 9
 9
 9
 9
 9
 9
 9
 9
 9
 9
 9
 9
 9
 9
 9
 9
 9
 9
 9
 9
 9
 9
 9
 9
 9
 9
 9
 9
 9
 9
 9
 9
 9
 9
 9
 9
 9
 9
 9
 9
 9
 9
 9
 9
 9
 9
 9
 9
 9
 9
 9
 9
 9
 9
 9
 9
 9
 9
 9
 9
 9
 9
 9
 9
 9
 9
 9
 9
 9
 9
 9
 9
 9
 9
 9
 9
 9
 9
 9
 9
 9
 9
 9
 9
 9
 9
 9
 9
 9
 9
 9
 9
 9
 9
 9
 9
 9
 9
 9
 9
 9
 9
 9
 9
 9
 9
 9
 9
 9
 9
 9
 9
 9
 9
 9
 9
 9
 9
 9
 9
 9
 9
 9
 9
 9
 9
 9
 9
 9
 9
 9
 9
 9
 9
 9
 9
 9
 9
 9
 9
 9
 9
 9
 9
 9
 9
 9
 9
 9
 9
 9
 9
 9
 9
 9
 9
 9
 9
 9
 9
 9
 9
 9
 9
 9
 9
 9
 9
 9
 9
 9
 9
 9
 9
 9
 9
 9
 9
 9
 9
 9
 9
 9
 9
 9
 9
 9
 9
 9
 9
 9
 9
 9
 9
 9
 9
 9
 9
 9
 9
 9
 9
 9
 9
 9
 9
 9
 9
 9
 9
 9
 9
 9
 9
 9
 9
 9
 9
 9
 9
 9
 9
 9
 9
 9
 9
 9
 9
 9
 9
 9
 9
 9
 9
 9
 9
 9
 9
 9
 9
 9
 9
 9
 9
 9
 9
 9
 9
 9
 9
 9
 9
 9
 9
 9
 9
 9
 9
 9
 9
 9
 9
 9
 9
 9
 9
 9
 9
 9
 9
 9
 9
 9
 9
 9
 9
 9
 9
 9
 9
 9
 9
 9
 9
 9
 9
 9
 9
 9
 9
 9
 9
 9
 9
 9
 9
 9
 9
 9
 9
 9
 9
 9
 9
 9
 9
 9
 9
 9
 9
 9
 9
 9
 9
 9
 9
 9
 9
 9
 9
 9
 9
 9
 9
 9
 9
 9
 9
 9
 9
 9
 9
 9
 9
 9
 9
 9
 9
 9
 9
 9
 9
 9
 9
 9
 9
 9
 9
 9
 9
 9
 9
 9
 9
 9
 9
 9
 9
 9
 9
 9
 9
 9
 9
 9
 9
 9
 9
 9
 9
 9
 9
 9
 9
 9
 9
 9
 9
 9
 9
 9
 9
 9
 9
 9
 9
 9
 9
 9
 9
 9
 9
 9
 9
 9
 9
 9
 9
 9
 9
 9
 9
 9
 9
 9
 9
 9
 9
 9
 9
 9
 9
 9
 9
 9
 9
 9
 9
 9
 9
 9
 9
 9
 9
 9
 9
 9
 9
 9
 9
 9
 9
 9
 9
 9
 9
 9
 9
 9
 9
 9
 9
 9
 9
 9
 9
 9
 9
 9
 9
 9
 9
 9
 9
 9
 9
 9
 9
 9
 9
 9
 9
 9
 9
 9
 9
 9
 9
 9
 9
 9
 9
 9
 9
 9
 9
 9
 9
 9
 9
 9
 9
 9
 9
 9
 9
 9
 9
 9
 9
 9
 9
 9
 9
 9
 9
 9
 9
 9
 9
 9
 9
 9
 9
 9
 9
 9
 9
 9
 9
 9
 9
 9
 9
 9
 9
 9
 9
 9
 9
 9
 9
 9
 9
 9
 9
 9
 9
 9
 9
 9
 9
 9
 9
 9
 9
 9
 9
 9
 9
 9
 9
 9
 9
 9
 9
 9
 9
 9
 9
 9
 9
 9
 9
 9
 9
 </DataArray>
 </Cells> 
 <PointData>
 <DataArray  type="Float64" Name="disp" NumberOfComponents="3" format="ascii">
   0.0000000000000000        0.0000000000000000        0.0000000000000000     
   6.0959491907808727E-003   3.7903125062738146E-003   0.0000000000000000     
   1.1665987602348349E-002   7.3237125026623037E-003   0.0000000000000000     
   1.6710115234702429E-002   1.0600199989165466E-002   0.0000000000000000     
   2.1228332087843110E-002   1.3619774965783305E-002   0.0000000000000000     
   0.0000000000000000        0.0000000000000000        0.0000000000000000     
   4.8911492199610641E-003   3.0220842051044295E-003   0.0000000000000000     
   9.5736291184487683E-003   6.0604688109339340E-003   0.0000000000000000     
   1.4047439695463119E-002   9.1151538174885118E-003   0.0000000000000000     
   1.8312580951004107E-002   1.2186139224768166E-002   0.0000000000000000     
   0.0000000000000000        0.0000000000000000        0.0000000000000000     
   3.9535694961894121E-003   2.4250969345110032E-003   0.0000000000000000     
   7.9106197966650315E-003   5.0628755195914763E-003   0.0000000000000000     
   1.1871150901426855E-002   7.9133357552414185E-003   0.0000000000000000     
   1.5835162810474888E-002   1.0976477641460832E-002   0.0000000000000000     
   0.0000000000000000        0.0000000000000000        0.0000000000000000     
   3.2832100194659184E-003   1.9993506944935352E-003   0.0000000000000000     
   6.6769596369971335E-003   4.3309326286349306E-003   0.0000000000000000     
   1.0181248852593644E-002   6.9947458024241871E-003   0.0000000000000000     
   1.3796077666255454E-002   9.9907902158613022E-003   0.0000000000000000     
   0.0000000000000000        0.0000000000000000        0.0000000000000000     
   2.8800707897905817E-003   1.7448454850520255E-003   0.0000000000000000     
   5.8726486394450762E-003   3.8646401380642973E-003   0.0000000000000000     
   8.9777335489634839E-003   6.3593839590368141E-003   0.0000000000000000     
   1.2195325518345804E-002   9.2290769479695771E-003   0.0000000000000000     
   2.1228332087843110E-002   1.3619774965783305E-002   0.0000000000000000     
   2.5433476716648126E-002   1.6612877426224422E-002   0.0000000000000000     
   2.9538387675995200E-002   1.9809947364197420E-002   0.0000000000000000     
   3.3543064965884335E-002   2.3210984779702307E-002   0.0000000000000000     
   3.7447508586315528E-002   2.6815989672739071E-002   0.0000000000000000     
   1.8312580951004107E-002   1.2186139224768166E-002   0.0000000000000000     
   2.2407272549918200E-002   1.5341674898916611E-002   0.0000000000000000     
   2.6369734157051853E-002   1.8650010706077570E-002   0.0000000000000000     
   3.0199965772405073E-002   2.2111146646251040E-002   0.0000000000000000     
   3.3897967395977856E-002   2.5725082719437020E-002   0.0000000000000000     
   1.5835162810474888E-002   1.0976477641460832E-002   0.0000000000000000     
   1.9730907210141164E-002   1.4211067313369571E-002   0.0000000000000000     
   2.3486635786757720E-002   1.7575870906087494E-002   0.0000000000000000     
   2.7102348540324561E-002   2.1070888419614599E-002   0.0000000000000000     
   3.0578045470841680E-002   2.4696119853950878E-002   0.0000000000000000     
   1.3796077666255454E-002   9.9907902158613022E-003   0.0000000000000000     
   1.7404380697317024E-002   1.3221054669583295E-002   0.0000000000000000     
   2.0889092565112798E-002   1.6587527964227189E-002   0.0000000000000000     
   2.4250213269642801E-002   2.0090210099792973E-002   0.0000000000000000     
   2.7487742810907011E-002   2.3729101076280658E-002   0.0000000000000000     
   1.2195325518345804E-002   9.2290769479695771E-003   0.0000000000000000     
   1.5427693011445760E-002   1.2371636967557793E-002   0.0000000000000000     
   1.8577104492117091E-002   1.5684981880496655E-002   0.0000000000000000     
   2.1643559960359784E-002   1.9169111686786169E-002   0.0000000000000000     
   2.4627059416173845E-002   2.2824026386426340E-002   0.0000000000000000     
   3.7447508586315528E-002   2.6815989672739071E-002   0.0000000000000000     
   4.1256213213227359E-002   3.0620689759714055E-002   0.0000000000000000     
   4.4973673522558398E-002   3.4620812757033589E-002   0.0000000000000000     
   4.8599889514308645E-002   3.8816358664697681E-002   0.0000000000000000     
   5.2134861188478106E-002   4.3207327482706323E-002   0.0000000000000000     
   3.3897967395977856E-002   2.5725082719437020E-002   0.0000000000000000     
   3.7486855879809447E-002   2.9520924182296834E-002   0.0000000000000000     
   4.0989748075939123E-002   3.3527776291491805E-002   0.0000000000000000     
   4.4406643984366861E-002   3.7745639047021932E-002   0.0000000000000000     
   4.7737543605092678E-002   4.2174512448887216E-002   0.0000000000000000     
   3.0578045470841680E-002   2.4696119853950878E-002   0.0000000000000000     
   3.3942987960959931E-002   2.8496310033621131E-002   0.0000000000000000     
   3.7226437393330161E-002   3.2516203783150142E-002   0.0000000000000000     
   4.0428393767952368E-002   3.6755801102537899E-002   0.0000000000000000     
   4.3548857084826559E-002   4.1215101991784416E-002   0.0000000000000000     
   2.7487742810907011E-002   2.3729101076280658E-002   0.0000000000000000     
   3.0624609456678799E-002   2.7546847313686954E-002   0.0000000000000000     
   3.3683741474731521E-002   3.1586095232008594E-002   0.0000000000000000     
   3.6665138865065172E-002   3.5846844831245582E-002   0.0000000000000000     
   3.9568801627679770E-002   4.0329096111397900E-002   0.0000000000000000     
   2.4627059416173845E-002   2.2824026386426340E-002   0.0000000000000000     
   2.7531720366966057E-002   2.6672536022494291E-002   0.0000000000000000     
   3.0361660320143202E-002   3.0737450638067172E-002   0.0000000000000000     
   3.3116879275705280E-002   3.5018770233144966E-002   0.0000000000000000     
   3.5797377233652283E-002   3.9516494807727690E-002   0.0000000000000000     
   5.2134861188478106E-002   4.3207327482706323E-002   0.0000000000000000     
   5.5575330845123422E-002   4.7797547090280633E-002   0.0000000000000000     
   5.8918040784301254E-002   5.2590845366641749E-002   0.0000000000000000     
   6.2162991006011588E-002   5.7587222311789650E-002   0.0000000000000000     
   6.5310181510254445E-002   6.2786677925724357E-002   0.0000000000000000     
   4.7737543605092678E-002   4.2174512448887216E-002   0.0000000000000000     
   5.0978623472810444E-002   4.6807361109940576E-002   0.0000000000000000     
   5.4126060122214048E-002   5.1637149643034959E-002   0.0000000000000000     
   5.7179853553303496E-002   5.6663878048170351E-002   0.0000000000000000     
   6.0140003766078760E-002   6.1887546325346751E-002   0.0000000000000000     
   4.3548857084826559E-002   4.1215101991784416E-002   0.0000000000000000     
   4.6584366206598359E-002   4.5881208653455477E-002   0.0000000000000000     
   4.9531459995913386E-002   5.0741223290116898E-002   0.0000000000000000     
   5.2390138452771649E-002   5.5795145901768699E-002   0.0000000000000000     
   5.5160401577173161E-002   6.1042976488410866E-002   0.0000000000000000     
   3.9568801627679770E-002   4.0329096111397900E-002   0.0000000000000000     
   4.2392559046487185E-002   4.5019089720825321E-002   0.0000000000000000     
   4.5134240405399283E-002   4.9903066307887579E-002   0.0000000000000000     
   4.7793845704416103E-002   5.4981025872584709E-002   0.0000000000000000     
   5.0371374943537627E-002   6.0252968414916661E-002   0.0000000000000000     
   3.5797377233652283E-002   3.9516494807727690E-002   0.0000000000000000     
   3.8403201992476876E-002   4.4221004312050102E-002   0.0000000000000000     
   4.0934401350671730E-002   4.9122678696346990E-002   0.0000000000000000     
   4.3390975308236816E-002   5.4221517960618332E-002   0.0000000000000000     
   4.5772923865172156E-002   5.9517522104864162E-002   0.0000000000000000     
   6.5310181510254445E-002   6.2786677925724357E-002   0.0000000000000000     
   6.8363336857740903E-002   6.8176868545117161E-002   0.0000000000000000     
   7.1326181609182068E-002   7.3745450506639346E-002   0.0000000000000000     
   7.4198715764577927E-002   7.9492423810290938E-002   0.0000000000000000     
   7.6980939323928507E-002   8.5417788456071939E-002   0.0000000000000000     
   6.0140003766078760E-002   6.1887546325346751E-002   0.0000000000000000     
   6.3010046054841826E-002   6.7300140683771659E-002   0.0000000000000000     
   6.5793515713894593E-002   7.2893647332652536E-002   0.0000000000000000     
   6.8490412743237070E-002   7.8668066271989370E-002   0.0000000000000000     
   7.1100737142869269E-002   8.4623397501782160E-002   0.0000000000000000     
   5.5160401577173161E-002   6.1042976488410866E-002   0.0000000000000000     
   5.7845297997005017E-002   6.6478913286077468E-002   0.0000000000000000     
   6.0447876340154374E-002   7.2097154530802579E-002   0.0000000000000000     
   6.2968136606621219E-002   7.7897700222586228E-002   0.0000000000000000     
   6.5406078796405573E-002   8.3880550361428385E-002   0.0000000000000000     
   5.0371374943537627E-002   6.0252968414916661E-002   0.0000000000000000     
   5.2869092684230505E-002   6.5713186352034589E-002   0.0000000000000000     
   5.5289263487961440E-002   7.1355972101089557E-002   0.0000000000000000     
   5.7631887354730391E-002   7.7181325662081565E-002   0.0000000000000000     
   5.9896964284537391E-002   8.3189247035010655E-002   0.0000000000000000     
   4.5772923865172156E-002   5.9517522104864162E-002   0.0000000000000000     
   4.8081430116518283E-002   6.5002959881643008E-002   0.0000000000000000     
   5.0317677157315763E-002   7.0670100043513415E-002   0.0000000000000000     
   5.2481664987564583E-002   7.6518942590475397E-002   0.0000000000000000     
   5.4573393607264750E-002   8.2549487522528942E-002   0.0000000000000000     
   7.6980939323928507E-002   8.5417788456071939E-002   0.0000000000000000     
   7.9666069778908111E-002   9.1511139161919428E-002   0.0000000000000000     
   8.2247324621191054E-002   9.7762070645770457E-002   0.0000000000000000     
   8.4724703850777350E-002  0.10417058290762508        0.0000000000000000     
   8.7098207467666972E-002  0.11073667594748328        0.0000000000000000     
   7.1100737142869269E-002   8.4623397501782160E-002   0.0000000000000000     
   7.3618943169209222E-002   9.0747159670058433E-002   0.0000000000000000     
   7.6039485078674918E-002   9.7026871424845632E-002   0.0000000000000000     
   7.8362362871266383E-002  0.10346253276614380        0.0000000000000000     
   8.0587576546983619E-002  0.11005414369395290        0.0000000000000000     
   6.5406078796405573E-002   8.3880550361428385E-002   0.0000000000000000     
   6.7757142475600662E-002   9.0032023677184214E-002   0.0000000000000000     
   7.0016767210299813E-002   9.6338438899708848E-002   0.0000000000000000     
   7.2184953000502983E-002  0.10279979602900226        0.0000000000000000     
   7.4261699846210186E-002  0.10941609506506447        0.0000000000000000     
   5.9896964284537391E-002   8.3189247035010655E-002   0.0000000000000000     
   6.2080667698082494E-002   8.9365731183296826E-002   0.0000000000000000     
   6.4179171016065725E-002   9.5696773070360105E-002   0.0000000000000000     
   6.6192474238487148E-002  0.10218237269620051        0.0000000000000000     
   6.8120577365346713E-002  0.10882253006081800        0.0000000000000000     
   5.4573393607264750E-002   8.2549487522528942E-002   0.0000000000000000     
   5.6589518836654654E-002   8.8748282188396241E-002   0.0000000000000000     
   5.8526696495972697E-002   9.5101873936799419E-002   0.0000000000000000     
   6.0384926585218858E-002  0.10161026276773849        0.0000000000000000     
   6.2164209104393166E-002  0.10827344868121348        0.0000000000000000     
   8.7098207467666972E-002  0.11073667594748328        0.0000000000000000     
   8.9376814990511408E-002  0.11744903390368933        0.0000000000000000     
   9.1569505937962092E-002  0.12429634091458749        0.0000000000000000     
   9.3676280310019011E-002  0.13127859698017783        0.0000000000000000     
   9.5697138106682150E-002  0.13839580210046026        0.0000000000000000     
   8.0587576546983619E-002  0.11005414369395290        0.0000000000000000     
   8.2725757407964215E-002  0.11679215386013800        0.0000000000000000     
   8.4787536756345760E-002  0.12366701291656412        0.0000000000000000     
   8.6772914592128284E-002  0.13067872086323129        0.0000000000000000     
   8.8681890915311784E-002  0.13782727770013947        0.0000000000000000     
   7.4261699846210186E-002  0.10941609506506447        0.0000000000000000     
   7.6258181631724389E-002  0.11617893378366896        0.0000000000000000     
   7.8185572241348561E-002  0.12307990996058919        0.0000000000000000     
   8.0043871675082687E-002  0.13011902359582520        0.0000000000000000     
   8.1833079932926794E-002  0.13729627468937694        0.0000000000000000     
   6.8120577365346713E-002  0.10882253006081800        0.0000000000000000     
   6.9974087661791959E-002  0.11560937367428221        0.0000000000000000     
   7.1763612392970466E-002  0.12253503204666273        0.0000000000000000     
   7.3489151558882207E-002  0.12959950517795960        0.0000000000000000     
   7.5150705159527209E-002  0.13680279306817272        0.0000000000000000     
   6.2164209104393166E-002  0.10827344868121348        0.0000000000000000     
   6.3873475498166923E-002  0.11508347353197776        0.0000000000000000     
   6.5521657211211490E-002  0.12203237917478474        0.0000000000000000     
   6.7108754243526858E-002  0.12912016560963441        0.0000000000000000     
   6.8634766595113000E-002  0.13634683283652679        0.0000000000000000     
   9.5697138106682150E-002  0.13839580210046026        0.0000000000000000     
   9.7626969598868241E-002  0.14563515720455794        0.0000000000000000     
   9.9460665057493972E-002  0.15298386322159396        0.0000000000000000     
  0.10119822448255933       0.16044192015156833        0.0000000000000000     
  0.10283964787406431       0.16800932799448101        0.0000000000000000     
   8.8681890915311784E-002  0.13782727770013947        0.0000000000000000     
   9.0501596908913615E-002  0.14509707711257883        0.0000000000000000     
   9.2219163755951142E-002  0.15247251278583945        0.0000000000000000     
   9.3834591456424393E-002  0.15995358471992135        0.0000000000000000     
   9.5347880010333341E-002  0.16754029291482456        0.0000000000000000     
   8.1833079932926794E-002  0.13729627468937694        0.0000000000000000     
   8.3536253912433300E-002  0.14459423894946338        0.0000000000000000     
   8.5136450511154621E-002  0.15199549208430341        0.0000000000000000     
   8.6633669729090770E-002  0.15950003409389701        0.0000000000000000     
   8.8027911566241776E-002  0.16710786497824423        0.0000000000000000     
   7.5150705159527209E-002  0.13680279306817272        0.0000000000000000     
   7.6730940609427312E-002  0.14412664271521164        0.0000000000000000     
   7.8212525323104409E-002  0.15155280111698585        0.0000000000000000     
   7.9595459300558530E-002  0.15908126827349531        0.0000000000000000     
   8.0879742541789632E-002  0.16671204418474000        0.0000000000000000     
   6.8634766595113000E-002  0.13634683283652679        0.0000000000000000     
   7.0085656999895662E-002  0.14369428840982365        0.0000000000000000     
   7.1447388191800520E-002  0.15114443988388679        0.0000000000000000     
   7.2719960170827616E-002  0.15869728725871621        0.0000000000000000     
   7.3903372936976894E-002  0.16635283053431194        0.0000000000000000     
   0.0000000000000000        0.0000000000000000        0.0000000000000000     
   2.8800707897905817E-003   1.7448454850520255E-003   0.0000000000000000     
   5.8726486394450762E-003   3.8646401380642973E-003   0.0000000000000000     
   8.9777335489634839E-003   6.3593839590368141E-003   0.0000000000000000     
   1.2195325518345804E-002   9.2290769479695771E-003   0.0000000000000000     
   0.0000000000000000        0.0000000000000000        0.0000000000000000     
   2.6103159499368269E-003   1.5889314922300163E-003   0.0000000000000000     
   5.2897156143492715E-003   3.5566973252332337E-003   0.0000000000000000     
   8.0381989932373325E-003   5.9032974990096505E-003   0.0000000000000000     
   1.0855766086601009E-002   8.6287320135592684E-003   0.0000000000000000     
   0.0000000000000000        0.0000000000000000        0.0000000000000000     
   2.3401096426780787E-003   1.4589589020710505E-003   0.0000000000000000     
   4.7201893720501282E-003   3.2998034674953975E-003   0.0000000000000000     
   7.1402391881161499E-003   5.5225336962730397E-003   0.0000000000000000     
   9.6002590908761433E-003   8.1271495884039802E-003   0.0000000000000000     
   0.0000000000000000        0.0000000000000000        0.0000000000000000     
   2.0694518680143366E-003   1.3549277145751275E-003   0.0000000000000000     
   4.1640699125476488E-003   3.0939585648507894E-003   0.0000000000000000     
   6.2838541335999394E-003   5.2170925508269869E-003   0.0000000000000000     
   8.4288045311712041E-003   7.7243296725037170E-003   0.0000000000000000     
   0.0000000000000000        0.0000000000000000        0.0000000000000000     
   1.7983426259456006E-003   1.2768379297422475E-003   0.0000000000000000     
   3.6213572358418326E-003   2.9391626172994099E-003   0.0000000000000000     
   5.4690438296886969E-003   4.9869740626714868E-003   0.0000000000000000     
   7.3414024074861927E-003   7.4202722658584788E-003   0.0000000000000000     
   1.2195325518345804E-002   9.2290769479695771E-003   0.0000000000000000     
   1.5427693011445760E-002   1.2371636967557793E-002   0.0000000000000000     
   1.8577104492117091E-002   1.5684981880496655E-002   0.0000000000000000     
   2.1643559960359784E-002   1.9169111686786169E-002   0.0000000000000000     
   2.4627059416173845E-002   2.2824026386426340E-002   0.0000000000000000     
   1.0855766086601009E-002   8.6287320135592684E-003   0.0000000000000000     
   1.3689059737181521E-002   1.1650734543271811E-002   0.0000000000000000     
   1.6484722787720073E-002   1.4887038762537011E-002   0.0000000000000000     
   1.9242755238216679E-002   1.8337644671354864E-002   0.0000000000000000     
   2.1963157088671321E-002   2.2002552269725376E-002   0.0000000000000000     
   9.6002590908761433E-003   8.1271495884039802E-003   0.0000000000000000     
   1.2076696459178403E-002   1.1046267732704122E-002   0.0000000000000000     
   1.4545998671871230E-002   1.4212504717989372E-002   0.0000000000000000     
   1.7008165728954621E-002   1.7625860544259735E-002   0.0000000000000000     
   1.9463197630428572E-002   2.1286335211515205E-002   0.0000000000000000     
   8.4288045311712041E-003   7.7243296725037170E-003   0.0000000000000000     
   1.0590603177436422E-002   1.0558236535854722E-002   0.0000000000000000     
   1.2760932144570558E-002   1.3661379746853743E-002   0.0000000000000000     
   1.4939791432573622E-002   1.7033759305500776E-002   0.0000000000000000     
   1.7127181041445602E-002   2.0675375211795823E-002   0.0000000000000000     
   7.3414024074861927E-003   7.4202722658584788E-003   0.0000000000000000     
   9.2307798919555664E-003   1.0186640952723612E-002   0.0000000000000000     
   1.1129523205818059E-002   1.3233663849130118E-002   0.0000000000000000     
   1.3037632349073673E-002   1.6561340955077990E-002   0.0000000000000000     
   1.4955107321722410E-002   2.0169672270567235E-002   0.0000000000000000     
   2.4627059416173845E-002   2.2824026386426340E-002   0.0000000000000000     
   2.7531720366966057E-002   2.6672536022494291E-002   0.0000000000000000     
   3.0361660320143202E-002   3.0737450638067172E-002   0.0000000000000000     
   3.3116879275705280E-002   3.5018770233144966E-002   0.0000000000000000     
   3.5797377233652283E-002   3.9516494807727690E-002   0.0000000000000000     
   2.1963157088671321E-002   2.2002552269725376E-002   0.0000000000000000     
   2.4629416577194852E-002   2.5879832895204926E-002   0.0000000000000000     
   2.7225021941898100E-002   2.9967557885349893E-002   0.0000000000000000     
   2.9749973182781067E-002   3.4265727240160276E-002   0.0000000000000000     
   3.2204270299843740E-002   3.8774340959636083E-002   0.0000000000000000     
   1.9463197630428572E-002   2.1286335211515205E-002   0.0000000000000000     
   2.1882793972738325E-002   2.5175194666980615E-002   0.0000000000000000     
   2.4238654352329109E-002   2.9273704857880774E-002   0.0000000000000000     
   2.6530778769200920E-002   3.3581865784215709E-002   0.0000000000000000     
   2.8759167223353758E-002   3.8099677445985400E-002   0.0000000000000000     
   1.7127181041445602E-002   2.0675375211795823E-002   0.0000000000000000     
   1.9291852553596486E-002   2.4558621337821353E-002   0.0000000000000000     
   2.1402557551436229E-002   2.8655891555659833E-002   0.0000000000000000     
   2.3459296034964848E-002   3.2967185865311249E-002   0.0000000000000000     
   2.5462068004182332E-002   3.7492504266775611E-002   0.0000000000000000     
   1.4955107321722410E-002   2.0169672270567235E-002   0.0000000000000000     
   1.6856592319769326E-002   2.4030112907727150E-002   0.0000000000000000     
   1.8716731539219468E-002   2.8114117978687049E-002   0.0000000000000000     
   2.0535524980072849E-002   3.2421687483446912E-002   0.0000000000000000     
   2.2312972642329461E-002   3.6952821422006760E-002   0.0000000000000000     
   3.5797377233652283E-002   3.9516494807727690E-002   0.0000000000000000     
   3.8403201992476876E-002   4.4221004312050102E-002   0.0000000000000000     
   4.0934401350671730E-002   4.9122678696346990E-002   0.0000000000000000     
   4.3390975308236816E-002   5.4221517960618332E-002   0.0000000000000000     
   4.5772923865172156E-002   5.9517522104864162E-002   0.0000000000000000     
   3.2204270299843740E-002   3.8774340959636083E-002   0.0000000000000000     
   3.4589802374167387E-002   4.3488808710062138E-002   0.0000000000000000     
   3.6908458486833225E-002   4.8404540157723261E-002   0.0000000000000000     
   3.9160238637841266E-002   5.3521535302619473E-002   0.0000000000000000     
   4.1345142827191504E-002   5.8839794144750740E-002   0.0000000000000000     
   2.8759167223353758E-002   3.8099677445985400E-002   0.0000000000000000     
   3.0925867521158563E-002   4.2824359197793725E-002   0.0000000000000000     
   3.3032927468986270E-002   4.7753130394244558E-002   0.0000000000000000     
   3.5080347066836895E-002   5.2885991035337920E-002   0.0000000000000000     
   3.7068126314710417E-002   5.8222941121073783E-002   0.0000000000000000     
   2.5462068004182332E-002   3.7492504266775611E-002   0.0000000000000000     
   2.7411397433450422E-002   4.2227655775244864E-002   0.0000000000000000     
   2.9307808297130891E-002   4.7168449405910876E-002   0.0000000000000000     
   3.1151300595223707E-002   5.2314885158773701E-002   0.0000000000000000     
   3.2941874327728889E-002   5.7666963033833285E-002   0.0000000000000000     
   2.2312972642329461E-002   3.6952821422006760E-002   0.0000000000000000     
   2.4046392111042970E-002   4.1698698442415541E-002   0.0000000000000000     
   2.5733100971267051E-002   4.6650497192722219E-002   0.0000000000000000     
   2.7373099223001705E-002   5.1808217672926787E-002   0.0000000000000000     
   2.8966386866246922E-002   5.7171859883029259E-002   0.0000000000000000     
   4.5772923865172156E-002   5.9517522104864162E-002   0.0000000000000000     
   4.8081430116518283E-002   6.5002959881643008E-002   0.0000000000000000     
   5.0317677157315763E-002   7.0670100043513415E-002   0.0000000000000000     
   5.2481664987564583E-002   7.6518942590475397E-002   0.0000000000000000     
   5.4573393607264750E-002   8.2549487522528942E-002   0.0000000000000000     
   4.1345142827191504E-002   5.8839794144750740E-002   0.0000000000000000     
   4.3463297655786264E-002   6.4349021649963173E-002   0.0000000000000000     
   4.5514829724527854E-002   7.0038922784102842E-002   0.0000000000000000     
   4.7499739033416276E-002   7.5909497547169774E-002   0.0000000000000000     
   4.9418025582451522E-002   8.1960745939163943E-002   0.0000000000000000     
   3.7068126314710417E-002   5.8222941121073783E-002   0.0000000000000000     
   3.8995682663952348E-002   6.3752159432055533E-002   0.0000000000000000     
   4.0862433565908199E-002   6.9461824748886555E-002   0.0000000000000000     
   4.2668379020577948E-002   7.5351937071566816E-002   0.0000000000000000     
   4.4413519027961625E-002   8.1422496400096328E-002   0.0000000000000000     
   3.2941874327728889E-002   5.7666963033833285E-002   0.0000000000000000     
   3.4678585141016544E-002   6.3212373227920074E-002   0.0000000000000000     
   3.6360488681456790E-002   6.8938805937864472E-002   0.0000000000000000     
   3.7987584949049615E-002   7.4846261163666467E-002   0.0000000000000000     
   3.9559873943795031E-002   8.0934738905326098E-002   0.0000000000000000     
   2.8966386866246922E-002   5.7171859883029259E-002   0.0000000000000000     
   3.0512005086978856E-002   6.2729663037556838E-002   0.0000000000000000     
   3.2008995071173635E-002   6.8469866351036676E-002   0.0000000000000000     
   3.3457356818831267E-002   7.4392469823468824E-002   0.0000000000000000     
   3.4857090329951747E-002   8.0497473454853266E-002   0.0000000000000000     
   5.4573393607264750E-002   8.2549487522528942E-002   0.0000000000000000     
   5.6589518836654654E-002   8.8748282188396241E-002   0.0000000000000000     
   5.8526696495972697E-002   9.5101873936799419E-002   0.0000000000000000     
   6.0384926585218858E-002  0.10161026276773849        0.0000000000000000     
   6.2164209104393166E-002  0.10827344868121348        0.0000000000000000     
   4.9418025582451522E-002   8.1960745939163943E-002   0.0000000000000000     
   5.1266645967628290E-002   8.8179935679263230E-002   0.0000000000000000     
   5.3042556784941242E-002   9.4554334486645533E-002   0.0000000000000000     
   5.4745758034390385E-002  0.10108394236131084        0.0000000000000000     
   5.6376249715975699E-002  0.10776875930325916        0.0000000000000000     
   4.4413519027961625E-002   8.1422496400096328E-002   0.0000000000000000     
   4.6094999167314521E-002   8.7660950642678606E-002   0.0000000000000000     
   4.7709965017891959E-002   9.4054747707517192E-002   0.0000000000000000     
   4.9258416579693938E-002  0.10060388759461207        0.0000000000000000     
   5.0740353852720466E-002  0.10730837030396323        0.0000000000000000     
   3.9559873943795031E-002   8.0934738905326098E-002   0.0000000000000000     
   4.1074578435713327E-002   8.7191327078642383E-002   0.0000000000000000     
   4.2528921194824834E-002   9.3603113599414409E-002   0.0000000000000000     
   4.3922902221129531E-002  0.10017009846764217        0.0000000000000000     
   4.5256521514627425E-002  0.10689228168332571        0.0000000000000000     
   3.4857090329951747E-002   8.0497473454853266E-002   0.0000000000000000     
   3.6205383772824729E-002   8.6771064987154534E-002   0.0000000000000000     
   3.7499425315739868E-002   9.3199432162337170E-002   0.0000000000000000     
   3.8739214958697157E-002   9.9782574980401190E-002   0.0000000000000000     
   3.9924752701696604E-002  0.10652049344134661        0.0000000000000000     
   6.2164209104393166E-002  0.10827344868121348        0.0000000000000000     
   6.3873475498166923E-002  0.11508347353197776        0.0000000000000000     
   6.5521657211211490E-002  0.12203237917478474        0.0000000000000000     
   6.7108754243526858E-002  0.12912016560963441        0.0000000000000000     
   6.8634766595113000E-002  0.13634683283652679        0.0000000000000000     
   5.6376249715975699E-002  0.10776875930325916        0.0000000000000000     
   5.7941093822933623E-002  0.11460059661430966        0.0000000000000000     
   5.9447352348500501E-002  0.12157126559628159        0.0000000000000000     
   6.0895025292676375E-002  0.12868076624917493        0.0000000000000000     
   6.2284112655461216E-002  0.13592909857298965        0.0000000000000000     
   5.0740353852720466E-002  0.10730837030396323        0.0000000000000000     
   5.2161691318176329E-002  0.11416010617883200        0.0000000000000000     
   5.3528343457266349E-002  0.12115100556247969        0.0000000000000000     
   5.4840310269990519E-002  0.12828106845490633        0.0000000000000000     
   5.6097591756348833E-002  0.13555029485611186        0.0000000000000000     
   4.5256521514627425E-002  0.10689228168332571        0.0000000000000000     
   4.6535267983895082E-002  0.11376200222554472        0.0000000000000000     
   4.7764630537509033E-002  0.12077159907337903        0.0000000000000000     
   4.8944609175469299E-002  0.12792107222682861        0.0000000000000000     
   5.0075203897775873E-002  0.13521042168589345        0.0000000000000000     
   3.9924752701696604E-002  0.10652049344134661        0.0000000000000000     
   4.1061823820089847E-002  0.11340628475444792        0.0000000000000000     
   4.2156213589228553E-002  0.12043304612897962        0.0000000000000000     
   4.3207922009112713E-002  0.12760077756494176        0.0000000000000000     
   4.4216949079742329E-002  0.13490947906233430        0.0000000000000000     
   6.8634766595113000E-002  0.13634683283652679        0.0000000000000000     
   7.0085656999895662E-002  0.14369428840982365        0.0000000000000000     
   7.1447388191800520E-002  0.15114443988388679        0.0000000000000000     
   7.2719960170827616E-002  0.15869728725871621        0.0000000000000000     
   7.3903372936976894E-002  0.16635283053431194        0.0000000000000000     
   6.2284112655461216E-002  0.13592909857298965        0.0000000000000000     
   6.3604696210301903E-002  0.14329860834315564        0.0000000000000000     
   6.4846857730645316E-002  0.15077164133510268        0.0000000000000000     
   6.6010597216491440E-002  0.15834819754883078        0.0000000000000000     
   6.7095914667840290E-002  0.16602827698433995        0.0000000000000000     
   5.6097591756348833E-002  0.13555029485611186        0.0000000000000000     
   5.7292351367109612E-002  0.14294103482506390        0.0000000000000000     
   5.8416752553041157E-002  0.15043563842072999        0.0000000000000000     
   5.9470795314143468E-002  0.15803410564311005        0.0000000000000000     
   6.0454479650416545E-002  0.16573643649220410        0.0000000000000000     
   5.0075203897775873E-002  0.13521042168589345        0.0000000000000000     
   5.1148622470318782E-002  0.14262156785554844        0.0000000000000000     
   5.2157072658988043E-002  0.15013643114076863        0.0000000000000000     
   5.3100554463783672E-002  0.15775501154155397        0.0000000000000000     
   5.3979067884705655E-002  0.16547730905790445        0.0000000000000000     
   4.4216949079742329E-002  0.13490947906233430        0.0000000000000000     
   4.5173509519929413E-002  0.14234020743460929        0.0000000000000000     
   4.6067818048485989E-002  0.14987401949521875        0.0000000000000000     
   4.6899874665412067E-002  0.15751091524416255        0.0000000000000000     
   4.7669679370707631E-002  0.16525089468144089        0.0000000000000000     
   0.0000000000000000        0.0000000000000000        0.0000000000000000     
   1.7983426259456006E-003   1.2768379297422475E-003   0.0000000000000000     
   3.6213572358418326E-003   2.9391626172994099E-003   0.0000000000000000     
   5.4690438296886969E-003   4.9869740626714868E-003   0.0000000000000000     
   7.3414024074861927E-003   7.4202722658584788E-003   0.0000000000000000     
   0.0000000000000000        0.0000000000000000        0.0000000000000000     
   1.5350492969371482E-003   1.2175715959241913E-003   0.0000000000000000     
   3.0993975953104288E-003   2.8208973639098113E-003   0.0000000000000000     
   4.6930448951198415E-003   4.8099773039568597E-003   0.0000000000000000     
   6.3159911963653866E-003   7.1848114160653377E-003   0.0000000000000000     
   0.0000000000000000        0.0000000000000000        0.0000000000000000     
   1.2878392614542576E-003   1.1700107614727401E-003   0.0000000000000000     
   2.6055372443311870E-003   2.7246445437505481E-003   0.0000000000000000     
   3.9530939486307898E-003   4.6639013468334238E-003   0.0000000000000000     
   5.3305093743530648E-003   6.9877811707213687E-003   0.0000000000000000     
   0.0000000000000000        0.0000000000000000        0.0000000000000000     
   1.0567125194969281E-003   1.1341554263878935E-003   0.0000000000000000     
   2.1397761829041084E-003   2.6504041568216202E-003   0.0000000000000000     
   3.2491909902215409E-003   4.5487461913011800E-003   0.0000000000000000     
   4.3849569414492248E-003   6.8291815298265716E-003   0.0000000000000000     
   0.0000000000000000        0.0000000000000000        0.0000000000000000     
   8.4166907106516034E-004   1.1100055906696521E-003   0.0000000000000000     
   1.7021144110291918E-003   2.5981762031230269E-003   0.0000000000000000     
   2.5813360198920950E-003   4.4645118373601248E-003   0.0000000000000000     
   3.4793338976538699E-003   6.7090124933809449E-003   0.0000000000000000     
   7.3414024074861927E-003   7.4202722658584788E-003   0.0000000000000000     
   9.2307798919555664E-003   1.0186640952723612E-002   0.0000000000000000     
   1.1129523205818059E-002   1.3233663849130118E-002   0.0000000000000000     
   1.3037632349073673E-002   1.6561340955077990E-002   0.0000000000000000     
   1.4955107321722410E-002   2.0169672270567235E-002   0.0000000000000000     
   6.3159911963653866E-003   7.1848114160653377E-003   0.0000000000000000     
   7.9555811484968587E-003   9.8958384689598819E-003   0.0000000000000000     
   9.5991594009640496E-003   1.2893497231365125E-002   0.0000000000000000     
   1.1246725953766960E-002   1.6177787703281075E-002   0.0000000000000000     
   1.2898280806905591E-002   1.9748709884707727E-002   0.0000000000000000     
   5.3305093743530648E-003   6.9877811707213687E-003   0.0000000000000000     
   6.7233614928213139E-003   9.6501865702126148E-003   0.0000000000000000     
   8.1172282753588440E-003   1.2605020100105401E-002   0.0000000000000000     
   9.5121097219656517E-003   1.5852281760399725E-002   0.0000000000000000     
   1.0908005832641737E-002   1.9391971551095587E-002   0.0000000000000000     
   4.3849569414492248E-003   6.8291815298265716E-003   0.0000000000000000     
   5.5341209249289364E-003   9.4496852564818178E-003   0.0000000000000000     
   6.6837298290024433E-003   1.2368232455350939E-002   0.0000000000000000     
   7.8337836536697507E-003   1.5584823126433941E-002   0.0000000000000000     
   8.9842823989308568E-003   1.9099457269730818E-002   0.0000000000000000     
   3.4793338976538699E-003   6.7090124933809449E-003   0.0000000000000000     
   4.3878594448197193E-003   9.2943345277674855E-003   0.0000000000000000     
   5.2986640618948476E-003   1.2183134297101746E-002   0.0000000000000000     
   6.2117477488792556E-003   1.5375411801383722E-002   0.0000000000000000     
   7.1271105057729416E-003   1.8871167040613420E-002   0.0000000000000000     
   1.4955107321722410E-002   2.0169672270567235E-002   0.0000000000000000     
   1.6856592319769326E-002   2.4030112907727150E-002   0.0000000000000000     
   1.8716731539219468E-002   2.8114117978687049E-002   0.0000000000000000     
   2.0535524980072849E-002   3.2421687483446912E-002   0.0000000000000000     
   2.2312972642329461E-002   3.6952821422006760E-002   0.0000000000000000     
   1.2898280806905591E-002   1.9748709884707727E-002   0.0000000000000000     
   1.4537376377257466E-002   2.3580159040370138E-002   0.0000000000000000     
   1.6147565081700115E-002   2.7646030434993370E-002   0.0000000000000000     
   1.7728846920233538E-002   3.1946324068577413E-002   0.0000000000000000     
   1.9281221892857733E-002   3.6481039941122270E-002   0.0000000000000000     
   1.0908005832641737E-002   1.9391971551095587E-002   0.0000000000000000     
   1.2294567832061534E-002   2.3199249399422441E-002   0.0000000000000000     
   1.3661446944899463E-002   2.7249275232609727E-002   0.0000000000000000     
   1.5008643171155535E-002   3.1542049050657446E-002   0.0000000000000000     
   1.6336156510829737E-002   3.6077570853565610E-002   0.0000000000000000     
   8.9842823989308568E-003   1.9099457269730818E-002   0.0000000000000000     
   1.0128166684181523E-002   2.2887383984884054E-002   0.0000000000000000     
   1.1258377128817514E-002   2.6923852371536130E-002   0.0000000000000000     
   1.2374913732838831E-002   3.1208862429687043E-002   0.0000000000000000     
   1.3477776496245474E-002   3.5742414159336787E-002   0.0000000000000000     
   7.1271105057729416E-003   1.8871167040613420E-002   0.0000000000000000     
   8.0381729336174365E-003   2.2644562796754985E-002   0.0000000000000000     
   8.9383556334542685E-003   2.6669761851772566E-002   0.0000000000000000     
   9.8276586052834340E-003   3.0946764205666177E-002   0.0000000000000000     
   1.0706081849104940E-002   3.5475569858435800E-002   0.0000000000000000     
   2.2312972642329461E-002   3.6952821422006760E-002   0.0000000000000000     
   2.4046392111042970E-002   4.1698698442415541E-002   0.0000000000000000     
   2.5733100971267051E-002   4.6650497192722219E-002   0.0000000000000000     
   2.7373099223001705E-002   5.1808217672926787E-002   0.0000000000000000     
   2.8966386866246922E-002   5.7171859883029259E-002   0.0000000000000000     
   1.9281221892857733E-002   3.6481039941122270E-002   0.0000000000000000     
   2.0798781137252909E-002   4.1235950272539151E-002   0.0000000000000000     
   2.2275615791099275E-002   4.6196827282739245E-002   0.0000000000000000     
   2.3711725854396817E-002   5.1363670971722585E-002   0.0000000000000000     
   2.5107111327145559E-002   5.6736481339489143E-002   0.0000000000000000     
   1.6336156510829737E-002   3.6077570853565610E-002   0.0000000000000000     
   1.7636494095396950E-002   4.0837874338849070E-002   0.0000000000000000     
   1.8902163056332036E-002   4.5804993204022690E-002   0.0000000000000000     
   2.0133163393635002E-002   5.0978927449086456E-002   0.0000000000000000     
   2.1329495107305842E-002   5.6359677074040389E-002   0.0000000000000000     
   1.3477776496245474E-002   3.5742414159336787E-002   0.0000000000000000     
   1.4559530985475095E-002   4.0504470641345311E-002   0.0000000000000000     
   1.5612742766965350E-002   4.5474994956572506E-002   0.0000000000000000     
   1.6637411840716237E-002   5.0653987105018408E-002   0.0000000000000000     
   1.7633538206727761E-002   5.6041447086682988E-002   0.0000000000000000     
   1.0706081849104940E-002   3.5475569858435800E-002   0.0000000000000000     
   1.1567891807487345E-002   4.0235739180027853E-002   0.0000000000000000     
   1.2407354922999211E-002   4.5206832540388729E-002   0.0000000000000000     
   1.3224471195640540E-002   5.0388849939518428E-002   0.0000000000000000     
   1.4019240625411333E-002   5.5781791377416956E-002   0.0000000000000000     
   2.8966386866246922E-002   5.7171859883029259E-002   0.0000000000000000     
   3.0512005086978856E-002   6.2729663037556838E-002   0.0000000000000000     
   3.2008995071173635E-002   6.8469866351036676E-002   0.0000000000000000     
   3.3457356818831267E-002   7.4392469823468824E-002   0.0000000000000000     
   3.4857090329951747E-002   8.0497473454853266E-002   0.0000000000000000     
   2.5107111327145559E-002   5.6736481339489143E-002   0.0000000000000000     
   2.6460946800369860E-002   6.2304261525663207E-002   0.0000000000000000     
   2.7772406865094093E-002   6.8056014669869075E-002   0.0000000000000000     
   2.9041491521318269E-002   7.3991740772106726E-002   0.0000000000000000     
   3.0268200769042380E-002   8.0111439832376174E-002   0.0000000000000000     
   2.1329495107305842E-002   5.6359677074040389E-002   0.0000000000000000     
   2.2490414579720151E-002   6.1936401356936698E-002   0.0000000000000000     
   2.3615178193253532E-002   6.7698259575827605E-002   0.0000000000000000     
   2.4703785947905989E-002   7.3645251730713124E-002   0.0000000000000000     
   2.5756237843677515E-002   7.9777377821593234E-002   0.0000000000000000     
   1.7633538206727761E-002   5.6041447086682988E-002   0.0000000000000000     
   1.8600408425029729E-002   6.1626082531377281E-002   0.0000000000000000     
   1.9537309055651951E-002   6.7396601068912279E-002   0.0000000000000000     
   2.0444240098594423E-002   7.3353002699287975E-002   0.0000000000000000     
   2.1321201553857153E-002   7.9495287422504404E-002   0.0000000000000000     
   1.4019240625411333E-002   5.5781791377416956E-002   0.0000000000000000     
   1.4790928336298597E-002   6.1373305048984958E-002   0.0000000000000000     
   1.5538799452289347E-002   6.7151039149123085E-002   0.0000000000000000     
   1.6262853973383579E-002   7.3114993677831336E-002   0.0000000000000000     
   1.6963091899581294E-002   7.9265168635109712E-002   0.0000000000000000     
   3.4857090329951747E-002   8.0497473454853266E-002   0.0000000000000000     
   3.6205383772824729E-002   8.6771064987154534E-002   0.0000000000000000     
   3.7499425315739868E-002   9.3199432162337170E-002   0.0000000000000000     
   3.8739214958697157E-002   9.9782574980401190E-002   0.0000000000000000     
   3.9924752701696604E-002  0.10652049344134661        0.0000000000000000     
   3.0268200769042380E-002   8.0111439832376174E-002   0.0000000000000000     
   3.1449708405701569E-002   8.6400298607807194E-002   0.0000000000000000     
   3.2583188228730978E-002   9.2843503855529530E-002   0.0000000000000000     
   3.3668640238130612E-002   9.9441055575543169E-002   0.0000000000000000     
   3.4706064433900466E-002  0.10619295376784815        0.0000000000000000     
   2.5756237843677515E-002   7.9777377821593234E-002   0.0000000000000000     
   2.6769845561396680E-002   8.6079162180192528E-002   0.0000000000000000     
   2.7741920781892061E-002   9.2535129138235472E-002   0.0000000000000000     
   2.8672463505163667E-002   9.9145278695722178E-002   0.0000000000000000     
   2.9561473731211482E-002  0.10590961085265255        0.0000000000000000     
   2.1321201553857153E-002   7.9495287422504404E-002   0.0000000000000000     
   2.2165795239910070E-002   8.5807655704310454E-002   0.0000000000000000     
   2.2975622975223133E-002   9.2274308010455067E-002   0.0000000000000000     
   2.3750684759796324E-002   9.8895244340938188E-002   0.0000000000000000     
   2.4490980593629655E-002  0.10567046469575983        0.0000000000000000     
   1.6963091899581294E-002   7.9265168635109712E-002   0.0000000000000000     
   1.7637557441241743E-002   8.5585779180161067E-002   0.0000000000000000     
   1.8284294808724181E-002   9.2061040472188244E-002   0.0000000000000000     
   1.8903304002028592E-002   9.8690952511191213E-002   0.0000000000000000     
   1.9494585021154982E-002  0.10547551529717000        0.0000000000000000     
   3.9924752701696604E-002  0.10652049344134661        0.0000000000000000     
   4.1061823820089847E-002  0.11340628475444792        0.0000000000000000     
   4.2156213589228553E-002  0.12043304612897962        0.0000000000000000     
   4.3207922009112713E-002  0.12760077756494176        0.0000000000000000     
   4.4216949079742329E-002  0.13490947906233430        0.0000000000000000     
   3.4706064433900466E-002  0.10619295376784815        0.0000000000000000     
   3.5701557773727223E-002  0.11309307961696780        0.0000000000000000     
   3.6661217215297567E-002  0.12013531430742543        0.0000000000000000     
   3.7585042758611506E-002  0.12731965783922111        0.0000000000000000     
   3.8473034403669018E-002  0.13464611021235476        0.0000000000000000     
   2.9561473731211482E-002  0.10590961085265255        0.0000000000000000     
   3.0414668791773757E-002  0.11282251266453065        0.0000000000000000     
   3.1237766018588728E-002  0.11987837118686041        0.0000000000000000     
   3.2030765411656399E-002  0.12707718641964189        0.0000000000000000     
   3.2793666970976777E-002  0.13441895836287501        0.0000000000000000     
   2.4490980593629655E-002  0.10567046469575983        0.0000000000000000     
   2.5201156874229455E-002  0.11259458389713649        0.0000000000000000     
   2.5885859999102041E-002  0.11966221676728458        0.0000000000000000     
   2.6545089968247431E-002  0.12687336330620411        0.0000000000000000     
   2.7178846781665596E-002  0.13422802351389507        0.0000000000000000     
   1.9494585021154982E-002  0.10547551529717000        0.0000000000000000     
   2.0061022021094308E-002  0.11240929331478534        0.0000000000000000     
   2.0605499156837497E-002  0.11948685104869794        0.0000000000000000     
   2.1128016428384560E-002  0.12670818849890778        0.0000000000000000     
   2.1628573835735493E-002  0.13407330566541489        0.0000000000000000     
   4.4216949079742329E-002  0.13490947906233430        0.0000000000000000     
   4.5173509519929413E-002  0.14234020743460929        0.0000000000000000     
   4.6067818048485989E-002  0.14987401949521875        0.0000000000000000     
   4.6899874665412067E-002  0.15751091524416255        0.0000000000000000     
   4.7669679370707631E-002  0.16525089468144089        0.0000000000000000     
   3.8473034403669018E-002  0.13464611021235476        0.0000000000000000     
   3.9313401112357073E-002  0.14209479960876109        0.0000000000000000     
   4.0094351846562605E-002  0.14964585421037480        0.0000000000000000     
   4.0815886606285622E-002  0.15729927401719571        0.0000000000000000     
   4.1478005391526122E-002  0.16505505902922396        0.0000000000000000     
   3.2793666970976777E-002  0.13441895836287501        0.0000000000000000     
   3.3514685844017317E-002  0.14188319042451858        0.0000000000000000     
   3.4182037178245514E-002  0.14944938601253130        0.0000000000000000     
   3.4795720973661334E-002  0.15711754512691314        0.0000000000000000     
   3.5355737230264805E-002  0.16488766776766417        0.0000000000000000     
   2.7178846781665596E-002  0.13422802351389507        0.0000000000000000     
   2.7777363714910162E-002  0.14170537988188173        0.0000000000000000     
   2.8330874043534692E-002  0.14928461490168832        0.0000000000000000     
   2.8839377767539202E-002  0.15696572857331495        0.0000000000000000     
   2.9302874886923673E-002  0.16474872089676149        0.0000000000000000     
   2.1628573835735493E-002  0.13407330566541489        0.0000000000000000     
   2.2101434725035594E-002  0.14156136798085053        0.0000000000000000     
   2.2540862442430164E-002  0.14915154087784591        0.0000000000000000     
   2.2946856987919213E-002  0.15684382435640101        0.0000000000000000     
   2.3319418361502732E-002  0.16463821841651594        0.0000000000000000     
   0.0000000000000000        0.0000000000000000        0.0000000000000000     
   8.4166907106516034E-004   1.1100055906696521E-003   0.0000000000000000     
   1.7021144110291918E-003   2.5981762031230269E-003   0.0000000000000000     
   2.5813360198920950E-003   4.4645118373601248E-003   0.0000000000000000     
   3.4793338976538699E-003   6.7090124933809449E-003   0.0000000000000000     
   0.0000000000000000        0.0000000000000000        0.0000000000000000     
   6.3381340287158245E-004   1.0939956403890950E-003   0.0000000000000000     
   1.2780231650144200E-003   2.5621071831757928E-003   0.0000000000000000     
   1.9326292864285128E-003   4.4043346283600942E-003   0.0000000000000000     
   2.5976317671138607E-003   6.6206779759419975E-003   0.0000000000000000     
   0.0000000000000000        0.0000000000000000        0.0000000000000000     
   4.2425000162882326E-004   1.0825599616173017E-003   0.0000000000000000     
   8.5297368116777489E-004   2.5363435975009419E-003   0.0000000000000000     
   1.2861710386168545E-003   4.3613509076509188E-003   0.0000000000000000     
   1.7238420739760629E-003   6.5575818920672350E-003   0.0000000000000000     
   0.0000000000000000        0.0000000000000000        0.0000000000000000     
   2.1297886733688274E-004   1.0756985543542723E-003   0.0000000000000000     
   4.2696595948925613E-004   2.5208854460984729E-003   0.0000000000000000     
   6.4196127645712025E-004   4.3355606752326012E-003   0.0000000000000000     
   8.5796481824047517E-004   6.5197242417566583E-003   0.0000000000000000     
   0.0000000000000000        0.0000000000000000        0.0000000000000000     
  -4.2390949691467616E-015   1.0734114186000067E-003   0.0000000000000000     
  -2.1135870831301418E-014   2.5157327289683862E-003   0.0000000000000000     
  -5.0690137851083783E-014   4.3269639311051397E-003   0.0000000000000000     
  -9.2901977343656794E-014   6.5071050250102664E-003   0.0000000000000000     
   3.4793338976538699E-003   6.7090124933809449E-003   0.0000000000000000     
   4.3878594448197193E-003   9.2943345277674855E-003   0.0000000000000000     
   5.2986640618948476E-003   1.2183134297101746E-002   0.0000000000000000     
   6.2117477488792556E-003   1.5375411801383722E-002   0.0000000000000000     
   7.1271105057729416E-003   1.8871167040613420E-002   0.0000000000000000     
   2.5976317671138607E-003   6.6206779759419975E-003   0.0000000000000000     
   3.2700392773468822E-003   9.1781560210930941E-003   0.0000000000000000     
   3.9468604874039956E-003   1.2043787558984971E-002   0.0000000000000000     
   4.6280953972851983E-003   1.5217572589617631E-002   0.0000000000000000     
   5.3137440069904954E-003   1.8699511112991073E-002   0.0000000000000000     
   1.7238420739760629E-003   6.5575818920672350E-003   0.0000000000000000     
   2.1661226473636387E-003   9.0951713734821124E-003   0.0000000000000000     
   2.6131486188978223E-003   1.1944254174627779E-002   0.0000000000000000     
   3.0649199885786128E-003   1.5104830295504230E-002   0.0000000000000000     
   3.5214367564060118E-003   1.8576899736111471E-002   0.0000000000000000     
   8.5796481824047517E-004   6.5197242417566583E-003   0.0000000000000000     
   1.0761095548699889E-003   9.0453805849345457E-003   0.0000000000000000     
   1.2975284563763298E-003   1.1884534144030167E-002   0.0000000000000000     
   1.5222215227594976E-003   1.5037184919043526E-002   0.0000000000000000     
   1.7501887540194924E-003   1.8503332909974614E-002   0.0000000000000000     
  -9.2901977343656794E-014   6.5071050250102664E-003   0.0000000000000000     
  -1.3406760239736276E-013   9.0287836554503904E-003   0.0000000000000000     
  -1.6048299570758234E-013   1.1864627467192137E-002   0.0000000000000000     
  -1.7214795059827641E-013   1.5014636460235506E-002   0.0000000000000000     
  -1.6906278894196491E-013   1.8478810634580501E-002   0.0000000000000000     
   7.1271105057729416E-003   1.8871167040613420E-002   0.0000000000000000     
   8.0381729336174365E-003   2.2644562796754985E-002   0.0000000000000000     
   8.9383556334542685E-003   2.6669761851772566E-002   0.0000000000000000     
   9.8276586052834340E-003   3.0946764205666177E-002   0.0000000000000000     
   1.0706081849104940E-002   3.5475569858435800E-002   0.0000000000000000     
   5.3137440069904954E-003   1.8699511112991073E-002   0.0000000000000000     
   5.9969445863248894E-003   2.2462301106192489E-002   0.0000000000000000     
   6.6708354050933928E-003   2.6478640546309079E-002   0.0000000000000000     
   7.3354164632959996E-003   3.0748529433340839E-002   0.0000000000000000     
   7.9906877609327177E-003   3.5271967767287762E-002   0.0000000000000000     
   3.5214367564060118E-003   1.8576899736111471E-002   0.0000000000000000     
   3.9768396482594993E-003   2.2332114184353845E-002   0.0000000000000000     
   4.4252693900185573E-003   2.6342125328135690E-002   0.0000000000000000     
   4.8667259816831850E-003   3.0606933167457009E-002   0.0000000000000000     
   5.3012094232533823E-003   3.5126537702317807E-002   0.0000000000000000     
   1.7501887540194924E-003   1.8503332909974614E-002   0.0000000000000000     
   1.9778581194212640E-003   2.2254002031239038E-002   0.0000000000000000     
   2.2016575882297610E-003   2.6260216197252398E-002   0.0000000000000000     
   2.4215871604449852E-003   3.0521975408014695E-002   0.0000000000000000     
   2.6376468360669353E-003   3.5039279663525914E-002   0.0000000000000000     
  -1.6906278894196491E-013   1.8478810634580501E-002   0.0000000000000000     
  -1.8981544851540133E-013   2.2227964646848074E-002   0.0000000000000000     
  -2.7299253894767783E-013   2.6232913153659203E-002   0.0000000000000000     
  -4.1859559845062663E-013   3.0493656155013881E-002   0.0000000000000000     
  -6.2662396972668066E-013   3.5010193650912104E-002   0.0000000000000000     
   1.0706081849104940E-002   3.5475569858435800E-002   0.0000000000000000     
   1.1567891807487345E-002   4.0235739180027853E-002   0.0000000000000000     
   1.2407354922999211E-002   4.5206832540388729E-002   0.0000000000000000     
   1.3224471195640540E-002   5.0388849939518428E-002   0.0000000000000000     
   1.4019240625411333E-002   5.5781791377416956E-002   0.0000000000000000     
   7.9906877609327177E-003   3.5271967767287762E-002   0.0000000000000000     
   8.6331656604453147E-003   4.0028893254798428E-002   0.0000000000000000     
   9.2593665242755637E-003   4.4999243602521388E-002   0.0000000000000000     
   9.8692903524234647E-003   5.0183018810456628E-002   0.0000000000000000     
   1.0462937144889019E-002   5.5580218878604169E-002   0.0000000000000000     
   5.3012094232533823E-003   3.5126537702317807E-002   0.0000000000000000     
   5.7269416433606141E-003   3.9881146165558760E-002   0.0000000000000000     
   6.1421445706363450E-003   4.4850965790020521E-002   0.0000000000000000     
   6.5468182050805734E-003   5.0035996575703102E-002   0.0000000000000000     
   6.9409625466933002E-003   5.5436238522606519E-002   0.0000000000000000     
   2.6376468360669353E-003   3.5039279663525914E-002   0.0000000000000000     
   2.8492197562332471E-003   3.9792497912308815E-002   0.0000000000000000     
   3.0556890620815572E-003   4.4761999102886141E-002   0.0000000000000000     
   3.2570547536118657E-003   4.9947783235257864E-002   0.0000000000000000     
   3.4533168308241722E-003   5.5349850309424006E-002   0.0000000000000000     
  -6.2662396972668066E-013   3.5010193650912104E-002   0.0000000000000000     
  -9.3678840726307833E-013   3.9762948495048640E-002   0.0000000000000000     
  -1.3887998281773839E-012   4.4732343541118241E-002   0.0000000000000000     
  -1.9826581104968530E-012   4.9918378789120900E-002   0.0000000000000000     
  -2.7183632948790670E-012   5.5321054239056623E-002   0.0000000000000000     
   1.4019240625411333E-002   5.5781791377416956E-002   0.0000000000000000     
   1.4790928336298597E-002   6.1373305048984958E-002   0.0000000000000000     
   1.5538799452289347E-002   6.7151039149123085E-002   0.0000000000000000     
   1.6262853973383579E-002   7.3114993677831336E-002   0.0000000000000000     
   1.6963091899581294E-002   7.9265168635109712E-002   0.0000000000000000     
   1.0462937144889019E-002   5.5580218878604169E-002   0.0000000000000000     
   1.1039582523244220E-002   6.1177299089653518E-002   0.0000000000000000     
   1.1598502109061061E-002   6.6960714726294210E-002   0.0000000000000000     
   1.2139695902339541E-002   7.2930465788526230E-002   0.0000000000000000     
   1.2663163903079660E-002   7.9086552276349600E-002   0.0000000000000000     
   6.9409625466933002E-003   5.5436238522606519E-002   0.0000000000000000     
   7.3239791955840737E-003   6.1037294833276766E-002   0.0000000000000000     
   7.6952697518624397E-003   6.6824768710259830E-002   0.0000000000000000     
   8.0548342155284027E-003   7.2798660153555739E-002   0.0000000000000000     
   8.4026725865819583E-003   7.8958969163164500E-002   0.0000000000000000     
   3.4533168308241722E-003   5.5349850309424006E-002   0.0000000000000000     
   3.6441183533181517E-003   6.0953292279854653E-002   0.0000000000000000     
   3.8291023806934828E-003   6.6743201101019944E-002   0.0000000000000000     
   4.0082689129501631E-003   7.2719576772919861E-002   0.0000000000000000     
   4.1816179500881933E-003   7.8882419295554410E-002   0.0000000000000000     
  -2.7183632948790670E-012   5.5321054239056623E-002   0.0000000000000000     
  -3.5535395155952831E-012   6.0925291429387241E-002   0.0000000000000000     
  -4.4458105816561067E-012   6.6716011898574554E-002   0.0000000000000000     
  -5.3951755443846366E-012   7.2693215646618597E-002   0.0000000000000000     
  -6.4016357319285344E-012   7.8856902673519316E-002   0.0000000000000000     
   1.6963091899581294E-002   7.9265168635109712E-002   0.0000000000000000     
   1.7637557441241743E-002   8.5585779180161067E-002   0.0000000000000000     
   1.8284294808724181E-002   9.2061040472188244E-002   0.0000000000000000     
   1.8903304002028592E-002   9.8690952511191213E-002   0.0000000000000000     
   1.9494585021154982E-002  0.10547551529717000        0.0000000000000000     
   1.2663163903079660E-002   7.9086552276349600E-002   0.0000000000000000     
   1.3167461447746946E-002   8.5413350325497545E-002   0.0000000000000000     
   1.3651143872806925E-002   9.1895236071703301E-002   0.0000000000000000     
   1.4114211178259600E-002   9.8532209514966940E-002   0.0000000000000000     
   1.4556663364104968E-002  0.10532427065528836        0.0000000000000000     
   8.4026725865819583E-003   7.8958969163164500E-002   0.0000000000000000     
   8.7378365417809193E-003   8.5290186858073075E-002   0.0000000000000000     
   9.0593777578830987E-003   9.1776804357268579E-002   0.0000000000000000     
   9.3672962348884913E-003   9.8418821660750944E-002   0.0000000000000000     
   9.6615919727971022E-003  0.10521623876852021        0.0000000000000000     
   4.1816179500881933E-003   7.8882419295554410E-002   0.0000000000000000     
   4.3486827233436718E-003   8.5216288777887741E-002   0.0000000000000000     
   4.5089964639526978E-003   9.1705745328884036E-002   0.0000000000000000     
   4.6625591719152704E-003   9.8350788948543322E-002   0.0000000000000000     
   4.8093708472313878E-003  0.10515141963686556        0.0000000000000000     
  -6.4016357319285344E-012   7.8856902673519316E-002   0.0000000000000000     
  -7.5647999149552891E-012   8.5191656084941461E-002   0.0000000000000000     
  -8.9842781651749970E-012   9.1682058986549686E-002   0.0000000000000000     
  -1.0660069506805703E-011   9.8328111378344005E-002   0.0000000000000000     
  -1.2592174698788927E-011  0.10512981326032440        0.0000000000000000     
   1.9494585021154982E-002  0.10547551529717000        0.0000000000000000     
   2.0061022021094308E-002  0.11240929331478534        0.0000000000000000     
   2.0605499156837497E-002  0.11948685104869794        0.0000000000000000     
   2.1128016428384560E-002  0.12670818849890778        0.0000000000000000     
   2.1628573835735493E-002  0.13407330566541489        0.0000000000000000     
   1.4556663364104968E-002  0.10532427065528836        0.0000000000000000     
   1.4979623403050334E-002  0.11226581826141314        0.0000000000000000     
   1.5384214267802999E-002  0.11935125110208682        0.0000000000000000     
   1.5770435958362961E-002  0.12658056917730934        0.0000000000000000     
   1.6138288474730225E-002  0.13395377248708076        0.0000000000000000     
   9.6615919727971022E-003  0.10521623876852021        0.0000000000000000     
   9.9423201907795460E-003  0.11216333608095591        0.0000000000000000     
   1.0209536108006442E-002  0.11925439399843757        0.0000000000000000     
   1.0463239724477786E-002  0.12648941252096521        0.0000000000000000     
   1.0703431040193586E-002  0.13386839164853886        0.0000000000000000     
   4.8093708472313878E-003  0.10515141963686556        0.0000000000000000     
   4.9491123842819425E-003  0.11210184677341356        0.0000000000000000     
   5.0814646774478252E-003  0.11919627973775021        0.0000000000000000     
   5.2064277267290333E-003  0.12643471852987542        0.0000000000000000     
   5.3240015321255685E-003  0.13381716314978923        0.0000000000000000     
  -1.2592174698788927E-011  0.10512981326032440        0.0000000000000000     
  -1.6442475202563256E-011  0.11208135033878619        0.0000000000000000     
  -2.3872848468019237E-011  0.11917690832002471        0.0000000000000000     
  -3.4883298154339201E-011  0.12641648720403989        0.0000000000000000     
  -4.9473821740753099E-011  0.13380008699083182        0.0000000000000000     
   2.1628573835735493E-002  0.13407330566541489        0.0000000000000000     
   2.2101434725035594E-002  0.14156136798085053        0.0000000000000000     
   2.2540862442430164E-002  0.14915154087784591        0.0000000000000000     
   2.2946856987919213E-002  0.15684382435640101        0.0000000000000000     
   2.3319418361502732E-002  0.16463821841651594        0.0000000000000000     
   1.6138288474730225E-002  0.13395377248708076        0.0000000000000000     
   1.6486170735521895E-002  0.14145014447333462        0.0000000000000000     
   1.6812481659355078E-002  0.14904896857800451        0.0000000000000000     
   1.7117221246229775E-002  0.15675024480109045        0.0000000000000000     
   1.7400389496145984E-002  0.16455397314259240        0.0000000000000000     
   1.0703431040193586E-002  0.13386839164853886        0.0000000000000000     
   1.0930843607497341E-002  0.14137069911124364        0.0000000000000000     
   1.1146210978732573E-002  0.14897570263916471        0.0000000000000000     
   1.1349533153899277E-002  0.15668340223230209        0.0000000000000000     
   1.1540810132997452E-002  0.16449379789065577        0.0000000000000000     
   5.3240015321255685E-003  0.13381716314978923        0.0000000000000000     
   5.4354533409619399E-003  0.14132303189457762        0.0000000000000000     
   5.5420504005626566E-003  0.14893174306132656        0.0000000000000000     
   5.6437927109277185E-003  0.15664329665003604        0.0000000000000000     
   5.7406802720571274E-003  0.16445769266070609        0.0000000000000000     
  -4.9473821740753099E-011  0.13380008699083182        0.0000000000000000     
  -6.4084315111456736E-011  0.14130714282333648        0.0000000000000000     
  -7.5154673174863962E-011  0.14891708984448998        0.0000000000000000     
  -8.2684896879651679E-011  0.15662992805429218        0.0000000000000000     
  -8.6674986632395701E-011  0.16444565745274325        0.0000000000000000     
   0.0000000000000000        0.0000000000000000        0.0000000000000000     
  -4.2390949691467616E-015   1.0734114186000067E-003   0.0000000000000000     
  -2.1135870831301418E-014   2.5157327289683862E-003   0.0000000000000000     
  -5.0690137851083783E-014   4.3269639311051397E-003   0.0000000000000000     
  -9.2901977343656794E-014   6.5071050250102664E-003   0.0000000000000000     
   0.0000000000000000        0.0000000000000000        0.0000000000000000     
  -2.1297886734662592E-004   1.0756985543555057E-003   0.0000000000000000     
  -4.2696595953221813E-004   2.5208854461107192E-003   0.0000000000000000     
  -6.4196127655677632E-004   4.3355606752656399E-003   0.0000000000000000     
  -8.5796481842030084E-004   6.5197242418202688E-003   0.0000000000000000     
   0.0000000000000000        0.0000000000000000        0.0000000000000000     
  -4.2425000164236158E-004   1.0825599616217697E-003   0.0000000000000000     
  -8.5297368121280788E-004   2.5363435975255060E-003   0.0000000000000000     
  -1.2861710387113382E-003   4.3613509077112082E-003   0.0000000000000000     
  -1.7238420741379535E-003   6.5575818921788775E-003   0.0000000000000000     
   0.0000000000000000        0.0000000000000000        0.0000000000000000     
  -6.3381340289144611E-004   1.0939956403987990E-003   0.0000000000000000     
  -1.2780231650629046E-003   2.5621071832127472E-003   0.0000000000000000     
  -1.9326292865143762E-003   4.4043346284418448E-003   0.0000000000000000     
  -2.5976317672458601E-003   6.6206779760860906E-003   0.0000000000000000     
   0.0000000000000000        0.0000000000000000        0.0000000000000000     
  -8.4166907109387934E-004   1.1100055906865932E-003   0.0000000000000000     
  -1.7021144110825094E-003   2.5981762031724426E-003   0.0000000000000000     
  -2.5813360199658897E-003   4.4645118374575478E-003   0.0000000000000000     
  -3.4793338977440204E-003   6.7090124935419090E-003   0.0000000000000000     
  -9.2901977343656794E-014   6.5071050250102664E-003   0.0000000000000000     
  -1.3406760239736276E-013   9.0287836554503904E-003   0.0000000000000000     
  -1.6048299570758234E-013   1.1864627467192137E-002   0.0000000000000000     
  -1.7214795059827641E-013   1.5014636460235506E-002   0.0000000000000000     
  -1.6906278894196491E-013   1.8478810634580501E-002   0.0000000000000000     
  -8.5796481842030084E-004   6.5197242418202688E-003   0.0000000000000000     
  -1.0761095551285566E-003   9.0453805850189226E-003   0.0000000000000000     
  -1.2975284566873087E-003   1.1884534144105922E-002   0.0000000000000000     
  -1.5222215230965570E-003   1.5037184919081268E-002   0.0000000000000000     
  -1.7501887543563016E-003   1.8503332909944960E-002   0.0000000000000000     
  -1.7238420741379535E-003   6.5575818921788775E-003   0.0000000000000000     
  -2.1661226475935035E-003   9.0951713736294269E-003   0.0000000000000000     
  -2.6131486191788397E-003   1.1944254174763767E-002   0.0000000000000000     
  -3.0649199888939625E-003   1.5104830295581901E-002   0.0000000000000000     
  -3.5214367567388705E-003   1.8576899736083823E-002   0.0000000000000000     
  -2.5976317672458601E-003   6.6206779760860906E-003   0.0000000000000000     
  -3.2700392775289102E-003   9.1781560212818927E-003   0.0000000000000000     
  -3.9468604876350790E-003   1.2043787559165662E-002   0.0000000000000000     
  -4.6280953975643647E-003   1.5217572589737400E-002   0.0000000000000000     
  -5.3137440073167718E-003   1.8699511112997100E-002   0.0000000000000000     
  -3.4793338977440204E-003   6.7090124935419090E-003   0.0000000000000000     
  -4.3878594449347740E-003   9.2943345279763306E-003   0.0000000000000000     
  -5.2986640620560216E-003   1.2183134297311616E-002   0.0000000000000000     
  -6.2117477491077655E-003   1.5375411801547768E-002   0.0000000000000000     
  -7.1271105060900022E-003   1.8871167040684780E-002   0.0000000000000000     
  -1.6906278894196491E-013   1.8478810634580501E-002   0.0000000000000000     
  -1.8981544851540133E-013   2.2227964646848074E-002   0.0000000000000000     
  -2.7299253894767783E-013   2.6232913153659203E-002   0.0000000000000000     
  -4.1859559845062663E-013   3.0493656155013881E-002   0.0000000000000000     
  -6.2662396972668066E-013   3.5010193650912104E-002   0.0000000000000000     
  -1.7501887543563016E-003   1.8503332909944960E-002   0.0000000000000000     
  -1.9778581198021047E-003   2.2254002031200249E-002   0.0000000000000000     
  -2.2016575887695263E-003   2.6260216197350379E-002   0.0000000000000000     
  -2.4215871612585692E-003   3.0521975408395362E-002   0.0000000000000000     
  -2.6376468372692309E-003   3.5039279664335191E-002   0.0000000000000000     
  -3.5214367567388705E-003   1.8576899736083823E-002   0.0000000000000000     
  -3.9768396486439695E-003   2.2332114184314827E-002   0.0000000000000000     
  -4.4252693905396604E-003   2.6342125328320188E-002   0.0000000000000000     
  -4.8667259824259458E-003   3.0606933168099908E-002   0.0000000000000000     
  -5.3012094243028215E-003   3.5126537703653982E-002   0.0000000000000000     
  -5.3137440073167718E-003   1.8699511112997100E-002   0.0000000000000000     
  -5.9969445867154095E-003   2.2462301106191823E-002   0.0000000000000000     
  -6.6708354055833924E-003   2.6478640546568628E-002   0.0000000000000000     
  -7.3354164639207195E-003   3.0748529434127519E-002   0.0000000000000000     
  -7.9906877617273928E-003   3.5271967768868484E-002   0.0000000000000000     
  -7.1271105060900022E-003   1.8871167040684780E-002   0.0000000000000000     
  -8.0381729340164246E-003   2.2644562796831236E-002   0.0000000000000000     
  -8.9383556339007256E-003   2.6669761852095710E-002   0.0000000000000000     
  -9.8276586057428998E-003   3.0946764206478197E-002   0.0000000000000000     
  -1.0706081849542953E-002   3.5475569859978698E-002   0.0000000000000000     
  -6.2662396972668066E-013   3.5010193650912104E-002   0.0000000000000000     
  -9.3678840726307833E-013   3.9762948495048640E-002   0.0000000000000000     
  -1.3887998281773839E-012   4.4732343541118241E-002   0.0000000000000000     
  -1.9826581104968530E-012   4.9918378789120900E-002   0.0000000000000000     
  -2.7183632948790670E-012   5.5321054239056623E-002   0.0000000000000000     
  -2.6376468372692309E-003   3.5039279664335191E-002   0.0000000000000000     
  -2.8492197580147855E-003   3.9792497913556622E-002   0.0000000000000000     
  -3.0556890647085080E-003   4.4761999104446414E-002   0.0000000000000000     
  -3.2570547573503982E-003   4.9947783237004564E-002   0.0000000000000000     
  -3.4533168359404537E-003   5.5349850311231089E-002   0.0000000000000000     
  -5.3012094243028215E-003   3.5126537703653982E-002   0.0000000000000000     
  -5.7269416448660409E-003   3.9881146167611188E-002   0.0000000000000000     
  -6.1421445728113517E-003   4.4850965792600263E-002   0.0000000000000000     
  -6.5468182081387539E-003   5.0035996578621234E-002   0.0000000000000000     
  -6.9409625508482457E-003   5.5436238525674093E-002   0.0000000000000000     
  -7.9906877617273928E-003   3.5271967768868484E-002   0.0000000000000000     
  -8.6331656614905480E-003   4.0028893257212317E-002   0.0000000000000000     
  -9.2593665256973257E-003   4.4999243605579782E-002   0.0000000000000000     
  -9.8692903543477241E-003   5.0183018813970900E-002   0.0000000000000000     
  -1.0462937147441740E-002   5.5580218882385644E-002   0.0000000000000000     
  -1.0706081849542953E-002   3.5475569859978698E-002   0.0000000000000000     
  -1.1567891807888317E-002   4.0235739182360029E-002   0.0000000000000000     
  -1.2407354923366436E-002   4.5206832543384978E-002   0.0000000000000000     
  -1.3224471195977311E-002   5.0388849943053551E-002   0.0000000000000000     
  -1.4019240625720937E-002   5.5781791381365749E-002   0.0000000000000000     
  -2.7183632948790670E-012   5.5321054239056623E-002   0.0000000000000000     
  -3.5535395155952831E-012   6.0925291429387241E-002   0.0000000000000000     
  -4.4458105816561067E-012   6.6716011898574554E-002   0.0000000000000000     
  -5.3951755443846366E-012   7.2693215646618597E-002   0.0000000000000000     
  -6.4016357319285344E-012   7.8856902673519316E-002   0.0000000000000000     
  -3.4533168359404537E-003   5.5349850311231089E-002   0.0000000000000000     
  -3.6441183600073464E-003   6.0953292281633729E-002   0.0000000000000000     
  -3.8291023890797463E-003   6.6743201102720293E-002   0.0000000000000000     
  -4.0082689231576525E-003   7.2719576774490757E-002   0.0000000000000000     
  -4.1816179622410649E-003   7.8882419296945144E-002   0.0000000000000000     
  -6.9409625508482457E-003   5.5436238525674093E-002   0.0000000000000000     
  -7.3239792010196111E-003   6.1037294836353423E-002   0.0000000000000000     
  -7.6952697587326308E-003   6.6824768713253824E-002   0.0000000000000000     
  -8.0548342239873082E-003   7.2798660156375247E-002   0.0000000000000000     
  -8.4026725967836328E-003   7.8958969165717721E-002   0.0000000000000000     
  -1.0462937147441740E-002   5.5580218882385644E-002   0.0000000000000000     
  -1.1039582526590335E-002   6.1177299093546286E-002   0.0000000000000000     
  -1.1598502113404466E-002   6.6960714730175092E-002   0.0000000000000000     
  -1.2139695907884133E-002   7.2930465792272026E-002   0.0000000000000000     
  -1.2663163910029336E-002   7.9086552279837116E-002   0.0000000000000000     
  -1.4019240625720937E-002   5.5781791381365749E-002   0.0000000000000000     
  -1.4790928336719515E-002   6.1373305053212340E-002   0.0000000000000000     
  -1.5538799453095251E-002   6.7151039153484138E-002   0.0000000000000000     
  -1.6262853974848137E-002   7.3114993682181120E-002   0.0000000000000000     
  -1.6963091901978179E-002   7.9265168639303274E-002   0.0000000000000000     
  -6.4016357319285344E-012   7.8856902673519316E-002   0.0000000000000000     
  -7.5647999149552891E-012   8.5191656084941461E-002   0.0000000000000000     
  -8.9842781651749970E-012   9.1682058986549686E-002   0.0000000000000000     
  -1.0660069506805703E-011   9.8328111378344005E-002   0.0000000000000000     
  -1.2592174698788927E-011  0.10512981326032440        0.0000000000000000     
  -4.1816179622410649E-003   7.8882419296945144E-002   0.0000000000000000     
  -4.3486827377387542E-003   8.5216288779139421E-002   0.0000000000000000     
  -4.5089964810594843E-003   9.1705745330129582E-002   0.0000000000000000     
  -4.6625591922032569E-003   9.8350788949915655E-002   0.0000000000000000     
  -4.8093708711700722E-003  0.10515141963849761        0.0000000000000000     
  -8.4026725967836328E-003   7.8958969165717721E-002   0.0000000000000000     
  -8.7378365539724466E-003   8.5290186860386780E-002   0.0000000000000000     
  -9.0593777724045765E-003   9.1776804359487846E-002   0.0000000000000000     
  -9.3672962520800259E-003   9.8418821663020933E-002   0.0000000000000000     
  -9.6615919929987880E-003  0.10521623877098604        0.0000000000000000     
  -1.2663163910029336E-002   7.9086552279837116E-002   0.0000000000000000     
  -1.3167461456265878E-002   8.5413350328683510E-002   0.0000000000000000     
  -1.3651143883019556E-002   9.1895236074624437E-002   0.0000000000000000     
  -1.4114211190290372E-002   9.8532209517659813E-002   0.0000000000000000     
  -1.4556663378078325E-002  0.10532427065778971        0.0000000000000000     
  -1.6963091901978179E-002   7.9265168639303274E-002   0.0000000000000000     
  -1.7637557444619052E-002   8.5585779184029667E-002   0.0000000000000000     
  -1.8284294812904424E-002   9.2061040475539341E-002   0.0000000000000000     
  -1.8903304006834300E-002   9.8690952513832308E-002   0.0000000000000000     
  -1.9494585026408679E-002  0.10547551529890857        0.0000000000000000     
  -1.2592174698788927E-011  0.10512981326032440        0.0000000000000000     
  -1.6442475202563256E-011  0.11208135033878619        0.0000000000000000     
  -2.3872848468019237E-011  0.11917690832002471        0.0000000000000000     
  -3.4883298154339201E-011  0.12641648720403989        0.0000000000000000     
  -4.9473821740753099E-011  0.13380008699083182        0.0000000000000000     
  -4.8093708711700722E-003  0.10515141963849761        0.0000000000000000     
  -4.9491124153764844E-003  0.11210184677627774        0.0000000000000000     
  -5.0814647222390472E-003  0.11919627974365835        0.0000000000000000     
  -5.2064277917577570E-003  0.12643471854063940        0.0000000000000000     
  -5.3240016239326227E-003  0.13381716316722092        0.0000000000000000     
  -9.6615919929987880E-003  0.10521623877098604        0.0000000000000000     
  -9.9423202165028601E-003  0.11216333608509219        0.0000000000000000     
  -1.0209536143934231E-002  0.11925439400704836        0.0000000000000000     
  -1.0463239775292900E-002  0.12648941253685458        0.0000000000000000     
  -1.0703431110578867E-002  0.13386839167451081        0.0000000000000000     
  -1.4556663378078325E-002  0.10532427065778971        0.0000000000000000     
  -1.4979623419821606E-002  0.11226581826522954        0.0000000000000000     
  -1.5384214288958403E-002  0.11935125111019479        0.0000000000000000     
  -1.5770435985488725E-002  0.12658056919268545        0.0000000000000000     
  -1.6138288509412558E-002  0.13395377251270149        0.0000000000000000     
  -1.9494585026408679E-002  0.10547551529890857        0.0000000000000000     
  -2.0061022025332716E-002  0.11240929331668977        0.0000000000000000     
  -2.0605499157311562E-002  0.11948685105309759        0.0000000000000000     
  -2.1128016422345221E-002  0.12670818850813198        0.0000000000000000     
  -2.1628573820433691E-002  0.13407330568179296        0.0000000000000000     
  -4.9473821740753099E-011  0.13380008699083182        0.0000000000000000     
  -6.4084315111456736E-011  0.14130714282333648        0.0000000000000000     
  -7.5154673174863962E-011  0.14891708984448998        0.0000000000000000     
  -8.2684896879651679E-011  0.15662992805429218        0.0000000000000000     
  -8.6674986632395701E-011  0.16444565745274325        0.0000000000000000     
  -5.3240016239326227E-003  0.13381716316722092        0.0000000000000000     
  -5.4354534594561335E-003  0.14132303189584872        0.0000000000000000     
  -5.5420505390207913E-003  0.14893174299896850        0.0000000000000000     
  -5.6437928626265985E-003  0.15664329647658026        0.0000000000000000     
  -5.7406804302735509E-003  0.16445769232868410        0.0000000000000000     
  -1.0703431110578867E-002  0.13386839167451081        0.0000000000000000     
  -1.0930843696968225E-002  0.14137069911044270        0.0000000000000000     
  -1.1146211081637072E-002  0.14897570253507572        0.0000000000000000     
  -1.1349533264585402E-002  0.15668340194840991        0.0000000000000000     
  -1.1540810245813224E-002  0.16449379735044525        0.0000000000000000     
  -1.6138288509412558E-002  0.13395377251270149        0.0000000000000000     
  -1.6486170776620592E-002  0.14145014446711840        0.0000000000000000     
  -1.6812481703003510E-002  0.14904896845281160        0.0000000000000000     
  -1.7117221288561319E-002  0.15675024446978103        0.0000000000000000     
  -1.7400389533294005E-002  0.16455397251802675        0.0000000000000000     
  -2.1628573820433691E-002  0.13407330568179296        0.0000000000000000     
  -2.2101434698413237E-002  0.14156136796587590        0.0000000000000000     
  -2.2540862403120115E-002  0.14915154075217615        0.0000000000000000     
  -2.2946856934554338E-002  0.15684382404069372        0.0000000000000000     
  -2.3319418292715895E-002  0.16463821783142857        0.0000000000000000     
   0.0000000000000000        0.0000000000000000        0.0000000000000000     
  -8.4166907109387934E-004   1.1100055906865932E-003   0.0000000000000000     
  -1.7021144110825094E-003   2.5981762031724426E-003   0.0000000000000000     
  -2.5813360199658897E-003   4.4645118374575478E-003   0.0000000000000000     
  -3.4793338977440204E-003   6.7090124935419090E-003   0.0000000000000000     
   0.0000000000000000        0.0000000000000000        0.0000000000000000     
  -1.0567125195327254E-003   1.1341554264134726E-003   0.0000000000000000     
  -2.1397761829597423E-003   2.6504041568831153E-003   0.0000000000000000     
  -3.2491909902810506E-003   4.5487461914089280E-003   0.0000000000000000     
  -4.3849569414966504E-003   6.8291815299909098E-003   0.0000000000000000     
   0.0000000000000000        0.0000000000000000        0.0000000000000000     
  -1.2878392614910485E-003   1.1700107615077566E-003   0.0000000000000000     
  -2.6055372443827256E-003   2.7246445438232876E-003   0.0000000000000000     
  -3.9530939486750313E-003   4.6639013469465928E-003   0.0000000000000000     
  -5.3305093743679652E-003   6.9877811708776733E-003   0.0000000000000000     
   0.0000000000000000        0.0000000000000000        0.0000000000000000     
  -1.5350492969688479E-003   1.2175715959694450E-003   0.0000000000000000     
  -3.0993975953514576E-003   2.8208973639929588E-003   0.0000000000000000     
  -4.6930448951478295E-003   4.8099773040705431E-003   0.0000000000000000     
  -6.3159911963579646E-003   7.1848114162021953E-003   0.0000000000000000     
   0.0000000000000000        0.0000000000000000        0.0000000000000000     
  -1.7983426259661241E-003   1.2768379297985379E-003   0.0000000000000000     
  -3.6213572358659405E-003   2.9391626173921304E-003   0.0000000000000000     
  -5.4690438296994479E-003   4.9869740627807770E-003   0.0000000000000000     
  -7.3414024074666484E-003   7.4202722659644791E-003   0.0000000000000000     
  -3.4793338977440204E-003   6.7090124935419090E-003   0.0000000000000000     
  -4.3878594449347740E-003   9.2943345279763306E-003   0.0000000000000000     
  -5.2986640620560216E-003   1.2183134297311616E-002   0.0000000000000000     
  -6.2117477491077655E-003   1.5375411801547768E-002   0.0000000000000000     
  -7.1271105060900022E-003   1.8871167040684780E-002   0.0000000000000000     
  -4.3849569414966504E-003   6.8291815299909098E-003   0.0000000000000000     
  -5.5341209249766595E-003   9.4496852566917661E-003   0.0000000000000000     
  -6.6837298290911926E-003   1.2368232455574195E-002   0.0000000000000000     
  -7.8337836538402515E-003   1.5584823126638199E-002   0.0000000000000000     
  -8.9842823992238377E-003   1.9099457269883775E-002   0.0000000000000000     
  -5.3305093743679652E-003   6.9877811708776733E-003   0.0000000000000000     
  -6.7233614928201265E-003   9.6501865704072317E-003   0.0000000000000000     
  -8.1172282753901072E-003   1.2605020100325973E-002   0.0000000000000000     
  -9.5121097220779178E-003   1.5852281760633892E-002   0.0000000000000000     
  -1.0908005832883554E-002   1.9391971551330999E-002   0.0000000000000000     
  -6.3159911963579646E-003   7.1848114162021953E-003   0.0000000000000000     
  -7.9555811484651757E-003   9.8958384691227256E-003   0.0000000000000000     
  -9.5991594009527722E-003   1.2893497231566945E-002   0.0000000000000000     
  -1.1246725953820766E-002   1.6177787703534847E-002   0.0000000000000000     
  -1.2898280807069146E-002   1.9748709885026437E-002   0.0000000000000000     
  -7.3414024074666484E-003   7.4202722659644791E-003   0.0000000000000000     
  -9.2307798919118063E-003   1.0186640952838253E-002   0.0000000000000000     
  -1.1129523205779184E-002   1.3233663849297113E-002   0.0000000000000000     
  -1.3037632349068790E-002   1.6561340955341064E-002   0.0000000000000000     
  -1.4955107321780617E-002   2.0169672270970100E-002   0.0000000000000000     
  -7.1271105060900022E-003   1.8871167040684780E-002   0.0000000000000000     
  -8.0381729340164246E-003   2.2644562796831236E-002   0.0000000000000000     
  -8.9383556339007256E-003   2.6669761852095710E-002   0.0000000000000000     
  -9.8276586057428998E-003   3.0946764206478197E-002   0.0000000000000000     
  -1.0706081849542953E-002   3.5475569859978698E-002   0.0000000000000000     
  -8.9842823992238377E-003   1.9099457269883775E-002   0.0000000000000000     
  -1.0128166684568566E-002   2.2887383985058098E-002   0.0000000000000000     
  -1.1258377129201049E-002   2.6923852371908311E-002   0.0000000000000000     
  -1.2374913733121289E-002   3.1208862430434432E-002   0.0000000000000000     
  -1.3477776496329285E-002   3.5742414160636463E-002   0.0000000000000000     
  -1.0908005832883554E-002   1.9391971551330999E-002   0.0000000000000000     
  -1.2294567832393374E-002   2.3199249399697430E-002   0.0000000000000000     
  -1.3661446945193759E-002   2.7249275233013334E-002   0.0000000000000000     
  -1.5008643171284700E-002   3.1542049051278720E-002   0.0000000000000000     
  -1.6336156510666201E-002   3.6077570854493576E-002   0.0000000000000000     
  -1.2898280807069146E-002   1.9748709885026437E-002   0.0000000000000000     
  -1.4537376377490861E-002   2.3580159040749241E-002   0.0000000000000000     
  -1.6147565081878857E-002   2.7646030435410782E-002   0.0000000000000000     
  -1.7728846920233129E-002   3.1946324069011059E-002   0.0000000000000000     
  -1.9281221892553681E-002   3.6481039941550088E-002   0.0000000000000000     
  -1.4955107321780617E-002   2.0169672270970100E-002   0.0000000000000000     
  -1.6856592319861016E-002   2.4030112908213531E-002   0.0000000000000000     
  -1.8716731539256334E-002   2.8114117979100649E-002   0.0000000000000000     
  -2.0535524979966576E-002   3.2421687483631452E-002   0.0000000000000000     
  -2.2312972641991738E-002   3.6952821421805948E-002   0.0000000000000000     
  -1.0706081849542953E-002   3.5475569859978698E-002   0.0000000000000000     
  -1.1567891807888317E-002   4.0235739182360029E-002   0.0000000000000000     
  -1.2407354923366436E-002   4.5206832543384978E-002   0.0000000000000000     
  -1.3224471195977311E-002   5.0388849943053551E-002   0.0000000000000000     
  -1.4019240625720937E-002   5.5781791381365749E-002   0.0000000000000000     
  -1.3477776496329285E-002   3.5742414160636463E-002   0.0000000000000000     
  -1.4559530985253913E-002   4.0504470643273172E-002   0.0000000000000000     
  -1.5612742766324031E-002   4.5474994959103364E-002   0.0000000000000000     
  -1.6637411839539644E-002   5.0653987108127040E-002   0.0000000000000000     
  -1.7633538204900760E-002   5.6041447090344199E-002   0.0000000000000000     
  -1.6336156510666201E-002   3.6077570854493576E-002   0.0000000000000000     
  -1.7636494094781900E-002   4.0837874340170610E-002   0.0000000000000000     
  -1.8902163055075458E-002   4.5804993205822493E-002   0.0000000000000000     
  -2.0133163391546863E-002   5.0978927451449225E-002   0.0000000000000000     
  -2.1329495104196131E-002   5.6359677077050821E-002   0.0000000000000000     
  -1.9281221892553681E-002   3.6481039941550088E-002   0.0000000000000000     
  -2.0798781136472284E-002   4.1235950273052331E-002   0.0000000000000000     
  -2.2275615789620715E-002   4.6196827283542338E-002   0.0000000000000000     
  -2.3711725851998971E-002   5.1363670973020102E-002   0.0000000000000000     
  -2.5107111323607045E-002   5.6736481341485609E-002   0.0000000000000000     
  -2.2312972641991738E-002   3.6952821421805948E-002   0.0000000000000000     
  -2.4046392110325065E-002   4.1698698441918362E-002   0.0000000000000000     
  -2.5733100969959805E-002   4.6650497192262941E-002   0.0000000000000000     
  -2.7373099220895952E-002   5.1808217672839670E-002   0.0000000000000000     
  -2.8966386863133513E-002   5.7171859883648549E-002   0.0000000000000000     
  -1.4019240625720937E-002   5.5781791381365749E-002   0.0000000000000000     
  -1.4790928336719515E-002   6.1373305053212340E-002   0.0000000000000000     
  -1.5538799453095251E-002   6.7151039153484138E-002   0.0000000000000000     
  -1.6262853974848137E-002   7.3114993682181120E-002   0.0000000000000000     
  -1.6963091901978179E-002   7.9265168639303274E-002   0.0000000000000000     
  -1.7633538204900760E-002   5.6041447090344199E-002   0.0000000000000000     
  -1.8600408422655954E-002   6.1626082535505590E-002   0.0000000000000000     
  -1.9537309053053821E-002   6.7396601073361956E-002   0.0000000000000000     
  -2.0444240096094350E-002   7.3353002703913275E-002   0.0000000000000000     
  -2.1321201551777545E-002   7.9495287427159597E-002   0.0000000000000000     
  -2.1329495104196131E-002   5.6359677077050821E-002   0.0000000000000000     
  -2.2490414575648442E-002   6.1936401360580005E-002   0.0000000000000000     
  -2.3615178188528992E-002   6.7698259579989498E-002   0.0000000000000000     
  -2.4703785942837786E-002   7.3645251735279332E-002   0.0000000000000000     
  -2.5756237838574818E-002   7.9777377826449489E-002   0.0000000000000000     
  -2.5107111323607045E-002   5.6736481341485609E-002   0.0000000000000000     
  -2.6460946795696976E-002   6.2304261528435587E-002   0.0000000000000000     
  -2.7772406859520777E-002   6.8056014673366819E-002   0.0000000000000000     
  -2.9041491515078455E-002   7.3991740776279250E-002   0.0000000000000000     
  -3.0268200762369999E-002   8.0111439837172935E-002   0.0000000000000000     
  -2.8966386863133513E-002   5.7171859883648549E-002   0.0000000000000000     
  -3.0512005082801563E-002   6.2729663039072348E-002   0.0000000000000000     
  -3.2008995066029181E-002   6.8469866353493850E-002   0.0000000000000000     
  -3.3457356812816350E-002   7.4392469826913055E-002   0.0000000000000000     
  -3.4857090323163087E-002   8.0497473459329935E-002   0.0000000000000000     
  -1.6963091901978179E-002   7.9265168639303274E-002   0.0000000000000000     
  -1.7637557444619052E-002   8.5585779184029667E-002   0.0000000000000000     
  -1.8284294812904424E-002   9.2061040475539341E-002   0.0000000000000000     
  -1.8903304006834300E-002   9.8690952513832308E-002   0.0000000000000000     
  -1.9494585026408679E-002  0.10547551529890857        0.0000000000000000     
  -2.1321201551777545E-002   7.9495287427159597E-002   0.0000000000000000     
  -2.2165795238196614E-002   8.5807655708677266E-002   0.0000000000000000     
  -2.2975622973444746E-002   9.2274308014042683E-002   0.0000000000000000     
  -2.3750684757521959E-002   9.8895244343255848E-002   0.0000000000000000     
  -2.4490980590428240E-002  0.10567046469631676        0.0000000000000000     
  -2.5756237838574818E-002   7.9777377826449489E-002   0.0000000000000000     
  -2.6769845556163220E-002   8.6079162184878405E-002   0.0000000000000000     
  -2.7741920776026115E-002   9.2535129141944492E-002   0.0000000000000000     
  -2.8672463498163506E-002   9.9145278697647804E-002   0.0000000000000000     
  -2.9561473722575390E-002  0.10590961085198830        0.0000000000000000     
  -3.0268200762369999E-002   8.0111439837172935E-002   0.0000000000000000     
  -3.1449708398518871E-002   8.6400298612633042E-002   0.0000000000000000     
  -3.2583188220648519E-002   9.2843503859244794E-002   0.0000000000000000     
  -3.3668640228758935E-002   9.9441055577008192E-002   0.0000000000000000     
  -3.4706064422850132E-002  0.10619295376592321        0.0000000000000000     
  -3.4857090323163087E-002   8.0497473459329935E-002   0.0000000000000000     
  -3.6205383765263562E-002   8.6771064991941219E-002   0.0000000000000000     
  -3.7499425307311950E-002   9.3199432165943563E-002   0.0000000000000000     
  -3.8739214949308251E-002   9.9782574981336983E-002   0.0000000000000000     
  -3.9924752691252459E-002  0.10652049343812148        0.0000000000000000     
  -1.9494585026408679E-002  0.10547551529890857        0.0000000000000000     
  -2.0061022025332716E-002  0.11240929331668977        0.0000000000000000     
  -2.0605499157311562E-002  0.11948685105309759        0.0000000000000000     
  -2.1128016422345221E-002  0.12670818850813198        0.0000000000000000     
  -2.1628573820433691E-002  0.13407330568179296        0.0000000000000000     
  -2.4490980590428240E-002  0.10567046469631676        0.0000000000000000     
  -2.5201156866521236E-002  0.11259458389622164        0.0000000000000000     
  -2.5885859980158573E-002  0.11966221676596681        0.0000000000000000     
  -2.6545089931340266E-002  0.12687336330555221        0.0000000000000000     
  -2.7178846720066315E-002  0.13422802351497784        0.0000000000000000     
  -2.9561473722575390E-002  0.10590961085198830        0.0000000000000000     
  -3.0414668776872180E-002  0.11282251266057390        0.0000000000000000     
  -3.1237765988664283E-002  0.11987837117901254        0.0000000000000000     
  -3.2030765357951720E-002  0.12707718640730420        0.0000000000000000     
  -3.2793666884734472E-002  0.13441895834544884        0.0000000000000000     
  -3.4706064422850132E-002  0.10619295376592321        0.0000000000000000     
  -3.5701557756385567E-002  0.11309307960974652        0.0000000000000000     
  -3.6661217182828706E-002  0.12013531429223474        0.0000000000000000     
  -3.7585042702179577E-002  0.12731965781338789        0.0000000000000000     
  -3.8473034314438159E-002  0.13464611017320594        0.0000000000000000     
  -3.9924752691252459E-002  0.10652049343812148        0.0000000000000000     
  -4.1061823805061397E-002  0.11340628474373950        0.0000000000000000     
  -4.2156213562651861E-002  0.12043304610563343        0.0000000000000000     
  -4.3207921964023843E-002  0.12760077752380330        0.0000000000000000     
  -4.4216949009177380E-002  0.13490947899824915        0.0000000000000000     
  -2.1628573820433691E-002  0.13407330568179296        0.0000000000000000     
  -2.2101434698413237E-002  0.14156136796587590        0.0000000000000000     
  -2.2540862403120115E-002  0.14915154075217615        0.0000000000000000     
  -2.2946856934554338E-002  0.15684382404069372        0.0000000000000000     
  -2.3319418292715895E-002  0.16463821783142857        0.0000000000000000     
  -2.7178846720066315E-002  0.13422802351497784        0.0000000000000000     
  -2.7777363625792983E-002  0.14170537985610909        0.0000000000000000     
  -2.8330873927976539E-002  0.14928461479081129        0.0000000000000000     
  -2.8839377626616983E-002  0.15696572831908445        0.0000000000000000     
  -2.9302874721714313E-002  0.16474872044092856        0.0000000000000000     
  -3.2793666884734472E-002  0.13441895834544884        0.0000000000000000     
  -3.3514685722206665E-002  0.14188319038721198        0.0000000000000000     
  -3.4182037023562421E-002  0.14944938592635892        0.0000000000000000     
  -3.4795720788801762E-002  0.15711754496288977        0.0000000000000000     
  -3.5355737017924667E-002  0.16488766749680453        0.0000000000000000     
  -3.8473034314438159E-002  0.13464611017320594        0.0000000000000000     
  -3.9313400987654276E-002  0.14209479955918447        0.0000000000000000     
  -4.0094351689877787E-002  0.14964585415881909        0.0000000000000000     
  -4.0815886421108692E-002  0.15729927397210974        0.0000000000000000     
  -4.1478005181346977E-002  0.16505505899905648        0.0000000000000000     
  -4.4216949009177380E-002  0.13490947899824915        0.0000000000000000     
  -4.5173509422135827E-002  0.14234020737202668        0.0000000000000000     
  -4.6067817926922626E-002  0.14987401948819173        0.0000000000000000     
  -4.6899874523537763E-002  0.15751091534674430        0.0000000000000000     
  -4.7669679211981231E-002  0.16525089494768438        0.0000000000000000     
   0.0000000000000000        0.0000000000000000        0.0000000000000000     
  -1.7983426259661241E-003   1.2768379297985379E-003   0.0000000000000000     
  -3.6213572358659405E-003   2.9391626173921304E-003   0.0000000000000000     
  -5.4690438296994479E-003   4.9869740627807770E-003   0.0000000000000000     
  -7.3414024074666484E-003   7.4202722659644791E-003   0.0000000000000000     
   0.0000000000000000        0.0000000000000000        0.0000000000000000     
  -2.0694518680204345E-003   1.3549277146400601E-003   0.0000000000000000     
  -4.1640699125511278E-003   3.0939585649500966E-003   0.0000000000000000     
  -6.2838541335920811E-003   5.2170925509301084E-003   0.0000000000000000     
  -8.4288045311432941E-003   7.7243296725800960E-003   0.0000000000000000     
   0.0000000000000000        0.0000000000000000        0.0000000000000000     
  -2.3401096426693352E-003   1.4589589021390371E-003   0.0000000000000000     
  -4.7201893720319752E-003   3.2998034675961524E-003   0.0000000000000000     
  -7.1402391880879233E-003   5.5225336963713465E-003   0.0000000000000000     
  -9.6002590908371727E-003   8.1271495884646175E-003   0.0000000000000000     
   0.0000000000000000        0.0000000000000000        0.0000000000000000     
  -2.6103159499128266E-003   1.5889314922954677E-003   0.0000000000000000     
  -5.2897156143084847E-003   3.5566973253302984E-003   0.0000000000000000     
  -8.0381989931869718E-003   5.9032974991044913E-003   0.0000000000000000     
  -1.0855766086548292E-002   8.6287320136180477E-003   0.0000000000000000     
   0.0000000000000000        0.0000000000000000        0.0000000000000000     
  -2.8800707897509081E-003   1.7448454851093525E-003   0.0000000000000000     
  -5.8726486393806511E-003   3.8646401381525340E-003   0.0000000000000000     
  -8.9777335488892308E-003   6.3593839591295437E-003   0.0000000000000000     
  -1.2195325518276645E-002   9.2290769480403833E-003   0.0000000000000000     
  -7.3414024074666484E-003   7.4202722659644791E-003   0.0000000000000000     
  -9.2307798919118063E-003   1.0186640952838253E-002   0.0000000000000000     
  -1.1129523205779184E-002   1.3233663849297113E-002   0.0000000000000000     
  -1.3037632349068790E-002   1.6561340955341064E-002   0.0000000000000000     
  -1.4955107321780617E-002   2.0169672270970100E-002   0.0000000000000000     
  -8.4288045311432941E-003   7.7243296725800960E-003   0.0000000000000000     
  -1.0590603177388552E-002   1.0558236535923336E-002   0.0000000000000000     
  -1.2760932144511645E-002   1.3661379746983103E-002   0.0000000000000000     
  -1.4939791432512572E-002   1.7033759305759403E-002   0.0000000000000000     
  -1.7127181041391337E-002   2.0675375212252229E-002   0.0000000000000000     
  -9.6002590908371727E-003   8.1271495884646175E-003   0.0000000000000000     
  -1.2076696459123947E-002   1.1046267732747505E-002   0.0000000000000000     
  -1.4545998671792454E-002   1.4212504718091537E-002   0.0000000000000000     
  -1.7008165728842693E-002   1.7625860544496722E-002   0.0000000000000000     
  -1.9463197630274671E-002   2.1286335211963048E-002   0.0000000000000000     
  -1.0855766086548292E-002   8.6287320136180477E-003   0.0000000000000000     
  -1.3689059737117986E-002   1.1650734543310759E-002   0.0000000000000000     
  -1.6484722787621607E-002   1.4887038762622418E-002   0.0000000000000000     
  -1.9242755238059149E-002   1.8337644671553018E-002   0.0000000000000000     
  -2.1963157088430614E-002   2.2002552270102574E-002   0.0000000000000000     
  -1.2195325518276645E-002   9.2290769480403833E-003   0.0000000000000000     
  -1.5427693011370680E-002   1.2371636967613101E-002   0.0000000000000000     
  -1.8577104491999112E-002   1.5684981880575738E-002   0.0000000000000000     
  -2.1643559960161946E-002   1.9169111686928298E-002   0.0000000000000000     
  -2.4627059415859180E-002   2.2824026386670786E-002   0.0000000000000000     
  -1.4955107321780617E-002   2.0169672270970100E-002   0.0000000000000000     
  -1.6856592319861016E-002   2.4030112908213531E-002   0.0000000000000000     
  -1.8716731539256334E-002   2.8114117979100649E-002   0.0000000000000000     
  -2.0535524979966576E-002   3.2421687483631452E-002   0.0000000000000000     
  -2.2312972641991738E-002   3.6952821421805948E-002   0.0000000000000000     
  -1.7127181041391337E-002   2.0675375212252229E-002   0.0000000000000000     
  -1.9291852553533127E-002   2.4558621338375726E-002   0.0000000000000000     
  -2.1402557551323149E-002   2.8655891556044040E-002   0.0000000000000000     
  -2.3459296034761403E-002   3.2967185865257181E-002   0.0000000000000000     
  -2.5462068003847878E-002   3.7492504266015129E-002   0.0000000000000000     
  -1.9463197630274671E-002   2.1286335211963048E-002   0.0000000000000000     
  -2.1882793972536486E-002   2.5175194667521258E-002   0.0000000000000000     
  -2.4238654352076245E-002   2.9273704858202080E-002   0.0000000000000000     
  -2.6530778768893957E-002   3.3581865784005516E-002   0.0000000000000000     
  -2.8759167222989612E-002   3.8099677444931562E-002   0.0000000000000000     
  -2.1963157088430614E-002   2.2002552270102574E-002   0.0000000000000000     
  -2.4629416576871083E-002   2.5879832895650132E-002   0.0000000000000000     
  -2.7225021941515624E-002   2.9967557885574765E-002   0.0000000000000000     
  -2.9749973182364251E-002   3.4265727239876476E-002   0.0000000000000000     
  -3.2204270299416943E-002   3.8774340958555260E-002   0.0000000000000000     
  -2.4627059415859180E-002   2.2824026386670786E-002   0.0000000000000000     
  -2.7531720366536925E-002   2.6672536022762334E-002   0.0000000000000000     
  -3.0361660319641284E-002   3.0737450638162089E-002   0.0000000000000000     
  -3.3116879275172262E-002   3.5018770232870047E-002   0.0000000000000000     
  -3.5797377233129868E-002   3.9516494806886203E-002   0.0000000000000000     
  -2.2312972641991738E-002   3.6952821421805948E-002   0.0000000000000000     
  -2.4046392110325065E-002   4.1698698441918362E-002   0.0000000000000000     
  -2.5733100969959805E-002   4.6650497192262941E-002   0.0000000000000000     
  -2.7373099220895952E-002   5.1808217672839670E-002   0.0000000000000000     
  -2.8966386863133513E-002   5.7171859883648549E-002   0.0000000000000000     
  -2.5462068003847878E-002   3.7492504266015129E-002   0.0000000000000000     
  -2.7411397432882855E-002   4.2227655773859632E-002   0.0000000000000000     
  -2.9307808296166592E-002   4.7168449404332423E-002   0.0000000000000000     
  -3.1151300593699093E-002   5.2314885157433509E-002   0.0000000000000000     
  -3.2941874325480361E-002   5.7666963033162856E-002   0.0000000000000000     
  -2.8759167222989612E-002   3.8099677444931562E-002   0.0000000000000000     
  -3.0925867520688263E-002   4.2824359195967096E-002   0.0000000000000000     
  -3.3032927468314953E-002   4.7753130392098955E-002   0.0000000000000000     
  -3.5080347065869669E-002   5.2885991033327188E-002   0.0000000000000000     
  -3.7068126313352427E-002   5.8222941119651754E-002   0.0000000000000000     
  -3.2204270299416943E-002   3.8774340958555260E-002   0.0000000000000000     
  -3.4589802373741284E-002   4.3488808708240741E-002   0.0000000000000000     
  -3.6908458486404866E-002   4.8404540155562566E-002   0.0000000000000000     
  -3.9160238637407661E-002   5.3521535300520721E-002   0.0000000000000000     
  -4.1345142826749698E-002   5.8839794143115215E-002   0.0000000000000000     
  -3.5797377233129868E-002   3.9516494806886203E-002   0.0000000000000000     
  -3.8403201992041940E-002   4.4221004310680587E-002   0.0000000000000000     
  -4.0934401350436356E-002   4.9122678694723219E-002   0.0000000000000000     
  -4.3390975308313103E-002   5.4221517959014108E-002   0.0000000000000000     
  -4.5772923865672180E-002   5.9517522103553253E-002   0.0000000000000000     
  -2.8966386863133513E-002   5.7171859883648549E-002   0.0000000000000000     
  -3.0512005082801563E-002   6.2729663039072348E-002   0.0000000000000000     
  -3.2008995066029181E-002   6.8469866353493850E-002   0.0000000000000000     
  -3.3457356812816350E-002   7.4392469826913055E-002   0.0000000000000000     
  -3.4857090323163087E-002   8.0497473459329935E-002   0.0000000000000000     
  -3.2941874325480361E-002   5.7666963033162856E-002   0.0000000000000000     
  -3.4678585137934453E-002   6.3212373228207053E-002   0.0000000000000000     
  -3.6360488677485418E-002   6.8938805939252612E-002   0.0000000000000000     
  -3.7987584944133256E-002   7.4846261166299541E-002   0.0000000000000000     
  -3.9559873937877979E-002   8.0934738909347839E-002   0.0000000000000000     
  -3.7068126313352427E-002   5.8222941119651754E-002   0.0000000000000000     
  -3.8995682662067897E-002   6.3752159431556432E-002   0.0000000000000000     
  -4.0862433563320734E-002   6.9461824749525045E-002   0.0000000000000000     
  -4.2668379017110965E-002   7.5351937073557557E-002   0.0000000000000000     
  -4.4413519023438569E-002   8.1422496403653982E-002   0.0000000000000000     
  -4.1345142826749698E-002   5.8839794143115215E-002   0.0000000000000000     
  -4.3463297655201877E-002   6.4349021649120514E-002   0.0000000000000000     
  -4.5514829723535134E-002   7.0038922784311147E-002   0.0000000000000000     
  -4.7499739031749456E-002   7.5909497548687060E-002   0.0000000000000000     
  -4.9418025579844857E-002   8.1960745942248323E-002   0.0000000000000000     
  -4.5772923865672180E-002   5.9517522103553253E-002   0.0000000000000000     
  -4.8081430117336413E-002   6.5002959880899297E-002   0.0000000000000000     
  -5.0317677158128599E-002   7.0670100043610906E-002   0.0000000000000000     
  -5.2481664988048737E-002   7.6518942591688108E-002   0.0000000000000000     
  -5.4573393607096836E-002   8.2549487525130888E-002   0.0000000000000000     
  -3.4857090323163087E-002   8.0497473459329935E-002   0.0000000000000000     
  -3.6205383765263562E-002   8.6771064991941219E-002   0.0000000000000000     
  -3.7499425307311950E-002   9.3199432165943563E-002   0.0000000000000000     
  -3.8739214949308251E-002   9.9782574981336983E-002   0.0000000000000000     
  -3.9924752691252459E-002  0.10652049343812148        0.0000000000000000     
  -3.9559873937877979E-002   8.0934738909347839E-002   0.0000000000000000     
  -4.1074578428869260E-002   8.7191327083243397E-002   0.0000000000000000     
  -4.2528921187256784E-002   9.3603113602832119E-002   0.0000000000000000     
  -4.3922902213040536E-002  0.10017009846811399        0.0000000000000000     
  -4.5256521506220546E-002  0.10689228167908901        0.0000000000000000     
  -4.4413519023438569E-002   8.1422496403653982E-002   0.0000000000000000     
  -4.6094999161807919E-002   8.7660950646980082E-002   0.0000000000000000     
  -4.7709965011723351E-002   9.4054747710701769E-002   0.0000000000000000     
  -4.9258416573184895E-002  0.10060388759481892        0.0000000000000000     
  -5.0740353846192521E-002  0.10730837029933164        0.0000000000000000     
  -4.9418025579844857E-002   8.1960745942248323E-002   0.0000000000000000     
  -5.1266645964079517E-002   8.8179935683151300E-002   0.0000000000000000     
  -5.3042556780711674E-002   9.4554334489552472E-002   0.0000000000000000     
  -5.4745758029741305E-002  0.10108394236145184        0.0000000000000000     
  -5.6376249711168412E-002  0.10776875929884940        0.0000000000000000     
  -5.4573393607096836E-002   8.2549487525130888E-002   0.0000000000000000     
  -5.6589518835684097E-002   8.8748282191756997E-002   0.0000000000000000     
  -5.8526696494221743E-002   9.5101873939384268E-002   0.0000000000000000     
  -6.0384926582709789E-002  0.10161026276801267        0.0000000000000000     
  -6.2164209101148213E-002  0.10827344867764224        0.0000000000000000     
  -3.9924752691252459E-002  0.10652049343812148        0.0000000000000000     
  -4.1061823805061397E-002  0.11340628474373950        0.0000000000000000     
  -4.2156213562651861E-002  0.12043304610563343        0.0000000000000000     
  -4.3207921964023843E-002  0.12760077752380330        0.0000000000000000     
  -4.4216949009177380E-002  0.13490947899824915        0.0000000000000000     
  -4.5256521506220546E-002  0.10689228167908901        0.0000000000000000     
  -4.6535267973304852E-002  0.11376200221215491        0.0000000000000000     
  -4.7764630520801536E-002  0.12077159904370939        0.0000000000000000     
  -4.8944609148710613E-002  0.12792107217375251        0.0000000000000000     
  -5.0075203857032055E-002  0.13521042160228419        0.0000000000000000     
  -5.0740353846192521E-002  0.10730837029933164        0.0000000000000000     
  -5.2161691311521131E-002  0.11416010616459479        0.0000000000000000     
  -5.3528343449945608E-002  0.12115100553096340        0.0000000000000000     
  -5.4840310261465942E-002  0.12828106839843739        0.0000000000000000     
  -5.6097591746082143E-002  0.13555029476701680        0.0000000000000000     
  -5.6376249711168412E-002  0.10776875929884940        0.0000000000000000     
  -5.7941093819710250E-002  0.11460059660105922        0.0000000000000000     
  -5.9447352350084061E-002  0.12157126556739543        0.0000000000000000     
  -6.0895025302289858E-002  0.12868076619785804        0.0000000000000000     
  -6.2284112676327635E-002  0.13592909849244703        0.0000000000000000     
  -6.2164209101148213E-002  0.10827344867764224        0.0000000000000000     
  -6.3873475497872173E-002  0.11508347352154812        0.0000000000000000     
  -6.5521657221216889E-002  0.12203237915300551        0.0000000000000000     
  -6.7108754271182361E-002  0.12912016557201444        0.0000000000000000     
  -6.8634766647768519E-002  0.13634683277857484        0.0000000000000000     
  -4.4216949009177380E-002  0.13490947899824915        0.0000000000000000     
  -4.5173509422135827E-002  0.14234020737202668        0.0000000000000000     
  -4.6067817926922626E-002  0.14987401948819173        0.0000000000000000     
  -4.6899874523537763E-002  0.15751091534674430        0.0000000000000000     
  -4.7669679211981231E-002  0.16525089494768438        0.0000000000000000     
  -5.0075203857032055E-002  0.13521042160228419        0.0000000000000000     
  -5.1148622415245530E-002  0.14262156778387969        0.0000000000000000     
  -5.2157072592830651E-002  0.15013643117311434        0.0000000000000000     
  -5.3100554389787440E-002  0.15775501176998807        0.0000000000000000     
  -5.3979067806115888E-002  0.16547730957450091        0.0000000000000000     
  -5.6097591746082143E-002  0.13555029476701680        0.0000000000000000     
  -5.7292351356577571E-002  0.14294103475288475        0.0000000000000000     
  -5.8416752545735591E-002  0.15043563847222438        0.0000000000000000     
  -5.9470795313556209E-002  0.15803410592503564        0.0000000000000000     
  -6.0454479660039417E-002  0.16573643711131858        0.0000000000000000     
  -6.2284112676327635E-002  0.13592909849244703        0.0000000000000000     
  -6.3604696246131964E-002  0.14329860827904181        0.0000000000000000     
  -6.4846857785637452E-002  0.15077164138552182        0.0000000000000000     
  -6.6010597294844056E-002  0.15834819781188705        0.0000000000000000     
  -6.7095914773751805E-002  0.16602827755813748        0.0000000000000000     
  -6.8634766647768519E-002  0.13634683277857484        0.0000000000000000     
  -7.0085657083908723E-002  0.14369428836235087        0.0000000000000000     
  -7.1447388312536206E-002  0.15114443991300669        0.0000000000000000     
  -7.2719960333650996E-002  0.15869728743054226        0.0000000000000000     
  -7.3903373147253093E-002  0.16635283091495756        0.0000000000000000     
   0.0000000000000000        0.0000000000000000        0.0000000000000000     
  -2.8800707897509081E-003   1.7448454851093525E-003   0.0000000000000000     
  -5.8726486393806511E-003   3.8646401381525340E-003   0.0000000000000000     
  -8.9777335488892308E-003   6.3593839591295437E-003   0.0000000000000000     
  -1.2195325518276645E-002   9.2290769480403833E-003   0.0000000000000000     
   0.0000000000000000        0.0000000000000000        0.0000000000000000     
  -3.2832100194166588E-003   1.9993506945401793E-003   0.0000000000000000     
  -6.6769596369163405E-003   4.3309326287114033E-003   0.0000000000000000     
  -1.0181248852499046E-002   6.9947458025136702E-003   0.0000000000000000     
  -1.3796077666164773E-002   9.9907902159469819E-003   0.0000000000000000     
   0.0000000000000000        0.0000000000000000        0.0000000000000000     
  -3.9535694961431557E-003   2.4250969345474362E-003   0.0000000000000000     
  -7.9106197965834093E-003   5.0628755196554477E-003   0.0000000000000000     
  -1.1871150901320765E-002   7.9133357553240365E-003   0.0000000000000000     
  -1.5835162810355217E-002   1.0976477641553198E-002   0.0000000000000000     
   0.0000000000000000        0.0000000000000000        0.0000000000000000     
  -4.8911492199304003E-003   3.0220842051311226E-003   0.0000000000000000     
  -9.5736291183818618E-003   6.0604688109846686E-003   0.0000000000000000     
  -1.4047439695354385E-002   9.1151538175606398E-003   0.0000000000000000     
  -1.8312580950847968E-002   1.2186139224859036E-002   0.0000000000000000     
   0.0000000000000000        0.0000000000000000        0.0000000000000000     
  -6.0959491907783920E-003   3.7903125062912386E-003   0.0000000000000000     
  -1.1665987602311695E-002   7.3237125026990669E-003   0.0000000000000000     
  -1.6710115234599907E-002   1.0600199989223484E-002   0.0000000000000000     
  -2.1228332087643034E-002   1.3619774965864490E-002   0.0000000000000000     
  -1.2195325518276645E-002   9.2290769480403833E-003   0.0000000000000000     
  -1.5427693011370680E-002   1.2371636967613101E-002   0.0000000000000000     
  -1.8577104491999112E-002   1.5684981880575738E-002   0.0000000000000000     
  -2.1643559960161946E-002   1.9169111686928298E-002   0.0000000000000000     
  -2.4627059415859180E-002   2.2824026386670786E-002   0.0000000000000000     
  -1.3796077666164773E-002   9.9907902159469819E-003   0.0000000000000000     
  -1.7404380697218565E-002   1.3221054669660514E-002   0.0000000000000000     
  -2.0889092564965454E-002   1.6587527964303440E-002   0.0000000000000000     
  -2.4250213269405435E-002   2.0090210099875768E-002   0.0000000000000000     
  -2.7487742810538514E-002   2.3729101076377490E-002   0.0000000000000000     
  -1.5835162810355217E-002   1.0976477641553198E-002   0.0000000000000000     
  -1.9730907209998184E-002   1.4211067313458991E-002   0.0000000000000000     
  -2.3486635786561103E-002   1.7575870906157469E-002   0.0000000000000000     
  -2.7102348540043966E-002   2.1070888419648628E-002   0.0000000000000000     
  -3.0578045470446773E-002   2.4696119853932469E-002   0.0000000000000000     
  -1.8312580950847968E-002   1.2186139224859036E-002   0.0000000000000000     
  -2.2407272549709558E-002   1.5341674899008532E-002   0.0000000000000000     
  -2.6369734156786076E-002   1.8650010706137813E-002   0.0000000000000000     
  -3.0199965772077553E-002   2.2111146646246870E-002   0.0000000000000000     
  -3.3897967395583962E-002   2.5725082719335716E-002   0.0000000000000000     
  -2.1228332087643034E-002   1.3619774965864490E-002   0.0000000000000000     
  -2.5433476716352658E-002   1.6612877426309139E-002   0.0000000000000000     
  -2.9538387675640373E-002   1.9809947364244476E-002   0.0000000000000000     
  -3.3543064965506172E-002   2.3210984779670509E-002   0.0000000000000000     
  -3.7447508585950071E-002   2.6815989672587238E-002   0.0000000000000000     
  -2.4627059415859180E-002   2.2824026386670786E-002   0.0000000000000000     
  -2.7531720366536925E-002   2.6672536022762334E-002   0.0000000000000000     
  -3.0361660319641284E-002   3.0737450638162089E-002   0.0000000000000000     
  -3.3116879275172262E-002   3.5018770232870047E-002   0.0000000000000000     
  -3.5797377233129868E-002   3.9516494806886203E-002   0.0000000000000000     
  -2.7487742810538514E-002   2.3729101076377490E-002   0.0000000000000000     
  -3.0624609456181267E-002   2.7546847313759060E-002   0.0000000000000000     
  -3.3683741474150271E-002   3.1586095231970937E-002   0.0000000000000000     
  -3.6665138864445522E-002   3.5846844831013122E-002   0.0000000000000000     
  -3.9568801627067017E-002   4.0329096110885601E-002   0.0000000000000000     
  -3.0578045470446773E-002   2.4696119853932469E-002   0.0000000000000000     
  -3.3942987960451379E-002   2.8496310033541489E-002   0.0000000000000000     
  -3.7226437392739627E-002   3.2516203783008200E-002   0.0000000000000000     
  -4.0428393767311520E-002   3.6755801102332598E-002   0.0000000000000000     
  -4.3548857084167052E-002   4.1215101991514659E-002   0.0000000000000000     
  -3.3897967395583962E-002   2.5725082719335716E-002   0.0000000000000000     
  -3.7486855879347247E-002   2.9520924182109616E-002   0.0000000000000000     
  -4.0989748075409338E-002   3.3527776291273875E-002   0.0000000000000000     
  -4.4406643983770241E-002   3.7745639046828448E-002   0.0000000000000000     
  -4.7737543604429965E-002   4.2174512448773384E-002   0.0000000000000000     
  -3.7447508585950071E-002   2.6815989672587238E-002   0.0000000000000000     
  -4.1256213212868882E-002   3.0620689759463450E-002   0.0000000000000000     
  -4.4973673522159426E-002   3.4620812756767941E-002   0.0000000000000000     
  -4.8599889513821715E-002   3.8816358664500707E-002   0.0000000000000000     
  -5.2134861187855736E-002   4.3207327482661755E-002   0.0000000000000000     
  -3.5797377233129868E-002   3.9516494806886203E-002   0.0000000000000000     
  -3.8403201992041940E-002   4.4221004310680587E-002   0.0000000000000000     
  -4.0934401350436356E-002   4.9122678694723219E-002   0.0000000000000000     
  -4.3390975308313103E-002   5.4221517959014108E-002   0.0000000000000000     
  -4.5772923865672180E-002   5.9517522103553253E-002   0.0000000000000000     
  -3.9568801627067017E-002   4.0329096110885601E-002   0.0000000000000000     
  -4.2392559046005279E-002   4.5019089720062959E-002   0.0000000000000000     
  -4.5134240405250832E-002   4.9903066307019774E-002   0.0000000000000000     
  -4.7793845704803661E-002   5.4981025871756031E-002   0.0000000000000000     
  -5.0371374944663774E-002   6.0252968414271711E-002   0.0000000000000000     
  -4.3548857084167052E-002   4.1215101991514659E-002   0.0000000000000000     
  -4.6584366206046404E-002   4.5881208653164217E-002   0.0000000000000000     
  -4.9531459995689753E-002   5.0741223289891037E-002   0.0000000000000000     
  -5.2390138453097070E-002   5.5795145901695126E-002   0.0000000000000000     
  -5.5160401578268382E-002   6.1042976488576484E-002   0.0000000000000000     
  -4.7737543604429965E-002   4.2174512448773384E-002   0.0000000000000000     
  -5.0978623472165294E-002   4.6807361109984347E-002   0.0000000000000000     
  -5.4126060121753090E-002   5.1637149643337030E-002   0.0000000000000000     
  -5.7179853553193320E-002   5.6663878048831426E-002   0.0000000000000000     
  -6.0140003766486011E-002   6.1887546326467542E-002   0.0000000000000000     
  -5.2134861187855736E-002   4.3207327482661755E-002   0.0000000000000000     
  -5.5575330844361961E-002   4.7797547090523342E-002   0.0000000000000000     
  -5.8918040783440859E-002   5.2590845367357725E-002   0.0000000000000000     
  -6.2162991005092413E-002   5.7587222313164911E-002   0.0000000000000000     
  -6.5310181509316639E-002   6.2786677927944887E-002   0.0000000000000000     
  -4.5772923865672180E-002   5.9517522103553253E-002   0.0000000000000000     
  -4.8081430117336413E-002   6.5002959880899297E-002   0.0000000000000000     
  -5.0317677158128599E-002   7.0670100043610906E-002   0.0000000000000000     
  -5.2481664988048737E-002   7.6518942591688108E-002   0.0000000000000000     
  -5.4573393607096836E-002   8.2549487525130888E-002   0.0000000000000000     
  -5.0371374944663774E-002   6.0252968414271711E-002   0.0000000000000000     
  -5.2869092686023744E-002   6.5713186351757824E-002   0.0000000000000000     
  -5.5289263490076096E-002   7.1355972101405249E-002   0.0000000000000000     
  -5.7631887356820850E-002   7.7181325663214034E-002   0.0000000000000000     
  -5.9896964286257993E-002   8.3189247037184166E-002   0.0000000000000000     
  -5.5160401578268382E-002   6.1042976488576484E-002   0.0000000000000000     
  -5.7845297998816089E-002   6.6478913286561123E-002   0.0000000000000000     
  -6.0447876342352561E-002   7.2097154531675020E-002   0.0000000000000000     
  -6.2968136608877803E-002   7.7897700223918218E-002   0.0000000000000000     
  -6.5406078798391817E-002   8.3880550363290687E-002   0.0000000000000000     
  -6.0140003766486011E-002   6.1887546326467542E-002   0.0000000000000000     
  -6.3010046055713462E-002   6.7300140685309207E-002   0.0000000000000000     
  -6.5793515714958006E-002   7.2893647334420233E-002   0.0000000000000000     
  -6.8490412744219589E-002   7.8668066273800630E-002   0.0000000000000000     
  -7.1100737143498294E-002   8.4623397503450395E-002   0.0000000000000000     
  -6.5310181509316639E-002   6.2786677927944887E-002   0.0000000000000000     
  -6.8363336856715862E-002   6.8176868548002076E-002   0.0000000000000000     
  -7.1326181607892392E-002   7.3745450509640889E-002   0.0000000000000000     
  -7.4198715762846257E-002   7.9492423812861299E-002   0.0000000000000000     
  -7.6980939321577430E-002   8.5417788457663346E-002   0.0000000000000000     
  -5.4573393607096836E-002   8.2549487525130888E-002   0.0000000000000000     
  -5.6589518835684097E-002   8.8748282191756997E-002   0.0000000000000000     
  -5.8526696494221743E-002   9.5101873939384268E-002   0.0000000000000000     
  -6.0384926582709789E-002  0.10161026276801267        0.0000000000000000     
  -6.2164209101148213E-002  0.10827344867764224        0.0000000000000000     
  -5.9896964286257993E-002   8.3189247037184166E-002   0.0000000000000000     
  -6.2080667699184633E-002   8.9365731186043143E-002   0.0000000000000000     
  -6.4179171016397848E-002   9.5696773072518435E-002   0.0000000000000000     
  -6.6192474237897647E-002  0.10218237269661011        0.0000000000000000     
  -6.8120577363684029E-002  0.10882253005831810        0.0000000000000000     
  -6.5406078798391817E-002   8.3880550363290687E-002   0.0000000000000000     
  -6.7757142477144122E-002   9.0032023679255641E-002   0.0000000000000000     
  -7.0016767211384251E-002   9.6338438901276358E-002   0.0000000000000000     
  -7.2184953001112231E-002  0.10279979602935274        0.0000000000000000     
  -7.4261699846328022E-002  0.10941609506348493        0.0000000000000000     
  -7.1100737143498294E-002   8.4623397503450395E-002   0.0000000000000000     
  -7.3618943169562592E-002   9.0747159671394503E-002   0.0000000000000000     
  -7.6039485079180999E-002   9.7026871425657926E-002   0.0000000000000000     
  -7.8362362872353541E-002  0.10346253276624062        0.0000000000000000     
  -8.0587576549080220E-002  0.11005414369314266        0.0000000000000000     
  -7.6980939321577430E-002   8.5417788457663346E-002   0.0000000000000000     
  -7.9666069776440002E-002   9.1511139162459731E-002   0.0000000000000000     
  -8.2247324619788051E-002   9.7762070645663196E-002   0.0000000000000000     
  -8.4724703851621563E-002  0.10417058290727371        0.0000000000000000     
  -8.7098207471940567E-002  0.11073667594729132        0.0000000000000000     
  -6.2164209101148213E-002  0.10827344867764224        0.0000000000000000     
  -6.3873475497872173E-002  0.11508347352154812        0.0000000000000000     
  -6.5521657221216889E-002  0.12203237915300551        0.0000000000000000     
  -6.7108754271182361E-002  0.12912016557201444        0.0000000000000000     
  -6.8634766647768519E-002  0.13634683277857484        0.0000000000000000     
  -6.8120577363684029E-002  0.10882253005831810        0.0000000000000000     
  -6.9974087663841097E-002  0.11560937366739749        0.0000000000000000     
  -7.1763612408452943E-002  0.12253503203360326        0.0000000000000000     
  -7.3489151597519578E-002  0.12959950515693547        0.0000000000000000     
  -7.5150705231041004E-002  0.13680279303739412        0.0000000000000000     
  -7.4261699846328022E-002  0.10941609506348493        0.0000000000000000     
  -7.6258181635451158E-002  0.11617893377994330        0.0000000000000000     
  -7.8185572256901079E-002  0.12307990995499839        0.0000000000000000     
  -8.0043871710677769E-002  0.13011902358865018        0.0000000000000000     
  -8.1833079996781272E-002  0.13729627468089869        0.0000000000000000     
  -8.0587576549080220E-002  0.11005414369314266        0.0000000000000000     
  -8.2725757412702328E-002  0.11679215385918552        0.0000000000000000     
  -8.4787536766561228E-002  0.12366701291719086        0.0000000000000000     
  -8.6772914610656879E-002  0.13067872086715851        0.0000000000000000     
  -8.8681890944989336E-002  0.13782727770908865        0.0000000000000000     
  -8.7098207471940567E-002  0.11073667594729132        0.0000000000000000     
  -8.9376814995594647E-002  0.11744903390512422        0.0000000000000000     
  -9.1569505937433446E-002  0.12429634092018060        0.0000000000000000     
  -9.3676280297456962E-002  0.13127859699246050        0.0000000000000000     
  -9.5697138075665170E-002  0.13839580212196390        0.0000000000000000     
  -6.8634766647768519E-002  0.13634683277857484        0.0000000000000000     
  -7.0085657083908723E-002  0.14369428836235087        0.0000000000000000     
  -7.1447388312536206E-002  0.15114443991300669        0.0000000000000000     
  -7.2719960333650996E-002  0.15869728743054226        0.0000000000000000     
  -7.3903373147253093E-002  0.16635283091495756        0.0000000000000000     
  -7.5150705231041004E-002  0.13680279303739412        0.0000000000000000     
  -7.6730940719834162E-002  0.14412664268483516        0.0000000000000000     
  -7.8212525474716021E-002  0.15155280110911470        0.0000000000000000     
  -7.9595459495686569E-002  0.15908126831023270        0.0000000000000000     
  -8.0879742782745789E-002  0.16671204428818914        0.0000000000000000     
  -8.1833079996781272E-002  0.13729627468089869        0.0000000000000000     
  -8.3536254003834659E-002  0.14459423892851786        0.0000000000000000     
  -8.5136450620460991E-002  0.15199549202828153        0.0000000000000000     
  -8.6633669846660294E-002  0.15950003398018978        0.0000000000000000     
  -8.8027911682432541E-002  0.16710786478424253        0.0000000000000000     
  -8.8681890944989336E-002  0.13782727770908865        0.0000000000000000     
  -9.0501596935910200E-002  0.14509707709339897        0.0000000000000000     
  -9.2219163749771141E-002  0.15247251267050724        0.0000000000000000     
  -9.3834591386572186E-002  0.15995358444041352        0.0000000000000000     
  -9.5347879846313280E-002  0.16754029240311774        0.0000000000000000     
  -9.5697138075665170E-002  0.13839580212196390        0.0000000000000000     
  -9.7626969516060771E-002  0.14563515717947845        0.0000000000000000     
  -9.9460664862646458E-002  0.15298386303579176        0.0000000000000000     
 -0.10119822411542222       0.16044191969090388        0.0000000000000000     
 -0.10283964727438806       0.16800932714481476        0.0000000000000000     
 </DataArray>
 <DataArray  type="Float64" Name="stress" NumberOfComponents="3" format="ascii">
   13416589883.894655        4024976965.1683965        2893860008.2829370     
   11766517780.192278        1890565606.4595447        1715775623.6213644     
   10313696396.063745        413656646.33017921        810764807.25291753     
   9058125731.5090637       -405749915.21969795        178827559.17759821     
   7999805786.5282249       -567654078.19008970       -180036120.60459456     
   10539922033.999632        3161976610.1998897        2225674341.9632435     
   9667584471.4759636        1589668392.5504909        1446679058.3418362     
   8943865720.1731567        512756212.30395269        863151436.32028222     
   8368765780.0912056       -68759930.539722919        475091475.89858276     
   7942284651.2301159       -154880035.98053694        282499177.07673454     
   8337925121.5042992        2501377536.4512897        1712312203.7363214     
   8021590938.1785631        1424653111.2671101        1275668794.7432604     
   7805243657.7206964        681218362.30916595        956887140.65678000     
   7688883280.1306973        271073289.57745647        755967241.47687936     
   7672509805.4085751        194217893.07198381        672909097.20355976     
   6810599146.4086580        2043179743.9225972        1353773593.6021700     
   6828537180.3000689        1395519762.6094019        1202744832.8256369     
   6897830208.7063627        919043096.34581614        1091971920.2624106     
   7018478231.6275396        613749745.13184094        1021454855.9124923     
   7190481249.0635996        479639708.96747541        991193639.77588046     
   5957944108.7127037        1787383232.6138110        1150058511.5607896     
   6088423197.8404827        1502268346.5773664        1227907172.5889654     
   6221625373.1301575        1226230414.4139056        1268405775.1371746     
   6357550634.5817261        959269436.12342882        1271554319.2054181     
   6496198982.1951923        701385411.70593715        1237352804.7936950     
   7999805786.5282249       -567654078.19008970       -180036120.60459456     
   7917526775.4611082       -200421963.88299656       -78304527.507186785     
   7793815064.8882990        28701152.071795464       -9140246.0521939266     
   7628670654.8097992        119715269.67428112        27456723.760382429     
   7422093545.2256098        72620388.924469471        31486381.930544682     
   7942284651.2301159       -154880035.98053694        282499177.07673454     
   7739720621.2127924        16178478.023183823        281096113.77320868     
   7513814806.2107019        109431042.07768106        265004255.29733393     
   7264567206.2238417        124877656.18295145        234223601.64911202     
   6991977821.2522192        62518320.339000225        188754152.82853910     
   7672509805.4085751        194217893.07198381        672909097.20355976     
   7400742232.0698080        184427249.46096039        589477444.44017684     
   7123723788.2671995        157133704.30379248        509235512.97451174     
   6841454474.0007410        112337257.60047650        432183302.80656397     
   6553934289.2704477        50037909.351023197        358320813.93633670     
   7190481249.0635996        479639708.96747541        991193639.77588046     
   6900591608.0321531        304324350.43033576        846839464.49371648     
   6623542011.0577860        171809138.75012994        723553526.97933948     
   6359332458.1405029        82094073.926862478        621335827.23274851     
   6107962949.2802982        35179155.960529566        540186365.25394118     
   6496198982.1951923        701385411.70593715        1237352804.7936950     
   6239268749.0998287        375869780.93131042        1053182173.9338309     
   6013269474.5824709        153457345.41669965        907958297.31181884     
   5818201158.6431150        34148105.162100792        801681174.92765939     
   5654063801.2817669        17942060.167519808        734350806.78135347     
   7422093545.2256098        72620388.924469471        31486381.930544682     
   7219790939.2563477       -17757998.456022263        14997785.682579180     
   7029536950.7827845       -67974327.517508984        2659660.7020615921     
   6851331579.8049173       -78028598.260005951       -5527993.0110029550     
   6685174826.3227539       -47920810.683501720       -9565175.4566195868     
   6991977821.2522192        62518320.339000225        188754152.82853910     
   6809107793.0198441        3327800.8567495346        180726764.22917798     
   6633922193.2930546       -30247956.940200329        176299840.79884237     
   6466421022.0718660       -38208953.051827431        175473382.53752631     
   6306604279.3562651       -20555187.478153467        178247389.44523606     
   6553934289.2704477        50037909.351023197        358320813.93633670     
   6388925392.7794466        21563823.968347311        353663079.16379404     
   6227236735.8039331        4157203.6372985840        352055803.46184742     
   6068868318.3439064       -2181951.6421296597        353498986.83049166     
   5913820140.3993673        2546358.1300675869        357992629.26973456     
   6107962949.2802982        35179155.960529566        540186365.25394118     
   5959243738.5351667        36950070.878786325        533806730.48642594     
   5809480578.3154154        35241154.214974642        529927548.69107509     
   5658673468.6210451        30052405.969103575        528548819.86789495     
   5506822409.4520578        21383826.141167879        529670544.01687723     
   5654063801.2817669        17942060.167519808        734350806.78135347     
   5520062830.2869949        49486541.588051319        721157718.19707274     
   5380653720.8274994        63003894.792832851        709915076.48652947     
   5235836472.9032803        58494119.781862259        700622881.64972746     
   5085611086.5143356        35957216.555144072        693281133.68666697     
   6685174826.3227539       -47920810.683501720       -9565175.4566195868     
   6508861134.5539923       -9970924.7874438763       -4558880.0460702246     
   6327678504.2821770        11749166.098444462        3076933.4946688907     
   6141626935.5073242        17239461.974204063        13342265.165583348     
   5950706428.2294245        6499962.8398146629        26237114.966684356     
   6306604279.3562651       -20555187.478153467        178247389.44523606     
   6133044380.9130449        228414.92175889015        174156020.53760463     
   5956582109.0485353        11337439.250715017        173514886.09547427     
   5777217463.7627392        12771885.508708000        176323986.11883992     
   5594950445.0556545        4531753.6957447529        182583320.60770667     
   5913820140.3993673        2546358.1300675869        357992629.26973456     
   5745358939.0968790        6867148.1784090996        347097921.97263682     
   5575961929.4548578        8068577.0949738026        340474165.47635794     
   5405629111.4733009        6150644.8797559738        338121359.78088450     
   5234360485.1522169        1113351.5327732563        340039504.88622707     
   5506822409.4520578        21383826.141167879        529670544.01687723     
   5345804809.1054859        9945274.9824876785        514266824.25903016     
   5185817965.5011368        1942579.6312165260        503954771.63730943     
   5026861878.6390085       -2624259.9126448631        498734386.15172017     
   4868936548.5191031       -3755243.6491022110        498605667.80225438     
   5085611086.5143356        35957216.555144072        693281133.68666697     
   4934381990.9388628        9462795.3339958191        675662727.39678311     
   4786150217.1873732       -7040553.1405520439        663956704.57833898     
   4640915765.2598581       -13552828.868509054        658163065.23134315     
   4498678635.1563206       -10074031.849874973        658281809.35578573     
   5950706428.2294245        6499962.8398146629        26237114.966684356     
   5774044739.8944340       -4384516.9202826023        23500884.943216372     
   5599335972.7161636       -8759259.4912865162        23334259.588271886     
   5426580126.6946230       -6624264.8732104301        25737238.901849940     
   5255777201.8298130        2020466.9339804649        30709822.883954696     
   5594950445.0556545        4531753.6957447529        182583320.60770667     
   5426769621.2085228       -2006162.3155419827        180207561.81042185     
   5259827230.5697317       -4415967.6323747635        180782887.08554214     
   5094123273.1392736       -2697662.2547514439        184309296.43307793     
   4929657748.9171591        3148753.8173496723        190786789.85303387     
   5234360485.1522169        1113351.5327732563        340039504.88622707     
   5075750466.9469166       -751018.38351631165        337190648.04200065     
   4917664394.0015640       -868904.09997963905        337674354.67407745     
   4760102266.3161573        759694.38338470459        341490624.78245044     
   4603064083.8907013        4134777.0665717125        348639458.36712837     
   4868936548.5191031       -3755243.6491022110        498605667.80225438     
   4720987277.1096020       -619085.12420177460        494450143.63796347     
   4572847463.0116549        1881931.1058876514        494008662.35386509     
   4424517106.2252722        3747805.0411767960        497281223.94995874     
   4275996206.7504439        4978536.6816604137        504267828.42624158     
   4498678635.1563206       -10074031.849874973        658281809.35578573     
   4362480051.6965847       -1610362.5375978947        651986048.59831202     
   4225376437.6000161        3836537.9852378368        649785810.12491906     
   4087367792.8666201        6266669.7186455727        651681093.93560314     
   3948454117.4963889        5680032.6626095772        657671900.03037226     
   5255777201.8298130        2020466.9339804649        30709822.883954696     
   5056715132.2548342        3284156.2759869099        23890358.477682069     
   4856423241.0492363        448440.18256664276        21652795.027336907     
   4654901528.2129765       -6486681.3463761806        23997132.532923698     
   4452149993.7460775       -17521208.310782671        30923370.994436674     
   4929657748.9171591        3148753.8173496723        190786789.85303387     
   4741992042.6040449        2646747.4354236126        182601828.83300135     
   4553491177.0430088       -639123.10624599457        179008868.37937114     
   4364155152.2340326       -6708857.8077075481        180007908.49214613     
   4173983968.1771369       -15562456.668906450        185598949.17133433     
   4603064083.8907013        4134777.0665717125        348639458.36712837     
   4426823596.8693771        1875731.7696852684        339549440.17983180     
   4250142612.9828382       -1851636.4112491608        335061522.16942328     
   4073021132.2310843       -7047327.4762401581        335175704.33589882     
   3895459154.6141167       -13711341.425267220        339891986.67925376     
   4275996206.7504439        4978536.6816604137        504267828.42624158     
   4111209795.0508423        971109.27878260612        494733192.51818621     
   3946377548.8687401       -3189099.7324271202        489810756.39749545     
   3781499468.2041373       -7502090.3519656658        489500520.06416410     
   3616575553.0570369       -11967862.579842567        493802483.51819319     
   3948454117.4963889        5680032.6626095772        657671900.03037226     
   3795150637.1484408       -67120.037268638611        648153085.84805882     
   3642195984.7007027       -4651513.0697865486        643256571.06358635     
   3489590160.1531854       -8073146.4348943233        642982355.67694616     
   3337333163.5058813       -10332020.132633924        647330439.68814635     
   4452149993.7460775       -17521208.310782671        30923370.994436674     
   4287373138.3275075       -16911310.519296169        27348183.028585993     
   4123992272.2591906       -11648114.893650770        31613555.681258265     
   3962007395.5411134       -1731621.4338665009        43719488.952453494     
   3801418508.1732817        12838169.860076427        63665982.842171676     
   4173983968.1771369       -15562456.668906450        185598949.17133433     
   4028761501.5624170       -10667664.750828505        182487088.18123624     
   3884548112.1384745       -2409282.1968269348        185587682.39252442     
   3741343799.9053020        9212690.9930756092        194900731.80517712     
   3599148564.8629022        24198254.818887234        210426236.41921613     
   3895459154.6141167       -13711341.425267220        339891986.67925376     
   3765139347.0399666       -5927174.3095619678        336792055.14553541     
   3635441704.4971213        3930876.2438113689        338276473.39604175     
   3506366226.9855633        15862810.234826088        344345241.43077290     
   3377912914.5053115        29868627.663524389        354998359.24973100     
   3616575553.0570369       -11967862.579842567        493802483.51819319     
   3496506674.7601657       -2689839.1955041885        490263083.92146248     
   3376673049.3351169        7372360.4282512665        489679928.69180226     
   3257074676.7818966        18218736.291418314        492053017.82922250     
   3137711557.1004887        29849288.393983722        497382351.33371830     
   3337333163.5058813       -10332020.132633924        647330439.68814635     
   3222863484.7230015       -955659.40865373611        642900174.50901544     
   3108242146.6524715        7915170.3564922810        639798048.27981091     
   2993469149.2942915        16280469.162804127        638024061.00053239     
   2878544492.6484632        24140237.010289192        637578212.67117822     
   3801418508.1732817        12838169.860076427        63665982.842171676     
   3618573697.0182576        18626080.796364784        65459463.784655318     
   3432944916.3669281        15134093.411643505        60912844.496635586     
   3244532166.2192979        2362207.7058999538        50026124.978157975     
   3053335446.5753584       -19689576.320841789        32799305.229178280     
   3599148564.8629022        24198254.818887234        210426236.41921613     
   3402195021.4797325        21376981.553120613        204745624.34400618     
   3203322942.9347987        12160591.081504464        196538976.37041950     
   3002532329.2280889       -3450916.5960361958        185806292.49841771     
   2799823180.3596292       -25457541.479420900        172547572.72805712     
   3377912914.5053115        29868627.663524389        354998359.24973100     
   3177747965.5571241        21707368.194674373        342853327.54713303     
   2976529915.7817125        10035772.635070801        331996324.27824432     
   2774258765.1790776       -5146159.0152932405        322427349.44307113     
   2570934513.7492080       -23838426.756394148        314146403.04158193     
   3137711557.1004887        29849288.393983722        497382351.33371830     
   2945232529.2504263        19617240.720983267        479782573.39402670     
   2752565834.9076705        8759638.0723607540        467284888.22014248     
   2559711474.0722146       -2723519.5519155264        459889295.81205761     
   2366669446.7440872       -14832232.151797414        457595796.16977453     
   2878544492.6484632        24140237.010289192        637578212.67117822     
   2704648712.5596418        15106599.132069468        615533361.88468909     
   2531430700.3126655        8332187.3933435678        602404668.19609547     
   2358890455.9075394        3817001.7941205502        598192131.60540318     
   2187027979.3442693        1561042.3344036341        602895752.11260545     
   5957944108.7127037        1787383232.6138110        1150058511.5607896     
   6088423197.8404827        1502268346.5773664        1227907172.5889654     
   6221625373.1301575        1226230414.4139056        1268405775.1371746     
   6357550634.5817261        959269436.12342882        1271554319.2054181     
   6496198982.1951923        701385411.70593715        1237352804.7936950     
   5434600283.4968300        1630380085.0490491        1033487499.2074461     
   5489880938.3261318        1372513161.8361032        1113871819.6138079     
   5547356879.6094952        1121963860.1367049        1167473257.6189611     
   5607028107.3469267        878732179.95085514        1194291813.2229049     
   5668894621.5384178        642818121.27855134        1194327486.4256396     
   4895207945.8414268        1468562383.7524281        936381098.13740468     
   4905482098.0258408        1247001002.8590586        1018685311.5961503     
   4917423736.9564886        1030997911.1198007        1084773818.7324436     
   4931032862.6333704        820553108.53465378        1134646619.5462852     
   4946309475.0564842        615666595.10361743        1168303714.0376751     
   4339767095.7464924        1301930128.7239475        858739308.35066593     
   4335226676.9396133        1125731869.6462331        942347648.53599179     
   4331825945.1711359        953332567.36319256        1020307458.4776231     
   4329564900.4410610        784732221.87482679        1092618738.1755598     
   4328443542.7493887        619930833.18113530        1159281487.6298015     
   3768277733.2120285        1130483319.9636085        800562129.84722948     
   3779114675.0674472        1008705762.1976256        884858830.43333304     
   3790563504.2534370        888967828.86688089        974074176.85449934     
   3802624220.7699986        771269519.97137368        1068208169.1107283     
   3815296824.6171308        655610835.51110446        1167260807.2020195     
   6496198982.1951923        701385411.70593715        1237352804.7936950     
   6239268749.0998287        375869780.93131042        1053182173.9338309     
   6013269474.5824709        153457345.41669965        907958297.31181884     
   5818201158.6431150        34148105.162100792        801681174.92765939     
   5654063801.2817669        17942060.167519808        734350806.78135347     
   5668894621.5384178        642818121.27855134        1194327486.4256396     
   5518782520.2598305        383280290.61842823        1073468380.3238353     
   5392828855.1556644        204270580.53970981        980604667.50911713     
   5291033626.2259178        105788991.04239583        915736347.98149002     
   5213396833.4705925        87835522.126488447        878863421.74094927     
   4946309475.0564842        615666595.10361743        1168303714.0376751     
   4871725902.8781996        412719683.74305415        1102854856.5564163     
   4814528244.4707527        267725818.28528810        1054450031.4114821     
   4774716499.8341465        180684998.73031688        1023089238.6028714     
   4752290668.9683762        151597225.07814336        1008772478.1305838     
   4328443542.7493887        619930833.18113530        1159281487.6298015     
   4298098896.9549370        464187960.30519211        1141341602.6315763     
   4278367642.5277433        343823058.65343702        1129494389.0189104     
   4269249779.4678040        258836128.22586751        1123739846.7918046     
   4270745307.7751217        209227169.02248812        1124077975.9502566     
   3815296824.6171308        655610835.51110446        1167260807.2020195     
   3797901502.4900432        537685120.30483997        1188928618.5493145     
   3784347049.3266315        432562301.64415586        1205737740.3314033     
   3774633465.1268907        340242379.52904677        1217688172.5482891     
   3768760749.8908248        260725353.95951843        1224779915.1999695     
   5654063801.2817669        17942060.167519808        734350806.78135347     
   5520062830.2869949        49486541.588051319        721157718.19707274     
   5380653720.8274994        63003894.792832851        709915076.48652947     
   5235836472.9032803        58494119.781862259        700622881.64972746     
   5085611086.5143356        35957216.555144072        693281133.68666697     
   5213396833.4705925        87835522.126488447        878863421.74094927     
   5077094449.1316080        85680633.446345329        855167712.51573503     
   4938654457.8781109        76400388.384496689        835528016.17523468     
   4798076859.7101002        59994786.940936327        819944332.71944821     
   4655361654.6275778        36463829.115670204        808416662.14837098     
   4752290668.9683762        151597225.07814336        1008772478.1305838     
   4619702774.1736717        117547737.16387486        978389768.40635300     
   4488247804.0146704        87274664.701942205        954168637.57780814     
   4357925758.4913692        60778007.692344666        936109085.64494956     
   4228736637.6037674        38057766.135083675        924211112.60777617     
   4270745307.7751217        209227169.02248812        1124077975.9502566     
   4147887805.4131937        145087852.74064016        1090823885.8689229     
   4029433759.2371807        95626723.745173454        1065836940.6942496     
   3915383169.2470798        60843782.036084890        1049117140.4262367     
   3805736035.4428940        40739027.613375187        1040664485.0648808     
   3768760749.8908248        260725353.95951843        1224779915.1999695     
   3661649542.8501692        168300980.17664504        1192470064.9034476     
   3562212323.5456400        101456565.51419139        1170532925.5245602     
   3470449091.9772382        60192109.972160101        1158968497.0633047     
   3386359848.1449618        44507613.550553083        1157776779.5196838     
   5085611086.5143356        35957216.555144072        693281133.68666697     
   4934381990.9388628        9462795.3339958191        675662727.39678311     
   4786150217.1873732       -7040553.1405520439        663956704.57833898     
   4640915765.2598581       -13552828.868509054        658163065.23134315     
   4498678635.1563206       -10074031.849874973        658281809.35578573     
   4655361654.6275778        36463829.115670204        808416662.14837098     
   4520644908.3561144        15414162.820707560        794903899.11465549     
   4388119672.6609106        1669531.7799468040        786924077.86038375     
   4257785947.5419631       -4770064.0066201687        784477198.38555658     
   4129643732.9992824       -3904624.5389776230        787563260.69017255     
   4228736637.6037674        38057766.135083675        924211112.60777617     
   4109448121.5163088        22127619.030302525        913863879.70789385     
   3991545304.7573962        10816469.687326431        908670146.89545417     
   3875028187.3270245        4124318.1061627865        908629914.17045999     
   3759896769.2251940        2051164.2868046761        913743181.53290832     
   3805736035.4428940        40739027.613375187        1040664485.0648808     
   3700791630.4194465        29603163.962776661        1032542669.1764923     
   3596427113.4768276        20400260.581593275        1029194911.6835487     
   3492642484.6150298        13130317.469823837        1030621212.5860505     
   3389437743.8340616        7793334.6274747849        1036821571.8839984     
   3386359848.1449618        44507613.550553083        1157776779.5196838     
   3294675435.0655317        37840797.618138552        1150940267.5204518     
   3202765098.8192048        30420904.462739110        1148498372.2246661     
   3110628839.4059901        22247934.084375262        1150451093.6323285     
   3018266656.8258791        13321886.483029485        1156798431.7434340     
   4498678635.1563206       -10074031.849874973        658281809.35578573     
   4362480051.6965847       -1610362.5375978947        651986048.59831202     
   4225376437.6000161        3836537.9852378368        649785810.12491906     
   4087367792.8666201        6266669.7186455727        651681093.93560314     
   3948454117.4963889        5680032.6626095772        657671900.03037226     
   4129643732.9992824       -3904624.5389776230        787563260.69017255     
   4002932848.3095651        111422.88890218735        780325361.27489710     
   3875824656.7827158        2803114.1930177212        777316543.67964292     
   3748319158.4187412        4170449.3733739853        778536807.90441358     
   3620416353.2176366        4213428.4299752712        783986153.94921386     
   3759896769.2251940        2051164.2868046761        913743181.53290832     
   3643055181.9796219        1734069.4325232506        906155487.89281523     
   3526324011.6966257        1785031.1201574802        902930435.60869014     
   3409703258.3761992        2204049.3497045040        904068024.68053818     
   3293192922.0183535        2991124.1211752892        909568255.10835624     
   3389437743.8340616        7793334.6274747849        1036821571.8839984     
   3282847052.7067633        3257577.0932657719        1029476428.4520733     
   3176874502.3417416        782288.76665556431        1026627485.9120662     
   3071520092.7390022        367469.64764332771        1028274744.2639753     
   2966783823.8985391        2013119.7362239361        1034418203.5077955     
   3018266656.8258791        13321886.483029485        1156798431.7434340     
   2922308460.4909859        4681945.8711389303        1150288182.9526706     
   2827476128.7180729       -205112.86747705936        1148407694.5897644     
   2733769661.5071430       -1339289.7328253984        1151156966.6547229     
   2641189058.8581929        1279415.2751032114        1158535999.1475368     
   3948454117.4963889        5680032.6626095772        657671900.03037226     
   3795150637.1484408       -67120.037268638611        648153085.84805882     
   3642195984.7007027       -4651513.0697865486        643256571.06358635     
   3489590160.1531854       -8073146.4348943233        642982355.67694616     
   3337333163.5058813       -10332020.132633924        647330439.68814635     
   3620416353.2176366        4213428.4299752712        783986153.94921386     
   3479558757.3884072        29343.327604532242        775040816.54453826     
   3338873879.1849737       -3579016.3554379940        770686229.15699935     
   3198361718.6073289       -6611650.6191922426        770922391.78659201     
   3058022275.6554847       -9068559.4636040926        775749304.43332481     
   3293192922.0183535        2991124.1211752892        909568255.10835624     
   3164691069.6201277        343064.29002141953        900990932.49449074     
   3036185824.5732746       -2316304.3698937893        896972810.51706147     
   2907677186.8777943       -4986981.8585671186        897513889.17606461     
   2779165156.5336823       -7668968.1759961843        902614168.47150159     
   2966783823.8985391        2013119.7362239361        1034418203.5077955     
   2850547573.8436007        874042.84996020794        1026003433.6979192     
   2734131820.8656101       -863377.11313760281        1022116315.1437731     
   2617536564.9645734       -3199140.1530567408        1022756847.8453598     
   2500761806.1404886       -6133246.2698088884        1027925031.8026817     
   2641189058.8581929        1279415.2751032114        1158535999.1475368     
   2537128270.0588202        1622279.0074146986        1150078320.1548207     
   2432711868.0619831        779765.41484057903        1146116743.0371332     
   2327939852.8676653       -1248125.5026609898        1146651267.7944810     
   2222812224.4758887       -4461393.7450369596        1151681894.4268601     
   3337333163.5058813       -10332020.132633924        647330439.68814635     
   3222863484.7230015       -955659.40865373611        642900174.50901544     
   3108242146.6524715        7915170.3564922810        639798048.27981091     
   2993469149.2942915        16280469.162804127        638024061.00053239     
   2878544492.6484632        24140237.010289192        637578212.67117822     
   3058022275.6554847       -9068559.4636040926        775749304.43332481     
   2947613988.4811254       -2148462.4755940437        771958934.04252386     
   2837295176.4936128        5069885.1352325678        770531402.18588567     
   2727065839.6929536        12586483.368912458        771466708.86341095     
   2616925978.0791488        20401332.225428820        774764854.07509184     
   2779165156.5336823       -7668968.1759961843        902614168.47150159     
   2675774545.4942350       -2318249.5660561323        899745016.42261755     
   2572714544.1161351        4134501.2483872175        900273402.49212992     
   2469985152.3993907        11689284.267346501        904199326.68004298     
   2367586370.3439975        20346099.490813851        911522788.98635304     
   2500761806.1404886       -6133246.2698088884        1027925031.8026817     
   2407345155.7623343       -1465020.6800193787        1026258421.6492970     
   2314500249.5200419        5109018.6959571838        1029024049.1985435     
   2222227087.4136014        13588871.858117819        1036221914.4504336     
   2130525669.4430127        23974538.806450844        1047852017.4049511     
   2222812224.4758887       -4461393.7450369596        1151681894.4268601     
   2142325819.2854304        411224.18252813816        1151499149.7225654     
   2062652292.7053254        7993437.4779310226        1156783342.3051350     
   1983791644.7355835        18285246.141213179        1167534472.1745794     
   1905743875.3761952        31286650.172341108        1183752539.3308952     
   2878544492.6484632        24140237.010289192        637578212.67117822     
   2704648712.5596418        15106599.132069468        615533361.88468909     
   2531430700.3126655        8332187.3933435678        602404668.19609547     
   2358890455.9075394        3817001.7941205502        598192131.60540318     
   2187027979.3442693        1561042.3344036341        602895752.11260545     
   2616925978.0791488        20401332.225428820        774764854.07509184     
   2465162900.8416820        16425428.883146286        756641401.59765100     
   2313769389.6184483        13681412.254970193        745459778.55351436     
   2162745444.4094319        12169282.340876460        741219984.94269693     
   2012091065.2146654        11889039.140915751        743922020.76519835     
   2367586370.3439975        20346099.490813851        911522788.98635304     
   2232315059.7733636        19735649.829124093        896961166.01906109     
   2097105113.3893404        19329747.456128836        887367044.82049966     
   1961956531.1919198        19128392.371829271        882740425.39066648     
   1826869313.1811228        19131584.576239467        883081307.72956920     
   2130525669.4430127        23974538.806450844        1047852017.4049511     
   2006105189.3546858        25037261.969989777        1036492655.1489258     
   1881437871.6253405        25277192.996813416        1028126466.9970503     
   1756523716.2549880        24694331.886947036        1022753452.9493136     
   1631362723.2436306        23288678.640385091        1020373613.0057263     
   1905743875.3761952        31286650.172341108        1183752539.3308952     
   1786533289.5856433        32330265.305742621        1175235868.9872494     
   1666767664.3264599        31523748.877044737        1167738045.0831633     
   1546446999.5986443        28867100.886237383        1161259067.6186340     
   1425571295.4022028        24360321.333343446        1155798936.5936651     
   3768277733.2120285        1130483319.9636085        800562129.84722948     
   3779114675.0674472        1008705762.1976256        884858830.43333304     
   3790563504.2534370        888967828.86688089        974074176.85449934     
   3802624220.7699986        771269519.97137368        1068208169.1107283     
   3815296824.6171308        655610835.51110446        1167260807.2020195     
   3207876493.1215796        962362947.93647385        756697484.22902906     
   3235885128.6114211        868211457.04469943        853068553.63143432     
   3263620405.5750699        773148771.06561375        951354726.10043967     
   3291082324.0125251        677174889.99921787        1051556001.6360437     
   3318270883.9237876        580289813.84551060        1153672380.2382476     
   2685700010.3586907        805710003.10760725        721993293.09799826     
   2722298788.7159181        736610113.85992980        829405944.48381341     
   2757738962.6901889        663648210.00239325        935730156.16776514     
   2792020532.2815008        586824291.53499651        1040965928.1498533     
   2825143497.4898548        506138358.45774031        1145113260.4300780     
   2201748284.9233632        660524485.47700894        696449556.45413709     
   2238355655.3809390        613901732.64331746        813871002.99046993     
   2272919175.5987930        560466145.67721796        927200467.05647635     
   2305438845.5769258        500217724.57870996        1036437948.6521562     
   2335914665.3153338        433156469.34779376        1141583447.7775095     
   1756021316.8155947        526806395.04467839        680066274.29744554     
   1784055728.6064827        500086313.39486176        806463729.15140414     
   1809161044.3008840        463602578.09008843        925765658.76657307     
   1831337263.8987980        417355189.13035798        1037972063.1429526     
   1850584387.4002249        361344146.51567024        1143082942.2805424     
   3815296824.6171308        655610835.51110446        1167260807.2020195     
   3797901502.4900432        537685120.30483997        1188928618.5493145     
   3784347049.3266315        432562301.64415586        1205737740.3314033     
   3774633465.1268907        340242379.52904677        1217688172.5482891     
   3768760749.8908248        260725353.95951843        1224779915.1999695     
   3318270883.9237876        580289813.84551060        1153672380.2382476     
   3293783092.5841193        473138720.56467855        1182006430.5841985     
   3273021553.1210771        378408466.87259698        1207256973.7336538     
   3255986265.5346575        296099052.76926231        1229424009.6866138     
   3242677229.8248644        226210478.25467885        1248507538.4430773     
   2825143497.4898548        506138358.45774031        1145113260.4300780     
   2798635186.5624905        411283471.98980653        1179979829.8397949     
   2775738510.4247003        328467368.15379202        1213538074.4217243     
   2756453469.0764880        257690046.94969726        1245787994.1758687     
   2740780062.5178509        198951508.37752295        1276729589.1022265     
   2335914665.3153338        433156469.34779376        1141583447.7775095     
   2312457784.4251556        352119374.58022159        1182848816.3161018     
   2292497921.2375050        282739005.48774016        1224581042.3956170     
   2276035075.7523808        225015362.07035053        1266780126.0160549     
   2263069247.9697852        178948444.32805121        1309446067.1774166     
   1850584387.4002249        361344146.51567024        1143082942.2805424     
   1835250886.1721170        295646428.33592659        1190613390.0131197     
   1823299785.5594881        241223378.87444389        1240385877.6553299     
   1814731085.5623372        198074998.13122272        1292400405.2071722     
   1809544786.1806648        166201286.10626340        1346656972.6686466     
   3768760749.8908248        260725353.95951843        1224779915.1999695     
   3661649542.8501692        168300980.17664504        1192470064.9034476     
   3562212323.5456400        101456565.51419139        1170532925.5245602     
   3470449091.9772382        60192109.972160101        1158968497.0633047     
   3386359848.1449618        44507613.550553083        1157776779.5196838     
   3242677229.8248644        226210478.25467885        1248507538.4430773     
   3164861772.9791069        151829563.92120767        1231493930.7979751     
   3093117593.8316050        97686241.915254831        1222478929.4352975     
   3027444692.3823586        63780512.236823559        1221462534.3550477     
   2967843068.6313686        50112374.885912299        1228444745.5572231     
   2740780062.5178509        198951508.37752295        1276729589.1022265     
   2685477199.7664003        140579106.66327882        1273142395.7310264     
   2634642904.6753345        97101930.483650923        1275179704.0070436     
   2588277177.2446547        68519979.838642836        1282841513.9302816     
   2546380017.4743595        54833254.728249311        1296127825.5007377     
   2263069247.9697852        178948444.32805121        1309446067.1774166     
   2223495823.2120500        134549608.40285707        1317415459.7026024     
   2186788256.0768299        99703631.219377637        1328635249.2397997     
   2152946546.5641232        74410512.777611017        1343105435.7890091     
   2121970694.6739314        58670253.077560902        1360826019.3502314     
   1809544786.1806648        166201286.10626340        1346656972.6686466     
   1778917643.3160548        133741069.13993990        1364313122.7127023     
   1749553648.0360878        105491344.12242877        1382845565.1335633     
   1721452800.3407650        81452111.053732514        1402254299.9312298     
   1694615100.2300861        61623369.933845818        1422539327.1057017     
   3386359848.1449618        44507613.550553083        1157776779.5196838     
   3294675435.0655317        37840797.618138552        1150940267.5204518     
   3202765098.8192048        30420904.462739110        1148498372.2246661     
   3110628839.4059901        22247934.084375262        1150451093.6323285     
   3018266656.8258791        13321886.483029485        1156798431.7434340     
   2967843068.6313686        50112374.885912299        1228444745.5572231     
   2886484396.1370707        39554179.417314887        1220636058.8200488     
   2805408549.1348257        29938735.588899612        1217273643.4148006     
   2724615527.6246386        21266043.400674105        1218357499.3414814     
   2644105331.6065087        13536102.852633476        1223887626.6000936     
   2546380017.4743595        54833254.728249311        1296127825.5007377     
   2475494670.2180009        40427955.119313478        1287940504.1277261     
   2405400897.1126451        28661236.013719559        1284251108.7151263     
   2336098698.1582937        19533097.411475778        1285059639.2629361     
   2267588073.3549485        13043539.312579870        1290366095.7711577     
   2121970694.6739314        58670253.077560902        1360826019.3502314     
   2061706257.3083189        40462124.724125147        1352853603.4434900     
   2002742142.7526591        26588405.737199426        1349430768.1256399     
   1945078351.0069501        17049096.116776586        1350557513.3966842     
   1888714882.0711954        11844195.862867713        1356233839.2566214     
   1694615100.2300861        61623369.933845818        1422539327.1057017     
   1645119157.4080274        39656688.231755376        1415375356.7673347     
   1597432286.0548687        23720244.759334743        1412812621.6463442     
   1551554486.1706092        13814039.516578257        1414851121.7427294     
   1507485757.7552528        9938072.5034988523        1421490857.0564907     
   3018266656.8258791        13321886.483029485        1156798431.7434340     
   2922308460.4909859        4681945.8711389303        1150288182.9526706     
   2827476128.7180729       -205112.86747705936        1148407694.5897644     
   2733769661.5071430       -1339289.7328253984        1151156966.6547229     
   2641189058.8581929        1279415.2751032114        1158535999.1475368     
   2644105331.6065087        13536102.852633476        1223887626.6000936     
   2560686101.5516458        6674617.0701643229        1217701965.4601455     
   2478132066.8684168        2697115.8598129749        1216121489.9163392     
   2396443227.5568204        1603599.2215626240        1219146199.9686787     
   2315619583.6168561        3394067.1554298401        1226776095.6171570     
   2267588073.3549485        13043539.312579870        1290366095.7711577     
   2196637595.7752085        7939444.2180669308        1284200908.2266178     
   2126291644.3767552        4850436.3945032358        1282616331.4465034     
   2056550219.1595831        3776515.8418813944        1285612365.4308140     
   1987413320.1236961        4717682.5602060556        1293189010.1795483     
   1888714882.0711954        11844195.862867713        1356233839.2566214     
   1830162943.1616697        8476427.3148310184        1349785011.2520854     
   1771954861.2430818        6254848.7365872860        1347892219.1802530     
   1714090636.3154297        5179460.1281228065        1350555463.0411301     
   1656570268.3787079        5250261.4894373417        1357774742.8347094     
   1507485757.7552528        9938072.5034988523        1421490857.0564907     
   1461262143.7110360        8285566.3604772687        1414454274.5365469     
   1415121717.4674044        6910352.8860739470        1411949153.1175926     
   1369064479.0243578        5812432.0802853703        1413975492.7996266     
   1323090428.3818944        4991803.9431142807        1420533293.5826490     
   2641189058.8581929        1279415.2751032114        1158535999.1475368     
   2537128270.0588202        1622279.0074146986        1150078320.1548207     
   2432711868.0619831        779765.41484057903        1146116743.0371332     
   2327939852.8676653       -1248125.5026609898        1146651267.7944810     
   2222812224.4758887       -4461393.7450369596        1151681894.4268601     
   2315619583.6168561        3394067.1554298401        1226776095.6171570     
   2223208739.4461455        2735927.1502984762        1217178761.2524137     
   2130610206.8028507        1452158.9032293558        1212277821.7433262     
   2037823985.6869731       -457237.58578443527        1212073277.0898919     
   1944850076.0985162       -2992262.3167283535        1216565127.2921140     
   1987413320.1236961        4717682.5602060556        1293189010.1795483     
   1907224686.2405632        3230218.5153092146        1282647932.6218185     
   1827016288.6097331        1676875.3114289045        1277003542.9003608     
   1746788127.2312095        57652.948567390442        1276255841.0151827     
   1666540202.1049960       -1627448.5732673407        1280404826.9662797     
   1656570268.3787079        5250261.4894373417        1357774742.8347094     
   1589176110.4420712        3105153.1024376154        1346485834.2630293     
   1521930113.4826300        1453914.6394262910        1340293906.5082443     
   1454832277.5003846        296546.10040247440        1339198959.5703573     
   1387882602.4953341       -366952.51464390755        1343200993.4493701     
   1323090428.3818944        4991803.9431142807        1420533293.5826490     
   1269063012.0506809        2360730.9117163420        1408692466.1760519     
   1215351681.4215412        783276.88723373413        1402148912.5669720     
   1161956436.4944921        259441.86971879005        1400902632.7554138     
   1108877277.2695200        789225.85912710428        1404953626.7413762     
   2222812224.4758887       -4461393.7450369596        1151681894.4268601     
   2142325819.2854304        411224.18252813816        1151499149.7225654     
   2062652292.7053254        7993437.4779310226        1156783342.3051350     
   1983791644.7355835        18285246.141213179        1167534472.1745794     
   1905743875.3761952        31286650.172341108        1183752539.3308952     
   1944850076.0985162       -2992262.3167283535        1216565127.2921140     
   1877824514.5549977        2926148.0459289551        1216691265.6964395     
   1811427694.6797523        10940363.969488502        1221463625.2111363     
   1745659616.4727755        21050385.453948140        1230882205.8361952     
   1680520279.9340684        33256212.499308527        1244947007.5716238     
   1666540202.1049960       -1627448.5732673407        1280404826.9662797     
   1610630580.8469768        4633283.2160605788        1280625022.0468023     
   1555165564.3151417        12376030.759334445        1284670722.0611849     
   1500145152.5094860        21600794.056538522        1292541927.0094273     
   1445569345.4300115        32307573.107681811        1304238636.8915327     
   1387882602.4953341       -366952.51464390755        1343200993.4493701     
   1340744018.1613665        5532629.6929216981        1343300418.7736452     
   1293865901.6114955        12300437.847469747        1346404632.8552775     
   1247248252.8457153        19936471.948991418        1352513635.6942639     
   1200891071.8640301        28440731.997495353        1361627427.2906075     
   1108877277.2695200        789225.85912710428        1404953626.7413762     
   1068164826.4981571        5624187.4764848351        1404717455.8769701     
   1027528706.5688107        10713585.233893514        1406665357.5934179     
   986968917.48145890        16057419.131286919        1410797331.8907154     
   946485459.23611593        21655689.168709040        1417113378.7688587     
   1905743875.3761952        31286650.172341108        1183752539.3308952     
   1786533289.5856433        32330265.305742621        1175235868.9872494     
   1666767664.3264599        31523748.877044737        1167738045.0831633     
   1546446999.5986443        28867100.886237383        1161259067.6186340     
   1425571295.4022028        24360321.333343446        1155798936.5936651     
   1680520279.9340684        33256212.499308527        1244947007.5716238     
   1565762468.4304585        30992410.842055917        1233570580.4706066     
   1450650144.1290467        27546899.858787239        1225363767.9485965     
   1335183307.0298276        22919679.549499810        1220326570.0055983     
   1219361957.1328013        17110749.914193809        1218458986.6415975     
   1445569345.4300115        32307573.107681811        1304238636.8915327     
   1341409360.0403485        28579870.207893252        1290236400.8157680     
   1237095388.5236990        24338880.218155742        1281554547.4584632     
   1132627430.8800697        19584603.138479710        1278193076.8196092     
   1028005487.1094586        14317038.968861818        1280151988.8992176     
   1200891071.8640301        28440731.997495353        1361627427.2906075     
   1113473964.4153047        25092643.403252900        1345233330.0227270     
   1026103397.5104167        21899689.955137372        1336310383.6127496     
   938779371.14937472        18861871.653178632        1334858588.0606887     
   851501885.33217120        15979188.497343093        1340877943.3665264     
   946485459.23611593        21655689.168709040        1417113378.7688587     
   881956281.55532658        20530730.428122401        1398561368.0914917     
   817674171.08920181        20229329.069754183        1389631276.4114771     
   753639127.83773458        20751485.093584388        1390323103.7288194     
   689851151.80094063        22097198.499648154        1400636850.0435154     
   1756021316.8155947        526806395.04467839        680066274.29744554     
   1784055728.6064827        500086313.39486176        806463729.15140414     
   1809161044.3008840        463602578.09008843        925765658.76657307     
   1831337263.8987980        417355189.13035798        1037972063.1429526     
   1850584387.4002249        361344146.51567024        1143082942.2805424     
   1326309042.4319046        397892712.72957140        669738601.24821687     
   1339558128.8426001        375519634.76252359        791884841.99610674     
   1350610393.1818597        345823816.55735582        908750126.07123005     
   1359465835.4496837        308805258.11406773        1020334453.4735869     
   1366124455.6460710        264463959.43265980        1126637824.2031765     
   890401398.16881049        267120419.45064312        662361691.92674434     
   894049640.81652200        250649689.65152672        781111038.26445854     
   896233335.41784835        229297133.03112704        896393996.49542916     
   896952481.97278965        203062749.58944410        1008210566.6196560     
   896207080.48134637        171946539.32647783        1116560748.6371384     
   448298384.02631181        134489515.20789355        657935546.33302772     
   447530264.52824712        125476478.06187092        774142317.95645928     
   446029871.00884867        114022527.51140204        888697270.03916967     
   443797203.46811610        100127663.55648619        1001600402.5811594     
   440832261.90604973        83791886.197124690        1112851715.5824285     
   4.4090761261774908E-003   1.3227228378532474E-003   656460164.46706724     
  -2.2223546263317944E-002  -6.4437008842286097E-003   770978681.07210875     
  -4.5138852591617089E-002  -1.8196782222060868E-003   885659946.70245266     
  -6.4337206006876174E-002   1.5194577796065388E-002   1000503961.3580983     
  -7.9818340581705199E-002   4.4599563282437041E-002   1115510725.0390453     
   1850584387.4002249        361344146.51567024        1143082942.2805424     
   1835250886.1721170        295646428.33592659        1190613390.0131197     
   1823299785.5594881        241223378.87444389        1240385877.6553299     
   1814731085.5623372        198074998.13122272        1292400405.2071722     
   1809544786.1806648        166201286.10626340        1346656972.6686466     
   1366124455.6460710        264463959.43265980        1126637824.2031765     
   1360330311.0377378        216902465.19736370        1182045336.2166991     
   1357072966.8882220        177796972.49145892        1238363492.5024662     
   1356352423.1975236        147147481.31494629        1295592293.0604775     
   1358168679.9656425        124953991.66782314        1353731737.8907332     
   896207080.48134637        171946539.32647783        1116560748.6371384     
   896148304.95739281        141380072.77501160        1178858791.4155018     
   897780729.73559546        116450940.56406659        1240736082.8287208     
   901104354.81595433        97159142.693642199        1302192622.8767965     
   906119180.19847023        83504679.163739771        1363228411.5597279     
   440832261.90604973        83791886.197124690        1112851715.5824285     
   442704867.93108118        69079251.068869740        1181053755.6095273     
   445423074.10160798        57185283.092265531        1247503648.6340942     
   448986880.41763020        48109982.267312929        1312201394.6561298     
   453396286.87914699        41853348.594009206        1375146993.6756327     
  -7.9818340581705199E-002   4.4599563282437041E-002   1115510725.0390453     
  -4.1196510488664524E-002   7.8937600503766900E-002   1188630228.7987759     
  -1.3740270940263078E-002   7.6056568895430332E-002   1258666189.9185863     
   2.5499841764241599E-003   3.5955459077119022E-002   1325618608.3984771     
   7.6745386602515720E-003  -4.1363958961334636E-002   1389487484.2384472     
   1809544786.1806648        166201286.10626340        1346656972.6686466     
   1778917643.3160548        133741069.13993990        1364313122.7127023     
   1749553648.0360878        105491344.12242877        1382845565.1335633     
   1721452800.3407650        81452111.053732514        1402254299.9312298     
   1694615100.2300861        61623369.933845818        1422539327.1057017     
   1358168679.9656425        124953991.66782314        1353731737.8907332     
   1332772023.9640136        99880939.284108937        1372724731.5544868     
   1308322728.6646647        77965755.907993555        1393160153.9862039     
   1284820794.0675972        59208441.539480269        1415038005.1858835     
   1262266220.1728082        43608996.178566158        1438358285.1535275     
   906119180.19847023        83504679.163739771        1363228411.5597279     
   887570543.60598707        66304051.126480162        1383189830.8137569     
   869653480.83342099        51208669.155611068        1405159815.2269065     
   852367991.88077211        38218533.251130879        1429138364.7991767     
   835714076.74803913        27333643.413038403        1455125479.5305676     
   453396286.87914699        41853348.594009206        1375146993.6756327     
   443313202.24197572        33010404.667058274        1395708420.4905114     
   433545904.54235721        25220083.865282223        1418844548.8556695     
   424094393.78029239        18482386.188685954        1444555378.7711053     
   414958669.95578009        12797311.637264103        1472840910.2368197     
   7.6745386602515720E-003  -4.1363958961334636E-002   1389487484.2384472     
 -0.12802147162884234       -9.4162258118962297E-002   1410280500.5847521     
 -0.20852677414477155        3.7008468633959027E-002   1434214354.8724933     
 -0.23384339622645559       0.35214155023720495        1461289047.1016705     
 -0.20396985382749205       0.85124167330359490        1491504577.2722847     
   1694615100.2300861        61623369.933845818        1422539327.1057017     
   1645119157.4080274        39656688.231755376        1415375356.7673347     
   1597432286.0548687        23720244.759334743        1412812621.6463442     
   1551554486.1706092        13814039.516578257        1414851121.7427294     
   1507485757.7552528        9938072.5034988523        1421490857.0564907     
   1262266220.1728082        43608996.178566158        1438358285.1535275     
   1226163543.5626717        27439769.178466201        1434951017.0240808     
   1191417670.5417376        15793220.809041202        1435907151.9859688     
   1158028601.1100075        8669351.0702953935        1441226690.0391943     
   1125996335.2674787        6068159.9622227550        1450909631.1837573     
   835714076.74803913        27333643.413038403        1455125479.5305676     
   812325145.98971117        16758015.006891131        1454947267.7503927     
   789840750.94088995        9197505.6324328184        1458894626.9355149     
   768260891.60157359        4652115.2896570265        1466967557.0859330     
   747585567.97176337        3121843.9785684347        1479166058.2016485     
   414958669.95578009        12797311.637264103        1472840910.2368197     
   403603964.68914896        7611425.7170393914        1475364108.9462695     
   392701527.25232691        3933099.2295105755        1481775046.4949780     
   382251357.64531088        1762332.1746688038        1492073722.8829422     
   372253455.86810613        1099124.5525319129        1506260138.1101642     
 -0.20396985382749205       0.85124167330359490        1491504577.2722847     
 -0.33901693265856608        1.3089061313746826        1496201540.6117136     
 -0.52395375126491484        1.6002707629721304        1504548410.6643600     
 -0.75877977779175831        1.7253378613622483        1516545187.4302235     
  -1.0434949150183304        1.6841089649206900        1532191870.9093039     
   1507485757.7552528        9938072.5034988523        1421490857.0564907     
   1461262143.7110360        8285566.3604772687        1414454274.5365469     
   1415121717.4674044        6910352.8860739470        1411949153.1175926     
   1369064479.0243578        5812432.0802853703        1413975492.7996266     
   1323090428.3818944        4991803.9431142807        1420533293.5826490     
   1125996335.2674787        6068159.9622227550        1450909631.1837573     
   1091616948.8804371        4915277.5842583776        1445001861.0371144     
   1057299953.3394400        3970364.6931111217        1443558276.3492208     
   1023045348.6444845        3233421.2887697220        1446578877.1200755     
   988853134.79557717        2704447.3712528944        1454063663.3496802     
   747585567.97176337        3121843.9785684347        1479166058.2016485     
   724858193.12121165        2410920.5294578671        1474362837.3146758     
   702172412.16216147        1838643.3853505254        1473956526.2442110     
   679528225.09461689        1405012.5462623537        1477947124.9902551     
   656925631.91857386        1110028.0121806264        1486334633.5528088     
   372253455.86810613        1099124.5525319129        1506260138.1101642     
   360985876.43335742        772495.19606387615        1502537203.3692310     
   349739093.93557173        515188.96280491352        1503143902.8025649     
   338513108.37474614        327205.85274745524        1508080236.4101698     
   327307919.75088507        208545.86590361595        1517346204.1920419     
  -1.0434949150183304        1.6841089649206900        1532191870.9093039     
  -1.1831242945055402        1.5840833223900308        1529524959.2007778     
  -1.3403351231098284        1.4254521555797199        1531120406.0242796     
  -1.5151203666228146        1.2082399526851111        1536978211.3798108     
  -1.7074874938868925       0.93242147062019554        1547098375.2673712     
   1323090428.3818944        4991803.9431142807        1420533293.5826490     
   1269063012.0506809        2360730.9117163420        1408692466.1760519     
   1215351681.4215412        783276.88723373413        1402148912.5669720     
   1161956436.4944921        259441.86971879005        1400902632.7554138     
   1108877277.2695200        789225.85912710428        1404953626.7413762     
   988853134.79557717        2704447.3712528944        1454063663.3496802     
   948714485.90861475        845716.56813162565        1443309376.9450696     
   908812901.31350219       -222799.92881953716        1437763251.1858342     
   869148381.01024950       -501102.11957585812        1437425286.0719795     
   829720924.99884963        10809.995846629143        1442295481.6035042     
   656925631.91857386        1110028.0121806264        1486334633.5528088     
   630421141.46974850       -52743.264486432076        1476574696.5049181     
   604074693.90254736       -688704.93574053049        1471933806.9502635     
   577886289.21697402       -797857.00156697631        1472411964.8888493     
   551855927.41302419       -380199.46198374033        1478009170.3206713     
   327307919.75088507        208545.86590361595        1517346204.1920419     
   314182978.73407835       -334648.58615233004        1508488424.8556023     
   301137059.18867242       -614438.13353607059        1504660579.8602593     
   288170161.11465925       -630822.77627985179        1505862669.2060146     
   275282284.51204532       -383802.51435846090        1512094692.8928645     
  -1.7074874938868925       0.93242147062019554        1547098375.2673712     
  -2.2983884941783086       0.60315941801553763        1539050561.9971180     
  -2.8281234268376334       0.47778460446254534        1535943569.9158211     
  -3.2966903703250168       0.55630239425996786        1537777399.0234799     
  -3.7040874946025060       0.83872062225778965        1544552049.3200932     
   1108877277.2695200        789225.85912710428        1404953626.7413762     
   1068164826.4981571        5624187.4764848351        1404717455.8769701     
   1027528706.5688107        10713585.233893514        1406665357.5934179     
   986968917.48145890        16057419.131286919        1410797331.8907154     
   946485459.23611593        21655689.168709040        1417113378.7688587     
   829720924.99884963        10809.995846629143        1442295481.6035042     
   795179323.30464494        2434852.5151194632        1443056719.9324419     
   760694969.91773188        5049722.7253620923        1446937058.6086681     
   726267864.83810544        7855420.6265608072        1453936497.6321881     
   691898008.06576991        10851946.218729973        1464055037.0029972     
   551855927.41302419       -380199.46198374033        1478009170.3206713     
   526156682.70009595        434376.33043557405        1479745554.8857751     
   500495603.75974447        1376171.3647779524        1485536067.5646110     
   474872690.59195811        2445185.6410032511        1495380708.3571820     
   449287943.19674718        3641419.1591478586        1509279477.2634850     
   275282284.51204532       -383802.51435846090        1512094692.8928645     
   261096904.68451190       -377241.07756005228        1514783960.7369680     
   246930608.09483528       -307068.84790430963        1522462384.4612451     
   232783394.74301553       -173285.82539288700        1535129964.0656979     
   218655264.62904927        24107.989963233471        1552786699.5503254     
  -3.7040874946025060       0.83872062225778965        1544552049.3200932     
  -10.742104550198871       0.29114124115211215        1548171937.4860237     
  -17.076979894273045        2.0873682590097999        1557716009.2985725     
  -22.708725536449087        6.2273606029165549        1573184264.7577391     
  -27.637326493291269        12.711168564602861        1594576703.8635201     
   946485459.23611593        21655689.168709040        1417113378.7688587     
   881956281.55532658        20530730.428122401        1398561368.0914917     
   817674171.08920181        20229329.069754183        1389631276.4114771     
   753639127.83773458        20751485.093584388        1390323103.7288194     
   689851151.80094063        22097198.499648154        1400636850.0435154     
   691898008.06576991        10851946.218729973        1464055037.0029972     
   650893211.86052322        12225848.735552847        1449084913.2500310     
   610073711.58174407        14217404.340595335        1442011888.2676561     
   569439507.22942555        16826613.033840895        1442835962.0558589     
   528990598.80357337        20053474.815311521        1451557134.6146510     
   449287943.19674718        3641419.1591478586        1509279477.2634850     
   426879470.67627209        6035765.5961406231        1497819173.9320247     
   404594522.79406631        8841860.8273663670        1492531149.1443813     
   382433099.55012017        12059704.852793276        1493415402.9005530     
   360395200.94444698        15689297.672453851        1500471935.2005370     
   218655264.62904927        24107.989963233471        1552786699.5503254     
   209915058.00257751        1960481.0099095330        1544764150.1374743     
   201236604.72616857        4102698.5300668105        1541189059.0416665     
   192619904.79982999        6450760.5504594892        1542061426.2628996     
   184064958.22355491        9004667.0710631385        1547381251.8011839     
  -27.637326493291269        12.711168564602861        1594576703.8635201     
  -26.160570596236660       -5.0231742757985245        1589919841.8663709     
  -42.621944343864719       -82.551283986254219        1587985617.9595056     
  -77.021457092244461       -219.87319001893758        1588774032.1429024     
  -129.35909797552557       -416.98885580740267        1592285084.4165781     
   4.4090761261774908E-003   1.3227228378532474E-003   656460164.46706724     
  -2.2223546263317944E-002  -6.4437008842286097E-003   770978681.07210875     
  -4.5138852591617089E-002  -1.8196782222060868E-003   885659946.70245266     
  -6.4337206006876174E-002   1.5194577796065388E-002   1000503961.3580983     
  -7.9818340581705199E-002   4.4599563282437041E-002   1115510725.0390453     
  -448298384.02210373       -134489515.20663112        657935546.33032751     
  -447530264.57215565       -125476478.07075429        774142317.95911241     
  -446029871.09592754       -114022527.51394384        888697270.04989362     
  -443797203.59341937       -100127663.53619996        1001600402.6026711     
  -440832262.06463122       -83791886.137522757        1112851715.6174448     
  -890401398.17843211       -267120419.45352963        662361691.92427313     
  -894049640.86134851       -250649689.65684301        781111038.26979160     
  -896233335.49542153       -229297133.03067952        896393996.51400077     
  -896952482.08065176       -203062749.57503968        1008210566.6569002     
  -896207080.61703908       -171946539.28992295        1116560748.6984901     
  -1326309042.4645762       -397892712.73937291        669738601.24890411     
  -1339558128.8898013       -375519634.76470977        791884842.00414622     
  -1350610393.2436209       -345823816.55202681        908750126.09477293     
  -1359465835.5260346       -308805258.10132450        1020334453.5207847     
  -1366124455.7370412       -264463959.41260141        1126637824.2821815     
  -1756021316.8805361       -526806395.06416082        680066274.30422056     
  -1784055728.6575153       -500086313.39435494        806463729.16217625     
  -1809161044.3405256       -463602578.07798576        925765658.79221106     
  -1831337263.9295669       -417355189.11505389        1037972063.1943252     
  -1850584387.4246392       -361344146.50555909        1143082942.3685181     
  -7.9818340581705199E-002   4.4599563282437041E-002   1115510725.0390453     
  -4.1196510488664524E-002   7.8937600503766900E-002   1188630228.7987759     
  -1.3740270940263078E-002   7.6056568895430332E-002   1258666189.9185863     
   2.5499841764241599E-003   3.5955459077119022E-002   1325618608.3984771     
   7.6745386602515720E-003  -4.1363958961334636E-002   1389487484.2384472     
  -440832262.06463122       -83791886.137522757        1112851715.6174448     
  -442704868.02281880       -69079250.954971701        1181053755.6281424     
  -445423074.14137453       -57185282.973647192        1247503648.6316259     
  -448986880.42029852       -48109982.193550944        1312201394.6278968     
  -453396286.85959113       -41853348.614683002        1375146993.6169536     
  -896207080.61703908       -171946539.28992295        1116560748.6984901     
  -896148305.05001736       -141380072.70255330        1178858791.4527519     
  -897780729.79256654       -116450940.48041990        1240736082.8325064     
  -901104354.84468567       -97159142.623520374        1302192622.8377542     
  -906119180.20637608       -83504679.131857187        1363228411.4684954     
  -1366124455.7370412       -264463959.41260141        1126637824.2821815     
  -1360330311.1227915       -216902465.16380763        1182045336.2726040     
  -1357072966.9673147       -177796972.44425809        1238363492.5212269     
  -1356352423.2706110       -147147481.25395119        1295592293.0280492     
  -1358168680.0326800       -124953991.59288704        1353731737.7930720     
  -1850584387.4246392       -361344146.50555909        1143082942.3685181     
  -1835250886.2411418       -295646428.33873528        1190613390.0876994     
  -1823299785.6656208       -241223378.86516494        1240385877.6977880     
  -1814731085.6980739       -198074998.08484304        1292400405.1987824     
  -1809544786.3385029       -166201285.99777287        1346656972.5906835     
   7.6745386602515720E-003  -4.1363958961334636E-002   1389487484.2384472     
 -0.12802147162884234       -9.4162258118962297E-002   1410280500.5847521     
 -0.20852677414477155        3.7008468633959027E-002   1434214354.8724933     
 -0.23384339622645559       0.35214155023720495        1461289047.1016705     
 -0.20396985382749205       0.85124167330359490        1491504577.2722847     
  -453396286.85959113       -41853348.614683002        1375146993.6169536     
  -443313202.46843028       -33010404.772447288        1395708420.5358522     
  -433545904.94048649       -25220083.807601258        1418844549.0197346     
  -424094394.27575904       -18482385.720143557        1444555379.0686016     
  -414958670.47424877       -12797310.510075346        1472840910.6824527     
  -906119180.20637608       -83504679.131857187        1363228411.4684954     
  -887570543.79250801       -66304051.145835727        1383189830.8885133     
  -869653481.16026306       -51208669.098556817        1405159815.4970629     
  -852367992.30964136       -38218532.990022004        1429138365.2941451     
  -835714077.24064183       -27333642.820229620        1455125480.2797589     
  -1358168680.0326800       -124953991.59288704        1353731737.7930720     
  -1332772024.1002538       -99880939.214324415        1372724731.6427352     
  -1308322728.8678572       -77965755.835858881        1393160154.3044782     
  -1284820794.3354888       -59208441.457489133        1415038005.7783020     
  -1262266220.5031495       -43608996.079215109        1438358286.0642049     
  -1809544786.3385029       -166201285.99777287        1346656972.5906835     
  -1778917643.3916669       -133741068.97791153        1364313122.7985179     
  -1749553648.0632658       -105491344.01950222        1382845565.4419806     
  -1721452800.3533015       -81452111.122544587        1402254300.5210707     
  -1694615100.2617717       -61623370.287038982        1422539328.0357895     
 -0.20396985382749205       0.85124167330359490        1491504577.2722847     
 -0.33901693265856608        1.3089061313746826        1496201540.6117136     
 -0.52395375126491484        1.6002707629721304        1504548410.6643600     
 -0.75877977779175831        1.7253378613622483        1516545187.4302235     
  -1.0434949150183304        1.6841089649206900        1532191870.9093039     
  -414958670.47424877       -12797310.510075346        1472840910.6824527     
  -403603965.54252279       -7611424.0027209669        1475364109.3594987     
  -392701528.50039971       -3933097.1273755282        1481775046.9016843     
  -382251359.34787863       -1762329.8840374351        1492073723.3090112     
  -372253458.08496433       -1099122.2727212757        1506260138.5814800     
  -835714077.24064183       -27333642.820229620        1455125480.2797589     
  -812325146.80807579       -16758014.132957846        1454947268.4814212     
  -789840752.10482836       -9197504.5434150696        1458894627.7001481     
  -768260893.13089824       -4652114.0515964329        1466967557.9359393     
  -747585569.88628674       -3121842.6575065553        1479166059.1887915     
  -1262266220.5031495       -43608996.079215109        1438358286.0642049     
  -1226163544.1356802       -27439769.081813931        1434951017.9774849     
  -1191417671.3372407       -15793220.647848845        1435907153.0597515     
  -1158028602.1078360       -8669350.7773330212        1441226691.3110039     
  -1125996336.4474607       -6068159.4702461958        1450909632.7312434     
  -1694615100.2617717       -61623370.287038982        1422539328.0357895     
  -1645119157.5253317       -39656688.849282146        1415375357.8476865     
  -1597432286.1976373       -23720245.440681875        1412812622.9804931     
  -1551554486.2786899       -13814040.061232865        1414851123.4342089     
  -1507485757.7684903       -9938072.7109473944        1421490859.2088351     
  -1.0434949150183304        1.6841089649206900        1532191870.9093039     
  -1.1831242945055402        1.5840833223900308        1529524959.2007778     
  -1.3403351231098284        1.4254521555797199        1531120406.0242796     
  -1.5151203666228146        1.2082399526851111        1536978211.3798108     
  -1.7074874938868925       0.93242147062019554        1547098375.2673712     
  -372253458.08496433       -1099122.2727212757        1506260138.5814800     
  -360985878.90929520       -772492.98524847627        1502537203.9470036     
  -349739096.69963890       -515186.91781744361        1503143903.4720764     
  -338513111.45598614       -327204.07039749622        1508080237.1566949     
  -327307923.17834485       -208544.44301806390        1517346205.0008636     
  -747585569.88628674       -3121842.6575065553        1479166059.1887915     
  -724858195.31669629       -2410919.1589535177        1474362838.5218661     
  -702172414.66154456       -1838642.0418623984        1473956527.6420081     
  -679528227.92083085       -1405011.3062319160        1477947126.5492151     
  -656925635.09455800       -1110026.9520693719        1486334635.2434886     
  -1125996336.4474607       -6068159.4702461958        1450909632.7312434     
  -1091616950.4053233       -4915276.9370208383        1445001862.9253676     
  -1057299955.2260545       -3970363.9466946125        1443558278.5340741     
  -1023045350.9096556       -3233420.4992636442        1446578879.5573642     
  -988853137.45612335       -2704446.5947255492        1454063665.9952419     
  -1507485757.7684903       -9938072.7109473944        1421490859.2088351     
  -1461262144.1751802       -8285566.3194638491        1414454277.1575029     
  -1415121718.3931663       -6910352.6323002577        1411949156.1482747     
  -1369064480.4224553       -5812431.6494786739        1413975496.1811492     
  -1323090430.2630422       -4991803.3709843755        1420533297.2561285     
  -1.7074874938868925       0.93242147062019554        1547098375.2673712     
  -2.2983884941783086       0.60315941801553763        1539050561.9971180     
  -2.8281234268376334       0.47778460446254534        1535943569.9158211     
  -3.2966903703250168       0.55630239425996786        1537777399.0234799     
  -3.7040874946025060       0.83872062225778965        1544552049.3200932     
  -327307923.17834485       -208544.44301806390        1517346205.0008636     
  -314182983.22794360        334649.45912602544        1508488425.8868198     
  -301137064.70300335        614438.60973235965        1504660581.1775744     
  -288170167.60352808        630823.00878891349        1505862670.8731301     
  -275282291.92951000        383802.65632383525        1512094694.9734824     
  -656925635.09455800       -1110026.9520693719        1486334635.2434886     
  -630421145.41472960        52743.937921732664        1476574698.5512531     
  -604074698.64699256        688705.12094110250        1471933809.4796600     
  -577886294.79134727        797856.59698775411        1472411968.0287085     
  -551855933.84779131        380198.36606940627        1478009174.1983998     
  -988853137.45612335       -2704446.5947255492        1454063665.9952419     
  -948714488.85874474       -845715.96045053005        1443309379.9904146     
  -908812904.66008556        222800.01142686605        1437763254.8220708     
  -869148384.86014986        501101.32089149952        1437425290.4902127     
  -829720929.45893288       -10812.032041490078        1442295486.9948401     
  -1323090430.2630422       -4991803.3709843755        1420533297.2561285     
  -1269063013.5599904       -2360730.2359902263        1408692470.2043066     
  -1215351682.7422884       -783276.71882957220        1402148917.2048120     
  -1161956437.8099353       -259442.81949937344        1400902638.2576478     
  -1108877278.7629354       -789228.53801059723        1404953633.3628089     
  -3.7040874946025060       0.83872062225778965        1544552049.3200932     
  -10.742104550198871       0.29114124115211215        1548171937.4860237     
  -17.076979894273045        2.0873682590097999        1557716009.2985725     
  -22.708725536449087        6.2273606029165549        1573184264.7577391     
  -27.637326493291269        12.711168564602861        1594576703.8635201     
  -275282291.92951000        383802.65632383525        1512094694.9734824     
  -261096925.37372789        377238.84162434936        1514783964.9601283     
  -246930641.16836134        307067.19220824540        1522462391.7416420     
  -232783439.31341672        173287.70805305243        1535129975.3180311     
  -218655319.80888656       -24099.610818833113        1552786715.6892886     
  -551855933.84779131        380198.36606940627        1478009174.1983998     
  -526156698.98891157       -434380.30295568705        1479745562.4432757     
  -500495629.53400326       -1376176.9852198958        1485536080.6312752     
  -474872725.48306990       -2445191.6807330847        1495380728.7624021     
  -449287986.83610904       -3641424.3894882798        1509279506.8366532     
  -829720929.45893288       -10812.032041490078        1442295486.9948401     
  -795179331.58765793       -2434857.1426053047        1443056729.9354670     
  -760694982.17391205       -5049730.4449348152        1446937075.9674726     
  -726267881.21768928       -7855431.9390074313        1453936525.0908599     
  -691898028.71899951       -10851961.624856472        1464055077.3056235     
  -1108877278.7629354       -789228.53801059723        1404953633.3628089     
  -1068164823.1699668       -5624191.6773253679        1404717467.4367042     
  -1027528699.0880828       -10713593.186922431        1406665377.7502337     
  -986968906.51727760       -16057433.066781819        1410797364.3033953     
  -946485445.45756197       -21655711.316939592        1417113427.0961933     
  -27.637326493291269        12.711168564602861        1594576703.8635201     
  -26.160570596236660       -5.0231742757985245        1589919841.8663709     
  -42.621944343864719       -82.551283986254219        1587985617.9595056     
  -77.021457092244461       -219.87319001893758        1588774032.1429024     
  -129.35909797552557       -416.98885580740267        1592285084.4165781     
  -218655319.80888656       -24099.610818833113        1552786715.6892886     
  -209915107.47039336       -1960496.6191667169        1544764134.9650381     
  -201236672.69774207       -4102818.8469880149        1541189012.0304682     
  -192620015.49093658       -6451066.2942947298        1542061346.8855710     
  -184065135.84997317       -9005238.9610732421        1547381139.5303614     
  -449287986.83610904       -3641424.3894882798        1509279506.8366532     
  -426879507.35186774       -6035783.7866363078        1497819154.4863074     
  -404594565.06118238       -8841933.8289715201        1492531079.6250436     
  -382433159.96405268       -12059874.516493738        1493415282.2528605     
  -360395292.06047618       -15689605.849192306        1500471762.3697615     
  -691898028.71899951       -10851961.624856472        1464055077.3056235     
  -650893225.80500364       -12225866.525616884        1449084900.4301836     
  -610073719.71227324       -14217427.497260153        1442011820.7432299     
  -569439510.44080639       -16826644.539785743        1442835838.2447567     
  -528990597.99060601       -20053517.653196126        1451556952.9347782     
  -946485445.45756197       -21655711.316939592        1417113427.0961933     
  -881956262.82979345       -20530744.836083621        1398561372.7966640     
  -817674136.65100563       -20229299.851829588        1389631235.3850269     
  -753639066.92119622       -20751376.364168942        1390323014.8612747     
  -689851053.64035738       -22096974.373079747        1400636711.2254148     
  -1756021316.8805361       -526806395.06416082        680066274.30422056     
  -1784055728.6575153       -500086313.39435494        806463729.16217625     
  -1809161044.3405256       -463602578.07798576        925765658.79221106     
  -1831337263.9295669       -417355189.11505389        1037972063.1943252     
  -1850584387.4246392       -361344146.50555909        1143082942.3685181     
  -2201748285.0157285       -660524485.50471854        696449556.46920919     
  -2238355655.4339099       -613901732.64185619        813871003.01019549     
  -2272919175.6164274       -560466145.66011739        927200467.08747268     
  -2305438845.5632820       -500217724.55950141        1036437948.7010417     
  -2335914665.2744746       -433156469.34000921        1141583447.8509014     
  -2685700010.4595709       -805710003.13787127        721993293.12285721     
  -2722298788.7640619       -736610113.85548520        829405944.51218414     
  -2757738962.6911960       -663648209.98190856        935730156.20201373     
  -2792020532.2409720       -586824291.51714134        1040965928.1923468     
  -2825143497.4133921       -506138358.46118391        1145113260.4831829     
  -3207876493.2120619       -962362947.96361864        756697484.26516438     
  -3235885128.6479716       -868211457.03524113        853068553.66814125     
  -3263620405.5648313       -773148771.04336011        951354726.13583362     
  -3291082323.9626384       -677174889.98797441        1051556001.6682407     
  -3318270883.8413954       -580289813.86908484        1153672380.2653630     
  -3768277733.2732029       -1130483319.9819610        800562129.89613092     
  -3779114675.0856404       -1008705762.1811250        884858830.47806787     
  -3790563504.2373323       -888967828.84447122        974074176.88893211     
  -3802624220.7282791       -771269519.97199941        1068208169.1287231     
  -3815296824.5584807       -655610835.56370962        1167260807.1974418     
  -1850584387.4246392       -361344146.50555909        1143082942.3685181     
  -1835250886.2411418       -295646428.33873528        1190613390.0876994     
  -1823299785.6656208       -241223378.86516494        1240385877.6977880     
  -1814731085.6980739       -198074998.08484304        1292400405.1987824     
  -1809544786.3385029       -166201285.99777287        1346656972.5906835     
  -2335914665.2744746       -433156469.34000921        1141583447.8509014     
  -2312457784.4732547       -352119374.60831183        1182848816.3807752     
  -2292497921.3636441       -282739005.51531315        1224581042.4414811     
  -2276035075.9456434       -225015362.06101233        1266780126.0330193     
  -2263069248.2192521       -178948444.24540949        1309446067.1553898     
  -2825143497.4133921       -506138358.46118391        1145113260.4831829     
  -2798635186.5946622       -411283472.04467583        1179979829.8928425     
  -2775738510.5511761       -328467368.21231437        1213538074.4732602     
  -2756453469.2829332       -257690046.96409726        1245787994.2244356     
  -2740780062.7899351       -198951508.30002654        1276729589.1463692     
  -3318270883.8413954       -580289813.86908484        1153672380.2653630     
  -3293783092.6053672       -473138720.64782989        1182006430.6239021     
  -3273021553.2282176       -378408466.95616746        1207256973.7931242     
  -3255986265.7099447       -296099052.79409862        1229424009.7730300     
  -3242677230.0505509       -226210478.16162324        1248507538.5636191     
  -3815296824.5584807       -655610835.56370962        1167260807.1974418     
  -3797901502.5053673       -537685120.41777194        1188928618.5739532     
  -3784347049.3947668       -432562301.74687481        1205737740.4010737     
  -3774633465.2266784       -340242379.55101645        1217688172.6788037     
  -3768760750.0011015       -260725353.83020043        1224779915.4071424     
  -1809544786.3385029       -166201285.99777287        1346656972.5906835     
  -1778917643.3916669       -133741068.97791153        1364313122.7985179     
  -1749553648.0632658       -105491344.01950222        1382845565.4419806     
  -1721452800.3533015       -81452111.122544587        1402254300.5210707     
  -1694615100.2617717       -61623370.287038982        1422539328.0357895     
  -2263069248.2192521       -178948444.24540949        1309446067.1553898     
  -2223495823.2446799       -134549608.22185850        1317415459.8083386     
  -2186788255.9410310       -99703631.101384044        1328635249.5076816     
  -2152946546.3083038       -74410512.883985996        1343105436.2534194     
  -2121970694.3465011       -58670253.569663525        1360826020.0455518     
  -2740780062.7899351       -198951508.30002654        1276729589.1463692     
  -2685477199.7568655       -140579106.46355748        1273142395.8498631     
  -2634642904.4472065       -97101930.371791482        1275179704.2105186     
  -2588277176.8609571       -68519980.024724364        1282841514.2283344     
  -2546380016.9981189       -54833255.422357678        1296127825.9033124     
  -3242677230.0505509       -226210478.16162324        1248507538.5636191     
  -3164861772.9282231       -151829563.70301080        1231493930.9230909     
  -3093117593.5817938       -97686241.830722451        1222478929.5504901     
  -3027444692.0112596       -63780512.544757366        1221462534.4458163     
  -2967843068.2166243       -50112375.845116377        1228444745.6090710     
  -3768760750.0011015       -260725353.83020043        1224779915.4071424     
  -3661649542.7587533       -168300979.94020998        1192470065.0280221     
  -3562212323.3447900       -101456565.47817361        1170532925.5275967     
  -3470449091.7592130       -60192110.444083452        1158968496.9058645     
  -3386359848.0020185       -44507614.837943554        1157776779.1628265     
  -1694615100.2617717       -61623370.287038982        1422539328.0357895     
  -1645119157.5253317       -39656688.849282146        1415375357.8476865     
  -1597432286.1976373       -23720245.440681875        1412812622.9804931     
  -1551554486.2786899       -13814040.061232865        1414851123.4342089     
  -1507485757.7684903       -9938072.7109473944        1421490859.2088351     
  -2121970694.3465011       -58670253.569663525        1360826020.0455518     
  -2061706256.8631918       -40462125.560797215        1352853604.2732294     
  -2002742142.1234076       -26588406.697005153        1349430769.1611769     
  -1945078350.1271462       -17049096.978289247        1350557514.7093959     
  -1888714880.8744049       -11844196.404647112        1356233840.9178851     
  -2546380016.9981189       -54833255.422357678        1296127825.9033124     
  -2475494669.5126257       -40427956.265785098        1287940504.6561978     
  -2405400896.1054301       -28661237.370207429        1284251109.4087145     
  -2336098696.7765326       -19533098.735623121        1285059640.1608648     
  -2267588071.5259342       -13043540.362035394        1290366096.9126480     
  -2967843068.2166243       -50112375.845116377        1228444745.6090710     
  -2886484395.4736252       -39554180.964242578        1220636058.9965911     
  -2805408548.1437011       -29938737.460282564        1217273643.7231061     
  -2724615526.2268500       -21266045.333233833        1218357499.7886155     
  -2644105329.7230740       -13536104.583104014        1223887627.1931183     
  -3386359848.0020185       -44507614.837943554        1157776779.1628265     
  -3294675434.7461948       -37840799.656171322        1150940267.2944114     
  -3202765098.2382231       -30420906.967231631        1148498372.1043525     
  -3110628838.4781022       -22247936.771131158        1150451093.5926485     
  -3018266655.4658303       -13321889.067859173        1156798431.7593000     
  -1507485757.7684903       -9938072.7109473944        1421490859.2088351     
  -1461262144.1751802       -8285566.3194638491        1414454277.1575029     
  -1415121718.3931663       -6910352.6323002577        1411949156.1482747     
  -1369064480.4224553       -5812431.6494786739        1413975496.1811492     
  -1323090430.2630422       -4991803.3709843755        1420533297.2561285     
  -1888714880.8744049       -11844196.404647112        1356233840.9178851     
  -1830162942.5330224       -8476427.6869606972        1349785013.2020273     
  -1771954861.1728685       -6254848.9067039490        1347892221.4057684     
  -1714090636.7939472       -5179460.0638886690        1350555465.5291071     
  -1656570269.3962586       -5250261.1585147381        1357774745.5720441     
  -2267588071.5259342       -13043540.362035394        1290366096.9126480     
  -2196637594.5007768       -7939445.1374311447        1284200909.5006754     
  -2126291643.6267805       -4850437.0833690166        1282616332.8857965     
  -2056550218.9039497       -3776516.1998568773        1285612367.0680130     
  -1987413320.3322799       -4717682.4868799448        1293189012.0473199     
  -2644105329.7230740       -13536104.583104014        1223887627.1931183     
  -2560686100.0784421       -6674618.6708742380        1217701966.0534446     
  -2478132065.7549047       -2697117.1622952223        1216121490.5883613     
  -2396443226.7524648       -1603600.0573730469        1219146200.7978644     
  -2315619583.0711184       -3394067.3560918570        1226776096.6819601     
  -3018266655.4658303       -13321889.067859173        1156798431.7593000     
  -2922308459.2660208       -4681948.2872927189        1150288182.8603382     
  -2827476127.5572433        205110.85650599003        1148407694.5134604     
  -2733769660.3394895        1339288.3635544777        1151156966.7186658     
  -2641189057.6127605       -1279415.7661451101        1158535999.4759562     
  -1323090430.2630422       -4991803.3709843755        1420533297.2561285     
  -1269063013.5599904       -2360730.2359902263        1408692470.2043066     
  -1215351682.7422884       -783276.71882957220        1402148917.2048120     
  -1161956437.8099353       -259442.81949937344        1400902638.2576478     
  -1108877278.7629354       -789228.53801059723        1404953633.3628089     
  -1656570269.3962586       -5250261.1585147381        1357774745.5720441     
  -1589176110.5011916       -3105152.3355774879        1346485837.0482149     
  -1521930112.7776389       -1453914.0843494534        1340293909.4610040     
  -1454832276.2255931       -296546.40481531620        1339198962.8104134     
  -1387882600.8450594        366950.70300984383        1343200997.0964379     
  -1987413320.3322799       -4717682.4868799448        1293189012.0473199     
  -1907224685.2900910       -3230217.7894852161        1282647934.2176318     
  -1827016286.7055681       -1676874.6176466942        1277003544.2088537     
  -1746788124.5787151       -57652.971374154091        1276255842.0209827     
  -1666540198.9095309        1627447.1493377686        1280404827.6540213     
  -2315619583.0711184       -3394067.3560918570        1226776096.6819601     
  -2223208737.9266863       -2735926.5976960659        1217178761.7125585     
  -2130610204.5260789       -1452158.3187164068        1212277821.4483564     
  -2037823982.8692973        457237.48084080219        1212073275.8893573     
  -1944850072.9563472        2992260.8009630442        1216565125.0355563     
  -2641189057.6127605       -1279415.7661451101        1158535999.4759562     
  -2537128268.4109731       -1622278.7602161169        1150078319.5329924     
  -2432711866.2391658       -779765.18755662441        1146116741.1795204     
  -2327939851.0973473        1248124.9518027306        1146651264.4155352     
  -2222812222.9855185        4461391.6578718424        1151681889.2410429     
  -1108877278.7629354       -789228.53801059723        1404953633.3628089     
  -1068164823.1699668       -5624191.6773253679        1404717467.4367042     
  -1027528699.0880828       -10713593.186922431        1406665377.7502337     
  -986968906.51727760       -16057433.066781819        1410797364.3033953     
  -946485445.45756197       -21655711.316939592        1417113427.0961933     
  -1387882600.8450594        366950.70300984383        1343200997.0964379     
  -1340744003.4093306       -5532630.8940371275        1343300425.1485257     
  -1293865874.6843588       -12300441.526942611        1346404644.1764259     
  -1247248214.6701500       -19936481.195727110        1352513654.1801369     
  -1200891023.3666973       -28440749.900359035        1361627455.1596632     
  -1666540198.9095309        1627447.1493377686        1280404827.6540213     
  -1610630560.3848181       -4633283.1315767765        1280625022.9513447     
  -1555165527.7705436       -12376033.113948405        1284670723.9606628     
  -1500145101.0666990       -21600802.797758639        1292541930.6819668     
  -1445569280.2732921       -32307592.183019698        1304238643.1152608     
  -1944850072.9563472        2992260.8009630442        1216565125.0355563     
  -1877824494.0964382       -2926148.3899724483        1216691260.8451643     
  -1811427658.3466268       -10940367.947917104        1221463617.1029410     
  -1745659565.7069278       -21050397.872895718        1230882193.8088872     
  -1680520216.1773424       -33256238.164918602        1244946990.9630001     
  -2222812222.9855185        4461391.6578718424        1151681889.2410429     
  -2142325804.5441730       -411226.66917765141        1151499138.8299785     
  -2062652266.4126170       -7993446.0288630724        1156783323.6032629     
  -1983791608.5908432       -18285266.421153545        1167534443.5608921     
  -1905743831.0788517       -31286687.846051931        1183752498.7028687     
  -946485445.45756197       -21655711.316939592        1417113427.0961933     
  -881956262.82979345       -20530744.836083621        1398561372.7966640     
  -817674136.65100563       -20229299.851829588        1389631235.3850269     
  -753639066.92119622       -20751376.364168942        1390323014.8612747     
  -689851053.64035738       -22096974.373079747        1400636711.2254148     
  -1200891023.3666973       -28440749.900359035        1361627455.1596632     
  -1113473914.5593765       -25092649.885209501        1345233323.8301597     
  -1026103330.3586750       -21899631.892124653        1336310341.8583601     
  -938779270.76460409       -18861695.921140015        1334858509.2442479     
  -851501735.77716088       -15978841.972245246        1340877825.9878440     
  -1445569280.2732921       -32307592.183019698        1304238643.1152608     
  -1341409295.3726709       -28579873.659430325        1290236388.5718632     
  -1237095303.2363210       -24338797.683415234        1281554515.8559678     
  -1132627303.8642535       -19584364.254993439        1278193024.9675877     
  -1028005297.2564518       -14316573.374150336        1280151915.9067094     
  -1680520216.1773424       -33256238.164918602        1244946990.9630001     
  -1565762405.2696803       -30992416.158761621        1233570567.0217757     
  -1450650055.2839451       -27546797.225701272        1225363757.3778732     
  -1335183166.2201316       -22919381.365713835        1220326562.0312836     
  -1219361738.0782471       -17110168.578813374        1218458980.9820151     
  -1905743831.0788517       -31286687.846051931        1183752498.7028687     
  -1786533244.2504144       -32330277.383237004        1175235859.1798983     
  -1666767586.5015402       -31523630.518966079        1167738066.4240539     
  -1546446857.8322456       -28866747.253300250        1161259120.4353383     
  -1425571058.2425272       -24359627.586215138        1155799021.2137506     
  -3768277733.2732029       -1130483319.9819610        800562129.89613092     
  -3779114675.0856404       -1008705762.1811250        884858830.47806787     
  -3790563504.2373323       -888967828.84447122        974074176.88893211     
  -3802624220.7282791       -771269519.97199941        1068208169.1287231     
  -3815296824.5584807       -655610835.56370962        1167260807.1974418     
  -4339767095.7685547       -1301930128.7305665        858739308.40989959     
  -4335226676.9395809       -1125731869.6349955        942347648.58346546     
  -4331825945.1538715       -953332567.35030007        1020307458.5073277     
  -4329564900.4114218       -784732221.87648034        1092618738.1814864     
  -4328443542.7122364       -619930833.21353686        1159281487.6059415     
  -4895207945.8236818       -1468562383.7471044        936381098.20061374     
  -4905482098.0065260       -1247001002.8527668        1018685311.6444653     
  -4917423736.9366426       -1030997911.1159990        1084773818.7599828     
  -4931032862.6140308       -820553108.53680098        1134646619.5471663     
  -4946309475.0386877       -615666595.11517191        1168303714.0060151     
  -5434600283.4385805       -1630380085.0315742        1033487499.2682730     
  -5489880938.2864780       -1372513161.8344402        1113871819.6610677     
  -5547356879.5856504       -1121963860.1415687        1167473257.6468978     
  -5607028107.3361044       -878732179.95296121        1194291813.2257628     
  -5668894621.5378370       -642818121.26861739        1194327486.3976631     
  -5957944108.6132536       -1787383232.5839763        1150058511.6128774     
  -6088423197.7794294       -1502268346.5800140        1227907172.6332726     
  -6221625373.1008930       -1226230414.4270086        1268405775.1680722     
  -6357550634.5776415       -959269436.12496042        1271554319.2172763     
  -6496198982.2096796       -701385411.67386913        1237352804.7808847     
  -3815296824.5584807       -655610835.56370962        1167260807.1974418     
  -3797901502.5053673       -537685120.41777194        1188928618.5739532     
  -3784347049.3947668       -432562301.74687481        1205737740.4010737     
  -3774633465.2266784       -340242379.55101645        1217688172.6788037     
  -3768760750.0011015       -260725353.83020043        1224779915.4071424     
  -4328443542.7122364       -619930833.21353686        1159281487.6059415     
  -4298098896.9447842       -464187960.37055302        1141341602.6550899     
  -4278367642.5343585       -343823058.71766055        1129494389.1038024     
  -4269249779.4809608       -258836128.25485849        1123739846.9520807     
  -4270745307.7845888       -209227168.98214674        1124077976.1999247     
  -4946309475.0386877       -615666595.11517191        1168303714.0060151     
  -4871725902.8455925       -412719683.76175117        1102854856.5775323     
  -4814528244.4240389       -267725818.31347227        1054450031.4975703     
  -4774716499.7740278       -180684998.77033401        1023089238.7661293     
  -4752290668.8955593       -151597225.13233924        1008772478.3832096     
  -5668894621.5378370       -642818121.26861739        1194327486.3976631     
  -5518782520.2077932       -383280290.59136724        1073468380.3412814     
  -5392828855.0638094       -204270580.53431010        980604667.58237565     
  -5291033626.1058826       -105788991.09744549        915736348.12094831     
  -5213396833.3340130       -87835522.280777216        878863421.95699692     
  -6496198982.2096796       -701385411.67386913        1237352804.7808847     
  -6239268749.0313873       -375869780.85940123        1053182173.9463358     
  -6013269474.4536695       -153457345.38017726        907958297.35821986     
  -5818201158.4765253       -34148105.236195803        801681175.01653731     
  -5654063801.0999527       -17942060.427459002        734350806.92128682     
  -3768760750.0011015       -260725353.83020043        1224779915.4071424     
  -3661649542.7587533       -168300979.94020998        1192470065.0280221     
  -3562212323.3447900       -101456565.47817361        1170532925.5275967     
  -3470449091.7592130       -60192110.444083452        1158968496.9058645     
  -3386359848.0020185       -44507614.837943554        1157776779.1628265     
  -4270745307.7845888       -209227168.98214674        1124077976.1999247     
  -4147887805.3339767       -145087852.66477299        1090823885.9506514     
  -4029433759.1186018       -95626723.798201323        1065836940.5765681     
  -3915383169.1384706       -60843782.382438898        1049117140.0776750     
  -3805736035.3935847       -40739028.417484045        1040664484.4539735     
  -4752290668.8955593       -151597225.13233924        1008772478.3832096     
  -4619702774.1038322       -117547737.24772286        978389768.45578277     
  -4488247803.9542055       -87274664.836770535        954168637.40004230     
  -4357925758.4466763       -60778007.899478674        936109085.21598887     
  -4228736637.5812473       -38057766.435852766        924211111.90362227     
  -5213396833.3340130       -87835522.280777216        878863421.95699692     
  -5077094449.0683270       -85680633.689065933        855167712.54341722     
  -4938654457.8515987       -76400388.593874216        835528015.99802053     
  -4798076859.6838255       -59994786.995201349        819944332.32080579     
  -4655361654.5650072       -36463828.893051147        808416661.51177573     
  -5654063801.0999527       -17942060.427459002        734350806.92128682     
  -5520062830.2274590       -49486541.988797903        721157718.21355379     
  -5380653720.8107834       -63003895.069517136        709915076.37050116     
  -5235836472.8499184       -58494119.669606924        700622881.39212656     
  -5085611086.3448648       -35957215.789079189        693281133.27843094     
  -3386359848.0020185       -44507614.837943554        1157776779.1628265     
  -3294675434.7461948       -37840799.656171322        1150940267.2944114     
  -3202765098.2382231       -30420906.967231631        1148498372.1043525     
  -3110628838.4781022       -22247936.771131158        1150451093.5926485     
  -3018266655.4658303       -13321889.067859173        1156798431.7593000     
  -3805736035.3935847       -40739028.417484045        1040664484.4539735     
  -3700791630.1757503       -29603165.165947676        1032542668.7830511     
  -3596427113.0008984       -20400262.057686329        1029194911.4653751     
  -3492642483.8690276       -13130319.092692375        1030621212.5009452     
  -3389437742.7801356       -7793336.2709686756        1036821571.8897610     
  -4228736637.5812473       -38057766.435852766        924211111.90362227     
  -4109448121.3302855       -22127619.393220186        913863879.25254178     
  -3991545304.4174361       -10816470.144293070        908670146.62959528     
  -3875028186.8426991       -4124318.6890757084        908629914.03478658     
  -3759896768.6060758       -2051165.0275664330        913743181.46811593     
  -4655361654.5650072       -36463828.893051147        808416661.51177573     
  -4520644908.2098026       -15414162.337985754        794903898.70288038     
  -4388119672.4878426       -1669531.2270655632        786924077.59701240     
  -4257785947.3991237        4770064.4397156239        784477198.19417202     
  -4129643732.9436507        3904624.6623425484        787563260.49435854     
  -5085611086.3448648       -35957215.789079189        693281133.27843094     
  -4934381990.8143015       -9462794.0002472401        675662727.13407218     
  -4786150217.2121115        7040554.6940073967        663956704.36762726     
  -4640915765.5382957        13552830.293677330        658163064.97910345     
  -4498678635.7928562        10074032.798765659        658281808.96849740     
  -3018266655.4658303       -13321889.067859173        1156798431.7593000     
  -2922308459.2660208       -4681948.2872927189        1150288182.8603382     
  -2827476127.5572433        205110.85650599003        1148407694.5134604     
  -2733769660.3394895        1339288.3635544777        1151156966.7186658     
  -2641189057.6127605       -1279415.7661451101        1158535999.4759562     
  -3389437742.7801356       -7793336.2709686756        1036821571.8897610     
  -3282847051.5268517       -3257578.6733343601        1029476428.3655738     
  -3176874500.9822812       -782290.10474836826        1026627485.8341897     
  -3071520091.1464252       -367470.56521356106        1028274744.2956125     
  -2966783822.0192795       -2013120.0547187328        1034418203.7498428     
  -3759896768.6060758       -2051165.0275664330        913743181.46811593     
  -3643055181.0401068       -1734070.2350995541        906155487.73139882     
  -3526324010.4005404       -1785031.8639757633        902930435.42820835     
  -3409703256.6873760       -2204049.9141857624        904068024.55854559     
  -3293192919.9006100       -2991124.3857305050        909568255.12241364     
  -4129643732.9436507        3904624.6623425484        787563260.49435854     
  -4002932847.8057899       -111422.97259020805        780325360.95781219     
  -3875824655.8120232       -2803114.4211668968        777316543.29551470     
  -3748319156.9623432       -4170449.6833631992        778536807.50746632     
  -3620416351.2567539       -4213428.7591907978        783986153.59367192     
  -4498678635.7928562        10074032.798765659        658281808.96849740     
  -4362480051.8239050        1610363.1141824722        651986048.04481828     
  -4225376437.2167315       -3836537.7763292789        649785809.43611073     
  -4087367791.9713292       -6266669.8727502823        651681093.14237607     
  -3948454116.0877047       -5680033.1750864983        657671899.16361046     
  -2641189057.6127605       -1279415.7661451101        1158535999.4759562     
  -2537128268.4109731       -1622278.7602161169        1150078319.5329924     
  -2432711866.2391658       -779765.18755662441        1146116741.1795204     
  -2327939851.0973473        1248124.9518027306        1146651264.4155352     
  -2222812222.9855185        4461391.6578718424        1151681889.2410429     
  -2966783822.0192795       -2013120.0547187328        1034418203.7498428     
  -2850547572.2554369       -874042.83930134773        1026003432.7162814     
  -2734131819.6857929        863377.06212174892        1022116312.7849289     
  -2617536564.3103404        3199139.6495640278        1022756843.9557838     
  -2500761806.1290879        6133244.9230225086        1027925026.2288493     
  -3293192919.9006100       -2991124.3857305050        909568255.12241364     
  -3164691068.1098032       -343064.52136147022        900990931.14000821     
  -3036185823.6774035        2316304.1483187675        896972807.77253115     
  -2907677186.6034107        4986981.6233090162        897513885.01998067     
  -2779165156.8878217        7668967.9036090374        902614162.88235962     
  -3620416351.2567539       -4213428.7591907978        783986153.59367192     
  -3479558755.9740682       -29343.806394100189        775040814.80417430     
  -3338873878.2140045        3579016.0710132122        770686226.14233029     
  -3198361717.9765544        6611650.8730285168        770922387.60812819     
  -3058022275.2617264        9068560.5996481180        775749299.20157886     
  -3948454116.0877047       -5680033.1750864983        657671899.16361046     
  -3795150635.8482342        67119.305611371994        648153083.70878351     
  -3642195983.2955947        4651512.8302071095        643256567.89432216     
  -3489590158.4297776        8073147.3987238407        642982351.72022593     
  -3337333161.2507920        10332023.011142492        647330435.18649733     
  -2222812222.9855185        4461391.6578718424        1151681889.2410429     
  -2142325804.5441730       -411226.66917765141        1151499138.8299785     
  -2062652266.4126170       -7993446.0288630724        1156783323.6032629     
  -1983791608.5908432       -18285266.421153545        1167534443.5608921     
  -1905743831.0788517       -31286687.846051931        1183752498.7028687     
  -2500761806.1290879        6133244.9230225086        1027925026.2288493     
  -2407345148.1224513        1465019.5843662024        1026258409.1670092     
  -2314500235.0489030       -5109022.1979098320        1029024027.4352601     
  -2222227066.9084439       -13588880.423818350        1036221881.0336046     
  -2130525643.7010705       -23974555.093354225        1047851969.9620411     
  -2779165156.8878217        7668967.9036090374        902614162.88235962     
  -2675774544.6137557        2318249.9640113115        899745003.77588975     
  -2572714541.8960900       -4134499.8302344084        900273380.14525306     
  -2469985148.7348094       -11689281.479116440        904199291.99046075     
  -2367586365.1299267       -20346094.982639194        911522739.31150639     
  -3058022275.2617264        9068560.5996481180        775749299.20157886     
  -2947613994.0181046        2148464.4697351456        771958922.65661907     
  -2837295186.9541740       -5069878.9258195162        770531381.73324490     
  -2727065854.0699463       -12586469.587050438        771466676.43145788     
  -2616925995.3654065       -20401307.513912439        774764806.75125504     
  -3337333161.2507920        10332023.011142492        647330435.18649733     
  -3222863496.3354759        955663.10156750679        642900165.80919766     
  -3108242170.2231617       -7915159.4846870899        639798032.19923043     
  -2993469182.9138446       -16280444.747601748        638024034.35659981     
  -2878544534.4075270       -24140192.687180877        637578172.28129065     
  -1905743831.0788517       -31286687.846051931        1183752498.7028687     
  -1786533244.2504144       -32330277.383237004        1175235859.1798983     
  -1666767586.5015402       -31523630.518966079        1167738066.4240539     
  -1546446857.8322456       -28866747.253300250        1161259120.4353383     
  -1425571058.2425272       -24359627.586215138        1155799021.2137506     
  -2130525643.7010705       -23974555.093354225        1047851969.9620411     
  -2006105165.5818944       -25037264.050808787        1036492665.7434181     
  -1881437833.1415708       -25277125.271126151        1028126535.6167567     
  -1756523646.3801265       -24694138.754342318        1022753579.5820645     
  -1631362605.2975340       -23288304.500426352        1020373797.6393418     
  -2367586365.1299267       -20346094.982639194        911522739.31150639     
  -2232315060.5061827       -19735642.796236277        896961184.36471903     
  -2097105118.1605873       -19329731.536994696        887367130.83474171     
  -1961956538.0931535       -19128361.204933047        882740578.72156811     
  -1826869320.3038576       -19131531.800039172        883081528.02520478     
  -2616925995.3654065       -20401307.513912439        774764806.75125504     
  -2465162929.0232682       -16425413.619496346        756641415.04380870     
  -2313769441.5585651       -13681449.316545367        745459852.07800686     
  -2162745532.9713125       -12169414.605057597        741220117.85385096     
  -2012091203.2614853       -11889309.485039949        743922212.37135434     
  -2878544534.4075270       -24140192.687180877        637578172.28129065     
  -2704648771.1331644       -15106576.520599604        615533357.78067958     
  -2531430803.3355265       -8332278.6097867489        602404699.34655142     
  -2358890631.0146151       -3817298.9547308683        598192196.97891140     
  -2187028254.1704359       -1561637.5554375648        602895850.67776144     
  -5957944108.6132536       -1787383232.5839763        1150058511.6128774     
  -6088423197.7794294       -1502268346.5800140        1227907172.6332726     
  -6221625373.1008930       -1226230414.4270086        1268405775.1680722     
  -6357550634.5776415       -959269436.12496042        1271554319.2172763     
  -6496198982.2096796       -701385411.67386913        1237352804.7808847     
  -6810599146.2860231       -2043179743.8858070        1353773593.6428239     
  -6828537180.2214499       -1395519762.6058748        1202744832.8563032     
  -6897830208.6662102       -919043096.35706544        1091971920.2845778     
  -7018478231.6203127       -613749745.13938212        1021454855.9276479     
  -7190481249.0837479       -479639708.95282149        991193639.78551328     
  -8337925121.3952141       -2501377536.4185643        1712312203.7665095     
  -8021590938.0987711       -1424653111.2623260        1275668794.7600143     
  -7805243657.6657181       -681218362.31737971        956887140.66870606     
  -7688883280.0960484       -271073289.58372355        755967241.49258316     
  -7672509805.3897715       -194217893.06136036        672909097.23164678     
  -10539922033.940825       -3161976610.1822472        2225674341.9839334     
  -9667584471.4113979       -1589668392.5493686        1446679058.3444061     
  -8943865720.0994091       -512756212.30794811        863151436.32045591     
  -8368765780.0048599        68759930.542011738        475091475.91208142     
  -7942284651.1277447        154880036.00051641        282499177.11928415     
  -13416589883.922853       -4024976965.1768560        2893860008.2950974     
  -11766517780.159327       -1890565606.4670026        1715775623.6094782     
  -10313696395.967289       -413656646.32877445        810764807.23982704     
  -9058125731.3467369        405749915.23782825        178827559.18614322     
  -7999805786.2976751        567654078.23280573       -180036120.55157256     
  -6496198982.2096796       -701385411.67386913        1237352804.7808847     
  -6239268749.0313873       -375869780.85940123        1053182173.9463358     
  -6013269474.4536695       -153457345.38017726        907958297.35821986     
  -5818201158.4765253       -34148105.236195803        801681175.01653731     
  -5654063801.0999527       -17942060.427459002        734350806.92128682     
  -7190481249.0837479       -479639708.95282149        991193639.78551328     
  -6900591607.9615726       -304324350.37641430        846839464.51530504     
  -6623542010.9141293       -171809138.71577954        723553527.01043391     
  -6359332457.9414177       -82094073.970914602        621335827.27090204     
  -6107962949.0434361       -35179156.141819477        540186365.29670525     
  -7672509805.3897715       -194217893.06136036        672909097.23164678     
  -7400742231.9839840       -184427249.42109632        589477444.47259462     
  -7123723788.1270876       -157133704.27713156        509235512.99778539     
  -6841454473.8190784       -112337257.62946534        432183302.80721742     
  -6553934289.0599613       -50037909.478091002        358320813.90089297     
  -7942284651.1277447        154880036.00051641        282499177.11928415     
  -7739720621.0986242       -16178477.993446350        281096113.81820506     
  -7513814806.0925465       -109431042.06423330        265004255.32027259     
  -7264567206.1095190       -124877656.21184635        234223601.62548733     
  -6991977821.1495380       -62518320.436279774        188754152.73384640     
  -7999805786.2976751        567654078.23280573       -180036120.55157256     
  -7917526775.3054848        200421963.90653801       -78304527.447863728     
  -7793815064.8105030       -28701152.077087879       -9140246.0221058149     
  -7628670654.8127279       -119715269.71805906        27456723.725706901     
  -7422093545.3121548       -72620389.016380310        31486381.795567397     
  -5654063801.0999527       -17942060.427459002        734350806.92128682     
  -5520062830.2274590       -49486541.988797903        721157718.21355379     
  -5380653720.8107834       -63003895.069517136        709915076.37050116     
  -5235836472.8499184       -58494119.669606924        700622881.39212656     
  -5085611086.3448648       -35957215.789079189        693281133.27843094     
  -6107962949.0434361       -35179156.141819477        540186365.29670525     
  -5959243738.4207563       -36950071.178237915        533806730.46609145     
  -5809480578.2615433       -35241154.426198006        529927548.61134285     
  -5658673468.5657873       -30052405.885692358        528548819.73246193     
  -5506822409.3334932       -21383825.556725264        529670543.82944751     
  -6553934289.0599613       -50037909.478091002        358320813.90089297     
  -6388925392.6551342       -21563824.180007219        353663079.10513949     
  -6227236735.7214146       -4157203.7856132984        352055803.39644110     
  -6068868318.2588081        2181951.7050743103        353498986.77479827     
  -5913820140.2673035       -2546357.7079250813        357992629.24020857     
  -6991977821.1495380       -62518320.436279774        188754152.73384640     
  -6809107792.9305954       -3327800.9940948486        180726764.13069913     
  -6633922193.1904078        30247956.852229595        176299840.72579515     
  -6466421021.9289799        38208953.102700949        175473382.51913279     
  -6306604279.1463070        20555187.757318974        178247389.51071203     
  -7422093545.3121548       -72620389.016380310        31486381.795567397     
  -7219790939.2471313        17757998.379489422        14997785.542773385     
  -7029536950.6685152        67974327.487343788        2659660.5994038060     
  -6851331579.5763025        78028598.307178020       -5527993.0345309693     
  -6685174825.9704952        47920810.838999748       -9565175.3590399493     
  -5085611086.3448648       -35957215.789079189        693281133.27843094     
  -4934381990.8143015       -9462794.0002472401        675662727.13407218     
  -4786150217.2121115        7040554.6940073967        663956704.36762726     
  -4640915765.5382957        13552830.293677330        658163064.97910345     
  -4498678635.7928562        10074032.798765659        658281808.96849740     
  -5506822409.3334932       -21383825.556725264        529670543.82944751     
  -5345804809.2540388       -9945273.9919257164        514266824.17096615     
  -5185817965.9759502       -1942578.4316856861        503954771.60849088     
  -5026861879.4992285        2624261.1240048409        498734386.14202285     
  -4868936549.8238697        3755244.6751441956        498605667.77155721     
  -5913820140.2673035       -2546357.7079250813        357992629.24020857     
  -5745358939.3015728       -6867147.4659497738        347097922.04911667     
  -5575961930.0101929       -8068576.1384949684        340474165.67212003     
  -5405629112.3931704       -6150643.7255668640        338121360.10921425     
  -5234360486.4505138       -1113350.2271714211        340039505.36040127     
  -6306604279.1463070        20555187.757318974        178247389.51071203     
  -6133044380.9568939       -228414.42230582237        174156020.76852158     
  -5956582109.3148365       -11337438.426432610        173514886.55851081     
  -5777217464.2201242       -12771884.255045652        176323986.88067830     
  -5594950445.6727543       -4531751.9081571102        182583321.73503238     
  -6685174825.9704952        47920810.838999748       -9565175.3590399493     
  -6508861134.2200174        9970925.1389920712       -4558879.6708216742     
  -6327678503.8898802       -11749165.295481443        3076934.2676665825     
  -6141626934.9800797       -17239460.464419365        13342266.456417935     
  -5950706427.4906263       -6499960.3678383827        26237116.895441514     
  -4498678635.7928562        10074032.798765659        658281808.96849740     
  -4362480051.8239050        1610363.1141824722        651986048.04481828     
  -4225376437.2167315       -3836537.7763292789        649785809.43611073     
  -4087367791.9713292       -6266669.8727502823        651681093.14237607     
  -3948454116.0877047       -5680033.1750864983        657671899.16361046     
  -4868936549.8238697        3755244.6751441956        498605667.77155721     
  -4720987277.7639723        619086.10614848137        494450143.62604111     
  -4572847463.0799561       -1881930.3824465275        494008662.36268383     
  -4424517105.7718210       -3747804.7906582355        497281223.98148501     
  -4275996205.8395724       -4978537.1184742451        504267828.48244774     
  -5234360486.4505138       -1113350.2271714211        340039505.36040127     
  -5075750467.5362682        751019.94845461845        337190648.64325589     
  -4917664394.0120087        868905.49078416824        337674355.37545741     
  -4760102265.8777437       -759693.60019373894        341490625.55700403     
  -4603064083.1334667       -4134777.3244583607        348639459.18790263     
  -5594950445.6727543       -4531751.9081571102        182583321.73503238     
  -5426769621.1407738        2006164.6410937309        180207563.09646565     
  -5259827230.0128860        4415969.8433692455        180782888.47443572     
  -5094123272.2890940        2697663.6986470222        184309297.86894131     
  -4929657747.9694004       -3148753.7930569649        190786791.27998179     
  -5950706427.4906263       -6499960.3678383827        26237116.895441514     
  -5774044738.5775099        4384520.1840615273        23500886.985659510     
  -5599335971.0825901        8759262.6753013134        23334261.659611460     
  -5426580125.0058813        6624267.1058416367        25737240.917277589     
  -5255777200.3473663       -2020466.5242650509        30709824.758678149     
  -3948454116.0877047       -5680033.1750864983        657671899.16361046     
  -3795150635.8482342        67119.305611371994        648153083.70878351     
  -3642195983.2955947        4651512.8302071095        643256567.89432216     
  -3489590158.4297776        8073147.3987238407        642982351.72022593     
  -3337333161.2507920        10332023.011142492        647330435.18649733     
  -4275996205.8395724       -4978537.1184742451        504267828.48244774     
  -4111209793.9941268       -971110.19954514503        494733191.58434087     
  -3946377547.4061379        3189099.1945402622        489810754.48779655     
  -3781499466.0755930        7502091.0638065338        489500517.19281000     
  -3616575550.0025029        11967865.408223152        493802479.69938302     
  -4603064083.1334667       -4134777.3244583607        348639459.18790263     
  -4426823596.3643608       -1875732.9719996452        339549440.34746277     
  -4250142612.4233212        1851635.2868885994        335061521.46977347     
  -4073021131.3103604        7047327.4521868229        335175702.55483514     
  -3895459153.0254688        13711343.523922205        339891983.60265291     
  -4929657747.9694004       -3148753.7930569649        190786791.27998179     
  -4741992042.9589233       -2646749.0117516518        182601829.99814057     
  -4553491178.3471546        639121.10722494125        179008868.84025034     
  -4364155154.1340714        6708856.5638990402        180007907.80630413     
  -4173983970.3196888        15562457.358244419        185598946.89630625     
  -5255777200.3473663       -2020466.5242650509        30709824.758678149     
  -5056715133.7778416       -3284158.3188171387        23890360.536380153     
  -4856423245.1776247       -448443.34440803528        21652796.599223118     
  -4654901534.5467386        6486678.3989062309        23997132.947210573     
  -4452150001.8851604        17521206.911190987        30923369.580334507     
  -3337333161.2507920        10332023.011142492        647330435.18649733     
  -3222863496.3354759        955663.10156750679        642900165.80919766     
  -3108242170.2231617       -7915159.4846870899        639798032.19923043     
  -2993469182.9138446       -16280444.747601748        638024034.35659981     
  -2878544534.4075270       -24140192.687180877        637578172.28129065     
  -3616575550.0025029        11967865.408223152        493802479.69938302     
  -3496506690.7256598        2689840.8416712284        490263078.53767353     
  -3376673082.8103304       -7372354.9299411774        489679921.42295462     
  -3257074726.2565212       -18218721.906617880        492053008.35522348     
  -3137711621.0642314       -29849260.088360310        497382339.33449090     
  -3895459153.0254688        13711343.523922205        339891983.60265291     
  -3765139361.4452133        5927175.6829633713        336792052.67159033     
  -3635441733.7849913       -3930871.8914551735        338276474.06718266     
  -3506366270.0448065       -15862799.199322939        344345247.78942049     
  -3377912970.2246566       -29868606.240643978        354998373.83831483     
  -4173983970.3196888        15562457.358244419        185598946.89630625     
  -4028761508.4941344        10667667.625449181        182487088.21095285     
  -3884548123.1471319        2409289.6308159828        185587690.13191798     
  -3741343814.2786880       -9212676.6256840229        194900752.65918672     
  -3599148581.8888035       -24198231.144043684        210426275.79277143     
  -4452150001.8851604        17521206.911190987        30923369.580334507     
  -4287373131.8724322        16911316.669115067        27348185.155757509     
  -4123992250.8967700        11648129.636798382        31613569.617160056     
  -3962007358.9581819        1731645.8142316341        43719522.964515090     
  -3801418456.0566750       -12838134.798580647        63666045.197848707     
  -2878544534.4075270       -24140192.687180877        637578172.28129065     
  -2704648771.1331644       -15106576.520599604        615533357.78067958     
  -2531430803.3355265       -8332278.6097867489        602404699.34655142     
  -2358890631.0146151       -3817298.9547308683        598192196.97891140     
  -2187028254.1704359       -1561637.5554375648        602895850.67776144     
  -3137711621.0642314       -29849260.088360310        497382339.33449090     
  -2945232605.3537655       -19617238.085840940        479782579.12417847     
  -2752565951.2298298       -8759754.7050927877        467284917.22070009     
  -2559711658.6924253        2723190.0538902283        459889353.62405860     
  -2366669727.7415419        14831596.191117764        457595888.33424670     
  -3377912970.2246566       -29868606.240643978        354998373.83831483     
  -3177748009.9628196       -21707370.767617822        342853340.79020566     
  -2976529977.3973160       -10035894.282367349        331996348.28927451     
  -2774258872.5281310        5145823.2151374817        322427396.33552122     
  -2570934695.3552880        23837781.724874258        314146484.92895186     
  -3599148581.8888035       -24198231.144043684        210426275.79277143     
  -3402194984.9603233       -21376974.565923214        204745642.77876469     
  -3203322881.8379741       -12160697.341576815        196538992.55227885     
  -3002532272.5217547        3450600.5290185213        185806325.11331332     
  -2799823157.0116591        25456919.045846939        172547640.46188557     
  -3801418456.0566750       -12838134.798580647        63666045.197848707     
  -3618573530.3462815       -18626049.480791092        65459485.089846261     
  -3432944664.5518122       -15134163.882748365        60912850.009706356     
  -3244531858.6732717       -2362478.0044687986        50026139.957436047     
  -3053335112.7106662        19689008.154028654        32799354.933039818     
 </DataArray>
 <DataArray  type="Float64" Name="VM" NumberOfComponents="1" format="ascii">
   12935499050.735973     
   11340699411.091116     
   10210246560.529655     
   9272839176.6977615     
   8304064376.4529419     
   10130248982.666981     
   9321996703.4061127     
   8826365132.3621845     
   8443550206.8282957     
   8035757089.0618696     
   7982332087.8879042     
   7734957388.4520216     
   7669140154.6368132     
   7669590298.7338305     
   7666381713.3245716     
   6491661944.9354305     
   6586867407.5328321     
   6757403835.1966562     
   6961195750.7030277     
   7171584832.1353035     
   5657792074.8336401     
   5890885319.1972427     
   6116345042.9478884     
   6331713438.7193785     
   6536767504.2768326     
   8304064376.4529419     
   8020763072.5678959     
   7779520305.4370213     
   7569672447.0541983     
   7386252444.3604250     
   8035757089.0618696     
   7746958449.1680994     
   7473809288.2248545     
   7214355902.1972504     
   6968602447.7407780     
   7666381713.3245716     
   7381229669.5446558     
   7101458788.7481251     
   6827145521.1776876     
   6558490276.5566444     
   7171584832.1353035     
   6911018089.1299391     
   6658335469.4114857     
   6409677048.9470186     
   6161897427.6776056     
   6536767504.2768326     
   6328679017.9540110     
   6142747216.7536821     
   5965067341.5480251     
   5786633490.7125025     
   7386252444.3604250     
   7228732972.6692410     
   7063770913.6123657     
   6890683881.4507694     
   6709284040.6096163     
   6968602447.7407780     
   6814637712.0431757     
   6656105926.1410236     
   6492727366.8289394     
   6324447001.9893312     
   6558490276.5566444     
   6407518687.5404568     
   6254952967.1399765     
   6100761756.0903816     
   5944972043.7335138     
   6161897427.6776056     
   6012371049.8457699     
   5864217198.2618704     
   5717475263.1039782     
   5572202979.0619793     
   5786633490.7125025     
   5635652501.0721149     
   5488928862.7872400     
   5346377909.7724257     
   5208050001.3464241     
   6709284040.6096163     
   6513857106.4489107     
   6321814356.1206827     
   6133068915.1600981     
   5947632725.0797100     
   6324447001.9893312     
   6140343924.4099770     
   5958505586.0217838     
   5778917652.0262899     
   5601619952.2062855     
   5944972043.7335138     
   5773315613.0532799     
   5603052242.6647339     
   5434205919.7314138     
   5266838125.4273586     
   5572202979.0619793     
   5414607424.9497509     
   5257808394.7731524     
   5101837609.0933256     
   4946783206.7218475     
   5208050001.3464241     
   5066663842.5789680     
   4925799034.9259701     
   4785469278.7512197     
   4645808390.5784092     
   5947632725.0797100     
   5776381666.2276640     
   5603866483.0414734     
   5430078275.0192413     
   5255036463.5439663     
   5601619952.2062855     
   5436740183.5170584     
   5271344854.9496374     
   5105462875.5530863     
   4939150934.6244669     
   5266838125.4273586     
   5109613287.5230618     
   4952753651.7772655     
   4796332503.1122103     
   4640455993.6247082     
   4946783206.7218475     
   4798342086.6506319     
   4651286419.1743402     
   4505735155.2090483     
   4361850326.4512510     
   4645808390.5784092     
   4507051962.4101219     
   4370843710.1277628     
   4237341773.5551496     
   4106761719.0019341     
   5255036463.5439663     
   5055243210.7075300     
   4856343852.3826151     
   4658333689.6809015     
   4461257936.0138016     
   4939150934.6244669     
   4751207737.5961971     
   4564353741.1322098     
   4378627894.5886917     
   4194124784.8745880     
   4640455993.6247082     
   4464789872.9379272     
   4290499277.3546367     
   4117679319.7738476     
   3946489792.7720547     
   4361850326.4512510     
   4199087672.7372494     
   4038097949.7042370     
   3879045750.8894458     
   3722172392.3159924     
   4106761719.0019341     
   3957743089.4246540     
   3811022434.7829242     
   3666845451.2056546     
   3525548309.5188742     
   4461257936.0138016     
   4296114906.2234106     
   4130191633.1751895     
   3963596911.7589788     
   3796617482.5078635     
   4194124784.8745880     
   4046469464.1948071     
   3899026439.5533490     
   3751963398.5704570     
   3605579070.8717027     
   3946489792.7720547     
   3812992622.1356630     
   3680414960.9130759     
   3548937286.0490360     
   3418825189.2992578     
   3722172392.3159924     
   3599450635.4368787     
   3477993743.6296754     
   3357957132.6824203     
   3239542243.6926713     
   3525548309.5188742     
   3410262719.7048826     
   3296157498.3299141     
   3183333414.2883611     
   3071909883.5612736     
   3796617482.5078635     
   3611077056.7500873     
   3427027349.5298538     
   3244508920.9790812     
   3063754444.0291333     
   3605579070.8717027     
   3410047153.8340287     
   3215331112.6531086     
   3021447620.0202937     
   2828471767.0518417     
   3418825189.2992578     
   3222144939.3142729     
   3026652268.8941979     
   2832435902.6970735     
   2639625629.9540820     
   3239542243.6926713     
   3050832034.9013934     
   2864899549.1208267     
   2682088023.4455633     
   2502924088.7290196     
   3071909883.5612736     
   2900196335.1768723     
   2734189571.6386065     
   2574660432.4290781     
   2422835041.7995524     
   5657792074.8336401     
   5890885319.1972427     
   6116345042.9478884     
   6331713438.7193785     
   6536767504.2768326     
   5151392493.6610489     
   5311288218.8065748     
   5467816633.4257545     
   5618083055.1210899     
   5760622154.8807764     
   4643408956.8914747     
   4755500427.0448093     
   4868712562.2740927     
   4980410325.0956364     
   5088668388.8052607     
   4134105292.6752672     
   4224359954.1846061     
   4320528923.9915771     
   4420954073.9689322     
   4524179796.5539455     
   3625001194.5084443     
   3719691619.2934899     
   3825625174.7948976     
   3942735796.0055351     
   4070928501.5525341     
   6536767504.2768326     
   6328679017.9540110     
   6142747216.7536821     
   5965067341.5480251     
   5786633490.7125025     
   5760622154.8807764     
   5652046249.7702675     
   5559450493.7000418     
   5473775133.5465689     
   5389480766.4088192     
   5088668388.8052607     
   5053935114.3534536     
   5029709775.2162228     
   5010786350.2926836     
   4993964355.1727610     
   4524179796.5539455     
   4538940492.2319565     
   4558389546.3055840     
   4580046666.4890289     
   4602188547.8354530     
   4070928501.5525341     
   4112388571.7375751     
   4151245278.2330642     
   4186600752.1079264     
   4217722293.0916963     
   5786633490.7125025     
   5635652501.0721149     
   5488928862.7872400     
   5346377909.7724257     
   5208050001.3464241     
   5389480766.4088192     
   5248157390.6915579     
   5110102831.8838263     
   4975360032.5501375     
   4844025385.2846346     
   4993964355.1727610     
   4866639004.6430597     
   4742529732.3219814     
   4621606376.3750420     
   4503912101.2490835     
   4602188547.8354530     
   4493762993.9904947     
   4389554019.9291201     
   4289247128.6586776     
   4192754722.8318062     
   4217722293.0916963     
   4133484964.8366599     
   4055697502.7655044     
   3983512303.0143871     
   3916635848.1371360     
   5208050001.3464241     
   5066663842.5789680     
   4925799034.9259701     
   4785469278.7512197     
   4645808390.5784092     
   4844025385.2846346     
   4718305061.5313721     
   4594128802.7907524     
   4471609024.1045513     
   4350961386.2475214     
   4503912101.2490835     
   4393468193.1709099     
   4285606234.2135248     
   4180514750.1761279     
   4078467305.4866481     
   4192754722.8318062     
   4097024894.8086958     
   4004879848.5861411     
   3916555205.4631047     
   3832353173.7859015     
   3916635848.1371360     
   3834792758.4464078     
   3757438519.9977751     
   3684822226.1399097     
   3617243413.6564260     
   4645808390.5784092     
   4507051962.4101219     
   4370843710.1277628     
   4237341773.5551496     
   4106761719.0019341     
   4350961386.2475214     
   4224896257.9565368     
   4101685418.9105186     
   3981537443.5659280     
   3864722606.7579641     
   4078467305.4866481     
   3965966472.3782153     
   3856749893.1547461     
   3751077577.6454968     
   3649276839.5633039     
   3832353173.7859015     
   3734416474.6489806     
   3640321272.4784241     
   3550373779.4492249     
   3464953228.9156508     
   3617243413.6564260     
   3534927903.1353970     
   3457126256.1927419     
   3384175933.8347855     
   3316491985.1963577     
   4106761719.0019341     
   3957743089.4246540     
   3811022434.7829242     
   3666845451.2056546     
   3525548309.5188742     
   3864722606.7579641     
   3729516302.0258975     
   3597487076.5745420     
   3468958323.4290733     
   3344349755.0361061     
   3649276839.5633039     
   3528390280.6582260     
   3411618842.3561511     
   3299349264.6658349     
   3192063301.5154266     
   3464953228.9156508     
   3358746771.0220304     
   3257607009.9349966     
   3161957697.2494521     
   3072307704.1207428     
   3316491985.1963577     
   3225049920.2430353     
   3139576637.4584446     
   3060496441.3130584     
   2988301271.2442818     
   3525548309.5188742     
   3410262719.7048826     
   3296157498.3299141     
   3183333414.2883611     
   3071909883.5612736     
   3344349755.0361061     
   3237673156.2298894     
   3133215726.2010021     
   3031205204.7659583     
   2931912473.1382976     
   3192063301.5154266     
   3097515325.1448002     
   3006612200.7696872     
   2919729473.9347911     
   2837310244.1367636     
   3072307704.1207428     
   2993068442.2033229     
   2919209510.0456009     
   2851236204.5794411     
   2789734322.0215893     
   2988301271.2442818     
   2926863506.2698002     
   2872725847.7983441     
   2826464178.5418410     
   2788731692.7562137     
   3071909883.5612736     
   2900196335.1768723     
   2734189571.6386065     
   2574660432.4290781     
   2422835041.7995524     
   2931912473.1382976     
   2784658901.2520003     
   2643707847.0998797     
   2509884078.4062786     
   2384321684.1435394     
   2837310244.1367636     
   2711675097.3661995     
   2592286211.0905237     
   2479879478.3603764     
   2375366158.8017335     
   2789734322.0215893     
   2682873196.1482143     
   2581476714.8860383     
   2486097961.2107630     
   2397369672.2635922     
   2788731692.7562137     
   2697874235.1868887     
   2611015483.3138933     
   2528489283.5264478     
   2450659730.3958235     
   3625001194.5084443     
   3719691619.2934899     
   3825625174.7948976     
   3942735796.0055351     
   4070928501.5525341     
   3138032155.3581963     
   3255532065.4166069     
   3382445936.4063983     
   3518303633.5799575     
   3662646449.8231130     
   2694824806.3448586     
   2830543233.4453702     
   2973576530.4126592     
   3122842634.7986903     
   3277430619.3606663     
   2298870463.3111105     
   2449518113.9836693     
   2604897646.3194332     
   2763088043.0067339     
   2922660364.4909081     
   1955383081.5847666     
   2119412784.4096439     
   2284816289.1497684     
   2448636647.0953035     
   2608917432.5548272     
   4070928501.5525341     
   4112388571.7375751     
   4151245278.2330642     
   4186600752.1079264     
   4217722293.0916963     
   3662646449.8231130     
   3702143784.0087948     
   3740285041.1331067     
   3776172261.4478769     
   3809056635.3048892     
   3277430619.3606663     
   3320773675.2030616     
   3364357225.5644679     
   3407358572.6949797     
   3449099890.8816047     
   2922660364.4909081     
   2975664940.2594919     
   3030858899.7103252     
   3087558968.7608094     
   3145231192.4630156     
   2608917432.5548272     
   2676872800.4187646     
   2749265296.0424752     
   2825584219.8647165     
   2905474408.0921011     
   4217722293.0916963     
   4133484964.8366599     
   4055697502.7655044     
   3983512303.0143871     
   3916635848.1371360     
   3809056635.3048892     
   3756143578.2540832     
   3709195090.0871463     
   3667739019.3995094     
   3631681090.6718674     
   3449099890.8816047     
   3422966983.3947973     
   3401939585.0624952     
   3385789728.1830473     
   3374503459.0581660     
   3145231192.4630156     
   3141594700.3161435     
   3141618665.2301764     
   3145204370.9748878     
   3152340025.2500134     
   2905474408.0921011     
   2920371756.8428006     
   2936714013.3360286     
   2954449117.9500666     
   2973540700.2292566     
   3916635848.1371360     
   3834792758.4464078     
   3757438519.9977751     
   3684822226.1399097     
   3617243413.6564260     
   3631681090.6718674     
   3562168068.0222411     
   3497497453.8279614     
   3437910006.7511187     
   3383694447.8813410     
   3374503459.0581660     
   3317529400.1599336     
   3265843828.1963954     
   3219664929.0547571     
   3179258154.5868473     
   3152340025.2500134     
   3107971601.5890260     
   3069417453.9953222     
   3036852881.9239898     
   3010502377.0086527     
   2973540700.2292566     
   2941532240.0231771     
   2915918309.1060510     
   2896806863.8329692     
   2884361167.1299138     
   3617243413.6564260     
   3534927903.1353970     
   3457126256.1927419     
   3384175933.8347855     
   3316491985.1963577     
   3383694447.8813410     
   3314884687.5999403     
   3251356092.5687976     
   3193438922.3270564     
   3141525898.9353504     
   3179258154.5868473     
   3123356463.5434780     
   3073457369.5404124     
   3029858731.6838374     
   2992903510.7268395     
   3010502377.0086527     
   2966447999.7098513     
   2929030581.5014248     
   2898491961.0817266     
   2875102076.2882452     
   2884361167.1299138     
   2850489607.6034451     
   2823763352.4693460     
   2804352656.2308288     
   2792442140.1875463     
   3316491985.1963577     
   3225049920.2430353     
   3139576637.4584446     
   3060496441.3130584     
   2988301271.2442818     
   3141525898.9353504     
   3062867032.3453379     
   2990862840.1832604     
   2925922668.5838966     
   2868512227.7163830     
   2992903510.7268395     
   2926928909.7618680     
   2868299461.0026979     
   2817384420.4243474     
   2774595585.8558693     
   2875102076.2882452     
   2821281273.1911259     
   2775468229.9010820     
   2737967709.5796609     
   2709113188.1825294     
   2792442140.1875463     
   2749686159.9294600     
   2715546553.6818104     
   2690246443.5166149     
   2674026619.9463196     
   2988301271.2442818     
   2926863506.2698002     
   2872725847.7983441     
   2826464178.5418410     
   2788731692.7562137     
   2868512227.7163830     
   2821657595.3397055     
   2781634855.5254645     
   2748861004.3881860     
   2723792540.2616873     
   2774595585.8558693     
   2739834149.8916383     
   2711195845.7611995     
   2688957352.8858805     
   2673411105.7410169     
   2709113188.1825294     
   2683947715.0819592     
   2663970994.8009753     
   2649346965.1125207     
   2640242748.8464651     
   2674026619.9463196     
   2656067311.1480060     
   2642166495.9108262     
   2632406626.3052926     
   2626868455.6650195     
   2788731692.7562137     
   2697874235.1868887     
   2611015483.3138933     
   2528489283.5264478     
   2450659730.3958235     
   2723792540.2616873     
   2639911933.0728335     
   2563149010.3984475     
   2494038615.1641035     
   2433145920.2326903     
   2673411105.7410169     
   2599228440.2778902     
   2535356787.3677197     
   2482413950.1729512     
   2441034536.5358334     
   2640242748.8464651     
   2577105360.9947586     
   2527463700.3503971     
   2491886372.2583203     
   2470944245.2386994     
   2626868455.6650195     
   2574506338.6510906     
   2538835270.1751242     
   2520269514.6156006     
   2519224062.5012941     
   1955383081.5847666     
   2119412784.4096439     
   2284816289.1497684     
   2448636647.0953035     
   2608917432.5548272     
   1653884810.4008622     
   1820342112.4348910     
   1988504382.7762616     
   2155677396.5081687     
   2320104500.2997017     
   1393733333.9582384     
   1571133388.4997096     
   1749535430.6933601     
   1926937009.3176591     
   2102088664.5605550     
   1207230296.1203778     
   1399200538.9326546     
   1590734057.8171649     
   1781054527.2650857     
   1969703738.9496641     
   1137022358.0019817     
   1335374247.1693337     
   1534008025.9173920     
   1732923694.2461548     
   1932121252.1556222     
   2608917432.5548272     
   2676872800.4187646     
   2749265296.0424752     
   2825584219.8647165     
   2905474408.0921011     
   2320104500.2997017     
   2407110252.3991060     
   2496519127.6278896     
   2587940996.9771929     
   2681099759.4031091     
   2102088664.5605550     
   2205787103.7742171     
   2309394234.7603421     
   2412673892.5743918     
   2515459185.7134514     
   1969703738.9496641     
   2086825757.7514701     
   2201135226.8823180     
   2312557142.8049607     
   2421039344.0718260     
   1932121252.1556222     
   2058767947.6916990     
   2180073790.7081289     
   2296038781.2049136     
   2406662919.1820502     
   2905474408.0921011     
   2920371756.8428006     
   2936714013.3360286     
   2954449117.9500666     
   2973540700.2292566     
   2681099759.4031091     
   2703009159.0951581     
   2727355549.7748179     
   2754123371.2208858     
   2783306533.9223042     
   2515459185.7134514     
   2544203313.1357584     
   2576394384.8191977     
   2612034646.1426249     
   2651130422.8772230     
   2421039344.0718260     
   2454992529.3129539     
   2493395997.7019215     
   2536253162.4580364     
   2583568298.7183199     
   2406662919.1820502     
   2442677479.9364605     
   2484132131.5837784     
   2531026874.1240039     
   2583361707.5571380     
   2973540700.2292566     
   2941532240.0231771     
   2915918309.1060510     
   2896806863.8329692     
   2884361167.1299138     
   2783306533.9223042     
   2765472400.0900202     
   2754341521.4038606     
   2749994392.4285212     
   2752542119.0795970     
   2651130422.8772230     
   2645213540.0927854     
   2646089386.0006261     
   2653799887.3556495     
   2668399663.6660447     
   2583568298.7183199     
   2586499536.9066610     
   2596084992.8203773     
   2612335647.6385798     
   2635265356.9510555     
   2583361707.5571380     
   2591497086.7023168     
   2605954289.7176757     
   2626733316.6032128     
   2653834167.3589287     
   2884361167.1299138     
   2850489607.6034451     
   2823763352.4693460     
   2804352656.2308288     
   2792442140.1875463     
   2752542119.0795970     
   2729537920.2201071     
   2713905411.0951638     
   2705752325.5051627     
   2705192589.4825578     
   2668399663.6660447     
   2654225869.3143940     
   2647527517.5385494     
   2648355895.6227126     
   2656764054.4233775     
   2635265356.9510555     
   2627334520.4605532     
   2626873102.2116513     
   2633894163.8736687     
   2648410989.4873719     
   2653834167.3589287     
   2649214940.7804608     
   2651978335.7395411     
   2662124352.2361698     
   2679652990.2703485     
   2792442140.1875463     
   2749686159.9294600     
   2715546553.6818104     
   2690246443.5166149     
   2674026619.9463196     
   2705192589.4825578     
   2673702193.6227107     
   2650968298.9550776     
   2637125148.8181896     
   2632313927.5131493     
   2656764054.4233775     
   2634061990.9065633     
   2620131701.9341750     
   2615034465.0704408     
   2618833375.2179065     
   2648410989.4873719     
   2631620827.6983080     
   2623524217.1170907     
   2624136307.3438253     
   2633472463.9395404     
   2679652990.2703485     
   2665713768.7964425     
   2660332300.6529226     
   2663508585.8397861     
   2675242624.3570318     
   2674026619.9463196     
   2656067311.1480060     
   2642166495.9108262     
   2632406626.3052926     
   2626868455.6650195     
   2632313927.5131493     
   2622521311.8617773     
   2618343291.6648636     
   2619850300.4951873     
   2627109368.1937342     
   2618833375.2179065     
   2616400813.1470094     
   2621118310.8776965     
   2633028539.1729059     
   2652170901.6534624     
   2633472463.9395404     
   2636661065.7311006     
   2648532759.9448271     
   2669101065.2794337     
   2698378115.9973574     
   2675242624.3570318     
   2681512454.5781403     
   2698043271.8685613     
   2724835076.2282929     
   2761887867.6573286     
   2626868455.6650195     
   2574506338.6510906     
   2538835270.1751242     
   2520269514.6156006     
   2519224062.5012941     
   2627109368.1937342     
   2591407914.6477032     
   2569418856.7125325     
   2561306227.1564717     
   2567231863.5012646     
   2652170901.6534624     
   2628701733.1609950     
   2615940601.6602387     
   2613935190.2195277     
   2622732276.1409016     
   2698378115.9973574     
   2683755853.1332479     
   2676841149.0455971     
   2677641092.8758850     
   2686162646.6921258     
   2761887867.6573286     
   2753821946.0744295     
   2750471771.9945250     
   2751837345.4175820     
   2757918666.3436365     
   1137022358.0019817     
   1335374247.1693337     
   1534008025.9173920     
   1732923694.2461548     
   1932121252.1556222     
   1207230296.1147285     
   1399200538.9485095     
   1590734057.8562598     
   1781054527.3304656     
   1969703739.0452676     
   1393733333.9595711     
   1571133388.5289321     
   1749535430.7566171     
   1926937009.4224789     
   2102088664.7154231     
   1653884810.4223957     
   1820342112.4748955     
   1988504382.8460002     
   2155677396.6200624     
   2320104500.4667954     
   1955383081.6379085     
   2119412784.4589713     
   2284816289.2106352     
   2448636647.1841383     
   2608917432.6882777     
   1932121252.1556222     
   2058767947.6916990     
   2180073790.7081289     
   2296038781.2049136     
   2406662919.1820502     
   1969703739.0452676     
   2086825757.8093300     
   2201135226.8945718     
   2312557142.7630172     
   2421039343.9667659     
   2102088664.7154231     
   2205787103.8786778     
   2309394234.7991958     
   2412673892.5315981     
   2515459185.5725241     
   2320104500.4667954     
   2407110252.5321569     
   2496519127.7054520     
   2587940996.9772325     
   2681099759.3030615     
   2608917432.6882777     
   2676872800.5611377     
   2749265296.1679358     
   2825584219.9472661     
   2905474408.1050620     
   2406662919.1820502     
   2442677479.9364605     
   2484132131.5837784     
   2531026874.1240039     
   2583361707.5571380     
   2421039343.9667659     
   2454992529.4215569     
   2493395998.0536442     
   2536253163.0831671     
   2583568299.6473870     
   2515459185.5725241     
   2544203313.3174529     
   2576394385.3767972     
   2612034647.1306648     
   2651130424.3509154     
   2681099759.3030615     
   2703009159.3088937     
   2727355550.3723583     
   2754123372.2734761     
   2783306535.5023627     
   2905474408.1050620     
   2920371757.0493279     
   2936714013.8143787     
   2954449118.7789073     
   2973540701.4885225     
   2583361707.5571380     
   2591497086.7023168     
   2605954289.7176757     
   2626733316.6032128     
   2653834167.3589287     
   2583568299.6473870     
   2586499537.8744059     
   2596084993.8604417     
   2612335648.7832446     
   2635265358.2319946     
   2651130424.3509154     
   2645213541.6764221     
   2646089387.7694969     
   2653799889.3836756     
   2668399666.0264134     
   2783306535.5023627     
   2765472401.8458176     
   2754341523.4589901     
   2749994394.9074993     
   2752542122.1076560     
   2973540701.4885225     
   2941532241.4831309     
   2915918310.9418483     
   2896806866.2257814     
   2884361170.2655134     
   2653834167.3589287     
   2649214940.7804608     
   2651978335.7395411     
   2662124352.2361698     
   2679652990.2703485     
   2635265358.2319946     
   2627334521.9428639     
   2626873103.8644376     
   2633894165.6661048     
   2648410991.3888249     
   2668399666.0264134     
   2654225872.1105704     
   2647527520.7123733     
   2648355899.1155448     
   2656764058.1762137     
   2752542122.1076560     
   2729537923.9557281     
   2713905415.4595351     
   2705752330.4177337     
   2705192594.8609447     
   2884361170.2655134     
   2850489611.7527699     
   2823763357.5413647     
   2804352662.1311531     
   2792442146.8178596     
   2679652990.2703485     
   2665713768.7964425     
   2660332300.6529226     
   2663508585.8397861     
   2675242624.3570318     
   2648410991.3888249     
   2631620830.0606608     
   2623524220.0446768     
   2624136310.9400311     
   2633472468.3068495     
   2656764058.1762137     
   2634061995.3727121     
   2620131707.3129168     
   2615034471.5620770     
   2618833383.0242195     
   2705192594.8609447     
   2673702199.7084494     
   2650968306.0330534     
   2637125157.1804214     
   2632313937.4601331     
   2792442146.8178596     
   2749686166.9719067     
   2715546561.4944863     
   2690246452.4752903     
   2674026630.4475918     
   2675242624.3570318     
   2681512454.5781403     
   2698043271.8685613     
   2724835076.2282929     
   2761887867.6573286     
   2633472468.3068495     
   2636661074.9490385     
   2648532775.5079370     
   2669101088.6655641     
   2698378148.6694541     
   2618833383.0242195     
   2616400828.8453331     
   2621118337.4756579     
   2633028579.6766877     
   2652170959.0682368     
   2632313937.4601331     
   2622521330.1848397     
   2618343322.8855305     
   2619850349.1934114     
   2627109439.0058246     
   2674026630.4475918     
   2656067327.3180838     
   2642166523.6964774     
   2632406671.8137283     
   2626868525.1630092     
   2761887867.6573286     
   2753821946.0744295     
   2750471771.9945250     
   2751837345.4175820     
   2757918666.3436365     
   2698378148.6694541     
   2683755830.1856823     
   2676841068.5653067     
   2677640953.3038864     
   2686162446.8662210     
   2652170959.0682368     
   2628701704.3993030     
   2615940483.7341285     
   2613934980.5020981     
   2622731972.4279451     
   2627109439.0058246     
   2591407894.4609032     
   2569418742.3111539     
   2561306015.3286614     
   2567231551.0832758     
   2626868525.1630092     
   2574506337.6259427     
   2538835196.3257113     
   2520269364.9388490     
   2519223833.2328987     
   1955383081.6379085     
   2119412784.4589713     
   2284816289.2106352     
   2448636647.1841383     
   2608917432.6882777     
   2298870463.3946948     
   2449518114.0453997     
   2604897646.3698030     
   2763088043.0561318     
   2922660364.5492368     
   2694824806.4442649     
   2830543233.5113292     
   2973576530.4507403     
   3122842634.8133841     
   3277430619.3553710     
   3138032155.4574089     
   3255532065.4790969     
   3382445936.4332037     
   3518303633.5700574     
   3662646449.7736731     
   3625001194.5910811     
   3719691619.3453398     
   3825625174.8130083     
   3942735795.9838257     
   4070928501.4821725     
   2608917432.6882777     
   2676872800.5611377     
   2749265296.1679358     
   2825584219.9472661     
   2905474408.1050620     
   2922660364.5492368     
   2975664940.3635583     
   3030858899.8475881     
   3087558968.9198751     
   3145231192.6329346     
   3277430619.3553710     
   3320773675.2684059     
   3364357225.6999812     
   3407358572.9027166     
   3449099891.1653066     
   3662646449.7736731     
   3702143784.0380073     
   3740285041.2509179     
   3776172261.6677895     
   3809056635.6429305     
   4070928501.4821725     
   4112388571.7347126     
   4151245278.3162184     
   4186600752.2996035     
   4217722293.4170904     
   2905474408.1050620     
   2920371757.0493279     
   2936714013.8143787     
   2954449118.7789073     
   2973540701.4885225     
   3145231192.6329346     
   3141594700.5278592     
   3141618665.5150003     
   3145204371.3638654     
   3152340025.7766685     
   3449099891.1653066     
   3422966983.5902567     
   3401939585.1580091     
   3385789728.1650391     
   3374503458.9159412     
   3809056635.6429305     
   3756143578.4184036     
   3709195090.0290327     
   3667739019.0653734     
   3631681090.0097103     
   4217722293.4170904     
   4133484964.9604516     
   4055697502.6091514     
   3983512302.4902329     
   3916635847.1559758     
   2973540701.4885225     
   2941532241.4831309     
   2915918310.9418483     
   2896806866.2257814     
   2884361170.2655134     
   3152340025.7766685     
   3107971602.1135478     
   3069417454.6484399     
   3036852882.8432717     
   3010502378.3375540     
   3374503458.9159412     
   3317529399.8396149     
   3265843827.7895579     
   3219664928.6591992     
   3179258154.3060021     
   3631681090.0097103     
   3562168067.0602355     
   3497497452.6245961     
   3437910005.3692007     
   3383694446.3876433     
   3916635847.1559758     
   3834792757.1147175     
   3757438518.3474722     
   3684822224.2044249     
   3617243411.4704280     
   2884361170.2655134     
   2850489611.7527699     
   2823763357.5413647     
   2804352662.1311531     
   2792442146.8178596     
   3010502378.3375540     
   2966448001.8709445     
   2929030584.4803667     
   2898491964.8609867     
   2875102080.8464785     
   3179258154.3060021     
   3123356463.8993702     
   3073457370.5868926     
   3029858733.4734998     
   2992903513.3105230     
   3383694446.3876433     
   3314884686.5021996     
   3251356091.9793530     
   3193438922.3601251     
   3141525899.7070718     
   3617243411.4704280     
   3534927901.0378876     
   3457126254.3447852     
   3384175932.4029679     
   3316491984.3535976     
   2792442146.8178596     
   2749686166.9719067     
   2715546561.4944863     
   2690246452.4752903     
   2674026630.4475918     
   2875102080.8464785     
   2821281277.4273062     
   2775468233.9443097     
   2737967713.5758648     
   2709113192.2974234     
   2992903513.3105230     
   2926928911.4766965     
   2868299461.7585878     
   2817384420.1396103     
   2774595584.4592533     
   3141525899.7070718     
   3062867031.9917488     
   2990862838.4111362     
   2925922665.0927052     
   2868512222.1978426     
   3316491984.3535976     
   3225049918.3789616     
   3139576634.0998640     
   3060496435.9585071     
   2988301263.3594098     
   2674026630.4475918     
   2656067327.3180838     
   2642166523.6964774     
   2632406671.8137283     
   2626868525.1630092     
   2709113192.2974234     
   2683947717.0021515     
   2663970998.0738831     
   2649346973.4886160     
   2640242766.2883940     
   2774595584.4592533     
   2739834139.1731825     
   2711195826.9178848     
   2688957327.3209372     
   2673411075.0852642     
   2868512222.1978426     
   2821657575.3453641     
   2781634819.9753385     
   2748860952.3388567     
   2723792470.9366083     
   2988301263.3594098     
   2926863481.7150016     
   2872725803.3179002     
   2826464110.8458343     
   2788731598.5461612     
   2626868525.1630092     
   2574506337.6259427     
   2538835196.3257113     
   2520269364.9388490     
   2519223833.2328987     
   2640242766.2883940     
   2577105328.6618900     
   2527463618.4334798     
   2491886239.9301939     
   2470944060.5616465     
   2673411075.0852642     
   2599228388.1737189     
   2535356717.5831370     
   2482413865.2379117     
   2441034437.6088128     
   2723792470.9366083     
   2639911875.6149168     
   2563148973.3724031     
   2494038605.7993164     
   2433145944.3009410     
   2788731598.5461612     
   2697874188.7666926     
   2611015499.0851293     
   2528489374.5066981     
   2450659908.2276545     
   3625001194.5910811     
   3719691619.3453398     
   3825625174.8130083     
   3942735795.9838257     
   4070928501.4821725     
   4134105292.7304759     
   4224359954.2191191     
   4320528924.0008354     
   4420954073.9464140     
   4524179796.4915447     
   4643408956.9149361     
   4755500427.0600615     
   4868712562.2756710     
   4980410325.0779753     
   5088668388.7630138     
   5151392493.6491117     
   5311288218.8008747     
   5467816633.4204359     
   5618083055.1122360     
   5760622154.8666162     
   5657792074.7826700     
   5890885319.1689405     
   6116345042.9362392     
   6331713438.7221928     
   6536767504.2956715     
   4070928501.4821725     
   4112388571.7347126     
   4151245278.3162184     
   4186600752.2996035     
   4217722293.4170904     
   4524179796.4915447     
   4538940492.2163372     
   4558389546.3493528     
   4580046666.6070223     
   4602188548.0438509     
   5088668388.7630138     
   5053935114.3296938     
   5029709775.2149048     
   5010786350.3188581     
   4993964355.2335215     
   5760622154.8666162     
   5652046249.7425385     
   5559450493.6538124     
   5473775133.4761515     
   5389480766.3113985     
   6536767504.2956715     
   6328679017.9259872     
   6142747216.6667452     
   5965067341.3861380     
   5786633490.4622231     
   4217722293.4170904     
   4133484964.9604516     
   4055697502.6091514     
   3983512302.4902329     
   3916635847.1559758     
   4602188548.0438509     
   4493762994.0107346     
   4389554019.7126541     
   4289247128.1513696     
   4192754721.9752679     
   4993964355.2335215     
   4866639004.5696478     
   4742529732.0967007     
   4621606375.9775991     
   4503912100.6558990     
   5389480766.3113985     
   5248157390.5309458     
   5110102831.6734285     
   4975360032.3023567     
   4844025385.0113125     
   5786633490.4622231     
   5635652500.8276443     
   5488928862.5934925     
   5346377909.6729250     
   5208050001.3872318     
   3916635847.1559758     
   3834792757.1147175     
   3757438518.3474722     
   3684822224.2044249     
   3617243411.4704280     
   4192754721.9752679     
   4097024893.7572689     
   4004879847.3365059     
   3916555204.0137448     
   3832353172.1360960     
   4503912100.6558990     
   4393468192.5453329     
   4285606233.5165596     
   4180514749.3693838     
   4078467304.5314188     
   4844025385.0113125     
   4718305061.4129839     
   4594128802.7539816     
   4471609024.0743942     
   4350961386.1470175     
   5208050001.3872318     
   5066663842.9996471     
   4925799035.6217451     
   4785469279.6126623     
   4645808391.4923239     
   3617243411.4704280     
   3534927901.0378876     
   3457126254.3447852     
   3384175932.4029679     
   3316491984.3535976     
   3832353172.1360960     
   3734416472.8475986     
   3640321270.6427121     
   3550373777.7022047     
   3464953227.3877392     
   4078467304.5314188     
   3965966471.0364947     
   3856749891.5035391     
   3751077575.7664351     
   3649276837.5444279     
   4350961386.1470175     
   4224896257.2638974     
   4101685417.6675825     
   3981537441.8171563     
   3864722604.5518904     
   4645808391.4923239     
   4507051962.5724277     
   4370843709.5509949     
   4237341772.2521276     
   4106761716.9864545     
   3316491984.3535976     
   3225049918.3789616     
   3139576634.0998640     
   3060496435.9585071     
   2988301263.3594098     
   3464953227.3877392     
   3358746768.7793036     
   3257607006.7028356     
   3161957692.7242928     
   3072307697.9660053     
   3649276837.5444279     
   3528390278.1623116     
   3411618839.2950649     
   3299349260.9280882     
   3192063296.9636559     
   3864722604.5518904     
   3729516299.3979993     
   3597487073.6031284     
   3468958320.1786056     
   3344349751.5573573     
   4106761716.9864545     
   3957743086.7760029     
   3811022431.7196231     
   3666845447.9429646     
   3525548306.2720642     
   2988301263.3594098     
   2926863481.7150016     
   2872725803.3179002     
   2826464110.8458343     
   2788731598.5461612     
   3072307697.9660053     
   2993068422.7757673     
   2919209474.1879282     
   2851236148.9156508     
   2789734242.9337354     
   3192063296.9636559     
   3097515313.5354519     
   3006612179.4022956     
   2919729439.7815990     
   2837310193.7771101     
   3344349751.5573573     
   3237673154.0374928     
   3133215723.3772154     
   3031205199.0502682     
   2931912461.8473568     
   3525548306.2720642     
   3410262727.5066376     
   3296157516.2644968     
   3183333441.1509576     
   3071909917.7970448     
   2788731598.5461612     
   2697874188.7666926     
   2611015499.0851293     
   2528489374.5066981     
   2450659908.2276545     
   2789734242.9337354     
   2682873190.0037384     
   2581476793.0311146     
   2486098134.7839308     
   2397369951.9919076     
   2837310193.7771101     
   2711675119.0154347     
   2592286309.5837555     
   2479879659.6215911     
   2375366429.8163719     
   2931912461.8473568     
   2784658943.7439165     
   2643707938.5933070     
   2509884215.9145632     
   2384321866.9200373     
   3071909917.7970448     
   2900196397.4610605     
   2734189645.5060353     
   2574660502.6098318     
   2422835095.1083131     
   5657792074.7826700     
   5890885319.1689405     
   6116345042.9362392     
   6331713438.7221928     
   6536767504.2956715     
   6491661944.8592224     
   6586867407.4775372     
   6757403835.1649351     
   6961195750.6995945     
   7171584832.1651917     
   7982332087.8173151     
   7734957388.3865099     
   7669140154.5843153     
   7669590298.7014303     
   7666381713.3184338     
   10130248982.632280     
   9321996703.3462448     
   8826365132.2878571     
   8443550206.7457943     
   8035757088.9744492     
   12935499050.767239     
   11340699411.051653     
   10210246560.431707     
   9272839176.5457859     
   8304064376.2430067     
   6536767504.2956715     
   6328679017.9259872     
   6142747216.6667452     
   5965067341.3861380     
   5786633490.4622231     
   7171584832.1651917     
   6911018089.0935001     
   6658335469.2967691     
   6409677048.7405787     
   6161897427.3659239     
   7666381713.3184338     
   7381229669.4864311     
   7101458788.6269131     
   6827145520.9832163     
   6558490276.2787781     
   8035757088.9744492     
   7746958449.0738478     
   7473809288.1159353     
   7214355902.0667725     
   6968602447.5825891     
   8304064376.2430067     
   8020763072.4228010     
   7779520305.3564882     
   7569672447.0353813     
   7386252444.3999634     
   5786633490.4622231     
   5635652500.8276443     
   5488928862.5934925     
   5346377909.6729250     
   5208050001.3872318     
   6161897427.3659239     
   6012371049.5807428     
   5864217198.0836906     
   5717475263.0527115     
   5572202979.1781340     
   6558490276.2787781     
   6407518687.3021927     
   6254952966.9730778     
   6100761756.0273619     
   5944972043.8066206     
   6968602447.5825891     
   6814637711.8776360     
   6656105925.9884415     
   6492727366.7103529     
   6324447001.9252558     
   7386252444.3999634     
   7228732972.6207485     
   7063770913.4826851     
   6890683881.2462082     
   6709284040.3355284     
   5208050001.3872318     
   5066663842.9996471     
   4925799035.6217451     
   4785469279.6126623     
   4645808391.4923239     
   5572202979.1781340     
   5414607425.5583553     
   5257808395.8242006     
   5101837610.5356836     
   4946783208.5030203     
   5944972043.8066206     
   5773315613.6243114     
   5603052243.7272205     
   5434205921.2799654     
   5266838127.4578533     
   6324447001.9252558     
   6140343924.7228327     
   5958505586.7386370     
   5778917653.1766453     
   5601619953.8239193     
   6709284040.3355284     
   6513857106.2903261     
   6321814356.1298771     
   6133068915.3929853     
   5947632725.6003847     
   4645808391.4923239     
   4507051962.5724277     
   4370843709.5509949     
   4237341772.2521276     
   4106761716.9864545     
   4946783208.5030203     
   4798342087.7739944     
   4651286419.5996141     
   4505735154.8971910     
   4361850325.3647118     
   5266838127.4578533     
   5109613289.0050974     
   4952753652.6218147     
   4796332503.2310963     
   4640455992.9312334     
   5601619953.8239193     
   5436740184.7388058     
   5271344855.6416073     
   5105462875.5811844     
   4939150933.8562975     
   5947632725.6003847     
   5776381666.5694084     
   5603866483.0295162     
   5430078274.4775352     
   5255036462.2991915     
   4106761716.9864545     
   3957743086.7760029     
   3811022431.7196231     
   3666845447.9429646     
   3525548306.2720642     
   4361850325.3647118     
   4199087670.9221630     
   4038097947.3160944     
   3879045748.0736995     
   3722172389.2064986     
   4640455992.9312334     
   4464789871.8800163     
   4290499276.0789695     
   4117679318.4154530     
   3946489791.4493217     
   4939150933.8562975     
   4751207737.2988701     
   4564353741.4901571     
   4378627895.7775650     
   4194124787.0543728     
   5255036462.2991915     
   5055243211.2392883     
   4856343854.9512510     
   4658333694.5440550     
   4461257943.4189816     
   3525548306.2720642     
   3410262727.5066376     
   3296157516.2644968     
   3183333441.1509576     
   3071909917.7970448     
   3722172389.2064986     
   3599450649.5526037     
   3477993775.6813984     
   3357957183.2699771     
   3239542313.2713494     
   3946489791.4493217     
   3812992636.3959846     
   3680414992.1574154     
   3548937335.7486658     
   3418825259.0489993     
   4194124787.0543728     
   4046469472.5479465     
   3899026455.3374648     
   3751963423.2634664     
   3605579106.3611999     
   4461257943.4189816     
   4296114902.9022493     
   4130191619.5368052     
   3963596888.5041580     
   3796617450.9847789     
   3071909917.7970448     
   2900196397.4610605     
   2734189645.5060353     
   2574660502.6098318     
   2422835095.1083131     
   3239542313.2713494     
   3050832112.0843058     
   2864899619.2215490     
   2682088071.9077888     
   2502924101.3731580     
   3418825259.0489993     
   3222144985.9345241     
   3026652277.8756232     
   2832435858.8910327     
   2639625516.9428077     
   3605579106.3611999     
   3410047124.2755032     
   3215331002.3376427     
   3021447412.2484684     
   2828471442.5646348     
   3796617450.9847789     
   3611076906.8493381     
   3427027063.1447258     
   3244508479.2822418     
   3063753825.0546761     
 </DataArray>
 <DataArray  type="Float64" Name="strain" NumberOfComponents="3" format="ascii">
  0.20348494657240226        0.0000000000000000       0.12540060035892728     
  0.18665580163757359       -2.7323162126635651E-002   7.4350277023592454E-002
  0.16982665670274488       -4.4674204541482410E-002   3.5133141647626424E-002
  0.15299751176791621       -5.2053127244540282E-002   7.7491942310292557E-003
  0.13616836683308753       -4.9459930235809288E-002  -7.8015652261990975E-003
  0.15985548418232776        0.0000000000000000        9.6445888151740558E-002
  0.15317806589518029       -2.1843449148204977E-002   6.2689425861479575E-002
  0.14650064760803286       -3.6173391729133239E-002   3.7403228907212233E-002
  0.13982322932088539       -4.2989827742784752E-002   2.0587297288938586E-002
  0.13314581103373796       -4.2292757189159536E-002   1.2241631006658496E-002
  0.12645853100948187        0.0000000000000000        7.4200195495240595E-002
  0.12656991674664050       -1.6363736169774313E-002   5.5278981105541289E-002
  0.12668130248379911       -2.7672578916784051E-002   4.1465109428460468E-002
  0.12679268822095768       -3.3926528241029215E-002   3.2758580463998106E-002
  0.12690407395811634       -3.5125584142509818E-002   2.9159394212154254E-002
  0.10329408705386464        0.0000000000000000        5.8663522389427368E-002
  0.10683135419195414       -1.0884023191343644E-002   5.2118942755777602E-002
  0.11036862133004363       -1.9171766104434874E-002   4.7318783211371132E-002
  0.11390588846813313       -2.4863228739273682E-002   4.4263043756208001E-002
  0.11744315560622262       -2.7958411095860076E-002   4.2951724390288153E-002
   9.0362152315476008E-002   0.0000000000000000        4.9835868834300884E-002
   9.3962378231121219E-002  -5.4043102129129779E-003   5.3209310812188500E-002
   9.7562604146766430E-002  -1.0670953292085696E-002   5.4964250255944237E-002
  0.10116283006241163       -1.5799929237518152E-002   5.5100687165568117E-002
  0.10476305597805685       -2.0791238049210341E-002   5.3618621541060112E-002
  0.13616836683308753       -4.9459930235809288E-002  -7.8015652261990975E-003
  0.13296088941043344       -4.2927999942022149E-002  -3.3931961919780942E-003
  0.12975341198777934       -3.8490722789911572E-002  -3.9607732892840350E-004
  0.12654593456512525       -3.6148098779477646E-002   1.1897913629499053E-003
  0.12333845714247116       -3.5900127910720225E-002   1.3644098836569363E-003
  0.13314581103373796       -4.2292757189159536E-002   1.2241631006658496E-002
  0.12891445129676396       -3.8428961805677564E-002   1.2180831596839043E-002
  0.12468309155978996       -3.5745223329758824E-002   1.1483517729551137E-002
  0.12045173182281593       -3.4241541761403343E-002   1.0149689404794854E-002
  0.11622037208584199       -3.3917917100611095E-002   8.1793466225700273E-003
  0.12690407395811634       -3.5125584142509818E-002   2.9159394212154254E-002
  0.12242356762052534       -3.3929923669333034E-002   2.5544022592407664E-002
  0.11794306128293436       -3.2999723869606125E-002   2.2066872228895508E-002
  0.11346255494534330       -3.2334984743329097E-002   1.8727943121617772E-002
  0.10898204860775235       -3.1935706290501853E-002   1.5527235270574591E-002
  0.11744315560622262       -2.7958411095860076E-002   4.2951724390288153E-002
  0.11348823838171754       -2.9430885532988504E-002   3.6696376794727717E-002
  0.10953332115721245       -3.0254224409453429E-002   3.1353986169104710E-002
  0.10557840393270740       -3.0428427725254805E-002   2.6924552513419103E-002
  0.10162348670820233       -2.9953495480392667E-002   2.3408075827670786E-002
  0.10476305597805685       -2.0791238049210341E-002   5.3618621541060112E-002
  0.10210846358034061       -2.4931847396643975E-002   4.5637894203799337E-002
   9.9453871182624345E-002  -2.7508724949300692E-002   3.9344859550178815E-002
   9.6799278784908085E-002  -2.8521870707180565E-002   3.4739517580198574E-002
   9.4144686387191853E-002  -2.7971284670283508E-002   3.1821868293858649E-002
  0.12333845714247116       -3.5900127910720225E-002   1.3644098836569363E-003
  0.12041863897988592       -3.6394921337215447E-002   6.4990404624509779E-004
  0.11749882081730062       -3.6280590212539071E-002   1.1525196375600233E-004
  0.11457900265471532       -3.5557134536691355E-002  -2.3954636381012806E-004
  0.11165918449213008       -3.4224554309672139E-002  -4.1449093645351542E-004
  0.11622037208584199       -3.3917917100611095E-002   8.1793466225700273E-003
  0.11346849087938032       -3.3990075617486723E-002   7.8314931165977125E-003
  0.11071660967291859       -3.3673743582135283E-002   7.6396597679498357E-003
  0.10796472846645691       -3.2968920994556457E-002   7.6038465766261401E-003
  0.10521284725999519       -3.1875607854750548E-002   7.7240535426268964E-003
  0.10898204860775235       -3.1935706290501853E-002   1.5527235270574591E-002
  0.10637427075981570       -3.1585229897758110E-002   1.5325400097097742E-002
  0.10376649291187906       -3.1066896951731357E-002   1.5255751483346722E-002
  0.10115871506394242       -3.0380707452421694E-002   1.5318289429321306E-002
   9.8550937216005774E-002  -2.9526661399829041E-002   1.5513013935021830E-002
  0.10162348670820233       -2.9953495480392667E-002   2.3408075827670786E-002
   9.9135978621192195E-002  -2.9180384178029400E-002   2.3131624987745125E-002
   9.6648470534182046E-002  -2.8460050321327500E-002   2.2963527109946587E-002
   9.4160962447171898E-002  -2.7792493910286833E-002   2.2903782194275447E-002
   9.1673454360161791E-002  -2.7177714944907491E-002   2.2952390240731348E-002
   9.4144686387191853E-002  -2.7971284670283508E-002   3.1821868293858649E-002
   9.1753614463509672E-002  -2.6775538458300788E-002   3.1250167788539819E-002
   8.9362542539827505E-002  -2.5853203690923622E-002   3.0762986647749610E-002
   8.6971470616145366E-002  -2.5204280368152032E-002   3.0360324871488188E-002
   8.4580398692463199E-002  -2.4828768489985942E-002   3.0042182459755568E-002
  0.11165918449213008       -3.4224554309672139E-002  -4.1449093645351542E-004
  0.10853087353317042       -3.2710487752560691E-002  -1.9755146866304307E-004
  0.10540256257421071       -3.1442573086436804E-002   1.3333378476898528E-004
  0.10227425161525106       -3.0420810311299888E-002   5.7816482384194512E-004
   9.9145940656291343E-002  -2.9645199427150215E-002   1.1369416485563222E-003
  0.10521284725999519       -3.1875607854750548E-002   7.7240535426268964E-003
  0.10221626427394195       -3.0661414989202579E-002   7.5467608899628669E-003
   9.9219681287888689E-002  -2.9593953224397430E-002   7.5189783974705521E-003
   9.6223098301835439E-002  -2.8673222560335228E-002   7.6407060651497299E-003
   9.3226515315782188E-002  -2.7899222997015860E-002   7.9119438930006225E-003
   9.8550937216005774E-002  -2.9526661399829041E-002   1.5513013935021830E-002
   9.5721646577389283E-002  -2.8612342225844245E-002   1.5040909952147595E-002
   9.2892355938772764E-002  -2.7745333362358057E-002   1.4753880503975511E-002
   9.0063065300156231E-002  -2.6925634809370571E-002   1.4651925590504995E-002
   8.7233774661539754E-002  -2.6153246566881533E-002   1.4735045211736505E-002
   9.1673454360161791E-002  -2.7177714944907491E-002   2.2952390240731348E-002
   8.9047020443512329E-002  -2.6563269462485967E-002   2.2284895717891308E-002
   8.6420586526862853E-002  -2.5896713500318740E-002   2.1838040104283408E-002
   8.3794152610213363E-002  -2.5178047058405789E-002   2.1611823399907873E-002
   8.1167718693563901E-002  -2.4407270136747219E-002   2.1606245604764356E-002
   8.4580398692463199E-002  -2.4828768489985942E-002   3.0042182459755568E-002
   8.2192385872311063E-002  -2.4514196699127716E-002   2.9278718187193936E-002
   7.9804373052158969E-002  -2.4048093638279394E-002   2.8771457198394690E-002
   7.7416360232006848E-002  -2.3430459307441108E-002   2.8520399493358203E-002
   7.5028347411854712E-002  -2.2661293706612851E-002   2.8525545072084046E-002
   9.9145940656291343E-002  -2.9645199427150215E-002   1.1369416485563222E-003
   9.6256001582841977E-002  -2.8943298981476878E-002   1.0183716808727095E-003
   9.3366062509392500E-002  -2.8142667521768930E-002   1.0111512488251151E-003
   9.0476123435943107E-002  -2.7243305048026623E-002   1.1152803524134974E-003
   8.7586184362493658E-002  -2.6245211560249393E-002   1.3307589916380369E-003
   9.3226515315782188E-002  -2.7899222997015860E-002   7.9119438930006225E-003
   9.0456191165053101E-002  -2.7167284144634984E-002   7.8089943451182808E-003
   8.7685867014324070E-002  -2.6372735613388237E-002   7.8339251070401600E-003
   8.4915542863594984E-002  -2.5515577403275556E-002   7.9867361787667110E-003
   8.2145218712865897E-002  -2.4595809514296629E-002   8.2674275602981351E-003
   8.7233774661539754E-002  -2.6153246566881533E-002   1.4735045211736505E-002
   8.4599596207699523E-002  -2.5391269307793188E-002   1.4611594748486695E-002
   8.1965417753859307E-002  -2.4602803705007482E-002   1.4632555369210022E-002
   7.9331239300019035E-002  -2.3787849758524375E-002   1.4797927073906186E-002
   7.6697060846178833E-002  -2.2946407468343977E-002   1.5107709862575563E-002
   8.1167718693563901E-002  -2.4407270136747219E-002   2.1606245604764356E-002
   7.8686216710781035E-002  -2.3615254470951370E-002   2.1426172890978416E-002
   7.6204714727998141E-002  -2.2832871796626814E-002   2.1407042035334153E-002
   7.3723212745215330E-002  -2.2060122113773419E-002   2.1548853037831547E-002
   7.1241710762432436E-002  -2.1297005422391213E-002   2.1851605898470468E-002
   7.5028347411854712E-002  -2.2661293706612851E-002   2.8525545072084046E-002
   7.2716052674297732E-002  -2.1839239634109553E-002   2.8252728772593522E-002
   7.0403757936740752E-002  -2.1062939888246118E-002   2.8157385105413157E-002
   6.8091463199183785E-002  -2.0332394469022345E-002   2.8239514070542801E-002
   6.5779168461626764E-002  -1.9647603376438449E-002   2.8499115667982799E-002
   8.7586184362493658E-002  -2.6245211560249393E-002   1.3307589916380369E-003
   8.4262164756200630E-002  -2.5228839723341057E-002   1.0352488673662230E-003
   8.0938145149907770E-002  -2.4274642202203406E-002   9.3828778451793271E-004
   7.7614125543614826E-002  -2.3382618996837821E-002   1.0398757430933603E-003
   7.4290105937321882E-002  -2.2552770107243436E-002   1.3400127430922559E-003
   8.2145218712865897E-002  -2.4595809514296629E-002   8.2674275602981351E-003
   7.9019966972890293E-002  -2.3665847755763164E-002   7.9127459160967251E-003
   7.5894715232914717E-002  -2.2778107936985814E-002   7.7570509631060824E-003
   7.2769463492939071E-002  -2.1932590057965287E-002   7.8003427013263321E-003
   6.9644211752963481E-002  -2.1129294118700792E-002   8.0426211307578210E-003
   7.6697060846178833E-002  -2.2946407468343977E-002   1.5107709862575563E-002
   7.3771014622307868E-002  -2.2102855788185466E-002   1.4713809074459377E-002
   7.0844968398436889E-002  -2.1281573671768347E-002   1.4519332627341675E-002
   6.7918922174565938E-002  -2.0482561119092756E-002   1.4524280521222281E-002
   6.4992875950694945E-002  -1.9705818130158370E-002   1.4728652756100996E-002
   7.1241710762432436E-002  -2.1297005422391213E-002   2.1851605898470468E-002
   6.8515307704453465E-002  -2.0539863820607837E-002   2.1438438342454735E-002
   6.5788904646474466E-002  -1.9785039406550818E-002   2.1225132777224803E-002
   6.3062501588495454E-002  -1.9032532180220114E-002   2.1211689202780444E-002
   6.0336098530516490E-002  -1.8282342141615893E-002   2.1398107619121705E-002
   6.5779168461626764E-002  -1.9647603376438449E-002   2.8499115667982799E-002
   6.3252846219327030E-002  -1.8976871853030014E-002   2.8086633720082549E-002
   6.0726523977027311E-002  -1.8288505141333289E-002   2.7874451412755408E-002
   5.8200201734727557E-002  -1.7582503241347497E-002   2.7862568746001001E-002
   5.5673879492427858E-002  -1.6858866153073304E-002   2.8050985719819677E-002
   7.4290105937321882E-002  -2.2552770107243436E-002   1.3400127430922559E-003
   7.1540775524721600E-002  -2.1718720866959140E-002   1.1850879312387264E-003
   6.8791445112121430E-002  -2.0814096609523464E-002   1.3699207461878582E-003
   6.6042114699521232E-002  -1.9838897334936677E-002   1.8945111879396515E-003
   6.3292784286920978E-002  -1.8793123043198467E-002   2.7588592564941061E-003
   6.9644211752963481E-002  -2.1129294118700792E-002   8.0426211307578210E-003
   6.7199363349794428E-002  -2.0321601920325894E-002   7.9077738211869031E-003
   6.4754514946625374E-002  -1.9462895263972824E-002   8.0421329036760580E-003
   6.2309666543456321E-002  -1.8553174149641916E-002   8.4456983782243422E-003
   5.9864818140287268E-002  -1.7592438577333058E-002   9.1184702448326993E-003
   6.4992875950694945E-002  -1.9705818130158370E-002   1.4728652756100996E-002
   6.2781958322213921E-002  -1.8924482973692536E-002   1.4594322389639869E-002
   6.0571040693732967E-002  -1.8111693918422087E-002   1.4658647180495143E-002
   5.8360123065251922E-002  -1.7267450964347380E-002   1.4921627128666827E-002
   5.6149205436770905E-002  -1.6391754111467816E-002   1.5383262234155010E-002
   6.0336098530516490E-002  -1.8282342141615893E-002   2.1398107619121705E-002
   5.8288560441980289E-002  -1.7527364027059233E-002   2.1244733636596708E-002
   5.6241022353444026E-002  -1.6760492572871398E-002   2.1219463576644764E-002
   5.4193484264907853E-002  -1.5981727779052511E-002   2.1322297439266308E-002
   5.2145946176371555E-002  -1.5191069645602712E-002   2.1553235224461127E-002
   5.5673879492427858E-002  -1.6858866153073304E-002   2.8050985719819677E-002
   5.3719169709093295E-002  -1.6130245080425903E-002   2.7859007562057336E-002
   5.1764459925758732E-002  -1.5409291227320820E-002   2.7724582092125138E-002
   4.9809750142424170E-002  -1.4696004593758055E-002   2.7647709310023069E-002
   4.7855040359089607E-002  -1.3990385179737497E-002   2.7628389215751059E-002
   6.3292784286920978E-002  -1.8793123043198467E-002   2.7588592564941061E-003
   6.0216431212989141E-002  -1.7782433805151876E-002   2.8365767640017303E-003
   5.7140078139057249E-002  -1.6912489691640581E-002   2.6395565948542088E-003
   5.4063725065125467E-002  -1.6183290702664825E-002   2.1677987490535122E-003
   5.0987371991193520E-002  -1.5594836838224158E-002   1.4213032265977255E-003
   5.9864818140287268E-002  -1.7592438577333058E-002   9.1184702448326993E-003
   5.6596365450229946E-002  -1.6654692081513323E-002   8.8723103882402676E-003
   5.3327912760172458E-002  -1.5813938196648919E-002   8.5166889760515119E-003
   5.0059460070114997E-002  -1.5070176922741048E-002   8.0516060082647667E-003
   4.6791007380057592E-002  -1.4423408259788495E-002   7.4770614848824746E-003
   5.6149205436770905E-002  -1.6391754111467816E-002   1.5383262234155010E-002
   5.2853929251645365E-002  -1.5526950357874381E-002   1.4856977527042431E-002
   4.9558653066519853E-002  -1.4715386701657382E-002   1.4386507385390587E-002
   4.6263376881394425E-002  -1.3957063142816941E-002   1.3971851809199749E-002
   4.2968100696268774E-002  -1.3251979681352610E-002   1.3613010798468550E-002
   5.2145946176371555E-002  -1.5191069645602712E-002   2.1553235224461127E-002
   4.8989122617235523E-002  -1.4399208634235744E-002   2.0790578180407825E-002
   4.5832299058099366E-002  -1.3616835206665671E-002   2.0249011822872840E-002
   4.2675475498963153E-002  -1.2843949362892999E-002   1.9928536151855830E-002
   3.9518651939827107E-002  -1.2080551102917059E-002   1.9829151167356895E-002
   4.7855040359089607E-002  -1.3990385179737497E-002   2.7628389215751059E-002
   4.5001945547000349E-002  -1.3271466910597052E-002   2.6673112348336525E-002
   4.2148850734911036E-002  -1.2518283711674266E-002   2.6104202288497469E-002
   3.9295755922821723E-002  -1.1730835582969022E-002   2.5921659036234140E-002
   3.6442661110732466E-002  -1.0909122524481285E-002   2.6125482591546234E-002
   9.0362152315476008E-002   0.0000000000000000        4.9835868834300884E-002
   9.3962378231121219E-002  -5.4043102129129779E-003   5.3209310812188500E-002
   9.7562604146766430E-002  -1.0670953292085696E-002   5.4964250255944237E-002
  0.10116283006241163       -1.5799929237518152E-002   5.5100687165568117E-002
  0.10476305597805685       -2.0791238049210341E-002   5.3618621541060112E-002
   8.2424770966368591E-002   0.0000000000000000        4.4784458298989333E-002
   8.4635449829588344E-002  -4.5741853276956030E-003   4.8267778849931678E-002
   8.6846128692808069E-002  -9.0373867291023979E-003   5.0590507830154986E-002
   8.9056807556027837E-002  -1.3389604204220381E-002   5.1752645239659209E-002
   9.1267486419247548E-002  -1.7630837753049567E-002   5.1754191078444381E-002
   7.4243987178594970E-002   0.0000000000000000        4.0576514252620870E-002
   7.5523029952802051E-002  -3.7440604424782255E-003   4.4143030169166514E-002
   7.6802072727009146E-002  -7.4038201661190996E-003   4.7006865478405886E-002
   7.8081115501216242E-002  -1.0979279170922623E-002   4.9168020180339028E-002
   7.9360158275423323E-002  -1.4470437456888797E-002   5.0626494274965919E-002
   6.5819800952155130E-002   0.0000000000000000        3.7212036695195523E-002
   6.6625118600762381E-002  -2.9139355572608493E-003   4.0835064769892980E-002
   6.7430436249369632E-002  -5.7702536031358029E-003   4.4213323200697000E-002
   6.8235753897976884E-002  -8.5689541376248596E-003   4.7346811987607589E-002
   6.9041071546584135E-002  -1.1310037160728021E-002   5.0235531130624733E-002
   5.7152212287049101E-002   0.0000000000000000        3.4691025626713279E-002
   5.7941715773469321E-002  -2.0838106720434731E-003   3.8343882652111097E-002
   5.8731219259889542E-002  -4.1366870401525029E-003   4.2209880997028305E-002
   5.9520722746309769E-002  -6.1586291043270978E-003   4.6289020661464890E-002
   6.0310226232729996E-002  -8.1496368645672477E-003   5.0581301645420844E-002
  0.10476305597805685       -2.0791238049210341E-002   5.3618621541060112E-002
  0.10210846358034061       -2.4931847396643975E-002   4.5637894203799337E-002
   9.9453871182624345E-002  -2.7508724949300692E-002   3.9344859550178815E-002
   9.6799278784908085E-002  -2.8521870707180565E-002   3.4739517580198574E-002
   9.4144686387191853E-002  -2.7971284670283508E-002   3.1821868293858649E-002
   9.1267486419247548E-002  -1.7630837753049567E-002   5.1754191078444381E-002
   9.0063307217905036E-002  -2.1205907757658685E-002   4.6516963147366197E-002
   8.8859128016562511E-002  -2.3559634600116491E-002   4.2492868925395076E-002
   8.7654948815219985E-002  -2.4692018280422993E-002   3.9681908412531233E-002
   8.6450769613877432E-002  -2.4603058798578152E-002   3.8084081608774467E-002
   7.9360158275423323E-002  -1.4470437456888797E-002   5.0626494274965919E-002
   7.9131833295921397E-002  -1.7479968118673431E-002   4.7790377117444702E-002
   7.8903508316419443E-002  -1.9610544250932296E-002   4.5692834694497558E-002
   7.8675183336917517E-002  -2.0862165853665446E-002   4.4333867006124426E-002
   7.8446858357415550E-002  -2.1234832926872824E-002   4.3713474052325299E-002
   6.9041071546584135E-002  -1.1310037160728021E-002   5.0235531130624733E-002
   6.9314041814389660E-002  -1.3754028479688148E-002   4.9458136114034969E-002
   6.9587012082195213E-002  -1.5661453901748102E-002   4.8944756857486123E-002
   6.9859982350000724E-002  -1.7032313426907895E-002   4.8695393360978202E-002
   7.0132952617806263E-002  -1.7866607055167474E-002   4.8710045624511117E-002
   6.0310226232729996E-002  -8.1496368645672477E-003   5.0581301645420844E-002
   6.0609932773309852E-002  -1.0028088840702883E-002   5.1520240137136963E-002
   6.0909639313889749E-002  -1.1712363552563896E-002   5.2248635414360811E-002
   6.1209345854469611E-002  -1.3202461000150342E-002   5.2766487477092526E-002
   6.1509052395049495E-002  -1.4498381183462153E-002   5.3073796325332018E-002
   9.4144686387191853E-002  -2.7971284670283508E-002   3.1821868293858649E-002
   9.1753614463509672E-002  -2.6775538458300788E-002   3.1250167788539819E-002
   8.9362542539827505E-002  -2.5853203690923622E-002   3.0762986647749610E-002
   8.6971470616145366E-002  -2.5204280368152032E-002   3.0360324871488188E-002
   8.4580398692463199E-002  -2.4828768489985942E-002   3.0042182459755568E-002
   8.6450769613877432E-002  -2.4603058798578152E-002   3.8084081608774467E-002
   8.4189837651628407E-002  -2.3957461688218950E-002   3.7057267542348518E-002
   8.1928905689379369E-002  -2.3419932482982277E-002   3.6206214034260172E-002
   7.9667973727130331E-002  -2.2990471182868233E-002   3.5530921084509420E-002
   7.7407041764881279E-002  -2.2669077787876718E-002   3.5031388693096077E-002
   7.8446858357415550E-002  -2.1234832926872824E-002   4.3713474052325299E-002
   7.6407307550408490E-002  -2.1139384918137112E-002   4.2396889964275299E-002
   7.4367756743401459E-002  -2.0986661275040983E-002   4.1347307628371688E-002
   7.2328205936394427E-002  -2.0776661997584434E-002   4.0564727044614481E-002
   7.0288655129387367E-002  -2.0509387085767439E-002   4.0049148213003635E-002
   7.0132952617806263E-002  -1.7866607055167474E-002   4.8710045624511117E-002
   6.8406024159850032E-002  -1.8321308148055302E-002   4.7269035054319994E-002
   6.6679095701893815E-002  -1.8553390067099683E-002   4.6186267430084152E-002
   6.4952167243937570E-002  -1.8562852812300648E-002   4.5461742751803591E-002
   6.3225238785981352E-002  -1.8349696383658215E-002   4.5095461019478172E-002
   6.1509052395049495E-002  -1.4498381183462153E-002   5.3073796325332018E-002
   6.0185987479952935E-002  -1.5503231377973430E-002   5.1673702812482736E-002
   5.8862922564856382E-002  -1.6120118859158344E-002   5.0723093439397612E-002
   5.7539857649759836E-002  -1.6349043627016856E-002   5.0221968206076537E-002
   5.6216792734663262E-002  -1.6190005681548922E-002   5.0170327112519633E-002
   8.4580398692463199E-002  -2.4828768489985942E-002   3.0042182459755568E-002
   8.2192385872311063E-002  -2.4514196699127716E-002   2.9278718187193936E-002
   7.9804373052158969E-002  -2.4048093638279394E-002   2.8771457198394690E-002
   7.7416360232006848E-002  -2.3430459307441108E-002   2.8520399493358203E-002
   7.5028347411854712E-002  -2.2661293706612851E-002   2.8525545072084046E-002
   7.7407041764881279E-002  -2.2669077787876718E-002   3.5031388693096077E-002
   7.5267010991831709E-002  -2.2346321828102117E-002   3.4445835628301738E-002
   7.3126980218782112E-002  -2.1912772833638773E-002   3.4100043373949965E-002
   7.0986949445732486E-002  -2.1368430804486818E-002   3.3994011930040785E-002
   6.8846918672682930E-002  -2.0713295740646037E-002   3.4127741296574143E-002
   7.0288655129387367E-002  -2.0509387085767439E-002   4.0049148213003635E-002
   6.8380163930120308E-002  -2.0178446957076504E-002   3.9600768120675402E-002
   6.6471672730853304E-002  -1.9777452028998208E-002   3.9375706365469679E-002
   6.4563181531586258E-002  -1.9306402301532407E-002   3.9373962947386598E-002
   6.2654690332319213E-002  -1.8765297774679224E-002   3.9595537866426028E-002
   6.3225238785981352E-002  -1.8349696383658215E-002   4.5095461019478172E-002
   6.1531844687176894E-002  -1.8010572086050954E-002   4.4743515664314670E-002
   5.9838450588372498E-002  -1.7642131224357586E-002   4.4598446172953776E-002
   5.8145056489568046E-002  -1.7244373798578086E-002   4.4660252545395525E-002
   5.6451662390763657E-002  -1.6817299808712396E-002   4.4928934781639930E-002
   5.6216792734663262E-002  -1.6190005681548922E-002   5.0170327112519633E-002
   5.4722053263001502E-002  -1.5842697215025348E-002   4.9874078259219579E-002
   5.3227313791339714E-002  -1.5506810419717038E-002   4.9768262796402195E-002
   5.1732574319677961E-002  -1.5182345295623696E-002   4.9852880724067572E-002
   5.0237834848016166E-002  -1.4869301842745569E-002   5.0127932042215467E-002
   7.5028347411854712E-002  -2.2661293706612851E-002   2.8525545072084046E-002
   7.2716052674297732E-002  -2.1839239634109553E-002   2.8252728772593522E-002
   7.0403757936740752E-002  -2.1062939888246118E-002   2.8157385105413157E-002
   6.8091463199183785E-002  -2.0332394469022345E-002   2.8239514070542801E-002
   6.5779168461626764E-002  -1.9647603376438449E-002   2.8499115667982799E-002
   6.8846918672682930E-002  -2.0713295740646037E-002   3.4127741296574143E-002
   6.6714990357381571E-002  -2.0012807193399457E-002   3.3814098988578872E-002
   6.4583062042080169E-002  -1.9332404714029951E-002   3.3683716892784529E-002
   6.2451133726778824E-002  -1.8672088302537478E-002   3.3736595009191253E-002
   6.0319205411477395E-002  -1.8031857958921926E-002   3.3972733337799266E-002
   6.2654690332319213E-002  -1.8765297774679224E-002   3.9595537866426028E-002
   6.0708916019164422E-002  -1.8186374752689388E-002   3.9266737808688661E-002
   5.8763141706009644E-002  -1.7601869539813839E-002   3.9126985543043238E-002
   5.6817367392854798E-002  -1.7011782136052585E-002   3.9176281069489990E-002
   5.4871593079700014E-002  -1.6416112541405514E-002   3.9414624388028771E-002
   5.6451662390763657E-002  -1.6817299808712396E-002   4.4928934781639930E-002
   5.4697829659646396E-002  -1.6359942311979389E-002   4.4610645232923178E-002
   5.2943996928529080E-002  -1.5871334365597782E-002   4.4487191056189535E-002
   5.1190164197411819E-002  -1.5351475969567622E-002   4.4558572251438930E-002
   4.9436331466294531E-002  -1.4800367123888963E-002   4.4824788818671135E-002
   5.0237834848016166E-002  -1.4869301842745569E-002   5.0127932042215467E-002
   4.8681731278827398E-002  -1.4533509871269279E-002   4.9845821261282397E-002
   4.7125627709638601E-002  -1.4140799191381649E-002   4.9764333432223126E-002
   4.5569524140449846E-002  -1.3691169803082806E-002   4.9883468555037995E-002
   4.4013420571261036E-002  -1.3184621706372579E-002   5.0203226629726594E-002
   6.5779168461626764E-002  -1.9647603376438449E-002   2.8499115667982799E-002
   6.3252846219327030E-002  -1.8976871853030014E-002   2.8086633720082549E-002
   6.0726523977027311E-002  -1.8288505141333289E-002   2.7874451412755408E-002
   5.8200201734727557E-002  -1.7582503241347497E-002   2.7862568746001001E-002
   5.5673879492427858E-002  -1.6858866153073304E-002   2.8050985719819677E-002
   6.0319205411477395E-002  -1.8031857958921926E-002   3.3972733337799266E-002
   5.7992499239835432E-002  -1.7397304731481961E-002   3.3585102050263327E-002
   5.5665793068193414E-002  -1.6754019668515502E-002   3.3396403263469973E-002
   5.3339086896551445E-002  -1.6102002770023181E-002   3.3406636977418989E-002
   5.1012380724909434E-002  -1.5441254036004159E-002   3.3615803192110744E-002
   5.4871593079700014E-002  -1.6416112541405514E-002   3.9414624388028771E-002
   5.2743135838885354E-002  -1.5817737609933616E-002   3.9042940408094598E-002
   5.0614678598070714E-002  -1.5219534195697937E-002   3.8868821789072666E-002
   4.8486221357256068E-002  -1.4621502298698422E-002   3.8892268530962802E-002
   4.6357764116441352E-002  -1.4023641918935015E-002   3.9113280633765068E-002
   4.9436331466294531E-002  -1.4800367123888963E-002   4.4824788818671135E-002
   4.7504756016476878E-002  -1.4238170488385334E-002   4.4460148793576501E-002
   4.5573180566659190E-002  -1.3685048722880344E-002   4.4291706989563501E-002
   4.3641605116841509E-002  -1.3141001827373815E-002   4.4319463406632259E-002
   4.1710029667023855E-002  -1.2606029801865926E-002   4.4543418044782873E-002
   4.4013420571261036E-002  -1.3184621706372579E-002   5.0203226629726594E-002
   4.2277359772609935E-002  -1.2658603366837190E-002   4.9836727206708897E-002
   4.0541298973958848E-002  -1.2150563250062571E-002   4.9665058864942435E-002
   3.8805238175307726E-002  -1.1660501356049343E-002   4.9688221604427513E-002
   3.7069177376656659E-002  -1.1188417684796725E-002   4.9906215425163936E-002
   5.5673879492427858E-002  -1.6858866153073304E-002   2.8050985719819677E-002
   5.3719169709093295E-002  -1.6130245080425903E-002   2.7859007562057336E-002
   5.1764459925758732E-002  -1.5409291227320820E-002   2.7724582092125138E-002
   4.9809750142424170E-002  -1.4696004593758055E-002   2.7647709310023069E-002
   4.7855040359089607E-002  -1.3990385179737497E-002   2.7628389215751059E-002
   5.1012380724909434E-002  -1.5441254036004159E-002   3.3615803192110744E-002
   4.9137642120396730E-002  -1.4773877650332196E-002   3.3451553808509366E-002
   4.7262903515884053E-002  -1.4101977796880855E-002   3.3389694094721714E-002
   4.5388164911371334E-002  -1.3425554475649561E-002   3.3430224050747810E-002
   4.3513426306858671E-002  -1.2744607686638598E-002   3.3573143676587314E-002
   4.6357764116441352E-002  -1.4023641918935015E-002   3.9113280633765068E-002
   4.4607833672734201E-002  -1.3417510220238779E-002   3.8988950711646764E-002
   4.2857903229026981E-002  -1.2794664366440889E-002   3.9011847441325631E-002
   4.1107972785319774E-002  -1.2155104357541177E-002   3.9181970822801865E-002
   3.9358042341612554E-002  -1.1498830193539755E-002   3.9499320856075298E-002
   4.1710029667023855E-002  -1.2606029801865926E-002   4.4543418044782873E-002
   4.0129744366105669E-002  -1.2061142790145328E-002   4.4471198271469538E-002
   3.8549459065187579E-002  -1.1487350936000923E-002   4.4591042131936889E-002
   3.6969173764269433E-002  -1.0884654239432710E-002   4.4902949626185455E-002
   3.5388888463351295E-002  -1.0253052700440884E-002   4.5406920754214548E-002
   3.7069177376656659E-002  -1.1188417684796725E-002   4.9906215425163936E-002
   3.5703374200511201E-002  -1.0704775360051683E-002   4.9898296487977833E-002
   3.4337571024365771E-002  -1.0180037505561110E-002   5.0127278166555850E-002
   3.2971767848220326E-002  -9.6142041213243649E-003   5.0593160460898443E-002
   3.1605964672074882E-002  -9.0072752073419582E-003   5.1295943371005459E-002
   4.7855040359089607E-002  -1.3990385179737497E-002   2.7628389215751059E-002
   4.5001945547000349E-002  -1.3271466910597052E-002   2.6673112348336525E-002
   4.2148850734911036E-002  -1.2518283711674266E-002   2.6104202288497469E-002
   3.9295755922821723E-002  -1.1730835582969022E-002   2.5921659036234140E-002
   3.6442661110732466E-002  -1.0909122524481285E-002   2.6125482591546234E-002
   4.3513426306858671E-002  -1.2744607686638598E-002   3.3573143676587314E-002
   4.1003921202945631E-002  -1.2052057356155971E-002   3.2787794069231546E-002
   3.8494416099032619E-002  -1.1340823410509404E-002   3.2303257070652291E-002
   3.5984910995119482E-002  -1.0610905849699218E-002   3.2119532680850202E-002
   3.3475405891206511E-002  -9.8623046737247311E-003   3.2236620899825263E-002
   3.9358042341612554E-002  -1.1498830193539755E-002   3.9499320856075298E-002
   3.7106572747077106E-002  -1.0832647801714751E-002   3.8868317194159313E-002
   3.4855103152541700E-002  -1.0163363109344556E-002   3.8452571942221653E-002
   3.2603633558006183E-002  -9.4909761164291111E-003   3.8252085100262213E-002
   3.0352163963470846E-002  -8.8154868229682881E-003   3.8266856668281335E-002
   3.5388888463351295E-002  -1.0253052700440884E-002   4.5406920754214548E-002
   3.3309900179394815E-002  -9.6132382472736005E-003   4.4914681723120117E-002
   3.1230911895438276E-002  -8.9859028081798117E-003   4.4552146903205511E-002
   2.9151923611481730E-002  -8.3710463831591555E-003   4.4319316294470258E-002
   2.7072935327525249E-002  -7.7686689722117341E-003   4.4216189896914809E-002
   3.1605964672074882E-002  -9.0072752073419582E-003   5.1295943371005459E-002
   2.9613903499898675E-002  -8.3938286928325057E-003   5.0926887656114139E-002
   2.7621842327722440E-002  -7.8084425070148872E-003   5.0601981953603742E-002
   2.5629781155546219E-002  -7.2511166498892658E-003   5.0321226263474142E-002
   2.3637719983369998E-002  -6.7218511214552912E-003   5.0084620585725492E-002
   5.7152212287049101E-002   0.0000000000000000        3.4691025626713279E-002
   5.7941715773469321E-002  -2.0838106720434731E-003   3.8343882652111097E-002
   5.8731219259889542E-002  -4.1366870401525029E-003   4.2209880997028305E-002
   5.9520722746309769E-002  -6.1586291043270978E-003   4.6289020661464890E-002
   6.0310226232729996E-002  -8.1496368645672477E-003   5.0581301645420844E-002
   4.8652793479010623E-002   0.0000000000000000        3.2790224316591260E-002
   4.9590361524966861E-002  -1.7092346923121178E-003   3.6966303990695490E-002
   5.0527929570923093E-002  -3.4322891767817852E-003   4.1225371464352387E-002
   5.1465497616879331E-002  -5.1691634534089953E-003   4.5567426737561895E-002
   5.2403065662835577E-002  -6.9198575221937619E-003   4.9992469810324069E-002
   4.0733116823773480E-002   0.0000000000000000        3.1286376034246589E-002
   4.1688595909298992E-002  -1.3346587125807616E-003   3.5940924260965249E-002
   4.2644074994824518E-002  -2.7278913134110589E-003   4.0548306767269823E-002
   4.3599554080350031E-002  -4.1796978024908945E-003   4.5108523553160314E-002
   4.4555033165875543E-002  -5.6900781798202684E-003   4.9621574618636720E-002
   3.3393182321337672E-002   0.0000000000000000        3.0179480779679274E-002
   3.4236418926465735E-002  -9.6008273284940498E-004   3.5267743462920366E-002
   3.5079655531593798E-002  -2.0234934500403352E-003   4.0178686905780643E-002
   3.5922892136721875E-002  -3.1902321515727937E-003   4.4912311108260106E-002
   3.6766128741849931E-002  -4.4602988374467748E-003   4.9468616070358740E-002
   2.6632989971703186E-002   0.0000000000000000        2.9469538552889307E-002
   2.7233830576467069E-002  -5.8550675311805009E-004   3.4946761596560849E-002
   2.7834671181230959E-002  -1.3190955866696132E-003   4.0116511879884832E-002
   2.8435511785994842E-002  -2.2007665006546894E-003   4.4978789402861277E-002
   2.9036352390758729E-002  -3.2305194950732873E-003   4.9533594165490170E-002
   6.0310226232729996E-002  -8.1496368645672477E-003   5.0581301645420844E-002
   6.0609932773309852E-002  -1.0028088840702883E-002   5.1520240137136963E-002
   6.0909639313889749E-002  -1.1712363552563896E-002   5.2248635414360811E-002
   6.1209345854469611E-002  -1.3202461000150342E-002   5.2766487477092526E-002
   6.1509052395049495E-002  -1.4498381183462153E-002   5.3073796325332018E-002
   5.2403065662835577E-002  -6.9198575221937619E-003   4.9992469810324069E-002
   5.2530691273578595E-002  -8.5832701201759530E-003   5.1220278658648602E-002
   5.2658316884321633E-002  -1.0058299984395436E-002   5.2314468861791662E-002
   5.2785942495064651E-002  -1.1344947114852250E-002   5.3275040419753270E-002
   5.2913568105807683E-002  -1.2443211511546343E-002   5.4101993332533356E-002
   4.4555033165875543E-002  -5.6900781798202684E-003   4.9621574618636720E-002
   4.4587502416092474E-002  -7.1384513996490106E-003   5.1132459293057778E-002
   4.4619971666309384E-002  -8.4042364162269702E-003   5.2586649891608057E-002
   4.4652440916526315E-002  -9.4874332295541534E-003   5.3984146414287643E-002
   4.4684910166743239E-002  -1.0388041839630539E-002   5.5324948861096485E-002
   3.6766128741849931E-002  -4.4602988374467748E-003   4.9468616070358740E-002
   3.6780366200851490E-002  -5.6936326791220864E-003   5.1256782040364407E-002
   3.6794603659853042E-002  -6.7501728480585206E-003   5.3065178503810068E-002
   3.6808841118854595E-002  -7.6299193442560618E-003   5.4893805460695708E-002
   3.6823078577856161E-002  -8.3328721677147395E-003   5.6742662911021383E-002
   2.9036352390758729E-002  -3.2305194950732873E-003   4.9533594165490170E-002
   2.9109282627855653E-002  -4.2488139585951431E-003   5.1593246900568525E-002
   2.9182212864952581E-002  -5.0961092798900414E-003   5.3750054698397630E-002
   2.9255143102049505E-002  -5.7724054589579727E-003   5.6004017558977465E-002
   2.9328073339146429E-002  -6.2777024957989327E-003   5.8355135482308022E-002
   6.1509052395049495E-002  -1.4498381183462153E-002   5.3073796325332018E-002
   6.0185987479952935E-002  -1.5503231377973430E-002   5.1673702812482736E-002
   5.8862922564856382E-002  -1.6120118859158344E-002   5.0723093439397612E-002
   5.7539857649759836E-002  -1.6349043627016856E-002   5.0221968206076537E-002
   5.6216792734663262E-002  -1.6190005681548922E-002   5.0170327112519633E-002
   5.2913568105807683E-002  -1.2443211511546343E-002   5.4101993332533356E-002
   5.1988548396712408E-002  -1.3293816132875405E-002   5.3364737001245582E-002
   5.1063528687617141E-002  -1.3837483937237112E-002   5.2974086942196227E-002
   5.0138508978521866E-002  -1.4074214924631403E-002   5.2930043155385402E-002
   4.9213489269426584E-002  -1.4004009095058306E-002   5.3232605640813002E-002
   4.4684910166743239E-002  -1.0388041839630539E-002   5.5324948861096485E-002
   4.4055057796123613E-002  -1.1084400887777356E-002   5.5169503815011144E-002
   4.3425205425503988E-002  -1.1554849015315824E-002   5.5257787173638558E-002
   4.2795353054884369E-002  -1.1799386222245894E-002   5.5589798936978872E-002
   4.2165500684264744E-002  -1.1818012508567642E-002   5.6165539105031970E-002
   3.6823078577856161E-002  -8.3328721677147395E-003   5.6742662911021383E-002
   3.6385515678186549E-002  -8.8749856426792988E-003   5.7088003253779433E-002
   3.5947952778516944E-002  -9.2722140933945221E-003   5.7574194133724652E-002
   3.5510389878847332E-002  -9.5245575198604337E-003   5.8201235550857065E-002
   3.5072826979177719E-002  -9.6320159220769745E-003   5.8969127505176695E-002
   2.9328073339146429E-002  -6.2777024957989327E-003   5.8355135482308022E-002
   2.8979922042901216E-002  -6.6655703975812761E-003   5.9120235317550431E-002
   2.8631770746655984E-002  -6.9895791714732914E-003   5.9923307822454405E-002
   2.8283619450410753E-002  -7.2497288174749493E-003   6.0764352997019960E-002
   2.7935468154165539E-002  -7.4460193355863347E-003   6.1643370841247075E-002
   5.6216792734663262E-002  -1.6190005681548922E-002   5.0170327112519633E-002
   5.4722053263001502E-002  -1.5842697215025348E-002   4.9874078259219579E-002
   5.3227313791339714E-002  -1.5506810419717038E-002   4.9768262796402195E-002
   5.1732574319677961E-002  -1.5182345295623696E-002   4.9852880724067572E-002
   5.0237834848016166E-002  -1.4869301842745569E-002   5.0127932042215467E-002
   4.9213489269426584E-002  -1.4004009095058306E-002   5.3232605640813002E-002
   4.7910302371864603E-002  -1.3773185657063439E-002   5.2894229215535452E-002
   4.6607115474302602E-002  -1.3528063819192471E-002   5.2748524547974698E-002
   4.5303928576740607E-002  -1.3268643581445291E-002   5.2795491638130868E-002
   4.4000741679178640E-002  -1.2994924943821984E-002   5.3035130486004056E-002
   4.2165500684264744E-002  -1.1818012508567642E-002   5.6165539105031970E-002
   4.1056104728036780E-002  -1.1703674099101447E-002   5.5810755178868132E-002
   3.9946708771808823E-002  -1.1549317218667901E-002   5.5650881377655469E-002
   3.8837312815580845E-002  -1.1354941867266872E-002   5.5685917701393896E-002
   3.7727916859352909E-002  -1.1120548044898412E-002   5.5915864150083504E-002
   3.5072826979177719E-002  -9.6320159220769745E-003   5.8969127505176695E-002
   3.4159460331518024E-002  -9.6341625411395099E-003   5.8623656149217898E-002
   3.3246093683858322E-002  -9.5705706181433044E-003   5.8475333285444395E-002
   3.2332727036198619E-002  -9.4412401530884742E-003   5.8524158913856317E-002
   3.1419360388538917E-002  -9.2461711459748477E-003   5.8770133034453588E-002
   2.7935468154165539E-002  -7.4460193355863347E-003   6.1643370841247075E-002
   2.7220369182308343E-002  -7.5646509831775455E-003   6.1332932126584500E-002
   2.6505270210451137E-002  -7.5918240176187646E-003   6.1221880271341581E-002
   2.5790171238593930E-002  -7.5275384389100752E-003   6.1310215275518276E-002
   2.5075072266736720E-002  -7.3717942470512832E-003   6.1597937139114600E-002
   5.0237834848016166E-002  -1.4869301842745569E-002   5.0127932042215467E-002
   4.8681731278827398E-002  -1.4533509871269279E-002   4.9845821261282397E-002
   4.7125627709638601E-002  -1.4140799191381649E-002   4.9764333432223126E-002
   4.5569524140449846E-002  -1.3691169803082806E-002   4.9883468555037995E-002
   4.4013420571261036E-002  -1.3184621706372579E-002   5.0203226629726594E-002
   4.4000741679178640E-002  -1.2994924943821984E-002   5.3035130486004056E-002
   4.2644728607176607E-002  -1.2692186889922158E-002   5.2767085169939637E-002
   4.1288715535174547E-002  -1.2345708403345201E-002   5.2698597896374696E-002
   3.9932702463172529E-002  -1.1955489484091392E-002   5.2829668665309415E-002
   3.8576689391170454E-002  -1.1521530132160451E-002   5.3160297476743473E-002
   3.7727916859352909E-002  -1.1120548044898412E-002   5.5915864150083504E-002
   3.6570929375163139E-002  -1.0850863908574926E-002   5.5648706023153444E-002
   3.5413941890973404E-002  -1.0550617615308722E-002   5.5580041029348479E-002
   3.4256954406783641E-002  -1.0219809165099892E-002   5.5709869168668609E-002
   3.3099966922593906E-002  -9.8584385579483791E-003   5.6038190441113758E-002
   3.1419360388538917E-002  -9.2461711459748477E-003   5.8770133034453588E-002
   3.0460333582787009E-002  -9.0095409272278326E-003   5.8490683820923706E-002
   2.9501306777035094E-002  -8.7555268272722867E-003   5.8408662831144299E-002
   2.8542279971283214E-002  -8.4841288461084356E-003   5.8524070065115633E-002
   2.7583253165531278E-002  -8.1953469837362514E-003   5.8836905522837407E-002
   2.5075072266736720E-002  -7.3717942470512832E-003   6.1597937139114600E-002
   2.4312941230048214E-002  -7.1682179458805589E-003   6.1293018563250368E-002
   2.3550810193359702E-002  -6.9604360392357886E-003   6.1184463301762346E-002
   2.2788679156671203E-002  -6.7484485271170330E-003   6.1272271354650486E-002
   2.2026548119982670E-002  -6.5322554095242347E-003   6.1556442721914795E-002
   4.4013420571261036E-002  -1.3184621706372579E-002   5.0203226629726594E-002
   4.2277359772609935E-002  -1.2658603366837190E-002   4.9836727206708897E-002
   4.0541298973958848E-002  -1.2150563250062571E-002   4.9665058864942435E-002
   3.8805238175307726E-002  -1.1660501356049343E-002   4.9688221604427513E-002
   3.7069177376656659E-002  -1.1188417684796725E-002   4.9906215425163936E-002
   3.8576689391170454E-002  -1.1521530132160451E-002   5.3160297476743473E-002
   3.7039799355017597E-002  -1.1070444911392419E-002   5.2744412987604600E-002
   3.5502909318864698E-002  -1.0628848385627096E-002   5.2532038942210799E-002
   3.3966019282711805E-002  -1.0196740554864605E-002   5.2523175340561980E-002
   3.2429129246558913E-002  -9.7741214191047199E-003   5.2717822182658275E-002
   3.3099966922593906E-002  -9.8584385579483791E-003   5.6038190441113758E-002
   3.1770927011432838E-002  -9.4822864559476611E-003   5.5581410413612142E-002
   3.0441887100271740E-002  -9.1071335211915169E-003   5.5336820192348972E-002
   2.9112847189110655E-002  -8.7329797536799241E-003   5.5304419777324587E-002
   2.7783807277949601E-002  -8.3598251534127699E-003   5.5484209168538787E-002
   2.7583253165531278E-002  -8.1953469837362514E-003   5.8836905522837407E-002
   2.6470742741855666E-002  -7.8941280005030631E-003   5.8347719484731275E-002
   2.5358232318180036E-002  -7.5854186567560454E-003   5.8079402615357253E-002
   2.4245721894504395E-002  -7.2692189524952147E-003   5.8031954914715481E-002
   2.3133211470828790E-002  -6.9455288877207366E-003   5.8205376382806040E-002
   2.2026548119982670E-002  -6.5322554095242347E-003   6.1556442721914795E-002
   2.1139246546286100E-002  -6.3059695450581321E-003   6.1043340200962248E-002
   2.0251944972589517E-002  -6.0637037923204767E-003   6.0759786211235456E-002
   1.9364643398892940E-002  -5.8054581513104810E-003   6.0705780752734598E-002
   1.8477341825196364E-002  -5.5312326220288144E-003   6.0881323825459632E-002
   3.7069177376656659E-002  -1.1188417684796725E-002   4.9906215425163936E-002
   3.5703374200511201E-002  -1.0704775360051683E-002   4.9898296487977833E-002
   3.4337571024365771E-002  -1.0180037505561110E-002   5.0127278166555850E-002
   3.2971767848220326E-002  -9.6142041213243649E-003   5.0593160460898443E-002
   3.1605964672074882E-002  -9.0072752073419582E-003   5.1295943371005459E-002
   3.2429129246558913E-002  -9.7741214191047199E-003   5.2717822182658275E-002
   3.1282444502353651E-002  -9.3403534386761744E-003   5.2723288180179045E-002
   3.0135759758148431E-002  -8.8747990739072857E-003   5.2930090425815909E-002
   2.8989075013943183E-002  -8.3774583247980747E-003   5.3338228919568458E-002
   2.7842390269737935E-002  -7.8483311913485343E-003   5.3947703661437030E-002
   2.7783807277949601E-002  -8.3598251534127699E-003   5.5484209168538787E-002
   2.6820676598035977E-002  -7.9759315173005413E-003   5.5493750955361437E-002
   2.5857545918122359E-002  -7.5695606422534686E-003   5.5669064622651344E-002
   2.4894415238208737E-002  -7.1407125282717861E-003   5.6010150170408515E-002
   2.3931284558295116E-002  -6.6893871753553602E-003   5.6517007598633082E-002
   2.3133211470828790E-002  -6.9455288877207366E-003   5.8205376382806040E-002
   2.2318070487558166E-002  -6.6115095959248041E-003   5.8209684813524627E-002
   2.1502929504287574E-002  -6.2643222105996481E-003   5.8344200757062030E-002
   2.0687788521016964E-002  -5.9039667317453857E-003   5.8608924213418109E-002
   1.9872647537746358E-002  -5.5304431593618947E-003   5.9003855182592990E-002
   1.8477341825196364E-002  -5.5312326220288144E-003   6.0881323825459632E-002
   1.7774626170920196E-002  -5.2470876745493722E-003   6.0871089754668706E-002
   1.7071910516644043E-002  -4.9590837789458275E-003   6.0955498829048105E-002
   1.6369194862367882E-002  -4.6672209352191796E-003   6.1134551048597663E-002
   1.5666479208091721E-002  -4.3714991433687622E-003   6.1408246413317213E-002
   3.1605964672074882E-002  -9.0072752073419582E-003   5.1295943371005459E-002
   2.9613903499898675E-002  -8.3938286928325057E-003   5.0926887656114139E-002
   2.7621842327722440E-002  -7.8084425070148872E-003   5.0601981953603742E-002
   2.5629781155546219E-002  -7.2511166498892658E-003   5.0321226263474142E-002
   2.3637719983369998E-002  -6.7218511214552912E-003   5.0084620585725492E-002
   2.7842390269737935E-002  -7.8483311913485343E-003   5.3947703661437030E-002
   2.5941079086297364E-002  -7.3122721614513608E-003   5.3454725153726290E-002
   2.4039767902856841E-002  -6.7941357229987787E-003   5.3099096611105845E-002
   2.2138456719416295E-002  -6.2939218759908086E-003   5.2880818033575930E-002
   2.0237145535975720E-002  -5.8116306204274437E-003   5.2799889421135893E-002
   2.3931284558295116E-002  -6.6893871753553602E-003   5.6517007598633082E-002
   2.2213923316299677E-002  -6.2307156300701882E-003   5.5910244035349943E-002
   2.0496562074304205E-002  -5.7798289389825661E-003   5.5534030389866741E-002
   1.8779200832308763E-002  -5.3367271020923531E-003   5.5388366662183067E-002
   1.7061839590313335E-002  -4.9014101193995963E-003   5.5473252852299426E-002
   1.9872647537746358E-002  -5.5304431593618947E-003   5.9003855182592990E-002
   1.8432436189905477E-002  -5.1491590986889740E-003   5.8293444300984841E-002
   1.6992224842064592E-002  -4.7655221549664610E-003   5.7906783289885820E-002
   1.5552013494223686E-002  -4.3795323281938968E-003   5.7843872149296510E-002
   1.4111802146382805E-002  -3.9911896183718043E-003   5.8104710879216148E-002
   1.5666479208091721E-002  -4.3714991433687622E-003   6.1408246413317213E-002
   1.4596617707114831E-002  -4.0676025673079264E-003   6.0604325950631310E-002
   1.3526756206137927E-002  -3.7512153709501062E-003   6.0217355311164011E-002
   1.2456894705160988E-002  -3.4223375542956000E-003   6.0247334494915511E-002
   1.1387033204184105E-002  -3.0809691173439013E-003   6.0694263501885670E-002
   2.6632989971703186E-002   0.0000000000000000        2.9469538552889307E-002
   2.7233830576467069E-002  -5.8550675311805009E-004   3.4946761596560849E-002
   2.7834671181230959E-002  -1.3190955866696132E-003   4.0116511879884832E-002
   2.8435511785994842E-002  -2.2007665006546894E-003   4.4978789402861277E-002
   2.9036352390758729E-002  -3.2305194950732873E-003   4.9533594165490170E-002
   2.0115687143550554E-002   0.0000000000000000        2.9022006054089396E-002
   2.0448370640230720E-002  -4.3913006483760775E-004   3.4315009819831294E-002
   2.0781054136910886E-002  -9.8932168995336921E-004   3.9379172129753302E-002
   2.1113737633591055E-002  -1.6505748753472887E-003   4.4214492983855436E-002
   2.1446421130271218E-002  -2.4228896210193585E-003   4.8820972382137652E-002
   1.3504421205560292E-002   0.0000000000000000        2.8702339983492253E-002
   1.3647578898684398E-002  -2.9275337655716369E-004   3.3848144991459869E-002
   1.3790736591808503E-002  -6.5954779323712433E-004   3.8843739848135266E-002
   1.3933894284932608E-002  -1.1003832500398802E-003   4.3689124553518428E-002
   1.4077051978056716E-002  -1.6152597469654339E-003   4.8384299107609330E-002
   6.7991921577323956E-003   0.0000000000000000        2.8510540341097866E-002
   6.8314553518280981E-003  -1.4637668827672048E-004   3.3546167111446569E-002
   6.8637185459238014E-003  -3.2977389652087642E-004   3.8510215035030687E-002
   6.8959817400195038E-003  -5.5019162473247734E-004   4.3402684111850241E-002
   6.9282449341152054E-003  -8.0762987291150374E-004   4.8223574341905232E-002
   6.6870987913691948E-014   0.0000000000000000        2.8446607126906248E-002
  -3.3817393330082268E-013   3.7227165794462280E-015   3.3409076179791379E-002
  -7.4321581874925435E-013   1.9536629258798399E-013   3.8378597690439616E-002
  -1.1482596557615965E-012   5.7492899330213731E-013   4.3355171658850923E-002
  -1.5533034927739386E-012   1.1424177576158101E-012   4.8338798085025302E-002
   2.9036352390758729E-002  -3.2305194950732873E-003   4.9533594165490170E-002
   2.9109282627855653E-002  -4.2488139585951431E-003   5.1593246900568525E-002
   2.9182212864952581E-002  -5.0961092798900414E-003   5.3750054698397630E-002
   2.9255143102049505E-002  -5.7724054589579727E-003   5.6004017558977465E-002
   2.9328073339146429E-002  -6.2777024957989327E-003   5.8355135482308022E-002
   2.1446421130271218E-002  -2.4228896210193585E-003   4.8820972382137652E-002
   2.1587659524642144E-002  -3.1866104685659606E-003   5.1221964569390301E-002
   2.1728897919013071E-002  -3.8220819595834610E-003   5.3662418008440203E-002
   2.1870136313383998E-002  -4.3293040940718466E-003   5.6142332699287360E-002
   2.2011374707754924E-002  -4.7082768720311599E-003   5.8661708641931772E-002
   1.4077051978056716E-002  -1.6152597469654339E-003   4.8384299107609330E-002
   1.4228904718748155E-002  -2.1244069785367704E-003   5.1083880961338410E-002
   1.4380757459439591E-002  -2.5480546392768677E-003   5.3765230255911234E-002
   1.4532610200131028E-002  -2.8862027291857348E-003   5.6428346991327850E-002
   1.4684462940822473E-002  -3.1388512482633558E-003   5.9073231167588211E-002
   6.9282449341152054E-003  -8.0762987291150374E-004   4.8223574341905232E-002
   7.0330182101736713E-003  -1.0622034885075771E-003   5.1178996076412853E-002
   7.1377914862321389E-003  -1.2740273189702808E-003   5.4058491440810756E-002
   7.2425647622906056E-003  -1.4431013642996020E-003   5.6862060435098956E-002
   7.3473380383490706E-003  -1.5694256244955813E-003   5.9589703059277417E-002
  -1.5533034927739386E-012   1.1424177576158101E-012   4.8338798085025302E-002
  -1.0812965106632433E-012   1.5216092275061044E-012   5.1507309914613622E-002
  -6.0928736014820295E-013   1.3363108362918208E-012   5.4542201563138736E-002
  -1.3727755911185913E-013   5.8650773040319626E-013   5.7443473030600670E-002
   3.3472877247753274E-013  -7.2777200932350183E-013   6.0211124316999383E-002
   2.9328073339146429E-002  -6.2777024957989327E-003   5.8355135482308022E-002
   2.8979922042901216E-002  -6.6655703975812761E-003   5.9120235317550431E-002
   2.8631770746655984E-002  -6.9895791714732914E-003   5.9923307822454405E-002
   2.8283619450410753E-002  -7.2497288174749493E-003   6.0764352997019960E-002
   2.7935468154165539E-002  -7.4460193355863347E-003   6.1643370841247075E-002
   2.2011374707754924E-002  -4.7082768720311599E-003   5.8661708641931772E-002
   2.1713462369646348E-002  -4.9991777984182521E-003   5.9484738367361095E-002
   2.1415550031537781E-002  -5.2421843781900995E-003   6.0370273339402175E-002
   2.1117637693429218E-002  -5.4372966113466481E-003   6.1318313558054949E-002
   2.0819725355320638E-002  -5.5845144978879380E-003   6.2328859023319527E-002
   1.4684462940822473E-002  -3.1388512482633558E-003   5.9073231167588211E-002
   1.4461322137800717E-002  -3.3327851992552664E-003   5.9938226001929468E-002
   1.4238181334778961E-002  -3.4947895849069205E-003   6.0890258659832615E-002
   1.4015040531757212E-002  -3.6248644052183452E-003   6.1929329141297652E-002
   1.3791899728735459E-002  -3.7230096601895551E-003   6.3055437446324594E-002
   7.3473380383490706E-003  -1.5694256244955813E-003   5.9589703059277417E-002
   7.2235013473643042E-003  -1.6663926000922407E-003   6.0480698221255499E-002
   7.0996646563795422E-003  -1.7473947916237490E-003   6.1483263783745683E-002
   6.9758279653947767E-003  -1.8124321990900293E-003   6.2597399746747898E-002
   6.8519912744100138E-003  -1.8615048224911654E-003   6.3823106110262193E-002
   3.3472877247753274E-013  -7.2777200932350183E-013   6.0211124316999383E-002
  -1.6628799032192276E-012  -9.2926361050515993E-013   6.1112155025339260E-002
  -3.6604885789159880E-012   1.6594416812898416E-012   6.2149288711141379E-002
  -5.6580976882936174E-012   7.0382428184190271E-012   6.3322525374405719E-002
  -7.6557059303095087E-012   1.5207210490864043E-011   6.4631865015132337E-002
   2.7935468154165539E-002  -7.4460193355863347E-003   6.1643370841247075E-002
   2.7220369182308343E-002  -7.5646509831775455E-003   6.1332932126584500E-002
   2.6505270210451137E-002  -7.5918240176187646E-003   6.1221880271341581E-002
   2.5790171238593930E-002  -7.5275384389100752E-003   6.1310215275518276E-002
   2.5075072266736720E-002  -7.3717942470512832E-003   6.1597937139114600E-002
   2.0819725355320638E-002  -5.5845144978879380E-003   6.2328859023319527E-002
   2.0298860213485533E-002  -5.6734882315055898E-003   6.2181210737710164E-002
   1.9777995071650418E-002  -5.6938680058913338E-003   6.2222643252725321E-002
   1.9257129929815313E-002  -5.6456538210451143E-003   6.2453156568365094E-002
   1.8736264787980197E-002  -5.5288456769670147E-003   6.2872750684629483E-002
   1.3791899728735459E-002  -3.7230096601895551E-003   6.3055437446324594E-002
   1.3454962358127397E-002  -3.7823254798337036E-003   6.3047714935850346E-002
   1.3118024987519336E-002  -3.7959119941639030E-003   6.3218767167205647E-002
   1.2781087616911274E-002  -3.7637692031802505E-003   6.3568594140390428E-002
   1.2444150246303215E-002  -3.6858971068826768E-003   6.4097195855404770E-002
   6.8519912744100138E-003  -1.8615048224911654E-003   6.3823106110262193E-002
   6.6886756162339526E-003  -1.8911627281617549E-003   6.3932444721005011E-002
   6.5253599580578957E-003  -1.8979559824364584E-003   6.4210252014782379E-002
   6.3620442998818371E-003  -1.8818845853154076E-003   6.4656527991594159E-002
   6.1987286417057759E-003  -1.8429485367983320E-003   6.5271272651440448E-002
  -7.6557059303095087E-012   1.5207210490864043E-011   6.4631865015132337E-002
  -1.2194812867849514E-011   2.3510186852870874E-011   6.4835400093174261E-002
  -1.6733916335942567E-011   2.9290948139193418E-011   6.5197097795455600E-002
  -2.1273018936673882E-011   3.2549529911662933E-011   6.5716958121976352E-002
  -2.5812126741575625E-011   3.3285957323769821E-011   6.6394981072736503E-002
   2.5075072266736720E-002  -7.3717942470512832E-003   6.1597937139114600E-002
   2.4312941230048214E-002  -7.1682179458805589E-003   6.1293018563250368E-002
   2.3550810193359702E-002  -6.9604360392357886E-003   6.1184463301762346E-002
   2.2788679156671203E-002  -6.7484485271170330E-003   6.1272271354650486E-002
   2.2026548119982670E-002  -6.5322554095242347E-003   6.1556442721914795E-002
   1.8736264787980197E-002  -5.5288456769670147E-003   6.2872750684629483E-002
   1.8169039426752659E-002  -5.3761634513312118E-003   6.2616747311608295E-002
   1.7601814065525110E-002  -5.2203270218120143E-003   6.2554191975132900E-002
   1.7034588704297561E-002  -5.0613363884095940E-003   6.2685084675203270E-002
   1.6467363343070023E-002  -4.8991915511236717E-003   6.3009425411819475E-002
   1.2444150246303215E-002  -3.6858971068826768E-003   6.4097195855404770E-002
   1.2068915282706238E-002  -3.5841089567817605E-003   6.3889056283635948E-002
   1.1693680319109272E-002  -3.4802180043882990E-003   6.3871449470582473E-002
   1.1318445355512302E-002  -3.3742242497020450E-003   6.4044375416244387E-002
   1.0943210391915328E-002  -3.2661276927231919E-003   6.4407834120621718E-002
   6.1987286417057759E-003  -1.8429485367983320E-003   6.5271272651440448E-002
   6.0125687979089709E-003  -1.7920544622323890E-003   6.5109945479333339E-002
   5.8264089541121703E-003  -1.7401089869644431E-003   6.5136235788111146E-002
   5.6402491103153644E-003  -1.6871121109946065E-003   6.5350143577774022E-002
   5.4540892665185664E-003  -1.6330638343226983E-003   6.5751668848321815E-002
  -2.5812126741575625E-011   3.3285957323769821E-011   6.6394981072736503E-002
  -2.7639154853709158E-011   3.2317010179028216E-011   6.6279414898700373E-002
  -2.9466179496395739E-011   3.0459211541877806E-011   6.6348550927718783E-002
  -3.1293205873805796E-011   2.7712934377865928E-011   6.6602389159791803E-002
  -3.3120232251215853E-011   2.4077795313104389E-011   6.7040929594919418E-002
   2.2026548119982670E-002  -6.5322554095242347E-003   6.1556442721914795E-002
   2.1139246546286100E-002  -6.3059695450581321E-003   6.1043340200962248E-002
   2.0251944972589517E-002  -6.0637037923204767E-003   6.0759786211235456E-002
   1.9364643398892940E-002  -5.8054581513104810E-003   6.0705780752734598E-002
   1.8477341825196364E-002  -5.5312326220288144E-003   6.0881323825459632E-002
   1.6467363343070023E-002  -4.8991915511236717E-003   6.3009425411819475E-002
   1.5807679515636254E-002  -4.7294771534075464E-003   6.2543406334286344E-002
   1.5147995688202468E-002  -4.5477778387145035E-003   6.2303074218052812E-002
   1.4488311860768705E-002  -4.3540936070441787E-003   6.2288429063119113E-002
   1.3828628033334928E-002  -4.1484244583968044E-003   6.2499470869485180E-002
   1.0943210391915328E-002  -3.2661276927231919E-003   6.4407834120621718E-002
   1.0507282740818240E-002  -3.1529847617568496E-003   6.3984903515213118E-002
   1.0071355089721158E-002  -3.0318518851084122E-003   6.3783798301178085E-002
   9.6354274386240679E-003  -2.9027290627776526E-003   6.3804518478516800E-002
   9.1994997875269879E-003  -2.7656162947648499E-003   6.4047064047229096E-002
   5.4540892665185664E-003  -1.6330638343226983E-003   6.5751668848321815E-002
   5.2380562218320680E-003  -1.5764923701062639E-003   6.5367831743742763E-002
   5.0220231771455548E-003  -1.5159259315022967E-003   6.5201958460611234E-002
   4.8059901324590537E-003  -1.4513645185112939E-003   6.5254048998927297E-002
   4.5899570877725483E-003  -1.3828081311328677E-003   6.5524103358690799E-002
  -3.3120232251215853E-011   2.4077795313104389E-011   6.7040929594919418E-002
  -4.1322271993049497E-011   2.1544599437817169E-011   6.6692191019875113E-002
  -4.9524313469606618E-011   2.2103693875230590E-011   6.6557554696352245E-002
  -5.7726351476716786E-011   2.5755158422624547E-011   6.6637020624350798E-002
  -6.5928394687997383E-011   3.2499114510642357E-011   6.6930588803870705E-002
   1.8477341825196364E-002  -5.5312326220288144E-003   6.0881323825459632E-002
   1.7774626170920196E-002  -5.2470876745493722E-003   6.0871089754668706E-002
   1.7071910516644043E-002  -4.9590837789458275E-003   6.0955498829048105E-002
   1.6369194862367882E-002  -4.6672209352191796E-003   6.1134551048597663E-002
   1.5666479208091721E-002  -4.3714991433687622E-003   6.1408246413317213E-002
   1.3828628033334928E-002  -4.1484244583968044E-003   6.2499470869485180E-002
   1.3240814459168485E-002  -3.9353157412712336E-003   6.2532457863739149E-002
   1.2653000885002055E-002  -3.7193128041659584E-003   6.2700605873042284E-002
   1.2065187310835619E-002  -3.5004156470811801E-003   6.3003914897394819E-002
   1.1477373736669183E-002  -3.2786242700166834E-003   6.3442384936796548E-002
   9.1994997875269879E-003  -2.7656162947648499E-003   6.4047064047229096E-002
   8.7671061633494210E-003  -2.6235438079932200E-003   6.4122307378383592E-002
   8.3347125391718506E-003  -2.4795418293857563E-003   6.4373229594466480E-002
   7.9023189149942854E-003  -2.3336103589430696E-003   6.4799830695477886E-002
   7.4699252908167132E-003  -2.1857493966646047E-003   6.5402110681417686E-002
   4.5899570877725483E-003  -1.3828081311328677E-003   6.5524103358690799E-002
   4.3535012834629988E-003  -1.3117718747152271E-003   6.5640638298601950E-002
   4.1170454791534432E-003  -1.2397708546059150E-003   6.5973369993320624E-002
   3.8805896748438898E-003  -1.1668050708049590E-003   6.6522298442846906E-002
   3.6441338705343381E-003  -1.0928745233125259E-003   6.7287423647180766E-002
  -6.5928394687997383E-011   3.2499114510642357E-011   6.6930588803870705E-002
  -1.8049078204240843E-010   5.8562876770196226E-011   6.7087450624394362E-002
  -2.9505317286626642E-010   1.2017437045486190E-010   6.7501027069604813E-002
  -4.0961556195540094E-010   2.1733297106418803E-010   6.8171318139502030E-002
  -5.2417795104453546E-010   3.5003944187650404E-010   6.9098323834085873E-002
   1.5666479208091721E-002  -4.3714991433687622E-003   6.1408246413317213E-002
   1.4596617707114831E-002  -4.0676025673079264E-003   6.0604325950631310E-002
   1.3526756206137927E-002  -3.7512153709501062E-003   6.0217355311164011E-002
   1.2456894705160988E-002  -3.4223375542956000E-003   6.0247334494915511E-002
   1.1387033204184105E-002  -3.0809691173439013E-003   6.0694263501885670E-002
   1.1477373736669183E-002  -3.2786242700166834E-003   6.3442384936796548E-002
   1.0787090953997623E-002  -3.0507019137100688E-003   6.2793679574168010E-002
   1.0096808171326091E-002  -2.8134118188987978E-003   6.2487181824931765E-002
   9.4065253886545554E-003  -2.5667539855831131E-003   6.2522891689087215E-002
   8.7162426059829989E-003  -2.3107284137626749E-003   6.2900809166634875E-002
   7.4699252908167132E-003  -2.1857493966646047E-003   6.5402110681417686E-002
   7.0844790166238319E-003  -2.0338012601123501E-003   6.4905497537054407E-002
   6.6990327424309402E-003  -1.8756082668475588E-003   6.4676349796256527E-002
   6.3135864682380364E-003  -1.7111704168707130E-003   6.4714667459023961E-002
   5.9281401940451811E-003  -1.5404877101813375E-003   6.5020450525356599E-002
   3.6441338705343381E-003  -1.0928745233125259E-003   6.7287423647180766E-002
   3.4887818949934108E-003  -1.0169006065143954E-003   6.6939779839290559E-002
   3.3334299194524757E-003  -9.3780471479639610E-004   6.6784859225138882E-002
   3.1780779439115358E-003  -8.5558684815815848E-004   6.6822661804725653E-002
   3.0227259683705994E-003  -7.7024700660005552E-004   6.7053187578051301E-002
  -5.2417795104453546E-010   3.5003944187650404E-010   6.9098323834085873E-002
  -4.1089363855828509E-010   4.7083281717874570E-011   6.8896526480876075E-002
  -2.9760931913314081E-010  -1.1627450113849136E-009   6.8812710111578579E-002
  -1.8432500144272002E-010  -3.2794458815210703E-009   6.8846874726192442E-002
  -7.1040687221746168E-011  -6.3030187735790832E-009   6.8999020324718385E-002
   6.6870987913691948E-014   0.0000000000000000        2.8446607126906248E-002
  -3.3817393330082268E-013   3.7227165794462280E-015   3.3409076179791379E-002
  -7.4321581874925435E-013   1.9536629258798399E-013   3.8378597690439616E-002
  -1.1482596557615965E-012   5.7492899330213731E-013   4.3355171658850923E-002
  -1.5533034927739386E-012   1.1424177576158101E-012   4.8338798085025302E-002
  -6.7991921576685734E-003   0.0000000000000000        2.8510540340980859E-002
  -6.8314553525154901E-003   1.4637668834820670E-004   3.3546167111561540E-002
  -6.8637185473624067E-003   3.2977389691390708E-004   3.8510215035495392E-002
  -6.8959817422093233E-003   5.5019162569709765E-004   4.3402684112782419E-002
  -6.9282449370562400E-003   8.0762987469777670E-004   4.8223574343422608E-002
  -1.3504421205706220E-002   0.0000000000000000        2.8702339983385169E-002
  -1.3647578899404926E-002   2.9275337669269243E-004   3.3848144991690969E-002
  -1.3790736593103628E-002   6.5954779363244873E-004   3.8843739848940032E-002
  -1.3933894286802332E-002   1.1003832508192646E-003   4.3689124555132339E-002
  -1.4077051980501038E-002   1.6152597482531469E-003   4.8384299110267912E-002
  -2.0115687144046074E-002   0.0000000000000000        2.9022006054119177E-002
  -2.0448370641006474E-002   4.3913006503717728E-004   3.4315009820179668E-002
  -2.0781054137966881E-002   9.8932169035099082E-004   3.9379172130773493E-002
  -2.1113737634927285E-002   1.6505748759414306E-003   4.4214492985900675E-002
  -2.1446421131887682E-002   2.4228896218085167E-003   4.8820972385561198E-002
  -2.6632989972688131E-002   0.0000000000000000        2.9469538553182892E-002
  -2.7233830577320151E-002   5.8550675338166214E-004   3.4946761597027635E-002
  -2.7834671181952163E-002   1.3190955870695312E-003   4.0116511880995812E-002
  -2.8435511786584176E-002   2.2007665010636019E-003   4.4978789405087427E-002
  -2.9036352391216193E-002   3.2305194953638787E-003   4.9533594169302454E-002
  -1.5533034927739386E-012   1.1424177576158101E-012   4.8338798085025302E-002
  -1.0812965106632433E-012   1.5216092275061044E-012   5.1507309914613622E-002
  -6.0928736014820295E-013   1.3363108362918208E-012   5.4542201563138736E-002
  -1.3727755911185913E-013   5.8650773040319626E-013   5.7443473030600670E-002
   3.3472877247753274E-013  -7.2777200932350183E-013   6.0211124316999383E-002
  -6.9282449370562400E-003   8.0762987469777670E-004   4.8223574343422608E-002
  -7.0330182122721220E-003   1.0622034908645659E-003   5.1178996077219499E-002
  -7.1377914874880058E-003   1.2740273211460859E-003   5.4058491440703793E-002
  -7.2425647627038878E-003   1.4431013655423104E-003   5.6862060433875525E-002
  -7.3473380379197708E-003   1.5694256240532389E-003   5.9589703056734659E-002
  -1.4077051980501038E-002   1.6152597482531469E-003   4.8384299110267912E-002
  -1.4228904720654190E-002   2.1244069802075320E-003   5.1083880962952577E-002
  -1.4380757460807341E-002   2.5480546409558337E-003   5.3765230256075283E-002
  -1.4532610200960493E-002   2.8862027304980887E-003   5.6428346989636016E-002
  -1.4684462941113648E-002   3.1388512488342603E-003   5.9073231163634797E-002
  -2.1446421131887682E-002   2.4228896218085167E-003   4.8820972385561198E-002
  -2.1587659526227487E-002   3.1866104695504969E-003   5.1221964571812842E-002
  -2.1728897920567290E-002   3.8220819607656053E-003   5.3662418009253164E-002
  -2.1870136314907095E-002   4.3293040954538687E-003   5.6142332697882137E-002
  -2.2011374709246901E-002   4.7082768736152834E-003   5.8661708637699782E-002
  -2.9036352391216193E-002   3.2305194953638787E-003   4.9533594169302454E-002
  -2.9109282628992022E-002   4.2488139588934557E-003   5.1593246903800308E-002
  -2.9182212866767854E-002   5.0961092805753552E-003   5.3750054700237485E-002
  -2.9255143104543684E-002   5.7724054604096527E-003   5.6004017558613908E-002
  -2.9328073342319516E-002   6.2777024983962995E-003   5.8355135478929614E-002
   3.3472877247753274E-013  -7.2777200932350183E-013   6.0211124316999383E-002
  -1.6628799032192276E-012  -9.2926361050515993E-013   6.1112155025339260E-002
  -3.6604885789159880E-012   1.6594416812898416E-012   6.2149288711141379E-002
  -5.6580976882936174E-012   7.0382428184190271E-012   6.3322525374405719E-002
  -7.6557059303095087E-012   1.5207210490864043E-011   6.4631865015132337E-002
  -7.3473380379197708E-003   1.5694256240532389E-003   5.9589703056734659E-002
  -7.2235013506116016E-003   1.6663925994680300E-003   6.0480698223220261E-002
  -7.0996646633034351E-003   1.7473947945757448E-003   6.1483263790855169E-002
  -6.9758279759952659E-003   1.8124322093764026E-003   6.2597399759639405E-002
  -6.8519912886871020E-003   1.8615048438699877E-003   6.3823106129572954E-002
  -1.4684462941113648E-002   3.1388512488342603E-003   5.9073231163634797E-002
  -1.4461322140812622E-002   3.3327851998652784E-003   5.9938226005168911E-002
  -1.4238181340511601E-002   3.4947895874920349E-003   6.0890258671539389E-002
  -1.4015040540210581E-002   3.6248644117145073E-003   6.1929329162746294E-002
  -1.3791899739909550E-002   3.7230096725327164E-003   6.3055437478789556E-002
  -2.2011374709246901E-002   4.7082768736152834E-003   5.8661708637699782E-002
  -2.1713462372265940E-002   4.9991778002625286E-003   5.9484738371185196E-002
  -2.1415550035284992E-002   5.2421843804083042E-003   6.0370273353194052E-002
  -2.1117637698304034E-002   5.4372966140526250E-003   6.1318313583726421E-002
  -2.0819725361323087E-002   5.5845145011954971E-003   6.2328859062782210E-002
  -2.9328073342319516E-002   6.2777024983962995E-003   5.8355135478929614E-002
  -2.8979922044971559E-002   6.6655704006598100E-003   5.9120235321269109E-002
  -2.8631770747623589E-002   6.9895791733246265E-003   5.9923307835819159E-002
  -2.8283619450275636E-002   7.2497288163907644E-003   6.0764353022579737E-002
  -2.7935468152927669E-002   7.4460193298582084E-003   6.1643370881550877E-002
  -7.6557059303095087E-012   1.5207210490864043E-011   6.4631865015132337E-002
  -1.2194812867849514E-011   2.3510186852870874E-011   6.4835400093174261E-002
  -1.6733916335942567E-011   2.9290948139193418E-011   6.5197097795455600E-002
  -2.1273018936673882E-011   3.2549529911662933E-011   6.5716958121976352E-002
  -2.5812126741575625E-011   3.3285957323769821E-011   6.6394981072736503E-002
  -6.8519912886871020E-003   1.8615048438699877E-003   6.3823106129572954E-002
  -6.6886756390284411E-003   1.8911627610005977E-003   6.3932444738911617E-002
  -6.5253599893697837E-003   1.8979560237124063E-003   6.4210252032406323E-002
  -6.3620443397111237E-003   1.8818846320054362E-003   6.4656528010057154E-002
  -6.1987286900524654E-003   1.8429485858794670E-003   6.5271272671864139E-002
  -1.3791899739909550E-002   3.7230096725327164E-003   6.3055437478789556E-002
  -1.3454962376136474E-002   3.7823254984910813E-003   6.3047714967528257E-002
  -1.3118025012363397E-002   3.7959120181338905E-003   6.3218767200339754E-002
  -1.2781087648590322E-002   3.7637692314612171E-003   6.3568594177224033E-002
  -1.2444150284817245E-002   3.6858971384729905E-003   6.4097195898180970E-002
  -2.0819725361323087E-002   5.5845145011954971E-003   6.2328859062782210E-002
  -2.0298860223518931E-002   5.6734882359815008E-003   6.2181210779024346E-002
  -1.9777995085714768E-002   5.6938680125553894E-003   6.2222643299255899E-002
  -1.9257129947910602E-002   5.6456538309169633E-003   6.2453156623476842E-002
  -1.8736264810106450E-002   5.5288456910665348E-003   6.2872750751687217E-002
  -2.7935468152927669E-002   7.4460193298582084E-003   6.1643370881550877E-002
  -2.7220369181175784E-002   7.5646509734719550E-003   6.1332932173399746E-002
  -2.6505270209423882E-002   7.5918240069768224E-003   6.1221880329154703E-002
  -2.5790171237672001E-002   7.5275384303729017E-003   6.1310215348815714E-002
  -2.5075072265920102E-002   7.3717942436599959E-003   6.1597937232382854E-002
  -2.5812126741575625E-011   3.3285957323769821E-011   6.6394981072736503E-002
  -2.7639154853709158E-011   3.2317010179028216E-011   6.6279414898700373E-002
  -2.9466179496395739E-011   3.0459211541877806E-011   6.6348550927718783E-002
  -3.1293205873805796E-011   2.7712934377865928E-011   6.6602389159791803E-002
  -3.3120232251215853E-011   2.4077795313104389E-011   6.7040929594919418E-002
  -6.1987286900524654E-003   1.8429485858794670E-003   6.5271272671864139E-002
  -6.0125688502286776E-003   1.7920545114590014E-003   6.5109945504370159E-002
  -5.8264090104048942E-003   1.7401090348679038E-003   6.5136235817123314E-002
  -5.6402491705811152E-003   1.6871121561066391E-003   6.5350143610123451E-002
  -5.4540893307573231E-003   1.6330638751747562E-003   6.5751668883370751E-002
  -1.2444150284817245E-002   3.6858971384729905E-003   6.4097195898180970E-002
  -1.2068915326150171E-002   3.5841089906009233E-003   6.3889056335947533E-002
  -1.1693680367483097E-002   3.4802180392766828E-003   6.3871449531153687E-002
  -1.1318445408816021E-002   3.3742242845002891E-003   6.4044375483799321E-002
  -1.0943210450148953E-002   3.2661277262716337E-003   6.4407834193884503E-002
  -1.8736264810106450E-002   5.5288456910665348E-003   6.2872750751687217E-002
  -1.8169039455403616E-002   5.3761634697429353E-003   6.2616747393432592E-002
  -1.7601814100700771E-002   5.2203270436853629E-003   6.2554192069809875E-002
  -1.7034588745997940E-002   5.0613364128938836E-003   6.2685084780819120E-002
  -1.6467363391295096E-002   4.8991915773685252E-003   6.3009425526460480E-002
  -2.5075072265920102E-002   7.3717942436599959E-003   6.1597937232382854E-002
  -2.4312941237989015E-002   7.1682179488848363E-003   6.1293018676825128E-002
  -2.3550810210057938E-002   6.9604360480941610E-003   6.1184463433091904E-002
  -2.2788679182126861E-002   6.7484485412876317E-003   6.1272271501183133E-002
  -2.2026548154195785E-002   6.5322554284654721E-003   6.1556442881098905E-002
  -3.3120232251215853E-011   2.4077795313104389E-011   6.7040929594919418E-002
  -4.1322271993049497E-011   2.1544599437817169E-011   6.6692191019875113E-002
  -4.9524313469606618E-011   2.2103693875230590E-011   6.6557554696352245E-002
  -5.7726351476716786E-011   2.5755158422624547E-011   6.6637020624350798E-002
  -6.5928394687997383E-011   3.2499114510642357E-011   6.6930588803870705E-002
  -5.4540893307573231E-003   1.6330638751747562E-003   6.5751668883370751E-002
  -5.2380563010946905E-003   1.5764924071251518E-003   6.5367831788428865E-002
  -5.0220232714320509E-003   1.5159259670105563E-003   6.5201958517694891E-002
  -4.8059902417694131E-003   1.4513645548307891E-003   6.5254049071168968E-002
  -4.5899572121067857E-003   1.3828081705862805E-003   6.5524103448850901E-002
  -1.0943210450148953E-002   3.2661277262716337E-003   6.4407834193884503E-002
  -1.0507282809935101E-002   3.1529847927056764E-003   6.3984903603887630E-002
  -1.0071355169721248E-002   3.0318519119173146E-003   6.3783798410785270E-002
  -9.6354275295073948E-003   2.9027290839065325E-003   6.3804518614577366E-002
  -9.1994998892935345E-003   2.7656163086734464E-003   6.4047064215263988E-002
  -1.6467363391295096E-002   4.8991915773685252E-003   6.3009425526460480E-002
  -1.5807679567843493E-002   4.7294771782862149E-003   6.2543406466251297E-002
  -1.5147995744391893E-002   4.5477778568242082E-003   6.2303074375623067E-002
  -1.4488311920940290E-002   4.3540936129822750E-003   6.2288429254575887E-002
  -1.3828628097488674E-002   4.1484244467606401E-003   6.2499471103109744E-002
  -2.2026548154195785E-002   6.5322554284654721E-003   6.1556442881098905E-002
  -2.1139246574819890E-002   6.3059695638667812E-003   6.1043340375519950E-002
  -2.0251944995443992E-002   6.0637038017309491E-003   6.0759786412208527E-002
  -1.9364643416068094E-002   5.8054581420580210E-003   6.0705780991164734E-002
  -1.8477341836692203E-002   5.5312325848478339E-003   6.0881324112388391E-002
  -6.5928394687997383E-011   3.2499114510642357E-011   6.6930588803870705E-002
  -1.8049078204240843E-010   5.8562876770196226E-011   6.7087450624394362E-002
  -2.9505317286626642E-010   1.2017437045486190E-010   6.7501027069604813E-002
  -4.0961556195540094E-010   2.1733297106418803E-010   6.8171318139502030E-002
  -5.2417795104453546E-010   3.5003944187650404E-010   6.9098323834085873E-002
  -4.5899572121067857E-003   1.3828081705862805E-003   6.5524103448850901E-002
  -4.3535016171035862E-003   1.3117719408957118E-003   6.5640638481605562E-002
  -4.1170460221003971E-003   1.2397709923786110E-003   6.5973370308804485E-002
  -3.8805904270972106E-003   1.1668053250346345E-003   6.6522298930448018E-002
  -3.6441348320940155E-003   1.0928749388641190E-003   6.7287424346535840E-002
  -9.1994998892935345E-003   2.7656163086734464E-003   6.4047064215263988E-002
  -8.7671064149670817E-003   2.6235438232286301E-003   6.4122307705875278E-002
  -8.3347129406406220E-003   2.4795418645830181E-003   6.4373230160688591E-002
  -7.9023194663141658E-003   2.3336104327364646E-003   6.4799831579704092E-002
  -7.4699259919877095E-003   2.1857495276890737E-003   6.5402111962921644E-002
  -1.3828628097488674E-002   4.1484244467606401E-003   6.2499471103109744E-002
  -1.3240814574081272E-002   3.9353157055615345E-003   6.2532458297203566E-002
  -1.2653001050673861E-002   3.7193127367873141E-003   6.2700606625257144E-002
  -1.2065187527266451E-002   3.5004155404383223E-003   6.3003916087270601E-002
  -1.1477374003859042E-002   3.2786241165140562E-003   6.3442386683243687E-002
  -1.8477341836692203E-002   5.5312325848478339E-003   6.0881324112388391E-002
  -1.7774626094446154E-002   5.2470875878944112E-003   6.0871090255590510E-002
  -1.7071910352200102E-002   4.9590836089917073E-003   6.0955499702510130E-002
  -1.6369194609954049E-002   4.6672206481400240E-003   6.1134552453147126E-002
  -1.5666478867708000E-002   4.3714987053388166E-003   6.1408248507501706E-002
  -5.2417795104453546E-010   3.5003944187650404E-010   6.9098323834085873E-002
  -4.1089363855828509E-010   4.7083281717874570E-011   6.8896526480876075E-002
  -2.9760931913314081E-010  -1.1627450113849136E-009   6.8812710111578579E-002
  -1.8432500144272002E-010  -3.2794458815210703E-009   6.8846874726192442E-002
  -7.1040687221746168E-011  -6.3030187735790832E-009   6.8999020324718385E-002
  -3.6441348320940155E-003   1.0928749388641190E-003   6.7287424346535840E-002
  -3.4887826414107224E-003   1.0169005936991882E-003   6.6939779181818315E-002
  -3.3334304507274277E-003   9.3780304937224335E-004   6.6784857187986962E-002
  -3.1780782600441364E-003   8.5558230588310413E-004   6.6822658365041407E-002
  -3.0227260693608538E-003   7.7023836323197870E-004   6.7053182712982329E-002
  -7.4699259919877095E-003   2.1857495276890737E-003   6.5402111962921644E-002
  -7.0844795369312801E-003   2.0338011403153999E-003   6.4905496694406650E-002
  -6.6990330818748490E-003   1.8756072614897201E-003   6.4676346783751892E-002
  -6.3135866268184092E-003   1.7111678912120343E-003   6.4714662230957287E-002
  -5.9281401717619746E-003   1.5404830294825089E-003   6.5020443036023001E-002
  -1.1477374003859042E-002   3.2786241165140562E-003   6.3442386683243687E-002
  -1.0787091097455310E-002   3.0507016869314035E-003   6.2793679018641288E-002
  -1.0096808191051587E-002   2.8134114736070304E-003   6.2487178898873300E-002
  -9.4065252846478459E-003   2.5667534765409367E-003   6.2522886323939458E-002
  -8.7162423782441191E-003   2.3107276957330947E-003   6.2900801293840389E-002
  -1.5666478867708000E-002   4.3714987053388166E-003   6.1408248507501706E-002
  -1.4596617322982806E-002   4.0676022335475737E-003   6.0604326154522103E-002
  -1.3526755778257613E-002   3.7512156857245349E-003   6.0217353533351170E-002
  -1.2456894233532426E-002   3.4223390618698321E-003   6.0247330643988573E-002
  -1.1387032688807225E-002   3.0809723619837914E-003   6.0694257486434644E-002
  -2.6632989972688131E-002   0.0000000000000000        2.9469538553182892E-002
  -2.7233830577320151E-002   5.8550675338166214E-004   3.4946761597027635E-002
  -2.7834671181952163E-002   1.3190955870695312E-003   4.0116511880995812E-002
  -2.8435511786584176E-002   2.2007665010636019E-003   4.4978789405087427E-002
  -2.9036352391216193E-002   3.2305194953638787E-003   4.9533594169302454E-002
  -3.3393182322738552E-002   0.0000000000000000        3.0179480780332398E-002
  -3.4236418927355877E-002   9.6008273313860984E-004   3.5267743463775141E-002
  -3.5079655531973203E-002   2.0234934504135141E-003   4.0178686907123819E-002
  -3.5922892136590528E-002   3.1902321518247206E-003   4.4912311110378474E-002
  -3.6766128741207861E-002   4.4602988373722181E-003   4.9468616073539057E-002
  -4.0733116825303492E-002   0.0000000000000000        3.1286376035323811E-002
  -4.1688595910123610E-002   1.3346587128955575E-003   3.5940924262194647E-002
  -4.2644074994943722E-002   2.7278913137575023E-003   4.0548306768753928E-002
  -4.3599554079763833E-002   4.1796978025858385E-003   4.5108523555001695E-002
  -4.4555033164583951E-002   5.6900781793805619E-003   4.9621574620937928E-002
  -4.8652793480382941E-002   0.0000000000000000        3.2790224318157125E-002
  -4.9590361525623322E-002   1.7092346926525048E-003   3.6966303992286120E-002
  -5.0527929570863717E-002   3.4322891771014865E-003   4.1225371465886125E-002
  -5.1465497616104104E-002   5.1691634533469529E-003   4.5567426738957098E-002
  -5.2403065661344499E-002   6.9198575213888962E-003   4.9992469811499060E-002
  -5.7152212287976914E-002   0.0000000000000000        3.4691025628832341E-002
  -5.7941715773855047E-002   2.0838106724094521E-003   3.8343882654049609E-002
  -5.8731219259733188E-002   4.1366870404454751E-003   4.2209880998520390E-002
  -5.9520722745611328E-002   6.1586291041080734E-003   4.6289020662244669E-002
  -6.0310226231489461E-002   8.1496368633972426E-003   5.0581301645222475E-002
  -2.9036352391216193E-002   3.2305194953638787E-003   4.9533594169302454E-002
  -2.9109282628992022E-002   4.2488139588934557E-003   5.1593246903800308E-002
  -2.9182212866767854E-002   5.0961092805753552E-003   5.3750054700237485E-002
  -2.9255143104543684E-002   5.7724054604096527E-003   5.6004017558613908E-002
  -2.9328073342319516E-002   6.2777024983962995E-003   5.8355135478929614E-002
  -3.6766128741207861E-002   4.4602988373722181E-003   4.9468616073539057E-002
  -3.6780366201512683E-002   5.6936326788944091E-003   5.1256782043166929E-002
  -3.6794603661817506E-002   6.7501728482296684E-003   5.3065178505797519E-002
  -3.6808841122122328E-002   7.6299193453780107E-003   5.4893805461430835E-002
  -3.6823078582427150E-002   8.3328721703394351E-003   5.6742662910066896E-002
  -4.4555033164583951E-002   5.6900781793805619E-003   4.9621574620937928E-002
  -4.4587502416354320E-002   7.1384513988953791E-003   5.1132459295356515E-002
  -4.4619971668124696E-002   8.4042364158839755E-003   5.2586649893841271E-002
  -4.4652440919895071E-002   9.4874332303463791E-003   5.3984146416392209E-002
  -4.4684910171665454E-002   1.0388041842282567E-002   5.5324948863009329E-002
  -5.2403065661344499E-002   6.9198575213888962E-003   4.9992469811499060E-002
  -5.2530691273516970E-002   8.5832701188963377E-003   5.1220278660369087E-002
  -5.2658316885689456E-002   1.0058299983538296E-002   5.2314468864368718E-002
  -5.2785942497861921E-002   1.1344947115314748E-002   5.3275040423497969E-002
  -5.2913568110034399E-002   1.2443211514225701E-002   5.4101993337756830E-002
  -6.0310226231489461E-002   8.1496368633972426E-003   5.0581301645222475E-002
  -6.0609932773000599E-002   1.0028088838897307E-002   5.1520240138204637E-002
  -6.0909639314511738E-002   1.1712363551192585E-002   5.2248635417379861E-002
  -6.1209345856022890E-002   1.3202461000283116E-002   5.2766487482748162E-002
  -6.1509052397534028E-002   1.4498381186168835E-002   5.3073796334309503E-002
  -2.9328073342319516E-002   6.2777024983962995E-003   5.8355135478929614E-002
  -2.8979922044971559E-002   6.6655704006598100E-003   5.9120235321269109E-002
  -2.8631770747623589E-002   6.9895791733246265E-003   5.9923307835819159E-002
  -2.8283619450275636E-002   7.2497288163907644E-003   6.0764353022579737E-002
  -2.7935468152927669E-002   7.4460193298582084E-003   6.1643370881550877E-002
  -3.6823078582427150E-002   8.3328721703394351E-003   5.6742662910066896E-002
  -3.6385515679635369E-002   8.8749856458590903E-003   5.7088003258361344E-002
  -3.5947952776843595E-002   9.2722140946820877E-003   5.7574194145332873E-002
  -3.5510389874051806E-002   9.5245575168084202E-003   5.8201235570981509E-002
  -3.5072826971260032E-002   9.6320159122381122E-003   5.8969127535307246E-002
  -4.4684910171665454E-002   1.0388041842282567E-002   5.5324948863009329E-002
  -4.4055057796963303E-002   1.1084400891058369E-002   5.5169503820160733E-002
  -4.3425205422261158E-002   1.1554849016039509E-002   5.5257787182455803E-002
  -4.2795353047559000E-002   1.1799386217226048E-002   5.5589798949894492E-002
  -4.2165500672856862E-002   1.1818012494617967E-002   5.6165539122476876E-002
  -5.2913568110034399E-002   1.2443211514225701E-002   5.4101993337756830E-002
  -5.1988548396955339E-002   1.3293816136257606E-002   5.3364737006667273E-002
  -5.1063528683876286E-002   1.3837483937396929E-002   5.2974086947187908E-002
  -5.0138508970797212E-002   1.4074214917643676E-002   5.2930043159318707E-002
  -4.9213489257718152E-002   1.4004009076997847E-002   5.3232605643059747E-002
  -6.1509052397534028E-002   1.4498381186168835E-002   5.3073796334309503E-002
  -6.0185987479611507E-002   1.5503231381456935E-002   5.1673702817880959E-002
  -5.8862922561688971E-002   1.6120118858754390E-002   5.0723093439529188E-002
  -5.7539857643766464E-002   1.6349043618061339E-002   5.0221968199254133E-002
  -5.6216792725843921E-002   1.6190005659377699E-002   5.0170327097055822E-002
  -2.7935468152927669E-002   7.4460193298582084E-003   6.1643370881550877E-002
  -2.7220369181175784E-002   7.5646509734719550E-003   6.1332932173399746E-002
  -2.6505270209423882E-002   7.5918240069768224E-003   6.1221880329154703E-002
  -2.5790171237672001E-002   7.5275384303729017E-003   6.1310215348815714E-002
  -2.5075072265920102E-002   7.3717942436599959E-003   6.1597937232382854E-002
  -3.5072826971260032E-002   9.6320159122381122E-003   5.8969127535307246E-002
  -3.4159460319915881E-002   9.6341625249693405E-003   5.8623656185173269E-002
  -3.3246093668571772E-002   9.5705705990002873E-003   5.8475333330317666E-002
  -3.2332727017227655E-002   9.4412401343309093E-003   5.8524158970740488E-002
  -3.1419360365883511E-002   9.2461711309612393E-003   5.8770133106441691E-002
  -4.2165500672856862E-002   1.1818012494617967E-002   5.6165539122476876E-002
  -4.1056104710548165E-002   1.1703674076466709E-002   5.5810755201768571E-002
  -3.9946708748239468E-002   1.1549317191023695E-002   5.5650881407710968E-002
  -3.8837312785930757E-002   1.1354941838288944E-002   5.5685917740304146E-002
  -3.7727916823622060E-002   1.1120548018262413E-002   5.5915864199548075E-002
  -4.9213489257718152E-002   1.4004009076997847E-002   5.3232605643059747E-002
  -4.7910302353072545E-002   1.3773185627964086E-002   5.2894229223185617E-002
  -4.6607115448426939E-002   1.3528063783047131E-002   5.2748524561334602E-002
  -4.5303928543781333E-002   1.3268643542247022E-002   5.2795491657506674E-002
  -4.4000741639135713E-002   1.2994924905563636E-002   5.3035130511701792E-002
  -5.6216792725843921E-002   1.6190005659377699E-002   5.0170327097055822E-002
  -5.4722053247489064E-002   1.5842697179461455E-002   4.9874078249424497E-002
  -5.3227313769134227E-002   1.5506810375070589E-002   4.9768262791188608E-002
  -5.1732574290779383E-002   1.5182345246204992E-002   4.9852880722348107E-002
  -5.0237834812424539E-002   1.4869301792864831E-002   5.0127932042903001E-002
  -2.5075072265920102E-002   7.3717942436599959E-003   6.1597937232382854E-002
  -2.4312941237989015E-002   7.1682179488848363E-003   6.1293018676825128E-002
  -2.3550810210057938E-002   6.9604360480941610E-003   6.1184463433091904E-002
  -2.2788679182126861E-002   6.7484485412876317E-003   6.1272271501183133E-002
  -2.2026548154195785E-002   6.5322554284654721E-003   6.1556442881098905E-002
  -3.1419360365883511E-002   9.2461711309612393E-003   5.8770133106441691E-002
  -3.0460333570448903E-002   9.0095409178824332E-003   5.8490683905421184E-002
  -2.9501306775014290E-002   8.7555268240859449E-003   5.8408662927583302E-002
  -2.8542279979579678E-002   8.4841288495715924E-003   5.8524070172927975E-002
  -2.7583253184145069E-002   8.1953469943393809E-003   5.8836905641455245E-002
  -3.7727916823622060E-002   1.1120548018262413E-002   5.5915864199548075E-002
  -3.6570929349325786E-002   1.0850863886880030E-002   5.5648706078362607E-002
  -3.5413941875029498E-002   1.0550617600077753E-002   5.5580041091717852E-002
  -3.4256954400733210E-002   1.0219809157855468E-002   5.5709869239613893E-002
  -3.3099966926436936E-002   9.8584385602134006E-003   5.6038190522050529E-002
  -4.4000741639135713E-002   1.2994924905563636E-002   5.3035130511701792E-002
  -4.2644728574619664E-002   1.2692186855877641E-002   5.2767085195649266E-002
  -4.1288715510103609E-002   1.2345708376069605E-002   5.2698597925495652E-002
  -3.9932702445587553E-002   1.1955489466139443E-002   5.2829668701240798E-002
  -3.8576689381071512E-002   1.1521530126087393E-002   5.3160297522884939E-002
  -5.0237834812424539E-002   1.4869301792864831E-002   5.0127932042903001E-002
  -4.8681731246330545E-002   1.4533509824875224E-002   4.9845821257281320E-002
  -4.7125627680236586E-002   1.4140799152061317E-002   4.9764333428916618E-002
  -4.5569524114142598E-002   1.3691169774423355E-002   4.9883468557808855E-002
  -4.4013420548048618E-002   1.3184621691961385E-002   5.0203226643958099E-002
  -2.2026548154195785E-002   6.5322554284654721E-003   6.1556442881098905E-002
  -2.1139246574819890E-002   6.3059695638667812E-003   6.1043340375519950E-002
  -2.0251944995443992E-002   6.0637038017309491E-003   6.0759786412208527E-002
  -1.9364643416068094E-002   5.8054581420580210E-003   6.0705780991164734E-002
  -1.8477341836692203E-002   5.5312325848478339E-003   6.0881324112388391E-002
  -2.7583253184145069E-002   8.1953469943393809E-003   5.8836905641455245E-002
  -2.6470742746675303E-002   7.8941280135796654E-003   5.8347719605422649E-002
  -2.5358232309205569E-002   7.5854186624823711E-003   5.8079402743310179E-002
  -2.4245721871735806E-002   7.2692189410477094E-003   5.8031955055117913E-002
  -2.3133211434266041E-002   6.9455288492754619E-003   5.8205376540845649E-002
  -3.3099966926436936E-002   9.8584385602134006E-003   5.6038190522050529E-002
  -3.1770926999220760E-002   9.4822864632923692E-003   5.5581410482764049E-002
  -3.0441887072004570E-002   9.1071335232337305E-003   5.5336820249050324E-002
  -2.9112847144788383E-002   8.7329797400373405E-003   5.5304419820909251E-002
  -2.7783807217572204E-002   8.3598251137032842E-003   5.5484209198340920E-002
  -3.8576689381071512E-002   1.1521530126087393E-002   5.3160297522884939E-002
  -3.7039799332456290E-002   1.1070444913005163E-002   5.2744413007544205E-002
  -3.5502909283841068E-002   1.0628848383985121E-002   5.2532038929428780E-002
  -3.3966019235225825E-002   1.0196740539027166E-002   5.2523175288538816E-002
  -3.2429129186610603E-002   9.7741213781311204E-003   5.2717822084874105E-002
  -4.4013420548048618E-002   1.3184621691961385E-002   5.0203226643958099E-002
  -4.2277359746381804E-002   1.2658603362717930E-002   4.9836727179763007E-002
  -4.0541298944714983E-002   1.2150563244736554E-002   4.9665058784445881E-002
  -3.8805238143048135E-002   1.1660501338016781E-002   4.9688221458006526E-002
  -3.7069177341381335E-002   1.1188417642558790E-002   4.9906215200445192E-002
  -1.8477341836692203E-002   5.5312325848478339E-003   6.0881324112388391E-002
  -1.7774626094446154E-002   5.2470875878944112E-003   6.0871090255590510E-002
  -1.7071910352200102E-002   4.9590836089917073E-003   6.0955499702510130E-002
  -1.6369194609954049E-002   4.6672206481400240E-003   6.1134552453147126E-002
  -1.5666478867708000E-002   4.3714987053388166E-003   6.1408248507501706E-002
  -2.3133211434266041E-002   6.9455288492754619E-003   5.8205376540845649E-002
  -2.2318070235685324E-002   6.6115095021460346E-003   5.8209685089769453E-002
  -2.1502929037104601E-002   6.2643220146394174E-003   5.8344201247645125E-002
  -2.0687787838523864E-002   5.9039663867552980E-003   5.8608925014472603E-002
  -1.9872646639943158E-002   5.5304426184941691E-003   5.9003856390252074E-002
  -2.7783807217572204E-002   8.3598251137032842E-003   5.5484209198340920E-002
  -2.6820676257422418E-002   7.9759314163978107E-003   5.5493750994558277E-002
  -2.5857545297272654E-002   7.5695604202869124E-003   5.5669064704962058E-002
  -2.4894414337122858E-002   7.1407121253708513E-003   5.6010150329551894E-002
  -2.3931283376973103E-002   6.6893865316494661E-003   5.6517007868327973E-002
  -3.2429129186610603E-002   9.7741213781311204E-003   5.2717822084874105E-002
  -3.1282444159657440E-002   9.3403533306493161E-003   5.2723287969957115E-002
  -3.0135759132704193E-002   8.8747988259345149E-003   5.2930090074460777E-002
  -2.8989074105750984E-002   8.3774578639863768E-003   5.3338228398385118E-002
  -2.7842389078797779E-002   7.8483304448047353E-003   5.3947702941730007E-002
  -3.7069177341381335E-002   1.1188417642558790E-002   4.9906215200445192E-002
  -3.5703373942390329E-002   1.0704775244901238E-002   4.9898296015965737E-002
  -3.4337570543399303E-002   1.0180037231582034E-002   5.0127277356141392E-002
  -3.2971767144408290E-002   9.6142036026016578E-003   5.0593159220971989E-002
  -3.1605963745417270E-002   9.0072743579600600E-003   5.1295941610457640E-002
  -1.5666478867708000E-002   4.3714987053388166E-003   6.1408248507501706E-002
  -1.4596617322982806E-002   4.0676022335475737E-003   6.0604326154522103E-002
  -1.3526755778257613E-002   3.7512156857245349E-003   6.0217353533351170E-002
  -1.2456894233532426E-002   3.4223390618698321E-003   6.0247330643988573E-002
  -1.1387032688807225E-002   3.0809723619837914E-003   6.0694257486434644E-002
  -1.9872646639943158E-002   5.5304426184941691E-003   5.9003856390252074E-002
  -1.8432435326563561E-002   5.1491587413767248E-003   5.8293444032640251E-002
  -1.6992224013183961E-002   4.7655227869246308E-003   5.7906781480528940E-002
  -1.5552012699804368E-002   4.3795347551373529E-003   5.7843868733917406E-002
  -1.4111801386424788E-002   3.9911946460150505E-003   5.8104705792806577E-002
  -2.3931283376973103E-002   6.6893865316494661E-003   5.6517007868327973E-002
  -2.2213922221247361E-002   6.2307152492061812E-003   5.5910243504780743E-002
  -2.0496561065521609E-002   5.7798298881246851E-003   5.5534029020425271E-002
  -1.8779199909795926E-002   5.3367304484047105E-003   5.5388364415262133E-002
  -1.7061838754070115E-002   4.9014169300464205E-003   5.5473249689290738E-002
  -2.7842389078797779E-002   7.8483304448047353E-003   5.3947702941730007E-002
  -2.5941078007034196E-002   7.3122717570357071E-003   5.3454724570943614E-002
  -2.4039766935270580E-002   6.7941369893247047E-003   5.3099096153041175E-002
  -2.2138455863506958E-002   6.2939261416720942E-003   5.2880817688022295E-002
  -2.0237144791743385E-002   5.8116392140776796E-003   5.2799889175887321E-002
  -3.1605963745417270E-002   9.0072743579600600E-003   5.1295941610457640E-002
  -2.9613902683924054E-002   8.3938282648647888E-003   5.0926887231128926E-002
  -2.7621841622430837E-002   7.8084440905249325E-003   5.0601982878375668E-002
  -2.5629780560937593E-002   7.2511218349395577E-003   5.0321228552197991E-002
  -2.3637719499444376E-002   6.7218614981090496E-003   5.0084624252595855E-002
  -5.7152212287976914E-002   0.0000000000000000        3.4691025628832341E-002
  -5.7941715773855047E-002   2.0838106724094521E-003   3.8343882654049609E-002
  -5.8731219259733188E-002   4.1366870404454751E-003   4.2209880998520390E-002
  -5.9520722745611328E-002   6.1586291041080734E-003   4.6289020662244669E-002
  -6.0310226231489461E-002   8.1496368633972426E-003   5.0581301645222475E-002
  -6.5819800952489751E-002   0.0000000000000000        3.7212036697762317E-002
  -6.6625118600818045E-002   2.9139355574479848E-003   4.0835064771950168E-002
  -6.7430436249146353E-002   5.7702536032643520E-003   4.4213323201984199E-002
  -6.8235753897474632E-002   8.5689541374491043E-003   4.7346811987864411E-002
  -6.9041071545802926E-002   1.1310037160002237E-002   5.0235531129590796E-002
  -7.4243987178325838E-002   0.0000000000000000        4.0576514255359929E-002
  -7.5523029952511603E-002   3.7440604424865162E-003   4.4143030171260166E-002
  -7.6802072726697382E-002   7.4038201660832298E-003   4.7006865479599258E-002
  -7.8081115500883175E-002   1.0979279170790137E-002   4.9168020180377213E-002
  -7.9360158275068940E-002   1.4470437456607241E-002   5.0626494273593989E-002
  -8.2424770965485145E-002   0.0000000000000000        4.4784458301625162E-002
  -8.4635449828935755E-002   4.5741853275250485E-003   4.8267778851979602E-002
  -8.6846128692386337E-002   9.0373867289021068E-003   5.0590507831365567E-002
  -8.9056807555836934E-002   1.3389604204131170E-002   5.1752645239783061E-002
  -9.1267486419287530E-002   1.7630837753212229E-002   5.1754191077232073E-002
  -9.0362152313967686E-002   0.0000000000000000        4.9835868836558023E-002
  -9.3962378230090418E-002   5.4043102125635803E-003   5.3209310814108478E-002
  -9.7562604146213164E-002   1.0670953291720983E-002   5.4964250257283132E-002
 -0.10116283006233590        1.5799929237472202E-002   5.5100687166081977E-002
 -0.10476305597845864        2.0791238049817244E-002   5.3618621540505007E-002
  -6.0310226231489461E-002   8.1496368633972426E-003   5.0581301645222475E-002
  -6.0609932773000599E-002   1.0028088838897307E-002   5.1520240138204637E-002
  -6.0909639314511738E-002   1.1712363551192585E-002   5.2248635417379861E-002
  -6.1209345856022890E-002   1.3202461000283116E-002   5.2766487482748162E-002
  -6.1509052397534028E-002   1.4498381186168835E-002   5.3073796334309503E-002
  -6.9041071545802926E-002   1.1310037160002237E-002   5.0235531129590796E-002
  -6.9314041813893640E-002   1.3754028478548039E-002   4.9458136115053890E-002
  -6.9587012081984340E-002   1.5661453900710783E-002   4.8944756861164777E-002
  -6.9859982350075053E-002   1.7032313426490493E-002   4.8695393367923501E-002
  -7.0132952618165739E-002   1.7866607055887163E-002   4.8710045635330067E-002
  -7.9360158275068940E-002   1.4470437456607241E-002   5.0626494273593989E-002
  -7.9131833295284448E-002   1.7479968118198776E-002   4.7790377118359734E-002
  -7.8903508315499957E-002   1.9610544250228991E-002   4.5692834698228046E-002
  -7.8675183335715465E-002   2.0862165852697907E-002   4.4333867013198934E-002
  -7.8446858355930960E-002   2.1234832925605476E-002   4.3713474063272417E-002
  -9.1267486419287530E-002   1.7630837753212229E-002   5.1754191077232073E-002
  -9.0063307217173053E-002   2.1205907757849512E-002   4.6516963148122197E-002
  -8.8859128015058603E-002   2.3559634599747210E-002   4.2492868928569613E-002
  -8.7654948812944153E-002   2.4692018278905322E-002   3.9681908418574427E-002
  -8.6450769610829675E-002   2.4603058795323783E-002   3.8084081618136534E-002
 -0.10476305597845864        2.0791238049817244E-002   5.3618621540505007E-002
 -0.10210846357955945        2.4931847397500252E-002   4.5637894204341216E-002
  -9.9453871180660278E-002   2.7508724949265394E-002   3.9344859552189526E-002
  -9.6799278781761117E-002   2.8521870705112699E-002   3.4739517584049952E-002
  -9.4144686382861914E-002   2.7971284665042111E-002   3.1821868299922430E-002
  -6.1509052397534028E-002   1.4498381186168835E-002   5.3073796334309503E-002
  -6.0185987479611507E-002   1.5503231381456935E-002   5.1673702817880959E-002
  -5.8862922561688971E-002   1.6120118858754390E-002   5.0723093439529188E-002
  -5.7539857643766464E-002   1.6349043618061339E-002   5.0221968199254133E-002
  -5.6216792725843921E-002   1.6190005659377699E-002   5.0170327097055822E-002
  -7.0132952618165739E-002   1.7866607055887163E-002   4.8710045635330067E-002
  -6.8406024158909076E-002   1.8321308148923666E-002   4.7269035057861557E-002
  -6.6679095699652358E-002   1.8553390065622989E-002   4.6186267424984620E-002
  -6.4952167240395653E-002   1.8562852805985040E-002   4.5461742736699250E-002
  -6.3225238781138990E-002   1.8349696370009855E-002   4.5095460993005522E-002
  -7.8446858355930960E-002   2.1234832925605476E-002   4.3713474063272417E-002
  -7.6407307548825271E-002   2.1139384916390450E-002   4.2396889966417252E-002
  -7.4367756741719568E-002   2.0986661272491519E-002   4.1347307620668503E-002
  -7.2328205934613879E-002   2.0776661993908738E-002   4.0564727026026183E-002
  -7.0288655127508190E-002   2.0509387080642025E-002   4.0049148182490300E-002
  -8.6450769610829675E-002   2.4603058795323783E-002   3.8084081618136534E-002
  -8.4189837649360125E-002   2.3957461683857206E-002   3.7057267543548079E-002
  -8.1928905687890616E-002   2.3419932479360091E-002   3.6206214026580891E-002
  -7.9667973726421079E-002   2.2990471181832436E-002   3.5530921067234919E-002
  -7.7407041764951542E-002   2.2669077791274188E-002   3.5031388665510282E-002
  -9.4144686382861914E-002   2.7971284665042111E-002   3.1821868299922430E-002
  -9.1753614460513666E-002   2.6775538451324001E-002   3.1250167789253998E-002
  -8.9362542538165474E-002   2.5853203686228635E-002   3.0762986642721719E-002
  -8.6971470615817267E-002   2.5204280369756141E-002   3.0360324860325485E-002
  -8.4580398693469019E-002   2.4828768501906337E-002   3.0042182442065343E-002
  -5.6216792725843921E-002   1.6190005659377699E-002   5.0170327097055822E-002
  -5.4722053247489064E-002   1.5842697179461455E-002   4.9874078249424497E-002
  -5.3227313769134227E-002   1.5506810375070589E-002   4.9768262791188608E-002
  -5.1732574290779383E-002   1.5182345246204992E-002   4.9852880722348107E-002
  -5.0237834812424539E-002   1.4869301792864831E-002   5.0127932042903001E-002
  -6.3225238781138990E-002   1.8349696370009855E-002   4.5095460993005522E-002
  -6.1531844677099434E-002   1.8010572064779622E-002   4.4743515647265551E-002
  -5.9838450573059872E-002   1.7642131197376384E-002   4.4598446163499589E-002
  -5.8145056469020330E-002   1.7244373767800265E-002   4.4660252541707628E-002
  -5.6451662364980754E-002   1.6817299776051203E-002   4.4928934781889640E-002
  -7.0288655127508190E-002   2.0509387080642025E-002   4.0049148182490300E-002
  -6.8380163925205337E-002   2.0178446950097764E-002   3.9600768100943477E-002
  -6.6471672722902470E-002   1.9777452019682295E-002   3.9375706353949130E-002
  -6.4563181520599602E-002   1.9306402289395567E-002   3.9373962941507419E-002
  -6.2654690318296763E-002   1.8765297759237604E-002   3.9595537863618357E-002
  -7.7407041764951542E-002   2.2669077791274188E-002   3.5031388665510282E-002
  -7.5267010991806785E-002   2.2346321835415919E-002   3.4445835610458150E-002
  -7.3126980218662055E-002   2.1912772841988122E-002   3.4100043362537205E-002
  -7.0986949445517311E-002   2.1368430810990879E-002   3.3994011921747454E-002
  -6.8846918672372553E-002   2.0713295742423962E-002   3.4127741288088868E-002
  -8.4580398693469019E-002   2.4828768501906337E-002   3.0042182442065343E-002
  -8.2192385876903792E-002   2.4514196720734058E-002   2.9278718175809793E-002
  -7.9804373060338551E-002   2.4048093664294012E-002   2.8771457189263848E-002
  -7.7416360243773324E-002   2.3430459332586102E-002   2.8520399482427818E-002
  -7.5028347427208097E-002   2.2661293725610376E-002   2.8525545055301554E-002
  -5.0237834812424539E-002   1.4869301792864831E-002   5.0127932042903001E-002
  -4.8681731246330545E-002   1.4533509824875224E-002   4.9845821257281320E-002
  -4.7125627680236586E-002   1.4140799152061317E-002   4.9764333428916618E-002
  -4.5569524114142598E-002   1.3691169774423355E-002   4.9883468557808855E-002
  -4.4013420548048618E-002   1.3184621691961385E-002   5.0203226643958099E-002
  -5.6451662364980754E-002   1.6817299776051203E-002   4.4928934781889640E-002
  -5.4697829632080863E-002   1.6359942279745354E-002   4.4610645229174864E-002
  -5.2943996899180945E-002   1.5871334336498934E-002   4.4487191052814887E-002
  -5.1190164166281027E-002   1.5351475946311902E-002   4.4558572252809875E-002
  -4.9436331433381067E-002   1.4800367109184420E-002   4.4824788829159856E-002
  -6.2654690318296763E-002   1.8765297759237604E-002   3.9595537863618357E-002
  -6.0708915999492949E-002   1.8186374734615540E-002   3.9266737801693950E-002
  -5.8763141680689128E-002   1.7601869520936439E-002   3.9126985535222363E-002
  -5.6817367361885335E-002   1.7011782118200449E-002   3.9176281064203643E-002
  -5.4871593043081507E-002   1.6416112526407539E-002   3.9414624388637923E-002
  -6.8846918672372553E-002   2.0713295742423962E-002   3.4127741288088868E-002
  -6.6714990348566885E-002   2.0012807189485782E-002   3.3814098974838530E-002
  -6.4583062024761217E-002   1.9332404705374000E-002   3.3683716876138969E-002
  -6.2451133700955570E-002   1.8672088290088998E-002   3.3736594991990207E-002
  -6.0319205377149944E-002   1.8031857943630589E-002   3.3972733322392451E-002
  -7.5028347427208097E-002   2.2661293725610376E-002   2.8525545055301554E-002
  -7.2716052679302659E-002   2.1839239644355898E-002   2.8252728748608791E-002
  -7.0403757931397221E-002   2.1062939889811505E-002   2.8157385075564798E-002
  -6.8091463183491741E-002   2.0332394461977474E-002   2.8239514036169630E-002
  -6.5779168435586316E-002   1.9647603360853749E-002   2.8499115630423122E-002
  -4.4013420548048618E-002   1.3184621691961385E-002   5.0203226643958099E-002
  -4.2277359746381804E-002   1.2658603362717930E-002   4.9836727179763007E-002
  -4.0541298944714983E-002   1.2150563244736554E-002   4.9665058784445881E-002
  -3.8805238143048135E-002   1.1660501338016781E-002   4.9688221458006526E-002
  -3.7069177341381335E-002   1.1188417642558790E-002   4.9906215200445192E-002
  -4.9436331433381067E-002   1.4800367109184420E-002   4.4824788829159856E-002
  -4.7504755990060772E-002   1.4238170480622162E-002   4.4460148751038861E-002
  -4.5573180546740491E-002   1.3685048716130993E-002   4.4291706887346918E-002
  -4.3641605103420161E-002   1.3141001815711102E-002   4.4319463238083966E-002
  -4.1710029660099915E-002   1.2606029779362482E-002   4.4543417803250135E-002
  -5.4871593043081507E-002   1.6416112526407539E-002   3.9414624388637923E-002
  -5.2743135812556574E-002   1.5817737598526324E-002   3.9042940349400354E-002
  -5.0614678582031648E-002   1.5219534187525662E-002   3.8868821670143015E-002
  -4.8486221351506723E-002   1.4621502293405536E-002   3.8892268350865830E-002
  -4.6357764120981734E-002   1.4023641916165924E-002   3.9113280391568916E-002
  -6.0319205377149944E-002   1.8031857943630589E-002   3.3972733322392451E-002
  -5.7992499213869168E-002   1.7397304716430438E-002   3.3585101974847556E-002
  -5.5665793050588476E-002   1.6754019658920243E-002   3.3396403132834311E-002
  -5.3339086887307714E-002   1.6102002771099914E-002   3.3406636796352224E-002
  -5.1012380724027015E-002   1.5441254052969436E-002   3.3615802965401752E-002
  -6.5779168435586316E-002   1.9647603360853749E-002   2.8499115630423122E-002
  -6.3252846193998624E-002   1.8976871834334691E-002   2.8086633627380619E-002
  -6.0726523952410946E-002   1.8288505130314756E-002   2.7874451275420625E-002
  -5.8200201710823248E-002   1.7582503248794287E-002   2.7862568574543126E-002
  -5.5673879469235577E-002   1.6858866189773003E-002   2.8050985524748218E-002
  -3.7069177341381335E-002   1.1188417642558790E-002   4.9906215200445192E-002
  -3.5703373942390329E-002   1.0704775244901238E-002   4.9898296015965737E-002
  -3.4337570543399303E-002   1.0180037231582034E-002   5.0127277356141392E-002
  -3.2971767144408290E-002   9.6142036026016578E-003   5.0593159220971989E-002
  -3.1605963745417270E-002   9.0072743579600600E-003   5.1295941610457640E-002
  -4.1710029660099915E-002   1.2606029779362482E-002   4.4543417803250135E-002
  -4.0129744233296023E-002   1.2061142733685026E-002   4.4471197730570400E-002
  -3.8549458806492166E-002   1.1487350805279350E-002   4.4591041188861272E-002
  -3.6969173379688303E-002   1.0884653994145246E-002   4.4902948178122869E-002
  -3.5388887952884404E-002   1.0253052300282783E-002   4.5406918698355114E-002
  -4.6357764120981734E-002   1.4023641916165924E-002   3.9113280391568916E-002
  -4.4607833660049320E-002   1.3417510222468967E-002   3.8988950163621888E-002
  -4.2857903199116990E-002   1.2794664378976542E-002   3.9011846472960965E-002
  -4.1107972738184582E-002   1.2155104385688776E-002   3.9181969319586632E-002
  -3.9358042277252245E-002   1.1498830242605645E-002   3.9499318703498612E-002
  -5.1012380724027015E-002   1.5441254052969436E-002   3.3615802965401752E-002
  -4.9137642222650421E-002   1.4773877711252777E-002   3.3451553315120161E-002
  -4.7262903721273807E-002   1.4101977952673879E-002   3.3389693208440610E-002
  -4.5388165219897185E-002   1.3425554777232224E-002   3.3430222645363175E-002
  -4.3513426718520549E-002   1.2744608184928494E-002   3.3573141625887717E-002
  -5.5673879469235577E-002   1.6858866189773003E-002   2.8050985524748218E-002
  -5.3719169921099097E-002   1.6130245200036836E-002   2.7859007185065232E-002
  -5.1764460372962590E-002   1.5409291526371022E-002   2.7724581395299985E-002
  -4.9809750824826068E-002   1.4696005168775859E-002   2.7647708155452658E-002
  -4.7855041276689547E-002   1.3990386127251286E-002   2.7628387465522597E-002
  -3.1605963745417270E-002   9.0072743579600600E-003   5.1295941610457640E-002
  -2.9613902683924054E-002   8.3938282648647888E-003   5.0926887231128926E-002
  -2.7621841622430837E-002   7.8084440905249325E-003   5.0601982878375668E-002
  -2.5629780560937593E-002   7.2511218349395577E-003   5.0321228552197991E-002
  -2.3637719499444376E-002   6.7218614981090496E-003   5.0084624252595855E-002
  -3.5388887952884404E-002   1.0253052300282783E-002   4.5406918698355114E-002
  -3.3309899772777533E-002   9.6132380937293260E-003   4.4914682182214782E-002
  -3.1230911592670552E-002   8.9859037445224194E-003   4.4552149876726121E-002
  -2.9151923412563729E-002   8.3710492526615950E-003   4.4319321781889465E-002
  -2.7072935232456768E-002   7.7686746181472310E-003   4.4216197897704812E-002
  -3.9358042277252245E-002   1.1498830242605645E-002   3.9499318703498612E-002
  -3.7106572794455193E-002   1.0832647922593641E-002   3.8868317989137827E-002
  -3.4855103311658149E-002   1.0163363398519691E-002   3.8452575669505475E-002
  -3.2603633828861230E-002   9.4909766703835507E-003   3.8252091744601285E-002
  -3.0352164346064095E-002   8.8154877381853014E-003   3.8266866214425543E-002
  -4.3513426718520549E-002   1.2744608184928494E-002   3.3573141625887717E-002
  -4.1003921748956985E-002   1.2052057751458067E-002   3.2787794651898378E-002
  -3.8494416779393359E-002   1.1340823052517070E-002   3.2303260256713630E-002
  -3.5984911809829927E-002   1.0610904088105604E-002   3.2119538440333543E-002
  -3.3475406840266224E-002   9.8623008582234273E-003   3.2236629202758688E-002
  -4.7855041276689547E-002   1.3990386127251286E-002   2.7628387465522597E-002
  -4.5001946636283069E-002   1.3271467580322494E-002   2.6673112170496116E-002
  -4.2148851995876507E-002   1.2518282706514519E-002   2.6104203638350559E-002
  -3.9295757355469932E-002   1.1730831505827561E-002   2.5921661869086163E-002
  -3.6442662715063412E-002   1.0909113978261553E-002   2.6125486862702996E-002
  -9.0362152313967686E-002   0.0000000000000000        4.9835868836558023E-002
  -9.3962378230090418E-002   5.4043102125635803E-003   5.3209310814108478E-002
  -9.7562604146213164E-002   1.0670953291720983E-002   5.4964250257283132E-002
 -0.10116283006233590        1.5799929237472202E-002   5.5100687166081977E-002
 -0.10476305597845864        2.0791238049817244E-002   5.3618621540505007E-002
 -0.10329408705200468        0.0000000000000000        5.8663522391189035E-002
 -0.10683135419066145        1.0884023191009333E-002   5.2118942757106476E-002
 -0.11036862132931818        1.9171766104046625E-002   4.7318783212331711E-002
 -0.11390588846797496        2.4863228739111856E-002   4.4263043756864746E-002
 -0.11744315560663168        2.7958411096205046E-002   4.2951724390705576E-002
 -0.12645853100782742        0.0000000000000000        7.4200195496548743E-002
 -0.12656991674533455        1.6363736169455086E-002   5.5278981106267291E-002
 -0.12668130248284173        2.7672578916372263E-002   4.1465109428977263E-002
 -0.12679268822034886        3.3926528240751520E-002   3.2758580464678604E-002
 -0.12690407395785605        3.5125584142592856E-002   2.9159394213371360E-002
 -0.15985548418143583        0.0000000000000000        9.6445888152637119E-002
 -0.15317806589410979        2.1843449147900845E-002   6.2689425861590931E-002
 -0.14650064760678375        3.6173391728697914E-002   3.7403228907219754E-002
 -0.13982322931945773        4.2989827742391164E-002   2.0587297289523528E-002
 -0.13314581103213166        4.2292757188980665E-002   1.2241631008502315E-002
 -0.20348494657282995        0.0000000000000000       0.12540060035945422     
 -0.18665580163698711        2.7323162126346591E-002   7.4350277023077394E-002
 -0.16982665670114427        4.4674204541023541E-002   3.5133141647059170E-002
 -0.15299751176530144        5.2053127244030828E-002   7.7491942313995393E-003
 -0.13616836682945860        4.9459930235368467E-002  -7.8015652239014771E-003
 -0.10476305597845864        2.0791238049817244E-002   5.3618621540505007E-002
 -0.10210846357955945        2.4931847397500252E-002   4.5637894204341216E-002
  -9.9453871180660278E-002   2.7508724949265394E-002   3.9344859552189526E-002
  -9.6799278781761117E-002   2.8521870705112699E-002   3.4739517584049952E-002
  -9.4144686382861914E-002   2.7971284665042111E-002   3.1821868299922430E-002
 -0.11744315560663168        2.7958411096205046E-002   4.2951724390705576E-002
 -0.11348823838081080        2.9430885533534294E-002   3.6696376795663219E-002
 -0.10953332115498993        3.0254224409307653E-002   3.1353986170452139E-002
 -0.10557840392916905        3.0428427723525178E-002   2.6924552515072420E-002
 -0.10162348670334817        2.9953495476186857E-002   2.3408075829523894E-002
 -0.12690407395785605        3.5125584142592856E-002   2.9159394213371360E-002
 -0.12242356761929425        3.3929923669568318E-002   2.5544022593812433E-002
 -0.11794306128073247        3.2999723869349906E-002   2.2066872229904035E-002
 -0.11346255494217065        3.2334984741937640E-002   1.8727943121646089E-002
 -0.10898204860360891        3.1935706287331625E-002   1.5527235269038696E-002
 -0.13314581103213166        4.2292757188980665E-002   1.2241631008502315E-002
 -0.12891445129500984        3.8428961805602346E-002   1.2180831598788886E-002
 -0.12468309155788795        3.5745223329392180E-002   1.1483517730545146E-002
 -0.12045173182076609        3.4241541760350151E-002   1.0149689403771117E-002
 -0.11622037208364423        3.3917917098476358E-002   8.1793466184666777E-003
 -0.13616836682945860        4.9459930235368467E-002  -7.8015652239014771E-003
 -0.13296088940795744        4.2927999941636388E-002  -3.3931961894074283E-003
 -0.12975341198645629        3.8490722789434391E-002  -3.9607732762458533E-004
 -0.12654593456495516        3.6148098778762648E-002   1.1897913614472991E-003
 -0.12333845714345401        3.5900127909621105E-002   1.3644098778079206E-003
  -9.4144686382861914E-002   2.7971284665042111E-002   3.1821868299922430E-002
  -9.1753614460513666E-002   2.6775538451324001E-002   3.1250167789253998E-002
  -8.9362542538165474E-002   2.5853203686228635E-002   3.0762986642721719E-002
  -8.6971470615817267E-002   2.5204280369756141E-002   3.0360324860325485E-002
  -8.4580398693469019E-002   2.4828768501906337E-002   3.0042182442065343E-002
 -0.10162348670334817        2.9953495476186857E-002   2.3408075829523894E-002
  -9.9135978617788084E-002   2.9180384172466482E-002   2.3131624986863962E-002
  -9.6648470532228054E-002   2.8460050317537747E-002   2.2963527106491525E-002
  -9.4160962446667995E-002   2.7792493911400731E-002   2.2903782188406684E-002
  -9.1673454361107937E-002   2.7177714954055382E-002   2.2952390232609393E-002
 -0.10898204860360891        3.1935706287331625E-002   1.5527235269038696E-002
 -0.10637427075668554        3.1585229893608888E-002   1.5325400094556045E-002
 -0.10376649290976218        3.1066896948846852E-002   1.5255751480512447E-002
 -0.10115871506283884        3.0380707453045278E-002   1.5318289426907924E-002
  -9.8550937215915443E-002   2.9526661406204434E-002   1.5513013933742371E-002
 -0.11622037208364423        3.3917917098476358E-002   8.1793466184666777E-003
 -0.11346849087720610        3.3990075614751390E-002   7.8314931123302962E-003
 -0.11071660967076795        3.3673743580155867E-002   7.6396597647844563E-003
 -0.10796472846432983        3.2968920994689913E-002   7.6038465758290876E-003
 -0.10521284725789171        3.1875607858353514E-002   7.7240535454641884E-003
 -0.12333845714345401        3.5900127909621105E-002   1.3644098778079206E-003
 -0.12041863897934965        3.6394921335893823E-002   6.4990404018684667E-004
 -0.11749882081524531        3.6280590211464972E-002   1.1525195930749826E-004
 -0.11457900265114093        3.5557134536334481E-002  -2.3954636482967535E-004
 -0.11165918448703660        3.4224554310502475E-002  -4.1449093222506450E-004
  -8.4580398693469019E-002   2.4828768501906337E-002   3.0042182442065343E-002
  -8.2192385876903792E-002   2.4514196720734058E-002   2.9278718175809793E-002
  -7.9804373060338551E-002   2.4048093664294012E-002   2.8771457189263848E-002
  -7.7416360243773324E-002   2.3430459332586102E-002   2.8520399482427818E-002
  -7.5028347427208097E-002   2.2661293725610376E-002   2.8525545055301554E-002
  -9.1673454361107937E-002   2.7177714954055382E-002   2.2952390232609393E-002
  -8.9047020450941011E-002   2.6563269479738097E-002   2.2284895714075201E-002
  -8.6420586540774072E-002   2.5896713522684987E-002   2.1838040103034605E-002
  -8.3794152630607174E-002   2.5178047082896227E-002   2.1611823399487657E-002
  -8.1167718720440221E-002   2.4407270160371752E-002   2.1606245603434146E-002
  -9.8550937215915443E-002   2.9526661406204434E-002   1.5513013933742371E-002
  -9.5721646584363121E-002   2.8612342238742032E-002   1.5040909955461722E-002
  -9.2892355952810743E-002   2.7745333381076050E-002   1.4753880512458536E-002
  -9.0063065321258337E-002   2.6925634833206404E-002   1.4651925604732618E-002
  -8.7233774689706042E-002   2.6153246595133045E-002   1.4735045232284055E-002
 -0.10521284725789171        3.1875607858353514E-002   7.7240535454641884E-003
 -0.10221626427717005        3.0661414997746047E-002   7.5467608999692688E-003
  -9.9219681296448439E-002   2.9593953239466970E-002   7.5189784175354688E-003
  -9.6223098315726840E-002   2.8673222583516528E-002   7.6407060981627259E-003
  -9.3226515335005131E-002   2.7899223029894490E-002   7.9119439418514036E-003
 -0.11165918448703660        3.4224554310502475E-002  -4.1449093222506450E-004
 -0.10853087352936192        3.2710487756749951E-002  -1.9755145240227256E-004
 -0.10540256257168726        3.1442573097858043E-002   1.3333381826555191E-004
 -0.10227425161401256        3.0420810333826740E-002   5.7816487977811054E-004
  -9.9145940656337916E-002   2.9645199464655825E-002   1.1369417321357989E-003
  -7.5028347427208097E-002   2.2661293725610376E-002   2.8525545055301554E-002
  -7.2716052679302659E-002   2.1839239644355898E-002   2.8252728748608791E-002
  -7.0403757931397221E-002   2.1062939889811505E-002   2.8157385075564798E-002
  -6.8091463183491741E-002   2.0332394461977474E-002   2.8239514036169630E-002
  -6.5779168435586316E-002   1.9647603360853749E-002   2.8499115630423122E-002
  -8.1167718720440221E-002   2.4407270160371752E-002   2.1606245603434146E-002
  -7.8686216726596953E-002   2.3615254490589002E-002   2.1426172890461781E-002
  -7.6204714732753698E-002   2.2832871809025670E-002   2.1407042035716299E-002
  -7.3723212738910401E-002   2.2060122115681469E-002   2.1548853039197683E-002
  -7.1241710745067174E-002   2.1297005410556624E-002   2.1851605900906068E-002
  -8.7233774689706042E-002   2.6153246595133045E-002   1.4735045232284055E-002
  -8.4599596225346740E-002   2.5391269336822252E-002   1.4611594774541090E-002
  -8.1965417760987397E-002   2.4602803728239780E-002   1.4632555399603155E-002
  -7.9331239296628095E-002   2.3787849769385493E-002   1.4797927107470174E-002
  -7.6697060832268821E-002   2.2946407460259693E-002   1.5107709898142446E-002
  -9.3226515335005131E-002   2.7899223029894490E-002   7.9119439418514036E-003
  -9.0456191175551690E-002   2.7167284183055428E-002   7.8089944008468450E-003
  -8.7685867016098276E-002   2.6372735647453918E-002   7.8339251672255479E-003
  -8.4915542856644793E-002   2.5515577423089585E-002   7.9867362409874569E-003
  -8.2145218697191394E-002   2.4595809509962721E-002   8.2674276221325442E-003
  -9.9145940656337916E-002   2.9645199464655825E-002   1.1369417321357989E-003
  -9.6256001577212147E-002   2.8943299029288577E-002   1.0183717693785788E-003
  -9.3366062498086350E-002   2.8142667566667973E-002   1.0111513385831633E-003
  -9.0476123418960566E-002   2.7243305076793435E-002   1.1152804397486955E-003
  -8.7586184339834783E-002   2.6245211559665749E-002   1.3307590728760532E-003
  -6.5779168435586316E-002   1.9647603360853749E-002   2.8499115630423122E-002
  -6.3252846193998624E-002   1.8976871834334691E-002   2.8086633627380619E-002
  -6.0726523952410946E-002   1.8288505130314756E-002   2.7874451275420625E-002
  -5.8200201710823248E-002   1.7582503248794287E-002   2.7862568574543126E-002
  -5.5673879469235577E-002   1.6858866189773003E-002   2.8050985524748218E-002
  -7.1241710745067174E-002   2.1297005410556624E-002   2.1851605900906068E-002
  -6.8515307682237722E-002   2.0539863799978214E-002   2.1438438301988105E-002
  -6.5788904619408339E-002   1.9785039390273026E-002   2.1225132694471183E-002
  -6.3062501556578915E-002   1.9032532181441405E-002   2.1211689078355099E-002
  -6.0336098493749504E-002   1.8282342173482902E-002   2.1398107453639931E-002
  -7.6697060832268821E-002   2.2946407460259693E-002   1.5107709898142446E-002
  -7.3771014607879340E-002   2.2102855765621807E-002   1.4713809081723386E-002
  -7.0844968383489790E-002   2.1281573650231415E-002   1.4519332597023517E-002
  -6.7918922159100281E-002   2.0482561114088249E-002   1.4524280444042855E-002
  -6.4992875934710759E-002   1.9705818157192717E-002   1.4728652622781627E-002
  -8.2145218697191394E-002   2.4595809509962721E-002   8.2674276221325442E-003
  -7.9019966970923297E-002   2.3665847731265420E-002   7.9127459665860912E-003
  -7.5894715244655367E-002   2.2778107910189523E-002   7.7570509830775149E-003
  -7.2769463518387353E-002   2.1932590046735340E-002   7.8003426716065126E-003
  -6.9644211792119368E-002   2.1129294140902519E-002   8.0426210321732708E-003
  -8.7586184339834783E-002   2.6245211559665749E-002   1.3307590728760532E-003
  -8.4262164771369941E-002   2.5228839696908922E-002   1.0352489565764733E-003
  -8.0938145202905043E-002   2.4274642170147992E-002   9.3828785263300185E-004
  -7.7614125634440173E-002   2.3382618979382132E-002   1.0398757610457915E-003
  -7.4290106065975303E-002   2.2552770124612320E-002   1.3400126818144953E-003
  -5.5673879469235577E-002   1.6858866189773003E-002   2.8050985524748218E-002
  -5.3719169921099097E-002   1.6130245200036836E-002   2.7859007185065232E-002
  -5.1764460372962590E-002   1.5409291526371022E-002   2.7724581395299985E-002
  -4.9809750824826068E-002   1.4696005168775859E-002   2.7647708155452658E-002
  -4.7855041276689547E-002   1.3990386127251286E-002   2.7628387465522597E-002
  -6.0336098493749504E-002   1.8282342173482902E-002   2.1398107453639931E-002
  -5.8288560716302687E-002   1.7527364134322820E-002   2.1244733403299187E-002
  -5.6241022938855807E-002   1.6760492831885965E-002   2.1219463261661367E-002
  -5.4193485161408927E-002   1.5981728266172307E-002   2.1322297028726352E-002
  -5.2145947383962055E-002   1.5191070437181819E-002   2.1553234704494606E-002
  -6.4992875934710759E-002   1.9705818157192717E-002   1.4728652622781627E-002
  -6.2781958569168378E-002   1.8924483068608791E-002   1.4594322282435582E-002
  -6.0571041203625907E-002   1.8111694137400700E-002   1.4658647209577914E-002
  -5.8360123838083491E-002   1.7267451363568647E-002   1.4921627404208222E-002
  -5.6149206472541055E-002   1.6391754747112547E-002   1.5383262866326977E-002
  -6.9644211792119368E-002   2.1129294140902519E-002   8.0426210321732708E-003
  -6.7199363479696156E-002   2.0321602002894824E-002   7.9077738224746230E-003
  -6.4754515167272944E-002   1.9462895442915927E-002   8.0421332390497799E-003
  -6.2309666854849718E-002   1.8553174460965376E-002   8.4456992818980909E-003
  -5.9864818542426507E-002   1.7592439057043288E-002   9.1184719510200955E-003
  -7.4290106065975303E-002   2.2552770124612320E-002   1.3400126818144953E-003
  -7.1540775447886118E-002   2.1718720937180747E-002   1.1850880234161587E-003
  -6.8791444829796822E-002   2.0814096748430488E-002   1.3699213500769358E-003
  -6.6042114211707525E-002   1.9838897558361435E-002   1.8945126617956540E-003
  -6.3292783593618340E-002   1.8793123366973696E-002   2.7588619585734442E-003
  -4.7855041276689547E-002   1.3990386127251286E-002   2.7628387465522597E-002
  -4.5001946636283069E-002   1.3271467580322494E-002   2.6673112170496116E-002
  -4.2148851995876507E-002   1.2518282706514519E-002   2.6104203638350559E-002
  -3.9295757355469932E-002   1.1730831505827561E-002   2.5921661869086163E-002
  -3.6442662715063412E-002   1.0909113978261553E-002   2.6125486862702996E-002
  -5.2145947383962055E-002   1.5191070437181819E-002   2.1553234704494606E-002
  -4.8989123898800224E-002   1.4399209058671480E-002   2.0790578428714401E-002
  -4.5832300413638366E-002   1.3616833844397602E-002   2.0249013079563671E-002
  -4.2675476928476536E-002   1.2843944794360296E-002   1.9928538657042541E-002
  -3.9518653443314622E-002   1.2080541908559672E-002   1.9829155161150691E-002
  -5.6149206472541055E-002   1.6391754747112547E-002   1.5383262866326977E-002
  -5.2853929978875572E-002   1.5526950537020467E-002   1.4856978100908913E-002
  -4.9558653485210095E-002   1.4715384982280456E-002   1.4386508425868562E-002
  -4.6263376991544536E-002   1.3957058082892946E-002   1.3971853841205920E-002
  -4.2968100497879178E-002   1.3251969838857680E-002   1.3613014346921248E-002
  -5.9864818542426507E-002   1.7592439057043288E-002   9.1184719510200955E-003
  -5.6596364876509112E-002   1.6654692015369565E-002   8.8723111870798038E-003
  -5.3327911210591689E-002   1.5813936120163592E-002   8.5166896772654165E-003
  -5.0059457544674335E-002   1.5070171371425748E-002   8.0516074215769111E-003
  -4.6791003878756884E-002   1.4423397769155744E-002   7.4770644200150421E-003
  -6.3292783593618340E-002   1.8793123366973696E-002   2.7588619585734442E-003
  -6.0216428591700732E-002   1.7782433493718219E-002   2.8365776872266713E-003
  -5.7140073589783125E-002   1.6912487258046588E-002   2.6395568337539421E-003
  -5.4063718587865517E-002   1.6183284659958545E-002   2.1677993981555621E-003
  -5.0987363585947909E-002   1.5594825699453807E-002   1.4213053804317255E-003
 </DataArray>
 </PointData>
 </Piece>
 <Piece  NumberOfPoints="          1600 "  NumberOfCells="         1024 ">
 <Points>
 <DataArray  type="Float64" NumberOfComponents="3"  format="ascii" >
  0.50000000000000000        0.0000000000000000        0.0000000000000000     
  0.53125000000000000        0.0000000000000000        0.0000000000000000     
  0.56250000000000000        0.0000000000000000        0.0000000000000000     
  0.59375000000000000        0.0000000000000000        0.0000000000000000     
  0.62500000000000000        0.0000000000000000        0.0000000000000000     
  0.50000000000000000        3.1250000000000000E-002   0.0000000000000000     
  0.53125000000000000        3.1250000000000000E-002   0.0000000000000000     
  0.56250000000000000        3.1250000000000000E-002   0.0000000000000000     
  0.59375000000000000        3.1250000000000000E-002   0.0000000000000000     
  0.62500000000000000        3.1250000000000000E-002   0.0000000000000000     
  0.50000000000000000        6.2500000000000000E-002   0.0000000000000000     
  0.53125000000000000        6.2500000000000000E-002   0.0000000000000000     
  0.56250000000000000        6.2500000000000000E-002   0.0000000000000000     
  0.59375000000000000        6.2500000000000000E-002   0.0000000000000000     
  0.62500000000000000        6.2500000000000000E-002   0.0000000000000000     
  0.50000000000000000        9.3750000000000000E-002   0.0000000000000000     
  0.53125000000000000        9.3750000000000000E-002   0.0000000000000000     
  0.56250000000000000        9.3750000000000000E-002   0.0000000000000000     
  0.59375000000000000        9.3750000000000000E-002   0.0000000000000000     
  0.62500000000000000        9.3750000000000000E-002   0.0000000000000000     
  0.50000000000000000       0.12500000000000000        0.0000000000000000     
  0.53125000000000000       0.12500000000000000        0.0000000000000000     
  0.56250000000000000       0.12500000000000000        0.0000000000000000     
  0.59375000000000000       0.12500000000000000        0.0000000000000000     
  0.62500000000000000       0.12500000000000000        0.0000000000000000     
  0.62500000000000000        0.0000000000000000        0.0000000000000000     
  0.65625000000000000        0.0000000000000000        0.0000000000000000     
  0.68750000000000000        0.0000000000000000        0.0000000000000000     
  0.71875000000000000        0.0000000000000000        0.0000000000000000     
  0.75000000000000000        0.0000000000000000        0.0000000000000000     
  0.62500000000000000        3.1250000000000000E-002   0.0000000000000000     
  0.65625000000000000        3.1250000000000000E-002   0.0000000000000000     
  0.68750000000000000        3.1250000000000000E-002   0.0000000000000000     
  0.71875000000000000        3.1250000000000000E-002   0.0000000000000000     
  0.75000000000000000        3.1250000000000000E-002   0.0000000000000000     
  0.62500000000000000        6.2500000000000000E-002   0.0000000000000000     
  0.65625000000000000        6.2500000000000000E-002   0.0000000000000000     
  0.68750000000000000        6.2500000000000000E-002   0.0000000000000000     
  0.71875000000000000        6.2500000000000000E-002   0.0000000000000000     
  0.75000000000000000        6.2500000000000000E-002   0.0000000000000000     
  0.62500000000000000        9.3750000000000000E-002   0.0000000000000000     
  0.65625000000000000        9.3750000000000000E-002   0.0000000000000000     
  0.68750000000000000        9.3750000000000000E-002   0.0000000000000000     
  0.71875000000000000        9.3750000000000000E-002   0.0000000000000000     
  0.75000000000000000        9.3750000000000000E-002   0.0000000000000000     
  0.62500000000000000       0.12500000000000000        0.0000000000000000     
  0.65625000000000000       0.12500000000000000        0.0000000000000000     
  0.68750000000000000       0.12500000000000000        0.0000000000000000     
  0.71875000000000000       0.12500000000000000        0.0000000000000000     
  0.75000000000000000       0.12500000000000000        0.0000000000000000     
  0.75000000000000000        0.0000000000000000        0.0000000000000000     
  0.78125000000000000        0.0000000000000000        0.0000000000000000     
  0.81250000000000000        0.0000000000000000        0.0000000000000000     
  0.84375000000000000        0.0000000000000000        0.0000000000000000     
  0.87500000000000000        0.0000000000000000        0.0000000000000000     
  0.75000000000000000        3.1250000000000000E-002   0.0000000000000000     
  0.78125000000000000        3.1250000000000000E-002   0.0000000000000000     
  0.81250000000000000        3.1250000000000000E-002   0.0000000000000000     
  0.84375000000000000        3.1250000000000000E-002   0.0000000000000000     
  0.87500000000000000        3.1250000000000000E-002   0.0000000000000000     
  0.75000000000000000        6.2500000000000000E-002   0.0000000000000000     
  0.78125000000000000        6.2500000000000000E-002   0.0000000000000000     
  0.81250000000000000        6.2500000000000000E-002   0.0000000000000000     
  0.84375000000000000        6.2500000000000000E-002   0.0000000000000000     
  0.87500000000000000        6.2500000000000000E-002   0.0000000000000000     
  0.75000000000000000        9.3750000000000000E-002   0.0000000000000000     
  0.78125000000000000        9.3750000000000000E-002   0.0000000000000000     
  0.81250000000000000        9.3750000000000000E-002   0.0000000000000000     
  0.84375000000000000        9.3750000000000000E-002   0.0000000000000000     
  0.87500000000000000        9.3750000000000000E-002   0.0000000000000000     
  0.75000000000000000       0.12500000000000000        0.0000000000000000     
  0.78125000000000000       0.12500000000000000        0.0000000000000000     
  0.81250000000000000       0.12500000000000000        0.0000000000000000     
  0.84375000000000000       0.12500000000000000        0.0000000000000000     
  0.87500000000000000       0.12500000000000000        0.0000000000000000     
  0.87500000000000000        0.0000000000000000        0.0000000000000000     
  0.90625000000000000        0.0000000000000000        0.0000000000000000     
  0.93750000000000000        0.0000000000000000        0.0000000000000000     
  0.96875000000000000        0.0000000000000000        0.0000000000000000     
   1.0000000000000000        0.0000000000000000        0.0000000000000000     
  0.87500000000000000        3.1250000000000000E-002   0.0000000000000000     
  0.90625000000000000        3.1250000000000000E-002   0.0000000000000000     
  0.93750000000000000        3.1250000000000000E-002   0.0000000000000000     
  0.96875000000000000        3.1250000000000000E-002   0.0000000000000000     
   1.0000000000000000        3.1250000000000000E-002   0.0000000000000000     
  0.87500000000000000        6.2500000000000000E-002   0.0000000000000000     
  0.90625000000000000        6.2500000000000000E-002   0.0000000000000000     
  0.93750000000000000        6.2500000000000000E-002   0.0000000000000000     
  0.96875000000000000        6.2500000000000000E-002   0.0000000000000000     
   1.0000000000000000        6.2500000000000000E-002   0.0000000000000000     
  0.87500000000000000        9.3750000000000000E-002   0.0000000000000000     
  0.90625000000000000        9.3750000000000000E-002   0.0000000000000000     
  0.93750000000000000        9.3750000000000000E-002   0.0000000000000000     
  0.96875000000000000        9.3750000000000000E-002   0.0000000000000000     
   1.0000000000000000        9.3750000000000000E-002   0.0000000000000000     
  0.87500000000000000       0.12500000000000000        0.0000000000000000     
  0.90625000000000000       0.12500000000000000        0.0000000000000000     
  0.93750000000000000       0.12500000000000000        0.0000000000000000     
  0.96875000000000000       0.12500000000000000        0.0000000000000000     
   1.0000000000000000       0.12500000000000000        0.0000000000000000     
   1.0000000000000000        0.0000000000000000        0.0000000000000000     
   1.0312500000000000        0.0000000000000000        0.0000000000000000     
   1.0625000000000000        0.0000000000000000        0.0000000000000000     
   1.0937500000000000        0.0000000000000000        0.0000000000000000     
   1.1250000000000000        0.0000000000000000        0.0000000000000000     
   1.0000000000000000        3.1250000000000000E-002   0.0000000000000000     
   1.0312500000000000        3.1250000000000000E-002   0.0000000000000000     
   1.0625000000000000        3.1250000000000000E-002   0.0000000000000000     
   1.0937500000000000        3.1250000000000000E-002   0.0000000000000000     
   1.1250000000000000        3.1250000000000000E-002   0.0000000000000000     
   1.0000000000000000        6.2500000000000000E-002   0.0000000000000000     
   1.0312500000000000        6.2500000000000000E-002   0.0000000000000000     
   1.0625000000000000        6.2500000000000000E-002   0.0000000000000000     
   1.0937500000000000        6.2500000000000000E-002   0.0000000000000000     
   1.1250000000000000        6.2500000000000000E-002   0.0000000000000000     
   1.0000000000000000        9.3750000000000000E-002   0.0000000000000000     
   1.0312500000000000        9.3750000000000000E-002   0.0000000000000000     
   1.0625000000000000        9.3750000000000000E-002   0.0000000000000000     
   1.0937500000000000        9.3750000000000000E-002   0.0000000000000000     
   1.1250000000000000        9.3750000000000000E-002   0.0000000000000000     
   1.0000000000000000       0.12500000000000000        0.0000000000000000     
   1.0312500000000000       0.12500000000000000        0.0000000000000000     
   1.0625000000000000       0.12500000000000000        0.0000000000000000     
   1.0937500000000000       0.12500000000000000        0.0000000000000000     
   1.1250000000000000       0.12500000000000000        0.0000000000000000     
   1.1250000000000000        0.0000000000000000        0.0000000000000000     
   1.1562500000000000        0.0000000000000000        0.0000000000000000     
   1.1875000000000000        0.0000000000000000        0.0000000000000000     
   1.2187500000000000        0.0000000000000000        0.0000000000000000     
   1.2500000000000000        0.0000000000000000        0.0000000000000000     
   1.1250000000000000        3.1250000000000000E-002   0.0000000000000000     
   1.1562500000000000        3.1250000000000000E-002   0.0000000000000000     
   1.1875000000000000        3.1250000000000000E-002   0.0000000000000000     
   1.2187500000000000        3.1250000000000000E-002   0.0000000000000000     
   1.2500000000000000        3.1250000000000000E-002   0.0000000000000000     
   1.1250000000000000        6.2500000000000000E-002   0.0000000000000000     
   1.1562500000000000        6.2500000000000000E-002   0.0000000000000000     
   1.1875000000000000        6.2500000000000000E-002   0.0000000000000000     
   1.2187500000000000        6.2500000000000000E-002   0.0000000000000000     
   1.2500000000000000        6.2500000000000000E-002   0.0000000000000000     
   1.1250000000000000        9.3750000000000000E-002   0.0000000000000000     
   1.1562500000000000        9.3750000000000000E-002   0.0000000000000000     
   1.1875000000000000        9.3750000000000000E-002   0.0000000000000000     
   1.2187500000000000        9.3750000000000000E-002   0.0000000000000000     
   1.2500000000000000        9.3750000000000000E-002   0.0000000000000000     
   1.1250000000000000       0.12500000000000000        0.0000000000000000     
   1.1562500000000000       0.12500000000000000        0.0000000000000000     
   1.1875000000000000       0.12500000000000000        0.0000000000000000     
   1.2187500000000000       0.12500000000000000        0.0000000000000000     
   1.2500000000000000       0.12500000000000000        0.0000000000000000     
   1.2500000000000000        0.0000000000000000        0.0000000000000000     
   1.2812500000000000        0.0000000000000000        0.0000000000000000     
   1.3125000000000000        0.0000000000000000        0.0000000000000000     
   1.3437500000000000        0.0000000000000000        0.0000000000000000     
   1.3750000000000000        0.0000000000000000        0.0000000000000000     
   1.2500000000000000        3.1250000000000000E-002   0.0000000000000000     
   1.2812500000000000        3.1250000000000000E-002   0.0000000000000000     
   1.3125000000000000        3.1250000000000000E-002   0.0000000000000000     
   1.3437500000000000        3.1250000000000000E-002   0.0000000000000000     
   1.3750000000000000        3.1250000000000000E-002   0.0000000000000000     
   1.2500000000000000        6.2500000000000000E-002   0.0000000000000000     
   1.2812500000000000        6.2500000000000000E-002   0.0000000000000000     
   1.3125000000000000        6.2500000000000000E-002   0.0000000000000000     
   1.3437500000000000        6.2500000000000000E-002   0.0000000000000000     
   1.3750000000000000        6.2500000000000000E-002   0.0000000000000000     
   1.2500000000000000        9.3750000000000000E-002   0.0000000000000000     
   1.2812500000000000        9.3750000000000000E-002   0.0000000000000000     
   1.3125000000000000        9.3750000000000000E-002   0.0000000000000000     
   1.3437500000000000        9.3750000000000000E-002   0.0000000000000000     
   1.3750000000000000        9.3750000000000000E-002   0.0000000000000000     
   1.2500000000000000       0.12500000000000000        0.0000000000000000     
   1.2812500000000000       0.12500000000000000        0.0000000000000000     
   1.3125000000000000       0.12500000000000000        0.0000000000000000     
   1.3437500000000000       0.12500000000000000        0.0000000000000000     
   1.3750000000000000       0.12500000000000000        0.0000000000000000     
   1.3750000000000000        0.0000000000000000        0.0000000000000000     
   1.4062500000000000        0.0000000000000000        0.0000000000000000     
   1.4375000000000000        0.0000000000000000        0.0000000000000000     
   1.4687500000000000        0.0000000000000000        0.0000000000000000     
   1.5000000000000000        0.0000000000000000        0.0000000000000000     
   1.3750000000000000        3.1250000000000000E-002   0.0000000000000000     
   1.4062500000000000        3.1250000000000000E-002   0.0000000000000000     
   1.4375000000000000        3.1250000000000000E-002   0.0000000000000000     
   1.4687500000000000        3.1250000000000000E-002   0.0000000000000000     
   1.5000000000000000        3.1250000000000000E-002   0.0000000000000000     
   1.3750000000000000        6.2500000000000000E-002   0.0000000000000000     
   1.4062500000000000        6.2500000000000000E-002   0.0000000000000000     
   1.4375000000000000        6.2500000000000000E-002   0.0000000000000000     
   1.4687500000000000        6.2500000000000000E-002   0.0000000000000000     
   1.5000000000000000        6.2500000000000000E-002   0.0000000000000000     
   1.3750000000000000        9.3750000000000000E-002   0.0000000000000000     
   1.4062500000000000        9.3750000000000000E-002   0.0000000000000000     
   1.4375000000000000        9.3750000000000000E-002   0.0000000000000000     
   1.4687500000000000        9.3750000000000000E-002   0.0000000000000000     
   1.5000000000000000        9.3750000000000000E-002   0.0000000000000000     
   1.3750000000000000       0.12500000000000000        0.0000000000000000     
   1.4062500000000000       0.12500000000000000        0.0000000000000000     
   1.4375000000000000       0.12500000000000000        0.0000000000000000     
   1.4687500000000000       0.12500000000000000        0.0000000000000000     
   1.5000000000000000       0.12500000000000000        0.0000000000000000     
  0.50000000000000000       0.12500000000000000        0.0000000000000000     
  0.53125000000000000       0.12500000000000000        0.0000000000000000     
  0.56250000000000000       0.12500000000000000        0.0000000000000000     
  0.59375000000000000       0.12500000000000000        0.0000000000000000     
  0.62500000000000000       0.12500000000000000        0.0000000000000000     
  0.50000000000000000       0.15625000000000000        0.0000000000000000     
  0.53125000000000000       0.15625000000000000        0.0000000000000000     
  0.56250000000000000       0.15625000000000000        0.0000000000000000     
  0.59375000000000000       0.15625000000000000        0.0000000000000000     
  0.62500000000000000       0.15625000000000000        0.0000000000000000     
  0.50000000000000000       0.18750000000000000        0.0000000000000000     
  0.53125000000000000       0.18750000000000000        0.0000000000000000     
  0.56250000000000000       0.18750000000000000        0.0000000000000000     
  0.59375000000000000       0.18750000000000000        0.0000000000000000     
  0.62500000000000000       0.18750000000000000        0.0000000000000000     
  0.50000000000000000       0.21875000000000000        0.0000000000000000     
  0.53125000000000000       0.21875000000000000        0.0000000000000000     
  0.56250000000000000       0.21875000000000000        0.0000000000000000     
  0.59375000000000000       0.21875000000000000        0.0000000000000000     
  0.62500000000000000       0.21875000000000000        0.0000000000000000     
  0.50000000000000000       0.25000000000000000        0.0000000000000000     
  0.53125000000000000       0.25000000000000000        0.0000000000000000     
  0.56250000000000000       0.25000000000000000        0.0000000000000000     
  0.59375000000000000       0.25000000000000000        0.0000000000000000     
  0.62500000000000000       0.25000000000000000        0.0000000000000000     
  0.62500000000000000       0.12500000000000000        0.0000000000000000     
  0.65625000000000000       0.12500000000000000        0.0000000000000000     
  0.68750000000000000       0.12500000000000000        0.0000000000000000     
  0.71875000000000000       0.12500000000000000        0.0000000000000000     
  0.75000000000000000       0.12500000000000000        0.0000000000000000     
  0.62500000000000000       0.15625000000000000        0.0000000000000000     
  0.65625000000000000       0.15625000000000000        0.0000000000000000     
  0.68750000000000000       0.15625000000000000        0.0000000000000000     
  0.71875000000000000       0.15625000000000000        0.0000000000000000     
  0.75000000000000000       0.15625000000000000        0.0000000000000000     
  0.62500000000000000       0.18750000000000000        0.0000000000000000     
  0.65625000000000000       0.18750000000000000        0.0000000000000000     
  0.68750000000000000       0.18750000000000000        0.0000000000000000     
  0.71875000000000000       0.18750000000000000        0.0000000000000000     
  0.75000000000000000       0.18750000000000000        0.0000000000000000     
  0.62500000000000000       0.21875000000000000        0.0000000000000000     
  0.65625000000000000       0.21875000000000000        0.0000000000000000     
  0.68750000000000000       0.21875000000000000        0.0000000000000000     
  0.71875000000000000       0.21875000000000000        0.0000000000000000     
  0.75000000000000000       0.21875000000000000        0.0000000000000000     
  0.62500000000000000       0.25000000000000000        0.0000000000000000     
  0.65625000000000000       0.25000000000000000        0.0000000000000000     
  0.68750000000000000       0.25000000000000000        0.0000000000000000     
  0.71875000000000000       0.25000000000000000        0.0000000000000000     
  0.75000000000000000       0.25000000000000000        0.0000000000000000     
  0.75000000000000000       0.12500000000000000        0.0000000000000000     
  0.78125000000000000       0.12500000000000000        0.0000000000000000     
  0.81250000000000000       0.12500000000000000        0.0000000000000000     
  0.84375000000000000       0.12500000000000000        0.0000000000000000     
  0.87500000000000000       0.12500000000000000        0.0000000000000000     
  0.75000000000000000       0.15625000000000000        0.0000000000000000     
  0.78125000000000000       0.15625000000000000        0.0000000000000000     
  0.81250000000000000       0.15625000000000000        0.0000000000000000     
  0.84375000000000000       0.15625000000000000        0.0000000000000000     
  0.87500000000000000       0.15625000000000000        0.0000000000000000     
  0.75000000000000000       0.18750000000000000        0.0000000000000000     
  0.78125000000000000       0.18750000000000000        0.0000000000000000     
  0.81250000000000000       0.18750000000000000        0.0000000000000000     
  0.84375000000000000       0.18750000000000000        0.0000000000000000     
  0.87500000000000000       0.18750000000000000        0.0000000000000000     
  0.75000000000000000       0.21875000000000000        0.0000000000000000     
  0.78125000000000000       0.21875000000000000        0.0000000000000000     
  0.81250000000000000       0.21875000000000000        0.0000000000000000     
  0.84375000000000000       0.21875000000000000        0.0000000000000000     
  0.87500000000000000       0.21875000000000000        0.0000000000000000     
  0.75000000000000000       0.25000000000000000        0.0000000000000000     
  0.78125000000000000       0.25000000000000000        0.0000000000000000     
  0.81250000000000000       0.25000000000000000        0.0000000000000000     
  0.84375000000000000       0.25000000000000000        0.0000000000000000     
  0.87500000000000000       0.25000000000000000        0.0000000000000000     
  0.87500000000000000       0.12500000000000000        0.0000000000000000     
  0.90625000000000000       0.12500000000000000        0.0000000000000000     
  0.93750000000000000       0.12500000000000000        0.0000000000000000     
  0.96875000000000000       0.12500000000000000        0.0000000000000000     
   1.0000000000000000       0.12500000000000000        0.0000000000000000     
  0.87500000000000000       0.15625000000000000        0.0000000000000000     
  0.90625000000000000       0.15625000000000000        0.0000000000000000     
  0.93750000000000000       0.15625000000000000        0.0000000000000000     
  0.96875000000000000       0.15625000000000000        0.0000000000000000     
   1.0000000000000000       0.15625000000000000        0.0000000000000000     
  0.87500000000000000       0.18750000000000000        0.0000000000000000     
  0.90625000000000000       0.18750000000000000        0.0000000000000000     
  0.93750000000000000       0.18750000000000000        0.0000000000000000     
  0.96875000000000000       0.18750000000000000        0.0000000000000000     
   1.0000000000000000       0.18750000000000000        0.0000000000000000     
  0.87500000000000000       0.21875000000000000        0.0000000000000000     
  0.90625000000000000       0.21875000000000000        0.0000000000000000     
  0.93750000000000000       0.21875000000000000        0.0000000000000000     
  0.96875000000000000       0.21875000000000000        0.0000000000000000     
   1.0000000000000000       0.21875000000000000        0.0000000000000000     
  0.87500000000000000       0.25000000000000000        0.0000000000000000     
  0.90625000000000000       0.25000000000000000        0.0000000000000000     
  0.93750000000000000       0.25000000000000000        0.0000000000000000     
  0.96875000000000000       0.25000000000000000        0.0000000000000000     
   1.0000000000000000       0.25000000000000000        0.0000000000000000     
   1.0000000000000000       0.12500000000000000        0.0000000000000000     
   1.0312500000000000       0.12500000000000000        0.0000000000000000     
   1.0625000000000000       0.12500000000000000        0.0000000000000000     
   1.0937500000000000       0.12500000000000000        0.0000000000000000     
   1.1250000000000000       0.12500000000000000        0.0000000000000000     
   1.0000000000000000       0.15625000000000000        0.0000000000000000     
   1.0312500000000000       0.15625000000000000        0.0000000000000000     
   1.0625000000000000       0.15625000000000000        0.0000000000000000     
   1.0937500000000000       0.15625000000000000        0.0000000000000000     
   1.1250000000000000       0.15625000000000000        0.0000000000000000     
   1.0000000000000000       0.18750000000000000        0.0000000000000000     
   1.0312500000000000       0.18750000000000000        0.0000000000000000     
   1.0625000000000000       0.18750000000000000        0.0000000000000000     
   1.0937500000000000       0.18750000000000000        0.0000000000000000     
   1.1250000000000000       0.18750000000000000        0.0000000000000000     
   1.0000000000000000       0.21875000000000000        0.0000000000000000     
   1.0312500000000000       0.21875000000000000        0.0000000000000000     
   1.0625000000000000       0.21875000000000000        0.0000000000000000     
   1.0937500000000000       0.21875000000000000        0.0000000000000000     
   1.1250000000000000       0.21875000000000000        0.0000000000000000     
   1.0000000000000000       0.25000000000000000        0.0000000000000000     
   1.0312500000000000       0.25000000000000000        0.0000000000000000     
   1.0625000000000000       0.25000000000000000        0.0000000000000000     
   1.0937500000000000       0.25000000000000000        0.0000000000000000     
   1.1250000000000000       0.25000000000000000        0.0000000000000000     
   1.1250000000000000       0.12500000000000000        0.0000000000000000     
   1.1562500000000000       0.12500000000000000        0.0000000000000000     
   1.1875000000000000       0.12500000000000000        0.0000000000000000     
   1.2187500000000000       0.12500000000000000        0.0000000000000000     
   1.2500000000000000       0.12500000000000000        0.0000000000000000     
   1.1250000000000000       0.15625000000000000        0.0000000000000000     
   1.1562500000000000       0.15625000000000000        0.0000000000000000     
   1.1875000000000000       0.15625000000000000        0.0000000000000000     
   1.2187500000000000       0.15625000000000000        0.0000000000000000     
   1.2500000000000000       0.15625000000000000        0.0000000000000000     
   1.1250000000000000       0.18750000000000000        0.0000000000000000     
   1.1562500000000000       0.18750000000000000        0.0000000000000000     
   1.1875000000000000       0.18750000000000000        0.0000000000000000     
   1.2187500000000000       0.18750000000000000        0.0000000000000000     
   1.2500000000000000       0.18750000000000000        0.0000000000000000     
   1.1250000000000000       0.21875000000000000        0.0000000000000000     
   1.1562500000000000       0.21875000000000000        0.0000000000000000     
   1.1875000000000000       0.21875000000000000        0.0000000000000000     
   1.2187500000000000       0.21875000000000000        0.0000000000000000     
   1.2500000000000000       0.21875000000000000        0.0000000000000000     
   1.1250000000000000       0.25000000000000000        0.0000000000000000     
   1.1562500000000000       0.25000000000000000        0.0000000000000000     
   1.1875000000000000       0.25000000000000000        0.0000000000000000     
   1.2187500000000000       0.25000000000000000        0.0000000000000000     
   1.2500000000000000       0.25000000000000000        0.0000000000000000     
   1.2500000000000000       0.12500000000000000        0.0000000000000000     
   1.2812500000000000       0.12500000000000000        0.0000000000000000     
   1.3125000000000000       0.12500000000000000        0.0000000000000000     
   1.3437500000000000       0.12500000000000000        0.0000000000000000     
   1.3750000000000000       0.12500000000000000        0.0000000000000000     
   1.2500000000000000       0.15625000000000000        0.0000000000000000     
   1.2812500000000000       0.15625000000000000        0.0000000000000000     
   1.3125000000000000       0.15625000000000000        0.0000000000000000     
   1.3437500000000000       0.15625000000000000        0.0000000000000000     
   1.3750000000000000       0.15625000000000000        0.0000000000000000     
   1.2500000000000000       0.18750000000000000        0.0000000000000000     
   1.2812500000000000       0.18750000000000000        0.0000000000000000     
   1.3125000000000000       0.18750000000000000        0.0000000000000000     
   1.3437500000000000       0.18750000000000000        0.0000000000000000     
   1.3750000000000000       0.18750000000000000        0.0000000000000000     
   1.2500000000000000       0.21875000000000000        0.0000000000000000     
   1.2812500000000000       0.21875000000000000        0.0000000000000000     
   1.3125000000000000       0.21875000000000000        0.0000000000000000     
   1.3437500000000000       0.21875000000000000        0.0000000000000000     
   1.3750000000000000       0.21875000000000000        0.0000000000000000     
   1.2500000000000000       0.25000000000000000        0.0000000000000000     
   1.2812500000000000       0.25000000000000000        0.0000000000000000     
   1.3125000000000000       0.25000000000000000        0.0000000000000000     
   1.3437500000000000       0.25000000000000000        0.0000000000000000     
   1.3750000000000000       0.25000000000000000        0.0000000000000000     
   1.3750000000000000       0.12500000000000000        0.0000000000000000     
   1.4062500000000000       0.12500000000000000        0.0000000000000000     
   1.4375000000000000       0.12500000000000000        0.0000000000000000     
   1.4687500000000000       0.12500000000000000        0.0000000000000000     
   1.5000000000000000       0.12500000000000000        0.0000000000000000     
   1.3750000000000000       0.15625000000000000        0.0000000000000000     
   1.4062500000000000       0.15625000000000000        0.0000000000000000     
   1.4375000000000000       0.15625000000000000        0.0000000000000000     
   1.4687500000000000       0.15625000000000000        0.0000000000000000     
   1.5000000000000000       0.15625000000000000        0.0000000000000000     
   1.3750000000000000       0.18750000000000000        0.0000000000000000     
   1.4062500000000000       0.18750000000000000        0.0000000000000000     
   1.4375000000000000       0.18750000000000000        0.0000000000000000     
   1.4687500000000000       0.18750000000000000        0.0000000000000000     
   1.5000000000000000       0.18750000000000000        0.0000000000000000     
   1.3750000000000000       0.21875000000000000        0.0000000000000000     
   1.4062500000000000       0.21875000000000000        0.0000000000000000     
   1.4375000000000000       0.21875000000000000        0.0000000000000000     
   1.4687500000000000       0.21875000000000000        0.0000000000000000     
   1.5000000000000000       0.21875000000000000        0.0000000000000000     
   1.3750000000000000       0.25000000000000000        0.0000000000000000     
   1.4062500000000000       0.25000000000000000        0.0000000000000000     
   1.4375000000000000       0.25000000000000000        0.0000000000000000     
   1.4687500000000000       0.25000000000000000        0.0000000000000000     
   1.5000000000000000       0.25000000000000000        0.0000000000000000     
  0.50000000000000000       0.25000000000000000        0.0000000000000000     
  0.53125000000000000       0.25000000000000000        0.0000000000000000     
  0.56250000000000000       0.25000000000000000        0.0000000000000000     
  0.59375000000000000       0.25000000000000000        0.0000000000000000     
  0.62500000000000000       0.25000000000000000        0.0000000000000000     
  0.50000000000000000       0.28125000000000000        0.0000000000000000     
  0.53125000000000000       0.28125000000000000        0.0000000000000000     
  0.56250000000000000       0.28125000000000000        0.0000000000000000     
  0.59375000000000000       0.28125000000000000        0.0000000000000000     
  0.62500000000000000       0.28125000000000000        0.0000000000000000     
  0.50000000000000000       0.31250000000000000        0.0000000000000000     
  0.53125000000000000       0.31250000000000000        0.0000000000000000     
  0.56250000000000000       0.31250000000000000        0.0000000000000000     
  0.59375000000000000       0.31250000000000000        0.0000000000000000     
  0.62500000000000000       0.31250000000000000        0.0000000000000000     
  0.50000000000000000       0.34375000000000000        0.0000000000000000     
  0.53125000000000000       0.34375000000000000        0.0000000000000000     
  0.56250000000000000       0.34375000000000000        0.0000000000000000     
  0.59375000000000000       0.34375000000000000        0.0000000000000000     
  0.62500000000000000       0.34375000000000000        0.0000000000000000     
  0.50000000000000000       0.37500000000000000        0.0000000000000000     
  0.53125000000000000       0.37500000000000000        0.0000000000000000     
  0.56250000000000000       0.37500000000000000        0.0000000000000000     
  0.59375000000000000       0.37500000000000000        0.0000000000000000     
  0.62500000000000000       0.37500000000000000        0.0000000000000000     
  0.62500000000000000       0.25000000000000000        0.0000000000000000     
  0.65625000000000000       0.25000000000000000        0.0000000000000000     
  0.68750000000000000       0.25000000000000000        0.0000000000000000     
  0.71875000000000000       0.25000000000000000        0.0000000000000000     
  0.75000000000000000       0.25000000000000000        0.0000000000000000     
  0.62500000000000000       0.28125000000000000        0.0000000000000000     
  0.65625000000000000       0.28125000000000000        0.0000000000000000     
  0.68750000000000000       0.28125000000000000        0.0000000000000000     
  0.71875000000000000       0.28125000000000000        0.0000000000000000     
  0.75000000000000000       0.28125000000000000        0.0000000000000000     
  0.62500000000000000       0.31250000000000000        0.0000000000000000     
  0.65625000000000000       0.31250000000000000        0.0000000000000000     
  0.68750000000000000       0.31250000000000000        0.0000000000000000     
  0.71875000000000000       0.31250000000000000        0.0000000000000000     
  0.75000000000000000       0.31250000000000000        0.0000000000000000     
  0.62500000000000000       0.34375000000000000        0.0000000000000000     
  0.65625000000000000       0.34375000000000000        0.0000000000000000     
  0.68750000000000000       0.34375000000000000        0.0000000000000000     
  0.71875000000000000       0.34375000000000000        0.0000000000000000     
  0.75000000000000000       0.34375000000000000        0.0000000000000000     
  0.62500000000000000       0.37500000000000000        0.0000000000000000     
  0.65625000000000000       0.37500000000000000        0.0000000000000000     
  0.68750000000000000       0.37500000000000000        0.0000000000000000     
  0.71875000000000000       0.37500000000000000        0.0000000000000000     
  0.75000000000000000       0.37500000000000000        0.0000000000000000     
  0.75000000000000000       0.25000000000000000        0.0000000000000000     
  0.78125000000000000       0.25000000000000000        0.0000000000000000     
  0.81250000000000000       0.25000000000000000        0.0000000000000000     
  0.84375000000000000       0.25000000000000000        0.0000000000000000     
  0.87500000000000000       0.25000000000000000        0.0000000000000000     
  0.75000000000000000       0.28125000000000000        0.0000000000000000     
  0.78125000000000000       0.28125000000000000        0.0000000000000000     
  0.81250000000000000       0.28125000000000000        0.0000000000000000     
  0.84375000000000000       0.28125000000000000        0.0000000000000000     
  0.87500000000000000       0.28125000000000000        0.0000000000000000     
  0.75000000000000000       0.31250000000000000        0.0000000000000000     
  0.78125000000000000       0.31250000000000000        0.0000000000000000     
  0.81250000000000000       0.31250000000000000        0.0000000000000000     
  0.84375000000000000       0.31250000000000000        0.0000000000000000     
  0.87500000000000000       0.31250000000000000        0.0000000000000000     
  0.75000000000000000       0.34375000000000000        0.0000000000000000     
  0.78125000000000000       0.34375000000000000        0.0000000000000000     
  0.81250000000000000       0.34375000000000000        0.0000000000000000     
  0.84375000000000000       0.34375000000000000        0.0000000000000000     
  0.87500000000000000       0.34375000000000000        0.0000000000000000     
  0.75000000000000000       0.37500000000000000        0.0000000000000000     
  0.78125000000000000       0.37500000000000000        0.0000000000000000     
  0.81250000000000000       0.37500000000000000        0.0000000000000000     
  0.84375000000000000       0.37500000000000000        0.0000000000000000     
  0.87500000000000000       0.37500000000000000        0.0000000000000000     
  0.87500000000000000       0.25000000000000000        0.0000000000000000     
  0.90625000000000000       0.25000000000000000        0.0000000000000000     
  0.93750000000000000       0.25000000000000000        0.0000000000000000     
  0.96875000000000000       0.25000000000000000        0.0000000000000000     
   1.0000000000000000       0.25000000000000000        0.0000000000000000     
  0.87500000000000000       0.28125000000000000        0.0000000000000000     
  0.90625000000000000       0.28125000000000000        0.0000000000000000     
  0.93750000000000000       0.28125000000000000        0.0000000000000000     
  0.96875000000000000       0.28125000000000000        0.0000000000000000     
   1.0000000000000000       0.28125000000000000        0.0000000000000000     
  0.87500000000000000       0.31250000000000000        0.0000000000000000     
  0.90625000000000000       0.31250000000000000        0.0000000000000000     
  0.93750000000000000       0.31250000000000000        0.0000000000000000     
  0.96875000000000000       0.31250000000000000        0.0000000000000000     
   1.0000000000000000       0.31250000000000000        0.0000000000000000     
  0.87500000000000000       0.34375000000000000        0.0000000000000000     
  0.90625000000000000       0.34375000000000000        0.0000000000000000     
  0.93750000000000000       0.34375000000000000        0.0000000000000000     
  0.96875000000000000       0.34375000000000000        0.0000000000000000     
   1.0000000000000000       0.34375000000000000        0.0000000000000000     
  0.87500000000000000       0.37500000000000000        0.0000000000000000     
  0.90625000000000000       0.37500000000000000        0.0000000000000000     
  0.93750000000000000       0.37500000000000000        0.0000000000000000     
  0.96875000000000000       0.37500000000000000        0.0000000000000000     
   1.0000000000000000       0.37500000000000000        0.0000000000000000     
   1.0000000000000000       0.25000000000000000        0.0000000000000000     
   1.0312500000000000       0.25000000000000000        0.0000000000000000     
   1.0625000000000000       0.25000000000000000        0.0000000000000000     
   1.0937500000000000       0.25000000000000000        0.0000000000000000     
   1.1250000000000000       0.25000000000000000        0.0000000000000000     
   1.0000000000000000       0.28125000000000000        0.0000000000000000     
   1.0312500000000000       0.28125000000000000        0.0000000000000000     
   1.0625000000000000       0.28125000000000000        0.0000000000000000     
   1.0937500000000000       0.28125000000000000        0.0000000000000000     
   1.1250000000000000       0.28125000000000000        0.0000000000000000     
   1.0000000000000000       0.31250000000000000        0.0000000000000000     
   1.0312500000000000       0.31250000000000000        0.0000000000000000     
   1.0625000000000000       0.31250000000000000        0.0000000000000000     
   1.0937500000000000       0.31250000000000000        0.0000000000000000     
   1.1250000000000000       0.31250000000000000        0.0000000000000000     
   1.0000000000000000       0.34375000000000000        0.0000000000000000     
   1.0312500000000000       0.34375000000000000        0.0000000000000000     
   1.0625000000000000       0.34375000000000000        0.0000000000000000     
   1.0937500000000000       0.34375000000000000        0.0000000000000000     
   1.1250000000000000       0.34375000000000000        0.0000000000000000     
   1.0000000000000000       0.37500000000000000        0.0000000000000000     
   1.0312500000000000       0.37500000000000000        0.0000000000000000     
   1.0625000000000000       0.37500000000000000        0.0000000000000000     
   1.0937500000000000       0.37500000000000000        0.0000000000000000     
   1.1250000000000000       0.37500000000000000        0.0000000000000000     
   1.1250000000000000       0.25000000000000000        0.0000000000000000     
   1.1562500000000000       0.25000000000000000        0.0000000000000000     
   1.1875000000000000       0.25000000000000000        0.0000000000000000     
   1.2187500000000000       0.25000000000000000        0.0000000000000000     
   1.2500000000000000       0.25000000000000000        0.0000000000000000     
   1.1250000000000000       0.28125000000000000        0.0000000000000000     
   1.1562500000000000       0.28125000000000000        0.0000000000000000     
   1.1875000000000000       0.28125000000000000        0.0000000000000000     
   1.2187500000000000       0.28125000000000000        0.0000000000000000     
   1.2500000000000000       0.28125000000000000        0.0000000000000000     
   1.1250000000000000       0.31250000000000000        0.0000000000000000     
   1.1562500000000000       0.31250000000000000        0.0000000000000000     
   1.1875000000000000       0.31250000000000000        0.0000000000000000     
   1.2187500000000000       0.31250000000000000        0.0000000000000000     
   1.2500000000000000       0.31250000000000000        0.0000000000000000     
   1.1250000000000000       0.34375000000000000        0.0000000000000000     
   1.1562500000000000       0.34375000000000000        0.0000000000000000     
   1.1875000000000000       0.34375000000000000        0.0000000000000000     
   1.2187500000000000       0.34375000000000000        0.0000000000000000     
   1.2500000000000000       0.34375000000000000        0.0000000000000000     
   1.1250000000000000       0.37500000000000000        0.0000000000000000     
   1.1562500000000000       0.37500000000000000        0.0000000000000000     
   1.1875000000000000       0.37500000000000000        0.0000000000000000     
   1.2187500000000000       0.37500000000000000        0.0000000000000000     
   1.2500000000000000       0.37500000000000000        0.0000000000000000     
   1.2500000000000000       0.25000000000000000        0.0000000000000000     
   1.2812500000000000       0.25000000000000000        0.0000000000000000     
   1.3125000000000000       0.25000000000000000        0.0000000000000000     
   1.3437500000000000       0.25000000000000000        0.0000000000000000     
   1.3750000000000000       0.25000000000000000        0.0000000000000000     
   1.2500000000000000       0.28125000000000000        0.0000000000000000     
   1.2812500000000000       0.28125000000000000        0.0000000000000000     
   1.3125000000000000       0.28125000000000000        0.0000000000000000     
   1.3437500000000000       0.28125000000000000        0.0000000000000000     
   1.3750000000000000       0.28125000000000000        0.0000000000000000     
   1.2500000000000000       0.31250000000000000        0.0000000000000000     
   1.2812500000000000       0.31250000000000000        0.0000000000000000     
   1.3125000000000000       0.31250000000000000        0.0000000000000000     
   1.3437500000000000       0.31250000000000000        0.0000000000000000     
   1.3750000000000000       0.31250000000000000        0.0000000000000000     
   1.2500000000000000       0.34375000000000000        0.0000000000000000     
   1.2812500000000000       0.34375000000000000        0.0000000000000000     
   1.3125000000000000       0.34375000000000000        0.0000000000000000     
   1.3437500000000000       0.34375000000000000        0.0000000000000000     
   1.3750000000000000       0.34375000000000000        0.0000000000000000     
   1.2500000000000000       0.37500000000000000        0.0000000000000000     
   1.2812500000000000       0.37500000000000000        0.0000000000000000     
   1.3125000000000000       0.37500000000000000        0.0000000000000000     
   1.3437500000000000       0.37500000000000000        0.0000000000000000     
   1.3750000000000000       0.37500000000000000        0.0000000000000000     
   1.3750000000000000       0.25000000000000000        0.0000000000000000     
   1.4062500000000000       0.25000000000000000        0.0000000000000000     
   1.4375000000000000       0.25000000000000000        0.0000000000000000     
   1.4687500000000000       0.25000000000000000        0.0000000000000000     
   1.5000000000000000       0.25000000000000000        0.0000000000000000     
   1.3750000000000000       0.28125000000000000        0.0000000000000000     
   1.4062500000000000       0.28125000000000000        0.0000000000000000     
   1.4375000000000000       0.28125000000000000        0.0000000000000000     
   1.4687500000000000       0.28125000000000000        0.0000000000000000     
   1.5000000000000000       0.28125000000000000        0.0000000000000000     
   1.3750000000000000       0.31250000000000000        0.0000000000000000     
   1.4062500000000000       0.31250000000000000        0.0000000000000000     
   1.4375000000000000       0.31250000000000000        0.0000000000000000     
   1.4687500000000000       0.31250000000000000        0.0000000000000000     
   1.5000000000000000       0.31250000000000000        0.0000000000000000     
   1.3750000000000000       0.34375000000000000        0.0000000000000000     
   1.4062500000000000       0.34375000000000000        0.0000000000000000     
   1.4375000000000000       0.34375000000000000        0.0000000000000000     
   1.4687500000000000       0.34375000000000000        0.0000000000000000     
   1.5000000000000000       0.34375000000000000        0.0000000000000000     
   1.3750000000000000       0.37500000000000000        0.0000000000000000     
   1.4062500000000000       0.37500000000000000        0.0000000000000000     
   1.4375000000000000       0.37500000000000000        0.0000000000000000     
   1.4687500000000000       0.37500000000000000        0.0000000000000000     
   1.5000000000000000       0.37500000000000000        0.0000000000000000     
  0.50000000000000000       0.37500000000000000        0.0000000000000000     
  0.53125000000000000       0.37500000000000000        0.0000000000000000     
  0.56250000000000000       0.37500000000000000        0.0000000000000000     
  0.59375000000000000       0.37500000000000000        0.0000000000000000     
  0.62500000000000000       0.37500000000000000        0.0000000000000000     
  0.50000000000000000       0.40625000000000000        0.0000000000000000     
  0.53125000000000000       0.40625000000000000        0.0000000000000000     
  0.56250000000000000       0.40625000000000000        0.0000000000000000     
  0.59375000000000000       0.40625000000000000        0.0000000000000000     
  0.62500000000000000       0.40625000000000000        0.0000000000000000     
  0.50000000000000000       0.43750000000000000        0.0000000000000000     
  0.53125000000000000       0.43750000000000000        0.0000000000000000     
  0.56250000000000000       0.43750000000000000        0.0000000000000000     
  0.59375000000000000       0.43750000000000000        0.0000000000000000     
  0.62500000000000000       0.43750000000000000        0.0000000000000000     
  0.50000000000000000       0.46875000000000000        0.0000000000000000     
  0.53125000000000000       0.46875000000000000        0.0000000000000000     
  0.56250000000000000       0.46875000000000000        0.0000000000000000     
  0.59375000000000000       0.46875000000000000        0.0000000000000000     
  0.62500000000000000       0.46875000000000000        0.0000000000000000     
  0.50000000000000000       0.50000000000000000        0.0000000000000000     
  0.53125000000000000       0.50000000000000000        0.0000000000000000     
  0.56250000000000000       0.50000000000000000        0.0000000000000000     
  0.59375000000000000       0.50000000000000000        0.0000000000000000     
  0.62500000000000000       0.50000000000000000        0.0000000000000000     
  0.62500000000000000       0.37500000000000000        0.0000000000000000     
  0.65625000000000000       0.37500000000000000        0.0000000000000000     
  0.68750000000000000       0.37500000000000000        0.0000000000000000     
  0.71875000000000000       0.37500000000000000        0.0000000000000000     
  0.75000000000000000       0.37500000000000000        0.0000000000000000     
  0.62500000000000000       0.40625000000000000        0.0000000000000000     
  0.65625000000000000       0.40625000000000000        0.0000000000000000     
  0.68750000000000000       0.40625000000000000        0.0000000000000000     
  0.71875000000000000       0.40625000000000000        0.0000000000000000     
  0.75000000000000000       0.40625000000000000        0.0000000000000000     
  0.62500000000000000       0.43750000000000000        0.0000000000000000     
  0.65625000000000000       0.43750000000000000        0.0000000000000000     
  0.68750000000000000       0.43750000000000000        0.0000000000000000     
  0.71875000000000000       0.43750000000000000        0.0000000000000000     
  0.75000000000000000       0.43750000000000000        0.0000000000000000     
  0.62500000000000000       0.46875000000000000        0.0000000000000000     
  0.65625000000000000       0.46875000000000000        0.0000000000000000     
  0.68750000000000000       0.46875000000000000        0.0000000000000000     
  0.71875000000000000       0.46875000000000000        0.0000000000000000     
  0.75000000000000000       0.46875000000000000        0.0000000000000000     
  0.62500000000000000       0.50000000000000000        0.0000000000000000     
  0.65625000000000000       0.50000000000000000        0.0000000000000000     
  0.68750000000000000       0.50000000000000000        0.0000000000000000     
  0.71875000000000000       0.50000000000000000        0.0000000000000000     
  0.75000000000000000       0.50000000000000000        0.0000000000000000     
  0.75000000000000000       0.37500000000000000        0.0000000000000000     
  0.78125000000000000       0.37500000000000000        0.0000000000000000     
  0.81250000000000000       0.37500000000000000        0.0000000000000000     
  0.84375000000000000       0.37500000000000000        0.0000000000000000     
  0.87500000000000000       0.37500000000000000        0.0000000000000000     
  0.75000000000000000       0.40625000000000000        0.0000000000000000     
  0.78125000000000000       0.40625000000000000        0.0000000000000000     
  0.81250000000000000       0.40625000000000000        0.0000000000000000     
  0.84375000000000000       0.40625000000000000        0.0000000000000000     
  0.87500000000000000       0.40625000000000000        0.0000000000000000     
  0.75000000000000000       0.43750000000000000        0.0000000000000000     
  0.78125000000000000       0.43750000000000000        0.0000000000000000     
  0.81250000000000000       0.43750000000000000        0.0000000000000000     
  0.84375000000000000       0.43750000000000000        0.0000000000000000     
  0.87500000000000000       0.43750000000000000        0.0000000000000000     
  0.75000000000000000       0.46875000000000000        0.0000000000000000     
  0.78125000000000000       0.46875000000000000        0.0000000000000000     
  0.81250000000000000       0.46875000000000000        0.0000000000000000     
  0.84375000000000000       0.46875000000000000        0.0000000000000000     
  0.87500000000000000       0.46875000000000000        0.0000000000000000     
  0.75000000000000000       0.50000000000000000        0.0000000000000000     
  0.78125000000000000       0.50000000000000000        0.0000000000000000     
  0.81250000000000000       0.50000000000000000        0.0000000000000000     
  0.84375000000000000       0.50000000000000000        0.0000000000000000     
  0.87500000000000000       0.50000000000000000        0.0000000000000000     
  0.87500000000000000       0.37500000000000000        0.0000000000000000     
  0.90625000000000000       0.37500000000000000        0.0000000000000000     
  0.93750000000000000       0.37500000000000000        0.0000000000000000     
  0.96875000000000000       0.37500000000000000        0.0000000000000000     
   1.0000000000000000       0.37500000000000000        0.0000000000000000     
  0.87500000000000000       0.40625000000000000        0.0000000000000000     
  0.90625000000000000       0.40625000000000000        0.0000000000000000     
  0.93750000000000000       0.40625000000000000        0.0000000000000000     
  0.96875000000000000       0.40625000000000000        0.0000000000000000     
   1.0000000000000000       0.40625000000000000        0.0000000000000000     
  0.87500000000000000       0.43750000000000000        0.0000000000000000     
  0.90625000000000000       0.43750000000000000        0.0000000000000000     
  0.93750000000000000       0.43750000000000000        0.0000000000000000     
  0.96875000000000000       0.43750000000000000        0.0000000000000000     
   1.0000000000000000       0.43750000000000000        0.0000000000000000     
  0.87500000000000000       0.46875000000000000        0.0000000000000000     
  0.90625000000000000       0.46875000000000000        0.0000000000000000     
  0.93750000000000000       0.46875000000000000        0.0000000000000000     
  0.96875000000000000       0.46875000000000000        0.0000000000000000     
   1.0000000000000000       0.46875000000000000        0.0000000000000000     
  0.87500000000000000       0.50000000000000000        0.0000000000000000     
  0.90625000000000000       0.50000000000000000        0.0000000000000000     
  0.93750000000000000       0.50000000000000000        0.0000000000000000     
  0.96875000000000000       0.50000000000000000        0.0000000000000000     
   1.0000000000000000       0.50000000000000000        0.0000000000000000     
   1.0000000000000000       0.37500000000000000        0.0000000000000000     
   1.0312500000000000       0.37500000000000000        0.0000000000000000     
   1.0625000000000000       0.37500000000000000        0.0000000000000000     
   1.0937500000000000       0.37500000000000000        0.0000000000000000     
   1.1250000000000000       0.37500000000000000        0.0000000000000000     
   1.0000000000000000       0.40625000000000000        0.0000000000000000     
   1.0312500000000000       0.40625000000000000        0.0000000000000000     
   1.0625000000000000       0.40625000000000000        0.0000000000000000     
   1.0937500000000000       0.40625000000000000        0.0000000000000000     
   1.1250000000000000       0.40625000000000000        0.0000000000000000     
   1.0000000000000000       0.43750000000000000        0.0000000000000000     
   1.0312500000000000       0.43750000000000000        0.0000000000000000     
   1.0625000000000000       0.43750000000000000        0.0000000000000000     
   1.0937500000000000       0.43750000000000000        0.0000000000000000     
   1.1250000000000000       0.43750000000000000        0.0000000000000000     
   1.0000000000000000       0.46875000000000000        0.0000000000000000     
   1.0312500000000000       0.46875000000000000        0.0000000000000000     
   1.0625000000000000       0.46875000000000000        0.0000000000000000     
   1.0937500000000000       0.46875000000000000        0.0000000000000000     
   1.1250000000000000       0.46875000000000000        0.0000000000000000     
   1.0000000000000000       0.50000000000000000        0.0000000000000000     
   1.0312500000000000       0.50000000000000000        0.0000000000000000     
   1.0625000000000000       0.50000000000000000        0.0000000000000000     
   1.0937500000000000       0.50000000000000000        0.0000000000000000     
   1.1250000000000000       0.50000000000000000        0.0000000000000000     
   1.1250000000000000       0.37500000000000000        0.0000000000000000     
   1.1562500000000000       0.37500000000000000        0.0000000000000000     
   1.1875000000000000       0.37500000000000000        0.0000000000000000     
   1.2187500000000000       0.37500000000000000        0.0000000000000000     
   1.2500000000000000       0.37500000000000000        0.0000000000000000     
   1.1250000000000000       0.40625000000000000        0.0000000000000000     
   1.1562500000000000       0.40625000000000000        0.0000000000000000     
   1.1875000000000000       0.40625000000000000        0.0000000000000000     
   1.2187500000000000       0.40625000000000000        0.0000000000000000     
   1.2500000000000000       0.40625000000000000        0.0000000000000000     
   1.1250000000000000       0.43750000000000000        0.0000000000000000     
   1.1562500000000000       0.43750000000000000        0.0000000000000000     
   1.1875000000000000       0.43750000000000000        0.0000000000000000     
   1.2187500000000000       0.43750000000000000        0.0000000000000000     
   1.2500000000000000       0.43750000000000000        0.0000000000000000     
   1.1250000000000000       0.46875000000000000        0.0000000000000000     
   1.1562500000000000       0.46875000000000000        0.0000000000000000     
   1.1875000000000000       0.46875000000000000        0.0000000000000000     
   1.2187500000000000       0.46875000000000000        0.0000000000000000     
   1.2500000000000000       0.46875000000000000        0.0000000000000000     
   1.1250000000000000       0.50000000000000000        0.0000000000000000     
   1.1562500000000000       0.50000000000000000        0.0000000000000000     
   1.1875000000000000       0.50000000000000000        0.0000000000000000     
   1.2187500000000000       0.50000000000000000        0.0000000000000000     
   1.2500000000000000       0.50000000000000000        0.0000000000000000     
   1.2500000000000000       0.37500000000000000        0.0000000000000000     
   1.2812500000000000       0.37500000000000000        0.0000000000000000     
   1.3125000000000000       0.37500000000000000        0.0000000000000000     
   1.3437500000000000       0.37500000000000000        0.0000000000000000     
   1.3750000000000000       0.37500000000000000        0.0000000000000000     
   1.2500000000000000       0.40625000000000000        0.0000000000000000     
   1.2812500000000000       0.40625000000000000        0.0000000000000000     
   1.3125000000000000       0.40625000000000000        0.0000000000000000     
   1.3437500000000000       0.40625000000000000        0.0000000000000000     
   1.3750000000000000       0.40625000000000000        0.0000000000000000     
   1.2500000000000000       0.43750000000000000        0.0000000000000000     
   1.2812500000000000       0.43750000000000000        0.0000000000000000     
   1.3125000000000000       0.43750000000000000        0.0000000000000000     
   1.3437500000000000       0.43750000000000000        0.0000000000000000     
   1.3750000000000000       0.43750000000000000        0.0000000000000000     
   1.2500000000000000       0.46875000000000000        0.0000000000000000     
   1.2812500000000000       0.46875000000000000        0.0000000000000000     
   1.3125000000000000       0.46875000000000000        0.0000000000000000     
   1.3437500000000000       0.46875000000000000        0.0000000000000000     
   1.3750000000000000       0.46875000000000000        0.0000000000000000     
   1.2500000000000000       0.50000000000000000        0.0000000000000000     
   1.2812500000000000       0.50000000000000000        0.0000000000000000     
   1.3125000000000000       0.50000000000000000        0.0000000000000000     
   1.3437500000000000       0.50000000000000000        0.0000000000000000     
   1.3750000000000000       0.50000000000000000        0.0000000000000000     
   1.3750000000000000       0.37500000000000000        0.0000000000000000     
   1.4062500000000000       0.37500000000000000        0.0000000000000000     
   1.4375000000000000       0.37500000000000000        0.0000000000000000     
   1.4687500000000000       0.37500000000000000        0.0000000000000000     
   1.5000000000000000       0.37500000000000000        0.0000000000000000     
   1.3750000000000000       0.40625000000000000        0.0000000000000000     
   1.4062500000000000       0.40625000000000000        0.0000000000000000     
   1.4375000000000000       0.40625000000000000        0.0000000000000000     
   1.4687500000000000       0.40625000000000000        0.0000000000000000     
   1.5000000000000000       0.40625000000000000        0.0000000000000000     
   1.3750000000000000       0.43750000000000000        0.0000000000000000     
   1.4062500000000000       0.43750000000000000        0.0000000000000000     
   1.4375000000000000       0.43750000000000000        0.0000000000000000     
   1.4687500000000000       0.43750000000000000        0.0000000000000000     
   1.5000000000000000       0.43750000000000000        0.0000000000000000     
   1.3750000000000000       0.46875000000000000        0.0000000000000000     
   1.4062500000000000       0.46875000000000000        0.0000000000000000     
   1.4375000000000000       0.46875000000000000        0.0000000000000000     
   1.4687500000000000       0.46875000000000000        0.0000000000000000     
   1.5000000000000000       0.46875000000000000        0.0000000000000000     
   1.3750000000000000       0.50000000000000000        0.0000000000000000     
   1.4062500000000000       0.50000000000000000        0.0000000000000000     
   1.4375000000000000       0.50000000000000000        0.0000000000000000     
   1.4687500000000000       0.50000000000000000        0.0000000000000000     
   1.5000000000000000       0.50000000000000000        0.0000000000000000     
  0.50000000000000000       0.50000000000000000        0.0000000000000000     
  0.53125000000000000       0.50000000000000000        0.0000000000000000     
  0.56250000000000000       0.50000000000000000        0.0000000000000000     
  0.59375000000000000       0.50000000000000000        0.0000000000000000     
  0.62500000000000000       0.50000000000000000        0.0000000000000000     
  0.50000000000000000       0.53125000000000000        0.0000000000000000     
  0.53125000000000000       0.53125000000000000        0.0000000000000000     
  0.56250000000000000       0.53125000000000000        0.0000000000000000     
  0.59375000000000000       0.53125000000000000        0.0000000000000000     
  0.62500000000000000       0.53125000000000000        0.0000000000000000     
  0.50000000000000000       0.56250000000000000        0.0000000000000000     
  0.53125000000000000       0.56250000000000000        0.0000000000000000     
  0.56250000000000000       0.56250000000000000        0.0000000000000000     
  0.59375000000000000       0.56250000000000000        0.0000000000000000     
  0.62500000000000000       0.56250000000000000        0.0000000000000000     
  0.50000000000000000       0.59375000000000000        0.0000000000000000     
  0.53125000000000000       0.59375000000000000        0.0000000000000000     
  0.56250000000000000       0.59375000000000000        0.0000000000000000     
  0.59375000000000000       0.59375000000000000        0.0000000000000000     
  0.62500000000000000       0.59375000000000000        0.0000000000000000     
  0.50000000000000000       0.62500000000000000        0.0000000000000000     
  0.53125000000000000       0.62500000000000000        0.0000000000000000     
  0.56250000000000000       0.62500000000000000        0.0000000000000000     
  0.59375000000000000       0.62500000000000000        0.0000000000000000     
  0.62500000000000000       0.62500000000000000        0.0000000000000000     
  0.62500000000000000       0.50000000000000000        0.0000000000000000     
  0.65625000000000000       0.50000000000000000        0.0000000000000000     
  0.68750000000000000       0.50000000000000000        0.0000000000000000     
  0.71875000000000000       0.50000000000000000        0.0000000000000000     
  0.75000000000000000       0.50000000000000000        0.0000000000000000     
  0.62500000000000000       0.53125000000000000        0.0000000000000000     
  0.65625000000000000       0.53125000000000000        0.0000000000000000     
  0.68750000000000000       0.53125000000000000        0.0000000000000000     
  0.71875000000000000       0.53125000000000000        0.0000000000000000     
  0.75000000000000000       0.53125000000000000        0.0000000000000000     
  0.62500000000000000       0.56250000000000000        0.0000000000000000     
  0.65625000000000000       0.56250000000000000        0.0000000000000000     
  0.68750000000000000       0.56250000000000000        0.0000000000000000     
  0.71875000000000000       0.56250000000000000        0.0000000000000000     
  0.75000000000000000       0.56250000000000000        0.0000000000000000     
  0.62500000000000000       0.59375000000000000        0.0000000000000000     
  0.65625000000000000       0.59375000000000000        0.0000000000000000     
  0.68750000000000000       0.59375000000000000        0.0000000000000000     
  0.71875000000000000       0.59375000000000000        0.0000000000000000     
  0.75000000000000000       0.59375000000000000        0.0000000000000000     
  0.62500000000000000       0.62500000000000000        0.0000000000000000     
  0.65625000000000000       0.62500000000000000        0.0000000000000000     
  0.68750000000000000       0.62500000000000000        0.0000000000000000     
  0.71875000000000000       0.62500000000000000        0.0000000000000000     
  0.75000000000000000       0.62500000000000000        0.0000000000000000     
  0.75000000000000000       0.50000000000000000        0.0000000000000000     
  0.78125000000000000       0.50000000000000000        0.0000000000000000     
  0.81250000000000000       0.50000000000000000        0.0000000000000000     
  0.84375000000000000       0.50000000000000000        0.0000000000000000     
  0.87500000000000000       0.50000000000000000        0.0000000000000000     
  0.75000000000000000       0.53125000000000000        0.0000000000000000     
  0.78125000000000000       0.53125000000000000        0.0000000000000000     
  0.81250000000000000       0.53125000000000000        0.0000000000000000     
  0.84375000000000000       0.53125000000000000        0.0000000000000000     
  0.87500000000000000       0.53125000000000000        0.0000000000000000     
  0.75000000000000000       0.56250000000000000        0.0000000000000000     
  0.78125000000000000       0.56250000000000000        0.0000000000000000     
  0.81250000000000000       0.56250000000000000        0.0000000000000000     
  0.84375000000000000       0.56250000000000000        0.0000000000000000     
  0.87500000000000000       0.56250000000000000        0.0000000000000000     
  0.75000000000000000       0.59375000000000000        0.0000000000000000     
  0.78125000000000000       0.59375000000000000        0.0000000000000000     
  0.81250000000000000       0.59375000000000000        0.0000000000000000     
  0.84375000000000000       0.59375000000000000        0.0000000000000000     
  0.87500000000000000       0.59375000000000000        0.0000000000000000     
  0.75000000000000000       0.62500000000000000        0.0000000000000000     
  0.78125000000000000       0.62500000000000000        0.0000000000000000     
  0.81250000000000000       0.62500000000000000        0.0000000000000000     
  0.84375000000000000       0.62500000000000000        0.0000000000000000     
  0.87500000000000000       0.62500000000000000        0.0000000000000000     
  0.87500000000000000       0.50000000000000000        0.0000000000000000     
  0.90625000000000000       0.50000000000000000        0.0000000000000000     
  0.93750000000000000       0.50000000000000000        0.0000000000000000     
  0.96875000000000000       0.50000000000000000        0.0000000000000000     
   1.0000000000000000       0.50000000000000000        0.0000000000000000     
  0.87500000000000000       0.53125000000000000        0.0000000000000000     
  0.90625000000000000       0.53125000000000000        0.0000000000000000     
  0.93750000000000000       0.53125000000000000        0.0000000000000000     
  0.96875000000000000       0.53125000000000000        0.0000000000000000     
   1.0000000000000000       0.53125000000000000        0.0000000000000000     
  0.87500000000000000       0.56250000000000000        0.0000000000000000     
  0.90625000000000000       0.56250000000000000        0.0000000000000000     
  0.93750000000000000       0.56250000000000000        0.0000000000000000     
  0.96875000000000000       0.56250000000000000        0.0000000000000000     
   1.0000000000000000       0.56250000000000000        0.0000000000000000     
  0.87500000000000000       0.59375000000000000        0.0000000000000000     
  0.90625000000000000       0.59375000000000000        0.0000000000000000     
  0.93750000000000000       0.59375000000000000        0.0000000000000000     
  0.96875000000000000       0.59375000000000000        0.0000000000000000     
   1.0000000000000000       0.59375000000000000        0.0000000000000000     
  0.87500000000000000       0.62500000000000000        0.0000000000000000     
  0.90625000000000000       0.62500000000000000        0.0000000000000000     
  0.93750000000000000       0.62500000000000000        0.0000000000000000     
  0.96875000000000000       0.62500000000000000        0.0000000000000000     
   1.0000000000000000       0.62500000000000000        0.0000000000000000     
   1.0000000000000000       0.50000000000000000        0.0000000000000000     
   1.0312500000000000       0.50000000000000000        0.0000000000000000     
   1.0625000000000000       0.50000000000000000        0.0000000000000000     
   1.0937500000000000       0.50000000000000000        0.0000000000000000     
   1.1250000000000000       0.50000000000000000        0.0000000000000000     
   1.0000000000000000       0.53125000000000000        0.0000000000000000     
   1.0312500000000000       0.53125000000000000        0.0000000000000000     
   1.0625000000000000       0.53125000000000000        0.0000000000000000     
   1.0937500000000000       0.53125000000000000        0.0000000000000000     
   1.1250000000000000       0.53125000000000000        0.0000000000000000     
   1.0000000000000000       0.56250000000000000        0.0000000000000000     
   1.0312500000000000       0.56250000000000000        0.0000000000000000     
   1.0625000000000000       0.56250000000000000        0.0000000000000000     
   1.0937500000000000       0.56250000000000000        0.0000000000000000     
   1.1250000000000000       0.56250000000000000        0.0000000000000000     
   1.0000000000000000       0.59375000000000000        0.0000000000000000     
   1.0312500000000000       0.59375000000000000        0.0000000000000000     
   1.0625000000000000       0.59375000000000000        0.0000000000000000     
   1.0937500000000000       0.59375000000000000        0.0000000000000000     
   1.1250000000000000       0.59375000000000000        0.0000000000000000     
   1.0000000000000000       0.62500000000000000        0.0000000000000000     
   1.0312500000000000       0.62500000000000000        0.0000000000000000     
   1.0625000000000000       0.62500000000000000        0.0000000000000000     
   1.0937500000000000       0.62500000000000000        0.0000000000000000     
   1.1250000000000000       0.62500000000000000        0.0000000000000000     
   1.1250000000000000       0.50000000000000000        0.0000000000000000     
   1.1562500000000000       0.50000000000000000        0.0000000000000000     
   1.1875000000000000       0.50000000000000000        0.0000000000000000     
   1.2187500000000000       0.50000000000000000        0.0000000000000000     
   1.2500000000000000       0.50000000000000000        0.0000000000000000     
   1.1250000000000000       0.53125000000000000        0.0000000000000000     
   1.1562500000000000       0.53125000000000000        0.0000000000000000     
   1.1875000000000000       0.53125000000000000        0.0000000000000000     
   1.2187500000000000       0.53125000000000000        0.0000000000000000     
   1.2500000000000000       0.53125000000000000        0.0000000000000000     
   1.1250000000000000       0.56250000000000000        0.0000000000000000     
   1.1562500000000000       0.56250000000000000        0.0000000000000000     
   1.1875000000000000       0.56250000000000000        0.0000000000000000     
   1.2187500000000000       0.56250000000000000        0.0000000000000000     
   1.2500000000000000       0.56250000000000000        0.0000000000000000     
   1.1250000000000000       0.59375000000000000        0.0000000000000000     
   1.1562500000000000       0.59375000000000000        0.0000000000000000     
   1.1875000000000000       0.59375000000000000        0.0000000000000000     
   1.2187500000000000       0.59375000000000000        0.0000000000000000     
   1.2500000000000000       0.59375000000000000        0.0000000000000000     
   1.1250000000000000       0.62500000000000000        0.0000000000000000     
   1.1562500000000000       0.62500000000000000        0.0000000000000000     
   1.1875000000000000       0.62500000000000000        0.0000000000000000     
   1.2187500000000000       0.62500000000000000        0.0000000000000000     
   1.2500000000000000       0.62500000000000000        0.0000000000000000     
   1.2500000000000000       0.50000000000000000        0.0000000000000000     
   1.2812500000000000       0.50000000000000000        0.0000000000000000     
   1.3125000000000000       0.50000000000000000        0.0000000000000000     
   1.3437500000000000       0.50000000000000000        0.0000000000000000     
   1.3750000000000000       0.50000000000000000        0.0000000000000000     
   1.2500000000000000       0.53125000000000000        0.0000000000000000     
   1.2812500000000000       0.53125000000000000        0.0000000000000000     
   1.3125000000000000       0.53125000000000000        0.0000000000000000     
   1.3437500000000000       0.53125000000000000        0.0000000000000000     
   1.3750000000000000       0.53125000000000000        0.0000000000000000     
   1.2500000000000000       0.56250000000000000        0.0000000000000000     
   1.2812500000000000       0.56250000000000000        0.0000000000000000     
   1.3125000000000000       0.56250000000000000        0.0000000000000000     
   1.3437500000000000       0.56250000000000000        0.0000000000000000     
   1.3750000000000000       0.56250000000000000        0.0000000000000000     
   1.2500000000000000       0.59375000000000000        0.0000000000000000     
   1.2812500000000000       0.59375000000000000        0.0000000000000000     
   1.3125000000000000       0.59375000000000000        0.0000000000000000     
   1.3437500000000000       0.59375000000000000        0.0000000000000000     
   1.3750000000000000       0.59375000000000000        0.0000000000000000     
   1.2500000000000000       0.62500000000000000        0.0000000000000000     
   1.2812500000000000       0.62500000000000000        0.0000000000000000     
   1.3125000000000000       0.62500000000000000        0.0000000000000000     
   1.3437500000000000       0.62500000000000000        0.0000000000000000     
   1.3750000000000000       0.62500000000000000        0.0000000000000000     
   1.3750000000000000       0.50000000000000000        0.0000000000000000     
   1.4062500000000000       0.50000000000000000        0.0000000000000000     
   1.4375000000000000       0.50000000000000000        0.0000000000000000     
   1.4687500000000000       0.50000000000000000        0.0000000000000000     
   1.5000000000000000       0.50000000000000000        0.0000000000000000     
   1.3750000000000000       0.53125000000000000        0.0000000000000000     
   1.4062500000000000       0.53125000000000000        0.0000000000000000     
   1.4375000000000000       0.53125000000000000        0.0000000000000000     
   1.4687500000000000       0.53125000000000000        0.0000000000000000     
   1.5000000000000000       0.53125000000000000        0.0000000000000000     
   1.3750000000000000       0.56250000000000000        0.0000000000000000     
   1.4062500000000000       0.56250000000000000        0.0000000000000000     
   1.4375000000000000       0.56250000000000000        0.0000000000000000     
   1.4687500000000000       0.56250000000000000        0.0000000000000000     
   1.5000000000000000       0.56250000000000000        0.0000000000000000     
   1.3750000000000000       0.59375000000000000        0.0000000000000000     
   1.4062500000000000       0.59375000000000000        0.0000000000000000     
   1.4375000000000000       0.59375000000000000        0.0000000000000000     
   1.4687500000000000       0.59375000000000000        0.0000000000000000     
   1.5000000000000000       0.59375000000000000        0.0000000000000000     
   1.3750000000000000       0.62500000000000000        0.0000000000000000     
   1.4062500000000000       0.62500000000000000        0.0000000000000000     
   1.4375000000000000       0.62500000000000000        0.0000000000000000     
   1.4687500000000000       0.62500000000000000        0.0000000000000000     
   1.5000000000000000       0.62500000000000000        0.0000000000000000     
  0.50000000000000000       0.62500000000000000        0.0000000000000000     
  0.53125000000000000       0.62500000000000000        0.0000000000000000     
  0.56250000000000000       0.62500000000000000        0.0000000000000000     
  0.59375000000000000       0.62500000000000000        0.0000000000000000     
  0.62500000000000000       0.62500000000000000        0.0000000000000000     
  0.50000000000000000       0.65625000000000000        0.0000000000000000     
  0.53125000000000000       0.65625000000000000        0.0000000000000000     
  0.56250000000000000       0.65625000000000000        0.0000000000000000     
  0.59375000000000000       0.65625000000000000        0.0000000000000000     
  0.62500000000000000       0.65625000000000000        0.0000000000000000     
  0.50000000000000000       0.68750000000000000        0.0000000000000000     
  0.53125000000000000       0.68750000000000000        0.0000000000000000     
  0.56250000000000000       0.68750000000000000        0.0000000000000000     
  0.59375000000000000       0.68750000000000000        0.0000000000000000     
  0.62500000000000000       0.68750000000000000        0.0000000000000000     
  0.50000000000000000       0.71875000000000000        0.0000000000000000     
  0.53125000000000000       0.71875000000000000        0.0000000000000000     
  0.56250000000000000       0.71875000000000000        0.0000000000000000     
  0.59375000000000000       0.71875000000000000        0.0000000000000000     
  0.62500000000000000       0.71875000000000000        0.0000000000000000     
  0.50000000000000000       0.75000000000000000        0.0000000000000000     
  0.53125000000000000       0.75000000000000000        0.0000000000000000     
  0.56250000000000000       0.75000000000000000        0.0000000000000000     
  0.59375000000000000       0.75000000000000000        0.0000000000000000     
  0.62500000000000000       0.75000000000000000        0.0000000000000000     
  0.62500000000000000       0.62500000000000000        0.0000000000000000     
  0.65625000000000000       0.62500000000000000        0.0000000000000000     
  0.68750000000000000       0.62500000000000000        0.0000000000000000     
  0.71875000000000000       0.62500000000000000        0.0000000000000000     
  0.75000000000000000       0.62500000000000000        0.0000000000000000     
  0.62500000000000000       0.65625000000000000        0.0000000000000000     
  0.65625000000000000       0.65625000000000000        0.0000000000000000     
  0.68750000000000000       0.65625000000000000        0.0000000000000000     
  0.71875000000000000       0.65625000000000000        0.0000000000000000     
  0.75000000000000000       0.65625000000000000        0.0000000000000000     
  0.62500000000000000       0.68750000000000000        0.0000000000000000     
  0.65625000000000000       0.68750000000000000        0.0000000000000000     
  0.68750000000000000       0.68750000000000000        0.0000000000000000     
  0.71875000000000000       0.68750000000000000        0.0000000000000000     
  0.75000000000000000       0.68750000000000000        0.0000000000000000     
  0.62500000000000000       0.71875000000000000        0.0000000000000000     
  0.65625000000000000       0.71875000000000000        0.0000000000000000     
  0.68750000000000000       0.71875000000000000        0.0000000000000000     
  0.71875000000000000       0.71875000000000000        0.0000000000000000     
  0.75000000000000000       0.71875000000000000        0.0000000000000000     
  0.62500000000000000       0.75000000000000000        0.0000000000000000     
  0.65625000000000000       0.75000000000000000        0.0000000000000000     
  0.68750000000000000       0.75000000000000000        0.0000000000000000     
  0.71875000000000000       0.75000000000000000        0.0000000000000000     
  0.75000000000000000       0.75000000000000000        0.0000000000000000     
  0.75000000000000000       0.62500000000000000        0.0000000000000000     
  0.78125000000000000       0.62500000000000000        0.0000000000000000     
  0.81250000000000000       0.62500000000000000        0.0000000000000000     
  0.84375000000000000       0.62500000000000000        0.0000000000000000     
  0.87500000000000000       0.62500000000000000        0.0000000000000000     
  0.75000000000000000       0.65625000000000000        0.0000000000000000     
  0.78125000000000000       0.65625000000000000        0.0000000000000000     
  0.81250000000000000       0.65625000000000000        0.0000000000000000     
  0.84375000000000000       0.65625000000000000        0.0000000000000000     
  0.87500000000000000       0.65625000000000000        0.0000000000000000     
  0.75000000000000000       0.68750000000000000        0.0000000000000000     
  0.78125000000000000       0.68750000000000000        0.0000000000000000     
  0.81250000000000000       0.68750000000000000        0.0000000000000000     
  0.84375000000000000       0.68750000000000000        0.0000000000000000     
  0.87500000000000000       0.68750000000000000        0.0000000000000000     
  0.75000000000000000       0.71875000000000000        0.0000000000000000     
  0.78125000000000000       0.71875000000000000        0.0000000000000000     
  0.81250000000000000       0.71875000000000000        0.0000000000000000     
  0.84375000000000000       0.71875000000000000        0.0000000000000000     
  0.87500000000000000       0.71875000000000000        0.0000000000000000     
  0.75000000000000000       0.75000000000000000        0.0000000000000000     
  0.78125000000000000       0.75000000000000000        0.0000000000000000     
  0.81250000000000000       0.75000000000000000        0.0000000000000000     
  0.84375000000000000       0.75000000000000000        0.0000000000000000     
  0.87500000000000000       0.75000000000000000        0.0000000000000000     
  0.87500000000000000       0.62500000000000000        0.0000000000000000     
  0.90625000000000000       0.62500000000000000        0.0000000000000000     
  0.93750000000000000       0.62500000000000000        0.0000000000000000     
  0.96875000000000000       0.62500000000000000        0.0000000000000000     
   1.0000000000000000       0.62500000000000000        0.0000000000000000     
  0.87500000000000000       0.65625000000000000        0.0000000000000000     
  0.90625000000000000       0.65625000000000000        0.0000000000000000     
  0.93750000000000000       0.65625000000000000        0.0000000000000000     
  0.96875000000000000       0.65625000000000000        0.0000000000000000     
   1.0000000000000000       0.65625000000000000        0.0000000000000000     
  0.87500000000000000       0.68750000000000000        0.0000000000000000     
  0.90625000000000000       0.68750000000000000        0.0000000000000000     
  0.93750000000000000       0.68750000000000000        0.0000000000000000     
  0.96875000000000000       0.68750000000000000        0.0000000000000000     
   1.0000000000000000       0.68750000000000000        0.0000000000000000     
  0.87500000000000000       0.71875000000000000        0.0000000000000000     
  0.90625000000000000       0.71875000000000000        0.0000000000000000     
  0.93750000000000000       0.71875000000000000        0.0000000000000000     
  0.96875000000000000       0.71875000000000000        0.0000000000000000     
   1.0000000000000000       0.71875000000000000        0.0000000000000000     
  0.87500000000000000       0.75000000000000000        0.0000000000000000     
  0.90625000000000000       0.75000000000000000        0.0000000000000000     
  0.93750000000000000       0.75000000000000000        0.0000000000000000     
  0.96875000000000000       0.75000000000000000        0.0000000000000000     
   1.0000000000000000       0.75000000000000000        0.0000000000000000     
   1.0000000000000000       0.62500000000000000        0.0000000000000000     
   1.0312500000000000       0.62500000000000000        0.0000000000000000     
   1.0625000000000000       0.62500000000000000        0.0000000000000000     
   1.0937500000000000       0.62500000000000000        0.0000000000000000     
   1.1250000000000000       0.62500000000000000        0.0000000000000000     
   1.0000000000000000       0.65625000000000000        0.0000000000000000     
   1.0312500000000000       0.65625000000000000        0.0000000000000000     
   1.0625000000000000       0.65625000000000000        0.0000000000000000     
   1.0937500000000000       0.65625000000000000        0.0000000000000000     
   1.1250000000000000       0.65625000000000000        0.0000000000000000     
   1.0000000000000000       0.68750000000000000        0.0000000000000000     
   1.0312500000000000       0.68750000000000000        0.0000000000000000     
   1.0625000000000000       0.68750000000000000        0.0000000000000000     
   1.0937500000000000       0.68750000000000000        0.0000000000000000     
   1.1250000000000000       0.68750000000000000        0.0000000000000000     
   1.0000000000000000       0.71875000000000000        0.0000000000000000     
   1.0312500000000000       0.71875000000000000        0.0000000000000000     
   1.0625000000000000       0.71875000000000000        0.0000000000000000     
   1.0937500000000000       0.71875000000000000        0.0000000000000000     
   1.1250000000000000       0.71875000000000000        0.0000000000000000     
   1.0000000000000000       0.75000000000000000        0.0000000000000000     
   1.0312500000000000       0.75000000000000000        0.0000000000000000     
   1.0625000000000000       0.75000000000000000        0.0000000000000000     
   1.0937500000000000       0.75000000000000000        0.0000000000000000     
   1.1250000000000000       0.75000000000000000        0.0000000000000000     
   1.1250000000000000       0.62500000000000000        0.0000000000000000     
   1.1562500000000000       0.62500000000000000        0.0000000000000000     
   1.1875000000000000       0.62500000000000000        0.0000000000000000     
   1.2187500000000000       0.62500000000000000        0.0000000000000000     
   1.2500000000000000       0.62500000000000000        0.0000000000000000     
   1.1250000000000000       0.65625000000000000        0.0000000000000000     
   1.1562500000000000       0.65625000000000000        0.0000000000000000     
   1.1875000000000000       0.65625000000000000        0.0000000000000000     
   1.2187500000000000       0.65625000000000000        0.0000000000000000     
   1.2500000000000000       0.65625000000000000        0.0000000000000000     
   1.1250000000000000       0.68750000000000000        0.0000000000000000     
   1.1562500000000000       0.68750000000000000        0.0000000000000000     
   1.1875000000000000       0.68750000000000000        0.0000000000000000     
   1.2187500000000000       0.68750000000000000        0.0000000000000000     
   1.2500000000000000       0.68750000000000000        0.0000000000000000     
   1.1250000000000000       0.71875000000000000        0.0000000000000000     
   1.1562500000000000       0.71875000000000000        0.0000000000000000     
   1.1875000000000000       0.71875000000000000        0.0000000000000000     
   1.2187500000000000       0.71875000000000000        0.0000000000000000     
   1.2500000000000000       0.71875000000000000        0.0000000000000000     
   1.1250000000000000       0.75000000000000000        0.0000000000000000     
   1.1562500000000000       0.75000000000000000        0.0000000000000000     
   1.1875000000000000       0.75000000000000000        0.0000000000000000     
   1.2187500000000000       0.75000000000000000        0.0000000000000000     
   1.2500000000000000       0.75000000000000000        0.0000000000000000     
   1.2500000000000000       0.62500000000000000        0.0000000000000000     
   1.2812500000000000       0.62500000000000000        0.0000000000000000     
   1.3125000000000000       0.62500000000000000        0.0000000000000000     
   1.3437500000000000       0.62500000000000000        0.0000000000000000     
   1.3750000000000000       0.62500000000000000        0.0000000000000000     
   1.2500000000000000       0.65625000000000000        0.0000000000000000     
   1.2812500000000000       0.65625000000000000        0.0000000000000000     
   1.3125000000000000       0.65625000000000000        0.0000000000000000     
   1.3437500000000000       0.65625000000000000        0.0000000000000000     
   1.3750000000000000       0.65625000000000000        0.0000000000000000     
   1.2500000000000000       0.68750000000000000        0.0000000000000000     
   1.2812500000000000       0.68750000000000000        0.0000000000000000     
   1.3125000000000000       0.68750000000000000        0.0000000000000000     
   1.3437500000000000       0.68750000000000000        0.0000000000000000     
   1.3750000000000000       0.68750000000000000        0.0000000000000000     
   1.2500000000000000       0.71875000000000000        0.0000000000000000     
   1.2812500000000000       0.71875000000000000        0.0000000000000000     
   1.3125000000000000       0.71875000000000000        0.0000000000000000     
   1.3437500000000000       0.71875000000000000        0.0000000000000000     
   1.3750000000000000       0.71875000000000000        0.0000000000000000     
   1.2500000000000000       0.75000000000000000        0.0000000000000000     
   1.2812500000000000       0.75000000000000000        0.0000000000000000     
   1.3125000000000000       0.75000000000000000        0.0000000000000000     
   1.3437500000000000       0.75000000000000000        0.0000000000000000     
   1.3750000000000000       0.75000000000000000        0.0000000000000000     
   1.3750000000000000       0.62500000000000000        0.0000000000000000     
   1.4062500000000000       0.62500000000000000        0.0000000000000000     
   1.4375000000000000       0.62500000000000000        0.0000000000000000     
   1.4687500000000000       0.62500000000000000        0.0000000000000000     
   1.5000000000000000       0.62500000000000000        0.0000000000000000     
   1.3750000000000000       0.65625000000000000        0.0000000000000000     
   1.4062500000000000       0.65625000000000000        0.0000000000000000     
   1.4375000000000000       0.65625000000000000        0.0000000000000000     
   1.4687500000000000       0.65625000000000000        0.0000000000000000     
   1.5000000000000000       0.65625000000000000        0.0000000000000000     
   1.3750000000000000       0.68750000000000000        0.0000000000000000     
   1.4062500000000000       0.68750000000000000        0.0000000000000000     
   1.4375000000000000       0.68750000000000000        0.0000000000000000     
   1.4687500000000000       0.68750000000000000        0.0000000000000000     
   1.5000000000000000       0.68750000000000000        0.0000000000000000     
   1.3750000000000000       0.71875000000000000        0.0000000000000000     
   1.4062500000000000       0.71875000000000000        0.0000000000000000     
   1.4375000000000000       0.71875000000000000        0.0000000000000000     
   1.4687500000000000       0.71875000000000000        0.0000000000000000     
   1.5000000000000000       0.71875000000000000        0.0000000000000000     
   1.3750000000000000       0.75000000000000000        0.0000000000000000     
   1.4062500000000000       0.75000000000000000        0.0000000000000000     
   1.4375000000000000       0.75000000000000000        0.0000000000000000     
   1.4687500000000000       0.75000000000000000        0.0000000000000000     
   1.5000000000000000       0.75000000000000000        0.0000000000000000     
  0.50000000000000000       0.75000000000000000        0.0000000000000000     
  0.53125000000000000       0.75000000000000000        0.0000000000000000     
  0.56250000000000000       0.75000000000000000        0.0000000000000000     
  0.59375000000000000       0.75000000000000000        0.0000000000000000     
  0.62500000000000000       0.75000000000000000        0.0000000000000000     
  0.50000000000000000       0.78125000000000000        0.0000000000000000     
  0.53125000000000000       0.78125000000000000        0.0000000000000000     
  0.56250000000000000       0.78125000000000000        0.0000000000000000     
  0.59375000000000000       0.78125000000000000        0.0000000000000000     
  0.62500000000000000       0.78125000000000000        0.0000000000000000     
  0.50000000000000000       0.81250000000000000        0.0000000000000000     
  0.53125000000000000       0.81250000000000000        0.0000000000000000     
  0.56250000000000000       0.81250000000000000        0.0000000000000000     
  0.59375000000000000       0.81250000000000000        0.0000000000000000     
  0.62500000000000000       0.81250000000000000        0.0000000000000000     
  0.50000000000000000       0.84375000000000000        0.0000000000000000     
  0.53125000000000000       0.84375000000000000        0.0000000000000000     
  0.56250000000000000       0.84375000000000000        0.0000000000000000     
  0.59375000000000000       0.84375000000000000        0.0000000000000000     
  0.62500000000000000       0.84375000000000000        0.0000000000000000     
  0.50000000000000000       0.87500000000000000        0.0000000000000000     
  0.53125000000000000       0.87500000000000000        0.0000000000000000     
  0.56250000000000000       0.87500000000000000        0.0000000000000000     
  0.59375000000000000       0.87500000000000000        0.0000000000000000     
  0.62500000000000000       0.87500000000000000        0.0000000000000000     
  0.62500000000000000       0.75000000000000000        0.0000000000000000     
  0.65625000000000000       0.75000000000000000        0.0000000000000000     
  0.68750000000000000       0.75000000000000000        0.0000000000000000     
  0.71875000000000000       0.75000000000000000        0.0000000000000000     
  0.75000000000000000       0.75000000000000000        0.0000000000000000     
  0.62500000000000000       0.78125000000000000        0.0000000000000000     
  0.65625000000000000       0.78125000000000000        0.0000000000000000     
  0.68750000000000000       0.78125000000000000        0.0000000000000000     
  0.71875000000000000       0.78125000000000000        0.0000000000000000     
  0.75000000000000000       0.78125000000000000        0.0000000000000000     
  0.62500000000000000       0.81250000000000000        0.0000000000000000     
  0.65625000000000000       0.81250000000000000        0.0000000000000000     
  0.68750000000000000       0.81250000000000000        0.0000000000000000     
  0.71875000000000000       0.81250000000000000        0.0000000000000000     
  0.75000000000000000       0.81250000000000000        0.0000000000000000     
  0.62500000000000000       0.84375000000000000        0.0000000000000000     
  0.65625000000000000       0.84375000000000000        0.0000000000000000     
  0.68750000000000000       0.84375000000000000        0.0000000000000000     
  0.71875000000000000       0.84375000000000000        0.0000000000000000     
  0.75000000000000000       0.84375000000000000        0.0000000000000000     
  0.62500000000000000       0.87500000000000000        0.0000000000000000     
  0.65625000000000000       0.87500000000000000        0.0000000000000000     
  0.68750000000000000       0.87500000000000000        0.0000000000000000     
  0.71875000000000000       0.87500000000000000        0.0000000000000000     
  0.75000000000000000       0.87500000000000000        0.0000000000000000     
  0.75000000000000000       0.75000000000000000        0.0000000000000000     
  0.78125000000000000       0.75000000000000000        0.0000000000000000     
  0.81250000000000000       0.75000000000000000        0.0000000000000000     
  0.84375000000000000       0.75000000000000000        0.0000000000000000     
  0.87500000000000000       0.75000000000000000        0.0000000000000000     
  0.75000000000000000       0.78125000000000000        0.0000000000000000     
  0.78125000000000000       0.78125000000000000        0.0000000000000000     
  0.81250000000000000       0.78125000000000000        0.0000000000000000     
  0.84375000000000000       0.78125000000000000        0.0000000000000000     
  0.87500000000000000       0.78125000000000000        0.0000000000000000     
  0.75000000000000000       0.81250000000000000        0.0000000000000000     
  0.78125000000000000       0.81250000000000000        0.0000000000000000     
  0.81250000000000000       0.81250000000000000        0.0000000000000000     
  0.84375000000000000       0.81250000000000000        0.0000000000000000     
  0.87500000000000000       0.81250000000000000        0.0000000000000000     
  0.75000000000000000       0.84375000000000000        0.0000000000000000     
  0.78125000000000000       0.84375000000000000        0.0000000000000000     
  0.81250000000000000       0.84375000000000000        0.0000000000000000     
  0.84375000000000000       0.84375000000000000        0.0000000000000000     
  0.87500000000000000       0.84375000000000000        0.0000000000000000     
  0.75000000000000000       0.87500000000000000        0.0000000000000000     
  0.78125000000000000       0.87500000000000000        0.0000000000000000     
  0.81250000000000000       0.87500000000000000        0.0000000000000000     
  0.84375000000000000       0.87500000000000000        0.0000000000000000     
  0.87500000000000000       0.87500000000000000        0.0000000000000000     
  0.87500000000000000       0.75000000000000000        0.0000000000000000     
  0.90625000000000000       0.75000000000000000        0.0000000000000000     
  0.93750000000000000       0.75000000000000000        0.0000000000000000     
  0.96875000000000000       0.75000000000000000        0.0000000000000000     
   1.0000000000000000       0.75000000000000000        0.0000000000000000     
  0.87500000000000000       0.78125000000000000        0.0000000000000000     
  0.90625000000000000       0.78125000000000000        0.0000000000000000     
  0.93750000000000000       0.78125000000000000        0.0000000000000000     
  0.96875000000000000       0.78125000000000000        0.0000000000000000     
   1.0000000000000000       0.78125000000000000        0.0000000000000000     
  0.87500000000000000       0.81250000000000000        0.0000000000000000     
  0.90625000000000000       0.81250000000000000        0.0000000000000000     
  0.93750000000000000       0.81250000000000000        0.0000000000000000     
  0.96875000000000000       0.81250000000000000        0.0000000000000000     
   1.0000000000000000       0.81250000000000000        0.0000000000000000     
  0.87500000000000000       0.84375000000000000        0.0000000000000000     
  0.90625000000000000       0.84375000000000000        0.0000000000000000     
  0.93750000000000000       0.84375000000000000        0.0000000000000000     
  0.96875000000000000       0.84375000000000000        0.0000000000000000     
   1.0000000000000000       0.84375000000000000        0.0000000000000000     
  0.87500000000000000       0.87500000000000000        0.0000000000000000     
  0.90625000000000000       0.87500000000000000        0.0000000000000000     
  0.93750000000000000       0.87500000000000000        0.0000000000000000     
  0.96875000000000000       0.87500000000000000        0.0000000000000000     
   1.0000000000000000       0.87500000000000000        0.0000000000000000     
   1.0000000000000000       0.75000000000000000        0.0000000000000000     
   1.0312500000000000       0.75000000000000000        0.0000000000000000     
   1.0625000000000000       0.75000000000000000        0.0000000000000000     
   1.0937500000000000       0.75000000000000000        0.0000000000000000     
   1.1250000000000000       0.75000000000000000        0.0000000000000000     
   1.0000000000000000       0.78125000000000000        0.0000000000000000     
   1.0312500000000000       0.78125000000000000        0.0000000000000000     
   1.0625000000000000       0.78125000000000000        0.0000000000000000     
   1.0937500000000000       0.78125000000000000        0.0000000000000000     
   1.1250000000000000       0.78125000000000000        0.0000000000000000     
   1.0000000000000000       0.81250000000000000        0.0000000000000000     
   1.0312500000000000       0.81250000000000000        0.0000000000000000     
   1.0625000000000000       0.81250000000000000        0.0000000000000000     
   1.0937500000000000       0.81250000000000000        0.0000000000000000     
   1.1250000000000000       0.81250000000000000        0.0000000000000000     
   1.0000000000000000       0.84375000000000000        0.0000000000000000     
   1.0312500000000000       0.84375000000000000        0.0000000000000000     
   1.0625000000000000       0.84375000000000000        0.0000000000000000     
   1.0937500000000000       0.84375000000000000        0.0000000000000000     
   1.1250000000000000       0.84375000000000000        0.0000000000000000     
   1.0000000000000000       0.87500000000000000        0.0000000000000000     
   1.0312500000000000       0.87500000000000000        0.0000000000000000     
   1.0625000000000000       0.87500000000000000        0.0000000000000000     
   1.0937500000000000       0.87500000000000000        0.0000000000000000     
   1.1250000000000000       0.87500000000000000        0.0000000000000000     
   1.1250000000000000       0.75000000000000000        0.0000000000000000     
   1.1562500000000000       0.75000000000000000        0.0000000000000000     
   1.1875000000000000       0.75000000000000000        0.0000000000000000     
   1.2187500000000000       0.75000000000000000        0.0000000000000000     
   1.2500000000000000       0.75000000000000000        0.0000000000000000     
   1.1250000000000000       0.78125000000000000        0.0000000000000000     
   1.1562500000000000       0.78125000000000000        0.0000000000000000     
   1.1875000000000000       0.78125000000000000        0.0000000000000000     
   1.2187500000000000       0.78125000000000000        0.0000000000000000     
   1.2500000000000000       0.78125000000000000        0.0000000000000000     
   1.1250000000000000       0.81250000000000000        0.0000000000000000     
   1.1562500000000000       0.81250000000000000        0.0000000000000000     
   1.1875000000000000       0.81250000000000000        0.0000000000000000     
   1.2187500000000000       0.81250000000000000        0.0000000000000000     
   1.2500000000000000       0.81250000000000000        0.0000000000000000     
   1.1250000000000000       0.84375000000000000        0.0000000000000000     
   1.1562500000000000       0.84375000000000000        0.0000000000000000     
   1.1875000000000000       0.84375000000000000        0.0000000000000000     
   1.2187500000000000       0.84375000000000000        0.0000000000000000     
   1.2500000000000000       0.84375000000000000        0.0000000000000000     
   1.1250000000000000       0.87500000000000000        0.0000000000000000     
   1.1562500000000000       0.87500000000000000        0.0000000000000000     
   1.1875000000000000       0.87500000000000000        0.0000000000000000     
   1.2187500000000000       0.87500000000000000        0.0000000000000000     
   1.2500000000000000       0.87500000000000000        0.0000000000000000     
   1.2500000000000000       0.75000000000000000        0.0000000000000000     
   1.2812500000000000       0.75000000000000000        0.0000000000000000     
   1.3125000000000000       0.75000000000000000        0.0000000000000000     
   1.3437500000000000       0.75000000000000000        0.0000000000000000     
   1.3750000000000000       0.75000000000000000        0.0000000000000000     
   1.2500000000000000       0.78125000000000000        0.0000000000000000     
   1.2812500000000000       0.78125000000000000        0.0000000000000000     
   1.3125000000000000       0.78125000000000000        0.0000000000000000     
   1.3437500000000000       0.78125000000000000        0.0000000000000000     
   1.3750000000000000       0.78125000000000000        0.0000000000000000     
   1.2500000000000000       0.81250000000000000        0.0000000000000000     
   1.2812500000000000       0.81250000000000000        0.0000000000000000     
   1.3125000000000000       0.81250000000000000        0.0000000000000000     
   1.3437500000000000       0.81250000000000000        0.0000000000000000     
   1.3750000000000000       0.81250000000000000        0.0000000000000000     
   1.2500000000000000       0.84375000000000000        0.0000000000000000     
   1.2812500000000000       0.84375000000000000        0.0000000000000000     
   1.3125000000000000       0.84375000000000000        0.0000000000000000     
   1.3437500000000000       0.84375000000000000        0.0000000000000000     
   1.3750000000000000       0.84375000000000000        0.0000000000000000     
   1.2500000000000000       0.87500000000000000        0.0000000000000000     
   1.2812500000000000       0.87500000000000000        0.0000000000000000     
   1.3125000000000000       0.87500000000000000        0.0000000000000000     
   1.3437500000000000       0.87500000000000000        0.0000000000000000     
   1.3750000000000000       0.87500000000000000        0.0000000000000000     
   1.3750000000000000       0.75000000000000000        0.0000000000000000     
   1.4062500000000000       0.75000000000000000        0.0000000000000000     
   1.4375000000000000       0.75000000000000000        0.0000000000000000     
   1.4687500000000000       0.75000000000000000        0.0000000000000000     
   1.5000000000000000       0.75000000000000000        0.0000000000000000     
   1.3750000000000000       0.78125000000000000        0.0000000000000000     
   1.4062500000000000       0.78125000000000000        0.0000000000000000     
   1.4375000000000000       0.78125000000000000        0.0000000000000000     
   1.4687500000000000       0.78125000000000000        0.0000000000000000     
   1.5000000000000000       0.78125000000000000        0.0000000000000000     
   1.3750000000000000       0.81250000000000000        0.0000000000000000     
   1.4062500000000000       0.81250000000000000        0.0000000000000000     
   1.4375000000000000       0.81250000000000000        0.0000000000000000     
   1.4687500000000000       0.81250000000000000        0.0000000000000000     
   1.5000000000000000       0.81250000000000000        0.0000000000000000     
   1.3750000000000000       0.84375000000000000        0.0000000000000000     
   1.4062500000000000       0.84375000000000000        0.0000000000000000     
   1.4375000000000000       0.84375000000000000        0.0000000000000000     
   1.4687500000000000       0.84375000000000000        0.0000000000000000     
   1.5000000000000000       0.84375000000000000        0.0000000000000000     
   1.3750000000000000       0.87500000000000000        0.0000000000000000     
   1.4062500000000000       0.87500000000000000        0.0000000000000000     
   1.4375000000000000       0.87500000000000000        0.0000000000000000     
   1.4687500000000000       0.87500000000000000        0.0000000000000000     
   1.5000000000000000       0.87500000000000000        0.0000000000000000     
  0.50000000000000000       0.87500000000000000        0.0000000000000000     
  0.53125000000000000       0.87500000000000000        0.0000000000000000     
  0.56250000000000000       0.87500000000000000        0.0000000000000000     
  0.59375000000000000       0.87500000000000000        0.0000000000000000     
  0.62500000000000000       0.87500000000000000        0.0000000000000000     
  0.50000000000000000       0.90625000000000000        0.0000000000000000     
  0.53125000000000000       0.90625000000000000        0.0000000000000000     
  0.56250000000000000       0.90625000000000000        0.0000000000000000     
  0.59375000000000000       0.90625000000000000        0.0000000000000000     
  0.62500000000000000       0.90625000000000000        0.0000000000000000     
  0.50000000000000000       0.93750000000000000        0.0000000000000000     
  0.53125000000000000       0.93750000000000000        0.0000000000000000     
  0.56250000000000000       0.93750000000000000        0.0000000000000000     
  0.59375000000000000       0.93750000000000000        0.0000000000000000     
  0.62500000000000000       0.93750000000000000        0.0000000000000000     
  0.50000000000000000       0.96875000000000000        0.0000000000000000     
  0.53125000000000000       0.96875000000000000        0.0000000000000000     
  0.56250000000000000       0.96875000000000000        0.0000000000000000     
  0.59375000000000000       0.96875000000000000        0.0000000000000000     
  0.62500000000000000       0.96875000000000000        0.0000000000000000     
  0.50000000000000000        1.0000000000000000        0.0000000000000000     
  0.53125000000000000        1.0000000000000000        0.0000000000000000     
  0.56250000000000000        1.0000000000000000        0.0000000000000000     
  0.59375000000000000        1.0000000000000000        0.0000000000000000     
  0.62500000000000000        1.0000000000000000        0.0000000000000000     
  0.62500000000000000       0.87500000000000000        0.0000000000000000     
  0.65625000000000000       0.87500000000000000        0.0000000000000000     
  0.68750000000000000       0.87500000000000000        0.0000000000000000     
  0.71875000000000000       0.87500000000000000        0.0000000000000000     
  0.75000000000000000       0.87500000000000000        0.0000000000000000     
  0.62500000000000000       0.90625000000000000        0.0000000000000000     
  0.65625000000000000       0.90625000000000000        0.0000000000000000     
  0.68750000000000000       0.90625000000000000        0.0000000000000000     
  0.71875000000000000       0.90625000000000000        0.0000000000000000     
  0.75000000000000000       0.90625000000000000        0.0000000000000000     
  0.62500000000000000       0.93750000000000000        0.0000000000000000     
  0.65625000000000000       0.93750000000000000        0.0000000000000000     
  0.68750000000000000       0.93750000000000000        0.0000000000000000     
  0.71875000000000000       0.93750000000000000        0.0000000000000000     
  0.75000000000000000       0.93750000000000000        0.0000000000000000     
  0.62500000000000000       0.96875000000000000        0.0000000000000000     
  0.65625000000000000       0.96875000000000000        0.0000000000000000     
  0.68750000000000000       0.96875000000000000        0.0000000000000000     
  0.71875000000000000       0.96875000000000000        0.0000000000000000     
  0.75000000000000000       0.96875000000000000        0.0000000000000000     
  0.62500000000000000        1.0000000000000000        0.0000000000000000     
  0.65625000000000000        1.0000000000000000        0.0000000000000000     
  0.68750000000000000        1.0000000000000000        0.0000000000000000     
  0.71875000000000000        1.0000000000000000        0.0000000000000000     
  0.75000000000000000        1.0000000000000000        0.0000000000000000     
  0.75000000000000000       0.87500000000000000        0.0000000000000000     
  0.78125000000000000       0.87500000000000000        0.0000000000000000     
  0.81250000000000000       0.87500000000000000        0.0000000000000000     
  0.84375000000000000       0.87500000000000000        0.0000000000000000     
  0.87500000000000000       0.87500000000000000        0.0000000000000000     
  0.75000000000000000       0.90625000000000000        0.0000000000000000     
  0.78125000000000000       0.90625000000000000        0.0000000000000000     
  0.81250000000000000       0.90625000000000000        0.0000000000000000     
  0.84375000000000000       0.90625000000000000        0.0000000000000000     
  0.87500000000000000       0.90625000000000000        0.0000000000000000     
  0.75000000000000000       0.93750000000000000        0.0000000000000000     
  0.78125000000000000       0.93750000000000000        0.0000000000000000     
  0.81250000000000000       0.93750000000000000        0.0000000000000000     
  0.84375000000000000       0.93750000000000000        0.0000000000000000     
  0.87500000000000000       0.93750000000000000        0.0000000000000000     
  0.75000000000000000       0.96875000000000000        0.0000000000000000     
  0.78125000000000000       0.96875000000000000        0.0000000000000000     
  0.81250000000000000       0.96875000000000000        0.0000000000000000     
  0.84375000000000000       0.96875000000000000        0.0000000000000000     
  0.87500000000000000       0.96875000000000000        0.0000000000000000     
  0.75000000000000000        1.0000000000000000        0.0000000000000000     
  0.78125000000000000        1.0000000000000000        0.0000000000000000     
  0.81250000000000000        1.0000000000000000        0.0000000000000000     
  0.84375000000000000        1.0000000000000000        0.0000000000000000     
  0.87500000000000000        1.0000000000000000        0.0000000000000000     
  0.87500000000000000       0.87500000000000000        0.0000000000000000     
  0.90625000000000000       0.87500000000000000        0.0000000000000000     
  0.93750000000000000       0.87500000000000000        0.0000000000000000     
  0.96875000000000000       0.87500000000000000        0.0000000000000000     
   1.0000000000000000       0.87500000000000000        0.0000000000000000     
  0.87500000000000000       0.90625000000000000        0.0000000000000000     
  0.90625000000000000       0.90625000000000000        0.0000000000000000     
  0.93750000000000000       0.90625000000000000        0.0000000000000000     
  0.96875000000000000       0.90625000000000000        0.0000000000000000     
   1.0000000000000000       0.90625000000000000        0.0000000000000000     
  0.87500000000000000       0.93750000000000000        0.0000000000000000     
  0.90625000000000000       0.93750000000000000        0.0000000000000000     
  0.93750000000000000       0.93750000000000000        0.0000000000000000     
  0.96875000000000000       0.93750000000000000        0.0000000000000000     
   1.0000000000000000       0.93750000000000000        0.0000000000000000     
  0.87500000000000000       0.96875000000000000        0.0000000000000000     
  0.90625000000000000       0.96875000000000000        0.0000000000000000     
  0.93750000000000000       0.96875000000000000        0.0000000000000000     
  0.96875000000000000       0.96875000000000000        0.0000000000000000     
   1.0000000000000000       0.96875000000000000        0.0000000000000000     
  0.87500000000000000        1.0000000000000000        0.0000000000000000     
  0.90625000000000000        1.0000000000000000        0.0000000000000000     
  0.93750000000000000        1.0000000000000000        0.0000000000000000     
  0.96875000000000000        1.0000000000000000        0.0000000000000000     
   1.0000000000000000        1.0000000000000000        0.0000000000000000     
   1.0000000000000000       0.87500000000000000        0.0000000000000000     
   1.0312500000000000       0.87500000000000000        0.0000000000000000     
   1.0625000000000000       0.87500000000000000        0.0000000000000000     
   1.0937500000000000       0.87500000000000000        0.0000000000000000     
   1.1250000000000000       0.87500000000000000        0.0000000000000000     
   1.0000000000000000       0.90625000000000000        0.0000000000000000     
   1.0312500000000000       0.90625000000000000        0.0000000000000000     
   1.0625000000000000       0.90625000000000000        0.0000000000000000     
   1.0937500000000000       0.90625000000000000        0.0000000000000000     
   1.1250000000000000       0.90625000000000000        0.0000000000000000     
   1.0000000000000000       0.93750000000000000        0.0000000000000000     
   1.0312500000000000       0.93750000000000000        0.0000000000000000     
   1.0625000000000000       0.93750000000000000        0.0000000000000000     
   1.0937500000000000       0.93750000000000000        0.0000000000000000     
   1.1250000000000000       0.93750000000000000        0.0000000000000000     
   1.0000000000000000       0.96875000000000000        0.0000000000000000     
   1.0312500000000000       0.96875000000000000        0.0000000000000000     
   1.0625000000000000       0.96875000000000000        0.0000000000000000     
   1.0937500000000000       0.96875000000000000        0.0000000000000000     
   1.1250000000000000       0.96875000000000000        0.0000000000000000     
   1.0000000000000000        1.0000000000000000        0.0000000000000000     
   1.0312500000000000        1.0000000000000000        0.0000000000000000     
   1.0625000000000000        1.0000000000000000        0.0000000000000000     
   1.0937500000000000        1.0000000000000000        0.0000000000000000     
   1.1250000000000000        1.0000000000000000        0.0000000000000000     
   1.1250000000000000       0.87500000000000000        0.0000000000000000     
   1.1562500000000000       0.87500000000000000        0.0000000000000000     
   1.1875000000000000       0.87500000000000000        0.0000000000000000     
   1.2187500000000000       0.87500000000000000        0.0000000000000000     
   1.2500000000000000       0.87500000000000000        0.0000000000000000     
   1.1250000000000000       0.90625000000000000        0.0000000000000000     
   1.1562500000000000       0.90625000000000000        0.0000000000000000     
   1.1875000000000000       0.90625000000000000        0.0000000000000000     
   1.2187500000000000       0.90625000000000000        0.0000000000000000     
   1.2500000000000000       0.90625000000000000        0.0000000000000000     
   1.1250000000000000       0.93750000000000000        0.0000000000000000     
   1.1562500000000000       0.93750000000000000        0.0000000000000000     
   1.1875000000000000       0.93750000000000000        0.0000000000000000     
   1.2187500000000000       0.93750000000000000        0.0000000000000000     
   1.2500000000000000       0.93750000000000000        0.0000000000000000     
   1.1250000000000000       0.96875000000000000        0.0000000000000000     
   1.1562500000000000       0.96875000000000000        0.0000000000000000     
   1.1875000000000000       0.96875000000000000        0.0000000000000000     
   1.2187500000000000       0.96875000000000000        0.0000000000000000     
   1.2500000000000000       0.96875000000000000        0.0000000000000000     
   1.1250000000000000        1.0000000000000000        0.0000000000000000     
   1.1562500000000000        1.0000000000000000        0.0000000000000000     
   1.1875000000000000        1.0000000000000000        0.0000000000000000     
   1.2187500000000000        1.0000000000000000        0.0000000000000000     
   1.2500000000000000        1.0000000000000000        0.0000000000000000     
   1.2500000000000000       0.87500000000000000        0.0000000000000000     
   1.2812500000000000       0.87500000000000000        0.0000000000000000     
   1.3125000000000000       0.87500000000000000        0.0000000000000000     
   1.3437500000000000       0.87500000000000000        0.0000000000000000     
   1.3750000000000000       0.87500000000000000        0.0000000000000000     
   1.2500000000000000       0.90625000000000000        0.0000000000000000     
   1.2812500000000000       0.90625000000000000        0.0000000000000000     
   1.3125000000000000       0.90625000000000000        0.0000000000000000     
   1.3437500000000000       0.90625000000000000        0.0000000000000000     
   1.3750000000000000       0.90625000000000000        0.0000000000000000     
   1.2500000000000000       0.93750000000000000        0.0000000000000000     
   1.2812500000000000       0.93750000000000000        0.0000000000000000     
   1.3125000000000000       0.93750000000000000        0.0000000000000000     
   1.3437500000000000       0.93750000000000000        0.0000000000000000     
   1.3750000000000000       0.93750000000000000        0.0000000000000000     
   1.2500000000000000       0.96875000000000000        0.0000000000000000     
   1.2812500000000000       0.96875000000000000        0.0000000000000000     
   1.3125000000000000       0.96875000000000000        0.0000000000000000     
   1.3437500000000000       0.96875000000000000        0.0000000000000000     
   1.3750000000000000       0.96875000000000000        0.0000000000000000     
   1.2500000000000000        1.0000000000000000        0.0000000000000000     
   1.2812500000000000        1.0000000000000000        0.0000000000000000     
   1.3125000000000000        1.0000000000000000        0.0000000000000000     
   1.3437500000000000        1.0000000000000000        0.0000000000000000     
   1.3750000000000000        1.0000000000000000        0.0000000000000000     
   1.3750000000000000       0.87500000000000000        0.0000000000000000     
   1.4062500000000000       0.87500000000000000        0.0000000000000000     
   1.4375000000000000       0.87500000000000000        0.0000000000000000     
   1.4687500000000000       0.87500000000000000        0.0000000000000000     
   1.5000000000000000       0.87500000000000000        0.0000000000000000     
   1.3750000000000000       0.90625000000000000        0.0000000000000000     
   1.4062500000000000       0.90625000000000000        0.0000000000000000     
   1.4375000000000000       0.90625000000000000        0.0000000000000000     
   1.4687500000000000       0.90625000000000000        0.0000000000000000     
   1.5000000000000000       0.90625000000000000        0.0000000000000000     
   1.3750000000000000       0.93750000000000000        0.0000000000000000     
   1.4062500000000000       0.93750000000000000        0.0000000000000000     
   1.4375000000000000       0.93750000000000000        0.0000000000000000     
   1.4687500000000000       0.93750000000000000        0.0000000000000000     
   1.5000000000000000       0.93750000000000000        0.0000000000000000     
   1.3750000000000000       0.96875000000000000        0.0000000000000000     
   1.4062500000000000       0.96875000000000000        0.0000000000000000     
   1.4375000000000000       0.96875000000000000        0.0000000000000000     
   1.4687500000000000       0.96875000000000000        0.0000000000000000     
   1.5000000000000000       0.96875000000000000        0.0000000000000000     
   1.3750000000000000        1.0000000000000000        0.0000000000000000     
   1.4062500000000000        1.0000000000000000        0.0000000000000000     
   1.4375000000000000        1.0000000000000000        0.0000000000000000     
   1.4687500000000000        1.0000000000000000        0.0000000000000000     
   1.5000000000000000        1.0000000000000000        0.0000000000000000     
 </DataArray>
 </Points>
 <Cells>
 <DataArray  type="Int32"  Name="connectivity"  format="ascii">
           0           1           6           5
           1           2           7           6
           2           3           8           7
           3           4           9           8
           5           6          11          10
           6           7          12          11
           7           8          13          12
           8           9          14          13
          10          11          16          15
          11          12          17          16
          12          13          18          17
          13          14          19          18
          15          16          21          20
          16          17          22          21
          17          18          23          22
          18          19          24          23
          25          26          31          30
          26          27          32          31
          27          28          33          32
          28          29          34          33
          30          31          36          35
          31          32          37          36
          32          33          38          37
          33          34          39          38
          35          36          41          40
          36          37          42          41
          37          38          43          42
          38          39          44          43
          40          41          46          45
          41          42          47          46
          42          43          48          47
          43          44          49          48
          50          51          56          55
          51          52          57          56
          52          53          58          57
          53          54          59          58
          55          56          61          60
          56          57          62          61
          57          58          63          62
          58          59          64          63
          60          61          66          65
          61          62          67          66
          62          63          68          67
          63          64          69          68
          65          66          71          70
          66          67          72          71
          67          68          73          72
          68          69          74          73
          75          76          81          80
          76          77          82          81
          77          78          83          82
          78          79          84          83
          80          81          86          85
          81          82          87          86
          82          83          88          87
          83          84          89          88
          85          86          91          90
          86          87          92          91
          87          88          93          92
          88          89          94          93
          90          91          96          95
          91          92          97          96
          92          93          98          97
          93          94          99          98
         100         101         106         105
         101         102         107         106
         102         103         108         107
         103         104         109         108
         105         106         111         110
         106         107         112         111
         107         108         113         112
         108         109         114         113
         110         111         116         115
         111         112         117         116
         112         113         118         117
         113         114         119         118
         115         116         121         120
         116         117         122         121
         117         118         123         122
         118         119         124         123
         125         126         131         130
         126         127         132         131
         127         128         133         132
         128         129         134         133
         130         131         136         135
         131         132         137         136
         132         133         138         137
         133         134         139         138
         135         136         141         140
         136         137         142         141
         137         138         143         142
         138         139         144         143
         140         141         146         145
         141         142         147         146
         142         143         148         147
         143         144         149         148
         150         151         156         155
         151         152         157         156
         152         153         158         157
         153         154         159         158
         155         156         161         160
         156         157         162         161
         157         158         163         162
         158         159         164         163
         160         161         166         165
         161         162         167         166
         162         163         168         167
         163         164         169         168
         165         166         171         170
         166         167         172         171
         167         168         173         172
         168         169         174         173
         175         176         181         180
         176         177         182         181
         177         178         183         182
         178         179         184         183
         180         181         186         185
         181         182         187         186
         182         183         188         187
         183         184         189         188
         185         186         191         190
         186         187         192         191
         187         188         193         192
         188         189         194         193
         190         191         196         195
         191         192         197         196
         192         193         198         197
         193         194         199         198
         200         201         206         205
         201         202         207         206
         202         203         208         207
         203         204         209         208
         205         206         211         210
         206         207         212         211
         207         208         213         212
         208         209         214         213
         210         211         216         215
         211         212         217         216
         212         213         218         217
         213         214         219         218
         215         216         221         220
         216         217         222         221
         217         218         223         222
         218         219         224         223
         225         226         231         230
         226         227         232         231
         227         228         233         232
         228         229         234         233
         230         231         236         235
         231         232         237         236
         232         233         238         237
         233         234         239         238
         235         236         241         240
         236         237         242         241
         237         238         243         242
         238         239         244         243
         240         241         246         245
         241         242         247         246
         242         243         248         247
         243         244         249         248
         250         251         256         255
         251         252         257         256
         252         253         258         257
         253         254         259         258
         255         256         261         260
         256         257         262         261
         257         258         263         262
         258         259         264         263
         260         261         266         265
         261         262         267         266
         262         263         268         267
         263         264         269         268
         265         266         271         270
         266         267         272         271
         267         268         273         272
         268         269         274         273
         275         276         281         280
         276         277         282         281
         277         278         283         282
         278         279         284         283
         280         281         286         285
         281         282         287         286
         282         283         288         287
         283         284         289         288
         285         286         291         290
         286         287         292         291
         287         288         293         292
         288         289         294         293
         290         291         296         295
         291         292         297         296
         292         293         298         297
         293         294         299         298
         300         301         306         305
         301         302         307         306
         302         303         308         307
         303         304         309         308
         305         306         311         310
         306         307         312         311
         307         308         313         312
         308         309         314         313
         310         311         316         315
         311         312         317         316
         312         313         318         317
         313         314         319         318
         315         316         321         320
         316         317         322         321
         317         318         323         322
         318         319         324         323
         325         326         331         330
         326         327         332         331
         327         328         333         332
         328         329         334         333
         330         331         336         335
         331         332         337         336
         332         333         338         337
         333         334         339         338
         335         336         341         340
         336         337         342         341
         337         338         343         342
         338         339         344         343
         340         341         346         345
         341         342         347         346
         342         343         348         347
         343         344         349         348
         350         351         356         355
         351         352         357         356
         352         353         358         357
         353         354         359         358
         355         356         361         360
         356         357         362         361
         357         358         363         362
         358         359         364         363
         360         361         366         365
         361         362         367         366
         362         363         368         367
         363         364         369         368
         365         366         371         370
         366         367         372         371
         367         368         373         372
         368         369         374         373
         375         376         381         380
         376         377         382         381
         377         378         383         382
         378         379         384         383
         380         381         386         385
         381         382         387         386
         382         383         388         387
         383         384         389         388
         385         386         391         390
         386         387         392         391
         387         388         393         392
         388         389         394         393
         390         391         396         395
         391         392         397         396
         392         393         398         397
         393         394         399         398
         400         401         406         405
         401         402         407         406
         402         403         408         407
         403         404         409         408
         405         406         411         410
         406         407         412         411
         407         408         413         412
         408         409         414         413
         410         411         416         415
         411         412         417         416
         412         413         418         417
         413         414         419         418
         415         416         421         420
         416         417         422         421
         417         418         423         422
         418         419         424         423
         425         426         431         430
         426         427         432         431
         427         428         433         432
         428         429         434         433
         430         431         436         435
         431         432         437         436
         432         433         438         437
         433         434         439         438
         435         436         441         440
         436         437         442         441
         437         438         443         442
         438         439         444         443
         440         441         446         445
         441         442         447         446
         442         443         448         447
         443         444         449         448
         450         451         456         455
         451         452         457         456
         452         453         458         457
         453         454         459         458
         455         456         461         460
         456         457         462         461
         457         458         463         462
         458         459         464         463
         460         461         466         465
         461         462         467         466
         462         463         468         467
         463         464         469         468
         465         466         471         470
         466         467         472         471
         467         468         473         472
         468         469         474         473
         475         476         481         480
         476         477         482         481
         477         478         483         482
         478         479         484         483
         480         481         486         485
         481         482         487         486
         482         483         488         487
         483         484         489         488
         485         486         491         490
         486         487         492         491
         487         488         493         492
         488         489         494         493
         490         491         496         495
         491         492         497         496
         492         493         498         497
         493         494         499         498
         500         501         506         505
         501         502         507         506
         502         503         508         507
         503         504         509         508
         505         506         511         510
         506         507         512         511
         507         508         513         512
         508         509         514         513
         510         511         516         515
         511         512         517         516
         512         513         518         517
         513         514         519         518
         515         516         521         520
         516         517         522         521
         517         518         523         522
         518         519         524         523
         525         526         531         530
         526         527         532         531
         527         528         533         532
         528         529         534         533
         530         531         536         535
         531         532         537         536
         532         533         538         537
         533         534         539         538
         535         536         541         540
         536         537         542         541
         537         538         543         542
         538         539         544         543
         540         541         546         545
         541         542         547         546
         542         543         548         547
         543         544         549         548
         550         551         556         555
         551         552         557         556
         552         553         558         557
         553         554         559         558
         555         556         561         560
         556         557         562         561
         557         558         563         562
         558         559         564         563
         560         561         566         565
         561         562         567         566
         562         563         568         567
         563         564         569         568
         565         566         571         570
         566         567         572         571
         567         568         573         572
         568         569         574         573
         575         576         581         580
         576         577         582         581
         577         578         583         582
         578         579         584         583
         580         581         586         585
         581         582         587         586
         582         583         588         587
         583         584         589         588
         585         586         591         590
         586         587         592         591
         587         588         593         592
         588         589         594         593
         590         591         596         595
         591         592         597         596
         592         593         598         597
         593         594         599         598
         600         601         606         605
         601         602         607         606
         602         603         608         607
         603         604         609         608
         605         606         611         610
         606         607         612         611
         607         608         613         612
         608         609         614         613
         610         611         616         615
         611         612         617         616
         612         613         618         617
         613         614         619         618
         615         616         621         620
         616         617         622         621
         617         618         623         622
         618         619         624         623
         625         626         631         630
         626         627         632         631
         627         628         633         632
         628         629         634         633
         630         631         636         635
         631         632         637         636
         632         633         638         637
         633         634         639         638
         635         636         641         640
         636         637         642         641
         637         638         643         642
         638         639         644         643
         640         641         646         645
         641         642         647         646
         642         643         648         647
         643         644         649         648
         650         651         656         655
         651         652         657         656
         652         653         658         657
         653         654         659         658
         655         656         661         660
         656         657         662         661
         657         658         663         662
         658         659         664         663
         660         661         666         665
         661         662         667         666
         662         663         668         667
         663         664         669         668
         665         666         671         670
         666         667         672         671
         667         668         673         672
         668         669         674         673
         675         676         681         680
         676         677         682         681
         677         678         683         682
         678         679         684         683
         680         681         686         685
         681         682         687         686
         682         683         688         687
         683         684         689         688
         685         686         691         690
         686         687         692         691
         687         688         693         692
         688         689         694         693
         690         691         696         695
         691         692         697         696
         692         693         698         697
         693         694         699         698
         700         701         706         705
         701         702         707         706
         702         703         708         707
         703         704         709         708
         705         706         711         710
         706         707         712         711
         707         708         713         712
         708         709         714         713
         710         711         716         715
         711         712         717         716
         712         713         718         717
         713         714         719         718
         715         716         721         720
         716         717         722         721
         717         718         723         722
         718         719         724         723
         725         726         731         730
         726         727         732         731
         727         728         733         732
         728         729         734         733
         730         731         736         735
         731         732         737         736
         732         733         738         737
         733         734         739         738
         735         736         741         740
         736         737         742         741
         737         738         743         742
         738         739         744         743
         740         741         746         745
         741         742         747         746
         742         743         748         747
         743         744         749         748
         750         751         756         755
         751         752         757         756
         752         753         758         757
         753         754         759         758
         755         756         761         760
         756         757         762         761
         757         758         763         762
         758         759         764         763
         760         761         766         765
         761         762         767         766
         762         763         768         767
         763         764         769         768
         765         766         771         770
         766         767         772         771
         767         768         773         772
         768         769         774         773
         775         776         781         780
         776         777         782         781
         777         778         783         782
         778         779         784         783
         780         781         786         785
         781         782         787         786
         782         783         788         787
         783         784         789         788
         785         786         791         790
         786         787         792         791
         787         788         793         792
         788         789         794         793
         790         791         796         795
         791         792         797         796
         792         793         798         797
         793         794         799         798
         800         801         806         805
         801         802         807         806
         802         803         808         807
         803         804         809         808
         805         806         811         810
         806         807         812         811
         807         808         813         812
         808         809         814         813
         810         811         816         815
         811         812         817         816
         812         813         818         817
         813         814         819         818
         815         816         821         820
         816         817         822         821
         817         818         823         822
         818         819         824         823
         825         826         831         830
         826         827         832         831
         827         828         833         832
         828         829         834         833
         830         831         836         835
         831         832         837         836
         832         833         838         837
         833         834         839         838
         835         836         841         840
         836         837         842         841
         837         838         843         842
         838         839         844         843
         840         841         846         845
         841         842         847         846
         842         843         848         847
         843         844         849         848
         850         851         856         855
         851         852         857         856
         852         853         858         857
         853         854         859         858
         855         856         861         860
         856         857         862         861
         857         858         863         862
         858         859         864         863
         860         861         866         865
         861         862         867         866
         862         863         868         867
         863         864         869         868
         865         866         871         870
         866         867         872         871
         867         868         873         872
         868         869         874         873
         875         876         881         880
         876         877         882         881
         877         878         883         882
         878         879         884         883
         880         881         886         885
         881         882         887         886
         882         883         888         887
         883         884         889         888
         885         886         891         890
         886         887         892         891
         887         888         893         892
         888         889         894         893
         890         891         896         895
         891         892         897         896
         892         893         898         897
         893         894         899         898
         900         901         906         905
         901         902         907         906
         902         903         908         907
         903         904         909         908
         905         906         911         910
         906         907         912         911
         907         908         913         912
         908         909         914         913
         910         911         916         915
         911         912         917         916
         912         913         918         917
         913         914         919         918
         915         916         921         920
         916         917         922         921
         917         918         923         922
         918         919         924         923
         925         926         931         930
         926         927         932         931
         927         928         933         932
         928         929         934         933
         930         931         936         935
         931         932         937         936
         932         933         938         937
         933         934         939         938
         935         936         941         940
         936         937         942         941
         937         938         943         942
         938         939         944         943
         940         941         946         945
         941         942         947         946
         942         943         948         947
         943         944         949         948
         950         951         956         955
         951         952         957         956
         952         953         958         957
         953         954         959         958
         955         956         961         960
         956         957         962         961
         957         958         963         962
         958         959         964         963
         960         961         966         965
         961         962         967         966
         962         963         968         967
         963         964         969         968
         965         966         971         970
         966         967         972         971
         967         968         973         972
         968         969         974         973
         975         976         981         980
         976         977         982         981
         977         978         983         982
         978         979         984         983
         980         981         986         985
         981         982         987         986
         982         983         988         987
         983         984         989         988
         985         986         991         990
         986         987         992         991
         987         988         993         992
         988         989         994         993
         990         991         996         995
         991         992         997         996
         992         993         998         997
         993         994         999         998
        1000        1001        1006        1005
        1001        1002        1007        1006
        1002        1003        1008        1007
        1003        1004        1009        1008
        1005        1006        1011        1010
        1006        1007        1012        1011
        1007        1008        1013        1012
        1008        1009        1014        1013
        1010        1011        1016        1015
        1011        1012        1017        1016
        1012        1013        1018        1017
        1013        1014        1019        1018
        1015        1016        1021        1020
        1016        1017        1022        1021
        1017        1018        1023        1022
        1018        1019        1024        1023
        1025        1026        1031        1030
        1026        1027        1032        1031
        1027        1028        1033        1032
        1028        1029        1034        1033
        1030        1031        1036        1035
        1031        1032        1037        1036
        1032        1033        1038        1037
        1033        1034        1039        1038
        1035        1036        1041        1040
        1036        1037        1042        1041
        1037        1038        1043        1042
        1038        1039        1044        1043
        1040        1041        1046        1045
        1041        1042        1047        1046
        1042        1043        1048        1047
        1043        1044        1049        1048
        1050        1051        1056        1055
        1051        1052        1057        1056
        1052        1053        1058        1057
        1053        1054        1059        1058
        1055        1056        1061        1060
        1056        1057        1062        1061
        1057        1058        1063        1062
        1058        1059        1064        1063
        1060        1061        1066        1065
        1061        1062        1067        1066
        1062        1063        1068        1067
        1063        1064        1069        1068
        1065        1066        1071        1070
        1066        1067        1072        1071
        1067        1068        1073        1072
        1068        1069        1074        1073
        1075        1076        1081        1080
        1076        1077        1082        1081
        1077        1078        1083        1082
        1078        1079        1084        1083
        1080        1081        1086        1085
        1081        1082        1087        1086
        1082        1083        1088        1087
        1083        1084        1089        1088
        1085        1086        1091        1090
        1086        1087        1092        1091
        1087        1088        1093        1092
        1088        1089        1094        1093
        1090        1091        1096        1095
        1091        1092        1097        1096
        1092        1093        1098        1097
        1093        1094        1099        1098
        1100        1101        1106        1105
        1101        1102        1107        1106
        1102        1103        1108        1107
        1103        1104        1109        1108
        1105        1106        1111        1110
        1106        1107        1112        1111
        1107        1108        1113        1112
        1108        1109        1114        1113
        1110        1111        1116        1115
        1111        1112        1117        1116
        1112        1113        1118        1117
        1113        1114        1119        1118
        1115        1116        1121        1120
        1116        1117        1122        1121
        1117        1118        1123        1122
        1118        1119        1124        1123
        1125        1126        1131        1130
        1126        1127        1132        1131
        1127        1128        1133        1132
        1128        1129        1134        1133
        1130        1131        1136        1135
        1131        1132        1137        1136
        1132        1133        1138        1137
        1133        1134        1139        1138
        1135        1136        1141        1140
        1136        1137        1142        1141
        1137        1138        1143        1142
        1138        1139        1144        1143
        1140        1141        1146        1145
        1141        1142        1147        1146
        1142        1143        1148        1147
        1143        1144        1149        1148
        1150        1151        1156        1155
        1151        1152        1157        1156
        1152        1153        1158        1157
        1153        1154        1159        1158
        1155        1156        1161        1160
        1156        1157        1162        1161
        1157        1158        1163        1162
        1158        1159        1164        1163
        1160        1161        1166        1165
        1161        1162        1167        1166
        1162        1163        1168        1167
        1163        1164        1169        1168
        1165        1166        1171        1170
        1166        1167        1172        1171
        1167        1168        1173        1172
        1168        1169        1174        1173
        1175        1176        1181        1180
        1176        1177        1182        1181
        1177        1178        1183        1182
        1178        1179        1184        1183
        1180        1181        1186        1185
        1181        1182        1187        1186
        1182        1183        1188        1187
        1183        1184        1189        1188
        1185        1186        1191        1190
        1186        1187        1192        1191
        1187        1188        1193        1192
        1188        1189        1194        1193
        1190        1191        1196        1195
        1191        1192        1197        1196
        1192        1193        1198        1197
        1193        1194        1199        1198
        1200        1201        1206        1205
        1201        1202        1207        1206
        1202        1203        1208        1207
        1203        1204        1209        1208
        1205        1206        1211        1210
        1206        1207        1212        1211
        1207        1208        1213        1212
        1208        1209        1214        1213
        1210        1211        1216        1215
        1211        1212        1217        1216
        1212        1213        1218        1217
        1213        1214        1219        1218
        1215        1216        1221        1220
        1216        1217        1222        1221
        1217        1218        1223        1222
        1218        1219        1224        1223
        1225        1226        1231        1230
        1226        1227        1232        1231
        1227        1228        1233        1232
        1228        1229        1234        1233
        1230        1231        1236        1235
        1231        1232        1237        1236
        1232        1233        1238        1237
        1233        1234        1239        1238
        1235        1236        1241        1240
        1236        1237        1242        1241
        1237        1238        1243        1242
        1238        1239        1244        1243
        1240        1241        1246        1245
        1241        1242        1247        1246
        1242        1243        1248        1247
        1243        1244        1249        1248
        1250        1251        1256        1255
        1251        1252        1257        1256
        1252        1253        1258        1257
        1253        1254        1259        1258
        1255        1256        1261        1260
        1256        1257        1262        1261
        1257        1258        1263        1262
        1258        1259        1264        1263
        1260        1261        1266        1265
        1261        1262        1267        1266
        1262        1263        1268        1267
        1263        1264        1269        1268
        1265        1266        1271        1270
        1266        1267        1272        1271
        1267        1268        1273        1272
        1268        1269        1274        1273
        1275        1276        1281        1280
        1276        1277        1282        1281
        1277        1278        1283        1282
        1278        1279        1284        1283
        1280        1281        1286        1285
        1281        1282        1287        1286
        1282        1283        1288        1287
        1283        1284        1289        1288
        1285        1286        1291        1290
        1286        1287        1292        1291
        1287        1288        1293        1292
        1288        1289        1294        1293
        1290        1291        1296        1295
        1291        1292        1297        1296
        1292        1293        1298        1297
        1293        1294        1299        1298
        1300        1301        1306        1305
        1301        1302        1307        1306
        1302        1303        1308        1307
        1303        1304        1309        1308
        1305        1306        1311        1310
        1306        1307        1312        1311
        1307        1308        1313        1312
        1308        1309        1314        1313
        1310        1311        1316        1315
        1311        1312        1317        1316
        1312        1313        1318        1317
        1313        1314        1319        1318
        1315        1316        1321        1320
        1316        1317        1322        1321
        1317        1318        1323        1322
        1318        1319        1324        1323
        1325        1326        1331        1330
        1326        1327        1332        1331
        1327        1328        1333        1332
        1328        1329        1334        1333
        1330        1331        1336        1335
        1331        1332        1337        1336
        1332        1333        1338        1337
        1333        1334        1339        1338
        1335        1336        1341        1340
        1336        1337        1342        1341
        1337        1338        1343        1342
        1338        1339        1344        1343
        1340        1341        1346        1345
        1341        1342        1347        1346
        1342        1343        1348        1347
        1343        1344        1349        1348
        1350        1351        1356        1355
        1351        1352        1357        1356
        1352        1353        1358        1357
        1353        1354        1359        1358
        1355        1356        1361        1360
        1356        1357        1362        1361
        1357        1358        1363        1362
        1358        1359        1364        1363
        1360        1361        1366        1365
        1361        1362        1367        1366
        1362        1363        1368        1367
        1363        1364        1369        1368
        1365        1366        1371        1370
        1366        1367        1372        1371
        1367        1368        1373        1372
        1368        1369        1374        1373
        1375        1376        1381        1380
        1376        1377        1382        1381
        1377        1378        1383        1382
        1378        1379        1384        1383
        1380        1381        1386        1385
        1381        1382        1387        1386
        1382        1383        1388        1387
        1383        1384        1389        1388
        1385        1386        1391        1390
        1386        1387        1392        1391
        1387        1388        1393        1392
        1388        1389        1394        1393
        1390        1391        1396        1395
        1391        1392        1397        1396
        1392        1393        1398        1397
        1393        1394        1399        1398
        1400        1401        1406        1405
        1401        1402        1407        1406
        1402        1403        1408        1407
        1403        1404        1409        1408
        1405        1406        1411        1410
        1406        1407        1412        1411
        1407        1408        1413        1412
        1408        1409        1414        1413
        1410        1411        1416        1415
        1411        1412        1417        1416
        1412        1413        1418        1417
        1413        1414        1419        1418
        1415        1416        1421        1420
        1416        1417        1422        1421
        1417        1418        1423        1422
        1418        1419        1424        1423
        1425        1426        1431        1430
        1426        1427        1432        1431
        1427        1428        1433        1432
        1428        1429        1434        1433
        1430        1431        1436        1435
        1431        1432        1437        1436
        1432        1433        1438        1437
        1433        1434        1439        1438
        1435        1436        1441        1440
        1436        1437        1442        1441
        1437        1438        1443        1442
        1438        1439        1444        1443
        1440        1441        1446        1445
        1441        1442        1447        1446
        1442        1443        1448        1447
        1443        1444        1449        1448
        1450        1451        1456        1455
        1451        1452        1457        1456
        1452        1453        1458        1457
        1453        1454        1459        1458
        1455        1456        1461        1460
        1456        1457        1462        1461
        1457        1458        1463        1462
        1458        1459        1464        1463
        1460        1461        1466        1465
        1461        1462        1467        1466
        1462        1463        1468        1467
        1463        1464        1469        1468
        1465        1466        1471        1470
        1466        1467        1472        1471
        1467        1468        1473        1472
        1468        1469        1474        1473
        1475        1476        1481        1480
        1476        1477        1482        1481
        1477        1478        1483        1482
        1478        1479        1484        1483
        1480        1481        1486        1485
        1481        1482        1487        1486
        1482        1483        1488        1487
        1483        1484        1489        1488
        1485        1486        1491        1490
        1486        1487        1492        1491
        1487        1488        1493        1492
        1488        1489        1494        1493
        1490        1491        1496        1495
        1491        1492        1497        1496
        1492        1493        1498        1497
        1493        1494        1499        1498
        1500        1501        1506        1505
        1501        1502        1507        1506
        1502        1503        1508        1507
        1503        1504        1509        1508
        1505        1506        1511        1510
        1506        1507        1512        1511
        1507        1508        1513        1512
        1508        1509        1514        1513
        1510        1511        1516        1515
        1511        1512        1517        1516
        1512        1513        1518        1517
        1513        1514        1519        1518
        1515        1516        1521        1520
        1516        1517        1522        1521
        1517        1518        1523        1522
        1518        1519        1524        1523
        1525        1526        1531        1530
        1526        1527        1532        1531
        1527        1528        1533        1532
        1528        1529        1534        1533
        1530        1531        1536        1535
        1531        1532        1537        1536
        1532        1533        1538        1537
        1533        1534        1539        1538
        1535        1536        1541        1540
        1536        1537        1542        1541
        1537        1538        1543        1542
        1538        1539        1544        1543
        1540        1541        1546        1545
        1541        1542        1547        1546
        1542        1543        1548        1547
        1543        1544        1549        1548
        1550        1551        1556        1555
        1551        1552        1557        1556
        1552        1553        1558        1557
        1553        1554        1559        1558
        1555        1556        1561        1560
        1556        1557        1562        1561
        1557        1558        1563        1562
        1558        1559        1564        1563
        1560        1561        1566        1565
        1561        1562        1567        1566
        1562        1563        1568        1567
        1563        1564        1569        1568
        1565        1566        1571        1570
        1566        1567        1572        1571
        1567        1568        1573        1572
        1568        1569        1574        1573
        1575        1576        1581        1580
        1576        1577        1582        1581
        1577        1578        1583        1582
        1578        1579        1584        1583
        1580        1581        1586        1585
        1581        1582        1587        1586
        1582        1583        1588        1587
        1583        1584        1589        1588
        1585        1586        1591        1590
        1586        1587        1592        1591
        1587        1588        1593        1592
        1588        1589        1594        1593
        1590        1591        1596        1595
        1591        1592        1597        1596
        1592        1593        1598        1597
        1593        1594        1599        1598
 </DataArray>
 <DataArray  type="Int32"  Name="offsets"  format="ascii"> 
           4
           8
          12
          16
          20
          24
          28
          32
          36
          40
          44
          48
          52
          56
          60
          64
          68
          72
          76
          80
          84
          88
          92
          96
         100
         104
         108
         112
         116
         120
         124
         128
         132
         136
         140
         144
         148
         152
         156
         160
         164
         168
         172
         176
         180
         184
         188
         192
         196
         200
         204
         208
         212
         216
         220
         224
         228
         232
         236
         240
         244
         248
         252
         256
         260
         264
         268
         272
         276
         280
         284
         288
         292
         296
         300
         304
         308
         312
         316
         320
         324
         328
         332
         336
         340
         344
         348
         352
         356
         360
         364
         368
         372
         376
         380
         384
         388
         392
         396
         400
         404
         408
         412
         416
         420
         424
         428
         432
         436
         440
         444
         448
         452
         456
         460
         464
         468
         472
         476
         480
         484
         488
         492
         496
         500
         504
         508
         512
         516
         520
         524
         528
         532
         536
         540
         544
         548
         552
         556
         560
         564
         568
         572
         576
         580
         584
         588
         592
         596
         600
         604
         608
         612
         616
         620
         624
         628
         632
         636
         640
         644
         648
         652
         656
         660
         664
         668
         672
         676
         680
         684
         688
         692
         696
         700
         704
         708
         712
         716
         720
         724
         728
         732
         736
         740
         744
         748
         752
         756
         760
         764
         768
         772
         776
         780
         784
         788
         792
         796
         800
         804
         808
         812
         816
         820
         824
         828
         832
         836
         840
         844
         848
         852
         856
         860
         864
         868
         872
         876
         880
         884
         888
         892
         896
         900
         904
         908
         912
         916
         920
         924
         928
         932
         936
         940
         944
         948
         952
         956
         960
         964
         968
         972
         976
         980
         984
         988
         992
         996
        1000
        1004
        1008
        1012
        1016
        1020
        1024
        1028
        1032
        1036
        1040
        1044
        1048
        1052
        1056
        1060
        1064
        1068
        1072
        1076
        1080
        1084
        1088
        1092
        1096
        1100
        1104
        1108
        1112
        1116
        1120
        1124
        1128
        1132
        1136
        1140
        1144
        1148
        1152
        1156
        1160
        1164
        1168
        1172
        1176
        1180
        1184
        1188
        1192
        1196
        1200
        1204
        1208
        1212
        1216
        1220
        1224
        1228
        1232
        1236
        1240
        1244
        1248
        1252
        1256
        1260
        1264
        1268
        1272
        1276
        1280
        1284
        1288
        1292
        1296
        1300
        1304
        1308
        1312
        1316
        1320
        1324
        1328
        1332
        1336
        1340
        1344
        1348
        1352
        1356
        1360
        1364
        1368
        1372
        1376
        1380
        1384
        1388
        1392
        1396
        1400
        1404
        1408
        1412
        1416
        1420
        1424
        1428
        1432
        1436
        1440
        1444
        1448
        1452
        1456
        1460
        1464
        1468
        1472
        1476
        1480
        1484
        1488
        1492
        1496
        1500
        1504
        1508
        1512
        1516
        1520
        1524
        1528
        1532
        1536
        1540
        1544
        1548
        1552
        1556
        1560
        1564
        1568
        1572
        1576
        1580
        1584
        1588
        1592
        1596
        1600
        1604
        1608
        1612
        1616
        1620
        1624
        1628
        1632
        1636
        1640
        1644
        1648
        1652
        1656
        1660
        1664
        1668
        1672
        1676
        1680
        1684
        1688
        1692
        1696
        1700
        1704
        1708
        1712
        1716
        1720
        1724
        1728
        1732
        1736
        1740
        1744
        1748
        1752
        1756
        1760
        1764
        1768
        1772
        1776
        1780
        1784
        1788
        1792
        1796
        1800
        1804
        1808
        1812
        1816
        1820
        1824
        1828
        1832
        1836
        1840
        1844
        1848
        1852
        1856
        1860
        1864
        1868
        1872
        1876
        1880
        1884
        1888
        1892
        1896
        1900
        1904
        1908
        1912
        1916
        1920
        1924
        1928
        1932
        1936
        1940
        1944
        1948
        1952
        1956
        1960
        1964
        1968
        1972
        1976
        1980
        1984
        1988
        1992
        1996
        2000
        2004
        2008
        2012
        2016
        2020
        2024
        2028
        2032
        2036
        2040
        2044
        2048
        2052
        2056
        2060
        2064
        2068
        2072
        2076
        2080
        2084
        2088
        2092
        2096
        2100
        2104
        2108
        2112
        2116
        2120
        2124
        2128
        2132
        2136
        2140
        2144
        2148
        2152
        2156
        2160
        2164
        2168
        2172
        2176
        2180
        2184
        2188
        2192
        2196
        2200
        2204
        2208
        2212
        2216
        2220
        2224
        2228
        2232
        2236
        2240
        2244
        2248
        2252
        2256
        2260
        2264
        2268
        2272
        2276
        2280
        2284
        2288
        2292
        2296
        2300
        2304
        2308
        2312
        2316
        2320
        2324
        2328
        2332
        2336
        2340
        2344
        2348
        2352
        2356
        2360
        2364
        2368
        2372
        2376
        2380
        2384
        2388
        2392
        2396
        2400
        2404
        2408
        2412
        2416
        2420
        2424
        2428
        2432
        2436
        2440
        2444
        2448
        2452
        2456
        2460
        2464
        2468
        2472
        2476
        2480
        2484
        2488
        2492
        2496
        2500
        2504
        2508
        2512
        2516
        2520
        2524
        2528
        2532
        2536
        2540
        2544
        2548
        2552
        2556
        2560
        2564
        2568
        2572
        2576
        2580
        2584
        2588
        2592
        2596
        2600
        2604
        2608
        2612
        2616
        2620
        2624
        2628
        2632
        2636
        2640
        2644
        2648
        2652
        2656
        2660
        2664
        2668
        2672
        2676
        2680
        2684
        2688
        2692
        2696
        2700
        2704
        2708
        2712
        2716
        2720
        2724
        2728
        2732
        2736
        2740
        2744
        2748
        2752
        2756
        2760
        2764
        2768
        2772
        2776
        2780
        2784
        2788
        2792
        2796
        2800
        2804
        2808
        2812
        2816
        2820
        2824
        2828
        2832
        2836
        2840
        2844
        2848
        2852
        2856
        2860
        2864
        2868
        2872
        2876
        2880
        2884
        2888
        2892
        2896
        2900
        2904
        2908
        2912
        2916
        2920
        2924
        2928
        2932
        2936
        2940
        2944
        2948
        2952
        2956
        2960
        2964
        2968
        2972
        2976
        2980
        2984
        2988
        2992
        2996
        3000
        3004
        3008
        3012
        3016
        3020
        3024
        3028
        3032
        3036
        3040
        3044
        3048
        3052
        3056
        3060
        3064
        3068
        3072
        3076
        3080
        3084
        3088
        3092
        3096
        3100
        3104
        3108
        3112
        3116
        3120
        3124
        3128
        3132
        3136
        3140
        3144
        3148
        3152
        3156
        3160
        3164
        3168
        3172
        3176
        3180
        3184
        3188
        3192
        3196
        3200
        3204
        3208
        3212
        3216
        3220
        3224
        3228
        3232
        3236
        3240
        3244
        3248
        3252
        3256
        3260
        3264
        3268
        3272
        3276
        3280
        3284
        3288
        3292
        3296
        3300
        3304
        3308
        3312
        3316
        3320
        3324
        3328
        3332
        3336
        3340
        3344
        3348
        3352
        3356
        3360
        3364
        3368
        3372
        3376
        3380
        3384
        3388
        3392
        3396
        3400
        3404
        3408
        3412
        3416
        3420
        3424
        3428
        3432
        3436
        3440
        3444
        3448
        3452
        3456
        3460
        3464
        3468
        3472
        3476
        3480
        3484
        3488
        3492
        3496
        3500
        3504
        3508
        3512
        3516
        3520
        3524
        3528
        3532
        3536
        3540
        3544
        3548
        3552
        3556
        3560
        3564
        3568
        3572
        3576
        3580
        3584
        3588
        3592
        3596
        3600
        3604
        3608
        3612
        3616
        3620
        3624
        3628
        3632
        3636
        3640
        3644
        3648
        3652
        3656
        3660
        3664
        3668
        3672
        3676
        3680
        3684
        3688
        3692
        3696
        3700
        3704
        3708
        3712
        3716
        3720
        3724
        3728
        3732
        3736
        3740
        3744
        3748
        3752
        3756
        3760
        3764
        3768
        3772
        3776
        3780
        3784
        3788
        3792
        3796
        3800
        3804
        3808
        3812
        3816
        3820
        3824
        3828
        3832
        3836
        3840
        3844
        3848
        3852
        3856
        3860
        3864
        3868
        3872
        3876
        3880
        3884
        3888
        3892
        3896
        3900
        3904
        3908
        3912
        3916
        3920
        3924
        3928
        3932
        3936
        3940
        3944
        3948
        3952
        3956
        3960
        3964
        3968
        3972
        3976
        3980
        3984
        3988
        3992
        3996
        4000
        4004
        4008
        4012
        4016
        4020
        4024
        4028
        4032
        4036
        4040
        4044
        4048
        4052
        4056
        4060
        4064
        4068
        4072
        4076
        4080
        4084
        4088
        4092
        4096
 </DataArray>
 <DataArray  type="UInt8"  Name="types"  format="ascii">
 9
 9
 9
 9
 9
 9
 9
 9
 9
 9
 9
 9
 9
 9
 9
 9
 9
 9
 9
 9
 9
 9
 9
 9
 9
 9
 9
 9
 9
 9
 9
 9
 9
 9
 9
 9
 9
 9
 9
 9
 9
 9
 9
 9
 9
 9
 9
 9
 9
 9
 9
 9
 9
 9
 9
 9
 9
 9
 9
 9
 9
 9
 9
 9
 9
 9
 9
 9
 9
 9
 9
 9
 9
 9
 9
 9
 9
 9
 9
 9
 9
 9
 9
 9
 9
 9
 9
 9
 9
 9
 9
 9
 9
 9
 9
 9
 9
 9
 9
 9
 9
 9
 9
 9
 9
 9
 9
 9
 9
 9
 9
 9
 9
 9
 9
 9
 9
 9
 9
 9
 9
 9
 9
 9
 9
 9
 9
 9
 9
 9
 9
 9
 9
 9
 9
 9
 9
 9
 9
 9
 9
 9
 9
 9
 9
 9
 9
 9
 9
 9
 9
 9
 9
 9
 9
 9
 9
 9
 9
 9
 9
 9
 9
 9
 9
 9
 9
 9
 9
 9
 9
 9
 9
 9
 9
 9
 9
 9
 9
 9
 9
 9
 9
 9
 9
 9
 9
 9
 9
 9
 9
 9
 9
 9
 9
 9
 9
 9
 9
 9
 9
 9
 9
 9
 9
 9
 9
 9
 9
 9
 9
 9
 9
 9
 9
 9
 9
 9
 9
 9
 9
 9
 9
 9
 9
 9
 9
 9
 9
 9
 9
 9
 9
 9
 9
 9
 9
 9
 9
 9
 9
 9
 9
 9
 9
 9
 9
 9
 9
 9
 9
 9
 9
 9
 9
 9
 9
 9
 9
 9
 9
 9
 9
 9
 9
 9
 9
 9
 9
 9
 9
 9
 9
 9
 9
 9
 9
 9
 9
 9
 9
 9
 9
 9
 9
 9
 9
 9
 9
 9
 9
 9
 9
 9
 9
 9
 9
 9
 9
 9
 9
 9
 9
 9
 9
 9
 9
 9
 9
 9
 9
 9
 9
 9
 9
 9
 9
 9
 9
 9
 9
 9
 9
 9
 9
 9
 9
 9
 9
 9
 9
 9
 9
 9
 9
 9
 9
 9
 9
 9
 9
 9
 9
 9
 9
 9
 9
 9
 9
 9
 9
 9
 9
 9
 9
 9
 9
 9
 9
 9
 9
 9
 9
 9
 9
 9
 9
 9
 9
 9
 9
 9
 9
 9
 9
 9
 9
 9
 9
 9
 9
 9
 9
 9
 9
 9
 9
 9
 9
 9
 9
 9
 9
 9
 9
 9
 9
 9
 9
 9
 9
 9
 9
 9
 9
 9
 9
 9
 9
 9
 9
 9
 9
 9
 9
 9
 9
 9
 9
 9
 9
 9
 9
 9
 9
 9
 9
 9
 9
 9
 9
 9
 9
 9
 9
 9
 9
 9
 9
 9
 9
 9
 9
 9
 9
 9
 9
 9
 9
 9
 9
 9
 9
 9
 9
 9
 9
 9
 9
 9
 9
 9
 9
 9
 9
 9
 9
 9
 9
 9
 9
 9
 9
 9
 9
 9
 9
 9
 9
 9
 9
 9
 9
 9
 9
 9
 9
 9
 9
 9
 9
 9
 9
 9
 9
 9
 9
 9
 9
 9
 9
 9
 9
 9
 9
 9
 9
 9
 9
 9
 9
 9
 9
 9
 9
 9
 9
 9
 9
 9
 9
 9
 9
 9
 9
 9
 9
 9
 9
 9
 9
 9
 9
 9
 9
 9
 9
 9
 9
 9
 9
 9
 9
 9
 9
 9
 9
 9
 9
 9
 9
 9
 9
 9
 9
 9
 9
 9
 9
 9
 9
 9
 9
 9
 9
 9
 9
 9
 9
 9
 9
 9
 9
 9
 9
 9
 9
 9
 9
 9
 9
 9
 9
 9
 9
 9
 9
 9
 9
 9
 9
 9
 9
 9
 9
 9
 9
 9
 9
 9
 9
 9
 9
 9
 9
 9
 9
 9
 9
 9
 9
 9
 9
 9
 9
 9
 9
 9
 9
 9
 9
 9
 9
 9
 9
 9
 9
 9
 9
 9
 9
 9
 9
 9
 9
 9
 9
 9
 9
 9
 9
 9
 9
 9
 9
 9
 9
 9
 9
 9
 9
 9
 9
 9
 9
 9
 9
 9
 9
 9
 9
 9
 9
 9
 9
 9
 9
 9
 9
 9
 9
 9
 9
 9
 9
 9
 9
 9
 9
 9
 9
 9
 9
 9
 9
 9
 9
 9
 9
 9
 9
 9
 9
 9
 9
 9
 9
 9
 9
 9
 9
 9
 9
 9
 9
 9
 9
 9
 9
 9
 9
 9
 9
 9
 9
 9
 9
 9
 9
 9
 9
 9
 9
 9
 9
 9
 9
 9
 9
 9
 9
 9
 9
 9
 9
 9
 9
 9
 9
 9
 9
 9
 9
 9
 9
 9
 9
 9
 9
 9
 9
 9
 9
 9
 9
 9
 9
 9
 9
 9
 9
 9
 9
 9
 9
 9
 9
 9
 9
 9
 9
 9
 9
 9
 9
 9
 9
 9
 9
 9
 9
 9
 9
 9
 9
 9
 9
 9
 9
 9
 9
 9
 9
 9
 9
 9
 9
 9
 9
 9
 9
 9
 9
 9
 9
 9
 9
 9
 9
 9
 9
 9
 9
 9
 9
 9
 9
 9
 9
 9
 9
 9
 9
 9
 9
 9
 9
 9
 9
 9
 9
 9
 9
 9
 9
 9
 9
 9
 9
 9
 9
 9
 9
 9
 9
 9
 9
 9
 9
 9
 9
 9
 9
 9
 9
 9
 9
 9
 9
 9
 9
 9
 9
 9
 9
 9
 9
 9
 9
 9
 9
 9
 9
 9
 9
 9
 9
 9
 9
 9
 9
 9
 9
 9
 9
 9
 9
 9
 9
 9
 9
 9
 9
 9
 9
 9
 9
 9
 9
 9
 9
 9
 9
 9
 9
 9
 9
 9
 9
 9
 9
 9
 9
 9
 9
 9
 9
 9
 9
 9
 9
 9
 9
 9
 9
 9
 9
 9
 9
 9
 9
 9
 9
 9
 9
 9
 9
 9
 9
 9
 9
 9
 9
 9
 9
 9
 9
 9
 9
 9
 9
 9
 9
 9
 9
 9
 9
 9
 9
 9
 9
 9
 9
 9
 9
 9
 9
 9
 9
 9
 9
 9
 9
 9
 9
 9
 9
 9
 9
 9
 9
 9
 9
 9
 9
 9
 9
 9
 9
 9
 9
 9
 9
 9
 9
 9
 9
 9
 9
 9
 9
 9
 9
 9
 9
 9
 9
 9
 9
 9
 9
 9
 9
 9
 9
 9
 9
 9
 9
 9
 9
 9
 9
 9
 </DataArray>
 </Cells> 
 <PointData>
 <DataArray  type="Float64" Name="disp" NumberOfComponents="3" format="ascii">
   6.5354340363676239E-002   6.2794058440433911E-002   0.0000000000000000     
   6.8439948308116477E-002   6.8177406725885459E-002   0.0000000000000000     
   7.1411934341146177E-002   7.3741131103395544E-002   0.0000000000000000     
   7.4270298462765325E-002   7.9485231572964180E-002   0.0000000000000000     
   7.7015040672973933E-002   8.5409708134591367E-002   0.0000000000000000     
   6.0097542206564103E-002   6.1889838382381435E-002   0.0000000000000000     
   6.2984586782316582E-002   6.7301579745017243E-002   0.0000000000000000     
   6.5774042449989953E-002   7.2893329113030869E-002   0.0000000000000000     
   6.8465909209584203E-002   7.8665086486422273E-002   0.0000000000000000     
   7.1060187061099359E-002   8.4616851865191509E-002   0.0000000000000000     
   5.5087708492088987E-002   6.1042098811259535E-002   0.0000000000000000     
   5.7778497666104024E-002   6.6480960195639260E-002   0.0000000000000000     
   6.0383319694380315E-002   7.2099368345925077E-002   0.0000000000000000     
   6.2902174576917894E-002   7.7897323262117013E-002   0.0000000000000000     
   6.5335062313716732E-002   8.3874824944215026E-002   0.0000000000000000     
   5.0324839220250876E-002   6.0250839727068191E-002   0.0000000000000000     
   5.2821680959478777E-002   6.5715548077751484E-002   0.0000000000000000     
   5.5239766074317270E-002   7.1359248802078196E-002   0.0000000000000000     
   5.7579094564766363E-002   7.7181941900048373E-002   0.0000000000000000     
   5.9839666430826041E-002   8.3183627371661906E-002   0.0000000000000000     
   4.5808934391049771E-002   5.9516061129807417E-002   0.0000000000000000     
   4.8114136662440854E-002   6.5005343391353942E-002   0.0000000000000000     
   5.0343381589800791E-002   7.0672970481490238E-002   0.0000000000000000     
   5.2496669173129611E-002   7.6518942400216311E-002   0.0000000000000000     
   5.4573999412427299E-002   8.2543259147532161E-002   0.0000000000000000     
   7.7015040672973933E-002   8.5409708134591367E-002   0.0000000000000000     
   7.9662895630378774E-002   9.1504061469187936E-002   0.0000000000000000     
   8.2230597993586660E-002   9.7757792257664733E-002   0.0000000000000000     
   8.4718147762597576E-002  0.10417090050002180        0.0000000000000000     
   8.7125544937411536E-002  0.11074338619625909        0.0000000000000000     
   7.1060187061099359E-002   8.4616851865191509E-002   0.0000000000000000     
   7.3564912734531251E-002   9.0738432176042313E-002   0.0000000000000000     
   7.5988122959875767E-002   9.7019634345678479E-002   0.0000000000000000     
   7.8329817737132906E-002  0.10346045837409998        0.0000000000000000     
   8.0589997066302654E-002  0.11006090426130682        0.0000000000000000     
   6.5335062313716732E-002   8.3874824944215026E-002   0.0000000000000000     
   6.7685110195785450E-002   9.0022044832195114E-002   0.0000000000000000     
   6.9955445514132714E-002   9.6329154366033232E-002   0.0000000000000000     
   7.2146068268758468E-002  0.10279615354572938        0.0000000000000000     
   7.4256978459662740E-002  0.10942304237128354        0.0000000000000000     
   5.9839666430826041E-002   8.3183627371661906E-002   0.0000000000000000     
   6.2023488014141391E-002   8.9354899437646351E-002   0.0000000000000000     
   6.4132565656357457E-002   9.5686352318729018E-002   0.0000000000000000     
   6.6166899357474288E-002  0.10217798601491002        0.0000000000000000     
   6.8126489117491820E-002  0.10882980052618928        0.0000000000000000     
   5.4573999412427299E-002   8.2543259147532161E-002   0.0000000000000000     
   5.6580046189599047E-002   8.8736995992395984E-002   0.0000000000000000     
   5.8519483386550060E-002   9.5091228203765865E-002   0.0000000000000000     
   6.0392311003280338E-002  0.10160595578164186        0.0000000000000000     
   6.2198529039789882E-002  0.10828117872602397        0.0000000000000000     
   8.7125544937411536E-002  0.11074338619625909        0.0000000000000000     
   8.9440264808545028E-002  0.11746115959076192        0.0000000000000000     
   9.1649782666514523E-002  0.12431013092791561        0.0000000000000000     
   9.3754098511320008E-002  0.13129030020772015        0.0000000000000000     
   9.5753212342961525E-002  0.13840166743017557        0.0000000000000000     
   8.0589997066302654E-002  0.11006090426130682        0.0000000000000000     
   8.2760259306163139E-002  0.11680676909875358        0.0000000000000000     
   8.4832202815492433E-002  0.12368384997789479        0.0000000000000000     
   8.6805827594290591E-002  0.13069214689873040        0.0000000000000000     
   8.8681133642557558E-002  0.13783165986126056        0.0000000000000000     
   7.4256978459662740E-002  0.10942304237128354        0.0000000000000000     
   7.6282166658770550E-002  0.11619546608853233        0.0000000000000000     
   7.8215623438006934E-002  0.12309906994331225        0.0000000000000000     
   8.0057348797371863E-002  0.13013385393562335        0.0000000000000000     
   8.1807342736865324E-002  0.13729981806546560        0.0000000000000000     
   6.8126489117491820E-002  0.10882980052618928        0.0000000000000000     
   7.0005986866367317E-002  0.11562725056009816        0.0000000000000000     
   7.1800044534057986E-002  0.12255579082416804        0.0000000000000000     
   7.3508662120563825E-002  0.12961542131839890        0.0000000000000000     
   7.5131839625884822E-002  0.13680614204279073        0.0000000000000000     
   6.2198529039789882E-002  0.10828117872602397        0.0000000000000000     
   6.3931719928953412E-002  0.11510212251345109        0.0000000000000000     
   6.5585466103645587E-002  0.12205401262046213        0.0000000000000000     
   6.7159767563866477E-002  0.12913684904705708        0.0000000000000000     
   6.8654624309616052E-002  0.13635063179323600        0.0000000000000000     
   9.5753212342961525E-002  0.13840166743017557        0.0000000000000000     
   9.7655006525892887E-002  0.14563424689965310        0.0000000000000000     
   9.9467363424567953E-002  0.15297805292052405        0.0000000000000000     
  0.10119028303898672       0.16043308549278845        0.0000000000000000     
  0.10282376536914919       0.16799934461644625        0.0000000000000000     
   8.8681133642557558E-002  0.13783165986126056        0.0000000000000000     
   9.0465430524918594E-002  0.14509197311099026        0.0000000000000000     
   9.2166027805998862E-002  0.15246267089342472        0.0000000000000000     
   9.3782925485798391E-002  0.15994375320856399        0.0000000000000000     
   9.5316123564317151E-002  0.16753522005640800        0.0000000000000000     
   8.1807342736865324E-002  0.13729981806546560        0.0000000000000000     
   8.3472220113655890E-002  0.14458635691985208        0.0000000000000000     
   8.5058595784912122E-002  0.15198286508579589        0.0000000000000000     
   8.6566469750633993E-002  0.15948934256329697        0.0000000000000000     
   8.7995842010821487E-002  0.16710578935235540        0.0000000000000000     
   7.5131839625884822E-002  0.13680614204279073        0.0000000000000000     
   7.6675375292104858E-002  0.14411739832623860        0.0000000000000000     
   7.8145067361307760E-002  0.15153863549763746        0.0000000000000000     
   7.9540915833493514E-002  0.15906985355698744        0.0000000000000000     
   8.0862920708662162E-002  0.16671105250428839        0.0000000000000000     
   6.8654624309616052E-002  0.13635063179323600        0.0000000000000000     
   7.0074896060265429E-002  0.14368509733014984        0.0000000000000000     
   7.1425442535185721E-002  0.15112998212894965        0.0000000000000000     
   7.2706263734376983E-002  0.15868528618963534        0.0000000000000000     
   7.3917359657839188E-002  0.16635100951220702        0.0000000000000000     
  0.10282376536914919       0.16799934461644625        0.0000000000000000     
  0.10436973956985640       0.17566574616189470        0.0000000000000000     
  0.10583013479590940       0.18342120599953102        0.0000000000000000     
  0.10720495104730819       0.19126572412935519        0.0000000000000000     
  0.10849418832405275       0.19919930055136725        0.0000000000000000     
   9.5316123564317151E-002  0.16753522005640800        0.0000000000000000     
   9.6765273049065625E-002  0.17522679590917964        0.0000000000000000     
   9.8130024947554226E-002  0.18300820523910169        0.0000000000000000     
   9.9410379259782980E-002  0.19087944804617424        0.0000000000000000     
  0.10060633598575183       0.19884052433039720        0.0000000000000000     
   8.7995842010821487E-002  0.16710578935235540        0.0000000000000000     
   8.9344841304376810E-002  0.17482229235808347        0.0000000000000000     
   9.0611596370202149E-002  0.18262893848559347        0.0000000000000000     
   9.1796107208297464E-002  0.19052572773488549        0.0000000000000000     
   9.2898373818662783E-002  0.19851266010595942        0.0000000000000000     
   8.0862920708662162E-002  0.16671105250428839        0.0000000000000000     
   8.2108444335789926E-002  0.17445223550860611        0.0000000000000000     
   8.3274849063853074E-002  0.18228340573900628        0.0000000000000000     
   8.4362134892851617E-002  0.19020456319548884        0.0000000000000000     
   8.5370301822785558E-002  0.19821570787805390        0.0000000000000000     
   7.3917359657839188E-002  0.16635100951220702        0.0000000000000000     
   7.5056082143305003E-002  0.17411662536074765        0.0000000000000000     
   7.6119783028507096E-002  0.18197160699934006        0.0000000000000000     
   7.7108462313445481E-002  0.18991595442798445        0.0000000000000000     
   7.8022119998120171E-002  0.19794966764668068        0.0000000000000000     
  0.10849418832405275       0.19919930055136725        0.0000000000000000     
  0.10970285859178179       0.20721838283772767        0.0000000000000000     
  0.11083597381613397       0.21531941856059694        0.0000000000000000     
  0.11189353399710927       0.22350240771997498        0.0000000000000000     
  0.11287553913470771       0.23176735031586193        0.0000000000000000     
  0.10060633598575183       0.19884052433039720        0.0000000000000000     
  0.10172351134890156       0.20688535978247075        0.0000000000000000     
  0.10276752157267284       0.21500788009309510        0.0000000000000000     
  0.10373836665706571       0.22320808526227023        0.0000000000000000     
  0.10463604660208012       0.23148597528999612        0.0000000000000000     
   9.2898373818662783E-002  0.19851266010595942        0.0000000000000000     
   9.3923537575879346E-002  0.20658224968529926        0.0000000000000000     
   9.4876739854528505E-002  0.21472701055938892        0.0000000000000000     
   9.5757980654610192E-002  0.22294694272822832        0.0000000000000000     
   9.6567259976124420E-002  0.23124204619181751        0.0000000000000000     
   8.5370301822785558E-002  0.19821570787805390        0.0000000000000000     
   8.6302937272715194E-002  0.20630905254621310        0.0000000000000000     
   8.7163628661700937E-002  0.21447680995947824        0.0000000000000000     
   8.7952375989742732E-002  0.22271898011784919        0.0000000000000000     
   8.8669179256840619E-002  0.23103556302132613        0.0000000000000000     
   7.8022119998120171E-002  0.19794966764668068        0.0000000000000000     
   7.8861710439409066E-002  0.20606576836521237        0.0000000000000000     
   7.9628187994190136E-002  0.21425727829336311        0.0000000000000000     
   8.0321552662463325E-002  0.22252419743113297        0.0000000000000000     
   8.0941804444228702E-002  0.23086652577852190        0.0000000000000000     
  0.11287553913470771       0.23176735031586193        0.0000000000000000     
  0.11381025715269780       0.24013065803211417        0.0000000000000000     
  0.11472595597484798       0.24860874255258827        0.0000000000000000     
  0.11562263560115832       0.25720160387728419        0.0000000000000000     
  0.11650029603162876       0.26590924200620197        0.0000000000000000     
  0.10463604660208012       0.23148597528999612        0.0000000000000000     
  0.10546555911285760       0.23986492730058501        0.0000000000000000     
  0.10623190189453964       0.24836831841834914        0.0000000000000000     
  0.10693507494712623       0.25699614864328851        0.0000000000000000     
  0.10757507827061738       0.26574841797540311        0.0000000000000000     
   9.6567259976124420E-002  0.23124204619181751        0.0000000000000000     
   9.7295326401820717E-002  0.23963870988408428        0.0000000000000000     
   9.7932928514448625E-002  0.24816332273895633        0.0000000000000000     
   9.8480066314008102E-002  0.25681588475643363        0.0000000000000000     
   9.8936739800499177E-002  0.26559639593651624        0.0000000000000000     
   8.8669179256840619E-002  0.23103556302132613        0.0000000000000000     
   8.9299559019587152E-002  0.23945200578261197        0.0000000000000000     
   8.9829035834574911E-002  0.24799375551440977        0.0000000000000000     
   9.0257609701803923E-002  0.25666081221671960        0.0000000000000000     
   9.0585280621274161E-002  0.26545317588954148        0.0000000000000000     
   8.0941804444228702E-002  0.23086652577852190        0.0000000000000000     
   8.1478256966156876E-002  0.23930481499616801        0.0000000000000000     
   8.1920223854918539E-002  0.24785961674470952        0.0000000000000000     
   8.2267705110513706E-002  0.25653093102414642        0.0000000000000000     
   8.2520700732942320E-002  0.26531875783447867        0.0000000000000000     
  0.11650029603162876       0.26590924200620197        0.0000000000000000     
  0.11729928072453760       0.27489631670210357        0.0000000000000000     
  0.11795993313816308       0.28432748772775085        0.0000000000000000     
  0.11848225327250521       0.29420275508314392        0.0000000000000000     
  0.11886624112756397       0.30452211876828272        0.0000000000000000     
  0.10757507827061738       0.26574841797540311        0.0000000000000000     
  0.10813295598787448       0.27475730560513406        0.0000000000000000     
  0.10858975222175898       0.28415499072292261        0.0000000000000000     
  0.10894546697227087       0.29394147332876869        0.0000000000000000     
  0.10920010023941013       0.30411675342267219        0.0000000000000000     
   9.8936739800499177E-002  0.26559639593651624        0.0000000000000000     
   9.9314001445373112E-002  0.27460316680325680        0.0000000000000000     
   9.9622903720081174E-002  0.28393450788070779        0.0000000000000000     
   9.9863446624623348E-002  0.29359041916886930        0.0000000000000000     
  0.10003563015899963       0.30357090066774128        0.0000000000000000     
   9.0585280621274161E-002  0.26545317588954148        0.0000000000000000     
   9.0842417097033445E-002  0.27443390029647174        0.0000000000000000     
   9.1059387633129596E-002  0.28366603920110645        0.0000000000000000     
   9.1236192229562627E-002  0.29314959260344581        0.0000000000000000     
   9.1372830886332551E-002  0.30288456050348994        0.0000000000000000     
   8.2520700732942320E-002  0.26531875783447867        0.0000000000000000     
   8.2718202942855507E-002  0.27424950608477860        0.0000000000000000     
   8.2899203960904319E-002  0.28334958468411853        0.0000000000000000     
   8.3063703787088758E-002  0.29261899363249838        0.0000000000000000     
   8.3211702421408823E-002  0.30205773292991822        0.0000000000000000     
   4.5808934391049771E-002   5.9516061129807417E-002   0.0000000000000000     
   4.8114136662440854E-002   6.5005343391353942E-002   0.0000000000000000     
   5.0343381589800791E-002   7.0672970481490238E-002   0.0000000000000000     
   5.2496669173129611E-002   7.6518942400216311E-002   0.0000000000000000     
   5.4573999412427299E-002   8.2543259147532161E-002   0.0000000000000000     
   4.1461258538913165E-002   5.8839689763405055E-002   0.0000000000000000     
   4.3576500134439367E-002   6.4351357006672785E-002   0.0000000000000000     
   4.5617613357037984E-002   7.0040898596964510E-002   0.0000000000000000     
   4.7584598206709031E-002   7.5908314534280277E-002   0.0000000000000000     
   4.9477454683452507E-002   8.1953604818620032E-002   0.0000000000000000     
   3.7203076198268535E-002   5.8223652371788941E-002   0.0000000000000000     
   3.9129406734923426E-002   6.3754599793934191E-002   0.0000000000000000     
   4.0985908492235927E-002   6.9463398361304413E-002   0.0000000000000000     
   4.2772581470206003E-002   7.5350048073899598E-002   0.0000000000000000     
   4.4489425668833689E-002   8.1414548931719746E-002   0.0000000000000000     
   3.3034387369115875E-002   5.7667948954959088E-002   0.0000000000000000     
   3.4772856463893054E-002   6.3215071753138175E-002   0.0000000000000000     
   3.6448266995394607E-002   6.8940469774509905E-002   0.0000000000000000     
   3.8060618963620528E-002   7.4844143019074286E-002   0.0000000000000000     
   3.9609912368570824E-002   8.0926091486831289E-002   0.0000000000000000     
   2.8955192051455192E-002   5.7172579512915489E-002   0.0000000000000000     
   3.0506849321348221E-002   6.2732772884284721E-002   0.0000000000000000     
   3.2004688866514024E-002   6.8472112836581001E-002   0.0000000000000000     
   3.3448710686952592E-002   7.4390599369804328E-002   0.0000000000000000     
   3.4838914782663932E-002   8.0488232483954703E-002   0.0000000000000000     
   5.4573999412427299E-002   8.2543259147532161E-002   0.0000000000000000     
   5.6580046189599047E-002   8.8736995992395984E-002   0.0000000000000000     
   5.8519483386550060E-002   9.5091228203765865E-002   0.0000000000000000     
   6.0392311003280338E-002  0.10160595578164186        0.0000000000000000     
   6.2198529039789882E-002  0.10828117872602397        0.0000000000000000     
   4.9477454683452507E-002   8.1953604818620032E-002   0.0000000000000000     
   5.1304262255185203E-002   8.8168240137509526E-002   0.0000000000000000     
   5.3073100389823928E-002   9.4543691178474457E-002   0.0000000000000000     
   5.4783969087368663E-002  0.10107995794151477        0.0000000000000000     
   5.6436868347819441E-002  0.10777704042663054        0.0000000000000000     
   4.4489425668833689E-002   8.1414548931719746E-002   0.0000000000000000     
   4.6145613743926624E-002   8.7648537514052494E-002   0.0000000000000000     
   4.7750318351292481E-002   9.4043650400185419E-002   0.0000000000000000     
   4.9303539490931268E-002  0.10059988759011852        0.0000000000000000     
   5.0805277162842992E-002  0.10731724908385185        0.0000000000000000     
   3.9609912368570824E-002   8.0926091486831289E-002   0.0000000000000000     
   4.1104100655823289E-002   8.7177888122024844E-002   0.0000000000000000     
   4.2551137270955740E-002   9.3591105868898794E-002   0.0000000000000000     
   4.3951022213968155E-002  0.10016574472745315        0.0000000000000000     
   4.5303755484860549E-002  0.10690180469768788        0.0000000000000000     
   3.4838914782663932E-002   8.0488232483954703E-002   0.0000000000000000     
   3.6179722990875234E-002   8.6756291961426632E-002   0.0000000000000000     
   3.7475557148813690E-002   9.3186057584614596E-002   0.0000000000000000     
   3.8726417256479323E-002   9.9777529353518621E-002   0.0000000000000000     
   3.9932303313872097E-002  0.10653070726813868        0.0000000000000000     
   6.2198529039789882E-002  0.10828117872602397        0.0000000000000000     
   6.3931719928953412E-002  0.11510212251345109        0.0000000000000000     
   6.5585466103645587E-002  0.12205401262046213        0.0000000000000000     
   6.7159767563866477E-002  0.12913684904705708        0.0000000000000000     
   6.8654624309616052E-002  0.13635063179323600        0.0000000000000000     
   5.6436868347819441E-002  0.10777704042663054        0.0000000000000000     
   5.8023995849076734E-002  0.11461994289962299        0.0000000000000000     
   5.9537549269041055E-002  0.12159366962629342        0.0000000000000000     
   6.0977528607712411E-002  0.12869822060664179        0.0000000000000000     
   6.2343933865090802E-002  0.13593359584066819        0.0000000000000000     
   5.0805277162842992E-002  0.10731724908385185        0.0000000000000000     
   5.2247444629285246E-002  0.11418057266964579        0.0000000000000000     
   5.3621955152515645E-002  0.12117469613576083        0.0000000000000000     
   5.4928808732534203E-002  0.12829961948219695        0.0000000000000000     
   5.6168005369340905E-002  0.13555534270895417        0.0000000000000000     
   4.5303755484860549E-002  0.10690180469768788        0.0000000000000000     
   4.6602066269578947E-002  0.11378401182351948        0.0000000000000000     
   4.7838683754069376E-002  0.12079709214886433        0.0000000000000000     
   4.9013607938331857E-002  0.12794104567372247        0.0000000000000000     
   5.0126838822366376E-002  0.13521587239809391        0.0000000000000000     
   3.9932303313872097E-002  0.10653070726813868        0.0000000000000000     
   4.1087860769957824E-002  0.11343026036124405        0.0000000000000000     
   4.2187735073702236E-002  0.12046085766560395        0.0000000000000000     
   4.3231926225105355E-002  0.12762249918121840        0.0000000000000000     
   4.4220434224167174E-002  0.13491518490808740        0.0000000000000000     
   6.8654624309616052E-002  0.13635063179323600        0.0000000000000000     
   7.0074896060265429E-002  0.14368509733014984        0.0000000000000000     
   7.1425442535185721E-002  0.15112998212894965        0.0000000000000000     
   7.2706263734376983E-002  0.15868528618963534        0.0000000000000000     
   7.3917359657839188E-002  0.16635100951220702        0.0000000000000000     
   6.2343933865090802E-002  0.13593359584066819        0.0000000000000000     
   6.3640727517703180E-002  0.14328989672139236        0.0000000000000000     
   6.4871872042076451E-002  0.15075722464183408        0.0000000000000000     
   6.6037367438210662E-002  0.15833557960199340        0.0000000000000000     
   6.7137213706105800E-002  0.16602496160187036        0.0000000000000000     
   5.6168005369340905E-002  0.13555534270895417        0.0000000000000000     
   5.7342814763983646E-002  0.14293223928977267        0.0000000000000000     
   5.8456506617510284E-002  0.15042068269839268        0.0000000000000000     
   5.9509080929920827E-002  0.15802067293481425        0.0000000000000000     
   6.0500537701215266E-002  0.16573220999903737        0.0000000000000000     
   5.0126838822366376E-002  0.13521587239809391        0.0000000000000000     
   5.1181157799106841E-002  0.14261212503529080        0.0000000000000000     
   5.2179346261487201E-002  0.15012035629862552        0.0000000000000000     
   5.3121404209507450E-002  0.15774056618809790        0.0000000000000000     
   5.4007331643167580E-002  0.16547275470370809        0.0000000000000000     
   4.4220434224167174E-002  0.13491518490808740        0.0000000000000000     
   4.5155756623072765E-002  0.14232955395794680        0.0000000000000000     
   4.6040390974007236E-002  0.14985624544253248        0.0000000000000000     
   4.6874337276970546E-002  0.15749525936184436        0.0000000000000000     
   4.7657595531962728E-002  0.16524659571588252        0.0000000000000000     
   7.3917359657839188E-002  0.16635100951220702        0.0000000000000000     
   7.5056082143305003E-002  0.17411662536074765        0.0000000000000000     
   7.6119783028507096E-002  0.18197160699934006        0.0000000000000000     
   7.7108462313445481E-002  0.18991595442798445        0.0000000000000000     
   7.8022119998120171E-002  0.19794966764668068        0.0000000000000000     
   6.7137213706105800E-002  0.16602496160187036        0.0000000000000000     
   6.8169028210427515E-002  0.17381418209173727        0.0000000000000000     
   6.9130428315841486E-002  0.18169205252186657        0.0000000000000000     
   7.0021414022347697E-002  0.18965857289225826        0.0000000000000000     
   7.0841985329946122E-002  0.19771374320291230        0.0000000000000000     
   6.0500537701215266E-002  0.16573220999903737        0.0000000000000000     
   6.1428556020663050E-002  0.17354362587880426        0.0000000000000000     
   6.2290814977533589E-002  0.18144325256185728        0.0000000000000000     
   6.3087314571826883E-002  0.18943109004819630        0.0000000000000000     
   6.3818054803542940E-002  0.19750713833782146        0.0000000000000000     
   5.4007331643167580E-002  0.16547275470370809        0.0000000000000000     
   5.4834665574011572E-002  0.17330495672194862        0.0000000000000000     
   5.5600943013583405E-002  0.18122520711931214        0.0000000000000000     
   5.6306163961883086E-002  0.18923350589579863        0.0000000000000000     
   5.6950328418910602E-002  0.19732985305140810        0.0000000000000000     
   4.7657595531962728E-002  0.16524659571588252        0.0000000000000000     
   4.8387356870473089E-002  0.17309817462117036        0.0000000000000000     
   4.9060812423990935E-002  0.18103791619423124        0.0000000000000000     
   4.9677962192516280E-002  0.18906582043506520        0.0000000000000000     
   5.0238806176049110E-002  0.19718188734367226        0.0000000000000000     
   7.8022119998120171E-002  0.19794966764668068        0.0000000000000000     
   7.8861710439409066E-002  0.20606576836521237        0.0000000000000000     
   7.9628187994190136E-002  0.21425727829336311        0.0000000000000000     
   8.0321552662463325E-002  0.22252419743113297        0.0000000000000000     
   8.0941804444228702E-002  0.23086652577852190        0.0000000000000000     
   7.0841985329946122E-002  0.19771374320291230        0.0000000000000000     
   7.1590523762856434E-002  0.20585153232789666        0.0000000000000000     
   7.2265410845298222E-002  0.21406590914127921        0.0000000000000000     
   7.2866646577271474E-002  0.22235687364305992        0.0000000000000000     
   7.3394230958776202E-002  0.23072442583323882        0.0000000000000000     
   6.3818054803542940E-002  0.19750713833782146        0.0000000000000000     
   6.4480043929952754E-002  0.20566547961986570        0.0000000000000000     
   6.5070290208327303E-002  0.21390019608346200        0.0000000000000000     
   6.5588793638666612E-002  0.22221128772861043        0.0000000000000000     
   6.6035554220970655E-002  0.23059875455531090        0.0000000000000000     
   5.6950328418910602E-002  0.19732985305140810        0.0000000000000000     
   5.7530270940698028E-002  0.20550761024111941        0.0000000000000000     
   5.8042826083277405E-002  0.21376013911991157        0.0000000000000000     
   5.8487993846648739E-002  0.22208743968778441        0.0000000000000000     
   5.8865774230812046E-002  0.23048951194473810        0.0000000000000000     
   5.0238806176049110E-002  0.19718188734367226        0.0000000000000000     
   5.0741204795092247E-002  0.20537792419165796        0.0000000000000000     
   5.1183018470148507E-002  0.21364573825062785        0.0000000000000000     
   5.1564247201217876E-002  0.22198532952058203        0.0000000000000000     
   5.1884890988300389E-002  0.23039669800152043        0.0000000000000000     
   8.0941804444228702E-002  0.23086652577852190        0.0000000000000000     
   8.1478256966156876E-002  0.23930481499616801        0.0000000000000000     
   8.1920223854918539E-002  0.24785961674470952        0.0000000000000000     
   8.2267705110513706E-002  0.25653093102414642        0.0000000000000000     
   8.2520700732942320E-002  0.26531875783447867        0.0000000000000000     
   7.3394230958776202E-002  0.23072442583323882        0.0000000000000000     
   7.3844877783787760E-002  0.23918215042474775        0.0000000000000000     
   7.4215300846281473E-002  0.24774363213051848        0.0000000000000000     
   7.4505500146257356E-002  0.25640887095055104        0.0000000000000000     
   7.4715475683715393E-002  0.26517786688484535        0.0000000000000000     
   6.6035554220970655E-002  0.23059875455531090        0.0000000000000000     
   6.6412879014737622E-002  0.23906902496834634        0.0000000000000000     
   6.6723075079465677E-002  0.24762852737249946        0.0000000000000000     
   6.6966142415154820E-002  0.25627726176777038        0.0000000000000000     
   6.7142081021805064E-002  0.26501522815415901        0.0000000000000000     
   5.8865774230812046E-002  0.23048951194473810        0.0000000000000000     
   5.9182260659006461E-002  0.23896543862696371        0.0000000000000000     
   5.9443546554471149E-002  0.24751430247065254        0.0000000000000000     
   5.9649631917206118E-002  0.25613610347580451        0.0000000000000000     
   5.9800516747211353E-002  0.26483084164241966        0.0000000000000000     
   5.1884890988300389E-002  0.23039669800152043        0.0000000000000000     
   5.2153022716594298E-002  0.23887139140059999        0.0000000000000000     
   5.2376715271297912E-002  0.24740095742497761        0.0000000000000000     
   5.2555968652411231E-002  0.25598539607465337        0.0000000000000000     
   5.2690782859934247E-002  0.26462470734962718        0.0000000000000000     
   8.2520700732942320E-002  0.26531875783447867        0.0000000000000000     
   8.2718202942855507E-002  0.27424950608477860        0.0000000000000000     
   8.2899203960904319E-002  0.28334958468411853        0.0000000000000000     
   8.3063703787088758E-002  0.29261899363249838        0.0000000000000000     
   8.3211702421408823E-002  0.30205773292991822        0.0000000000000000     
   7.4715475683715393E-002  0.26517786688484535        0.0000000000000000     
   7.4886168172854511E-002  0.27404429882506620        0.0000000000000000     
   7.5058518327873650E-002  0.28300184566287800        0.0000000000000000     
   7.5232526148772808E-002  0.29205050739828087        0.0000000000000000     
   7.5408191635551958E-002  0.30119028403127474        0.0000000000000000     
   6.7142081021805064E-002  0.26501522815415901        0.0000000000000000     
   6.7291121977045676E-002  0.27381259317422274        0.0000000000000000     
   6.7453496358505935E-002  0.28263952347051891        0.0000000000000000     
   6.7629204166185813E-002  0.29149601904304739        0.0000000000000000     
   6.7818245400085367E-002  0.30038207989180826        0.0000000000000000     
   5.9800516747211353E-002  0.26483084164241966        0.0000000000000000     
   5.9933064355428986E-002  0.27355438913224833        0.0000000000000000     
   6.0084138052801161E-002  0.28226261810704117        0.0000000000000000     
   6.0253737839327873E-002  0.29095552856679796        0.0000000000000000     
   6.0441863715009106E-002  0.29963312051151875        0.0000000000000000     
   5.2690782859934247E-002  0.26462470734962718        0.0000000000000000     
   5.2811995308004456E-002  0.27326968669914298        0.0000000000000000     
   5.2950443410759336E-002  0.28187112957244476        0.0000000000000000     
   5.3106127168198902E-002  0.29042903596953251        0.0000000000000000     
   5.3279046580323147E-002  0.29894340589040613        0.0000000000000000     
   2.8955192051455192E-002   5.7172579512915489E-002   0.0000000000000000     
   3.0506849321348221E-002   6.2732772884284721E-002   0.0000000000000000     
   3.2004688866514024E-002   6.8472112836581001E-002   0.0000000000000000     
   3.3448710686952592E-002   7.4390599369804328E-002   0.0000000000000000     
   3.4838914782663932E-002   8.0488232483954703E-002   0.0000000000000000     
   2.4996306284263185E-002   5.6736759475193917E-002   0.0000000000000000     
   2.6359570451873100E-002   6.2307786990367486E-002   0.0000000000000000     
   2.7678610231560305E-002   6.8058954194883794E-002   0.0000000000000000     
   2.8953425623324796E-002   7.3990261088742834E-002   0.0000000000000000     
   3.0184016627166577E-002   8.0101707671944647E-002   0.0000000000000000     
   2.1188546106516552E-002   5.6359704271330149E-002   0.0000000000000000     
   2.2359205000051847E-002   6.1940197874380105E-002   0.0000000000000000     
   2.3493467216499583E-002   6.7701620496784382E-002   0.0000000000000000     
   2.4591332755859757E-002   7.3643972138542929E-002   0.0000000000000000     
   2.5652801618132361E-002   7.9767252799655783E-002   0.0000000000000000     
   1.7531911518215291E-002   5.6041413901324180E-002   0.0000000000000000     
   1.8505752965884466E-002   6.1630005536322592E-002   0.0000000000000000     
   1.9449259821331853E-002   6.7400111742282734E-002   0.0000000000000000     
   2.0362432084557455E-002   7.3351732519204585E-002   0.0000000000000000     
   2.1245269755561270E-002   7.9484867867088166E-002   0.0000000000000000     
   1.4026402519359406E-002   5.5781888365176016E-002   0.0000000000000000     
   1.4799214349370950E-002   6.1377209976194946E-002   0.0000000000000000     
   1.5545988046057117E-002   6.7154427931378866E-002   0.0000000000000000     
   1.6266723609417902E-002   7.3113542230727802E-002   0.0000000000000000     
   1.6961421039453313E-002   7.9254552874241740E-002   0.0000000000000000     
   3.4838914782663932E-002   8.0488232483954703E-002   0.0000000000000000     
   3.6179722990875234E-002   8.6756291961426632E-002   0.0000000000000000     
   3.7475557148813690E-002   9.3186057584614596E-002   0.0000000000000000     
   3.8726417256479323E-002   9.9777529353518621E-002   0.0000000000000000     
   3.9932303313872097E-002  0.10653070726813868        0.0000000000000000     
   3.0184016627166577E-002   8.0101707671944647E-002   0.0000000000000000     
   3.1371112130011779E-002   8.6384226355895002E-002   0.0000000000000000     
   3.2515441018786499E-002   9.2828749551999767E-002   0.0000000000000000     
   3.3617003293490759E-002   9.9435277260258956E-002   0.0000000000000000     
   3.4675798954124558E-002  0.10620380948067257        0.0000000000000000     
   2.5652801618132361E-002   7.9767252799655783E-002   0.0000000000000000     
   2.6676899454162257E-002   8.6062168629067196E-002   0.0000000000000000     
   2.7662651914794299E-002   9.2519425775721309E-002   0.0000000000000000     
   2.8610059000028488E-002   9.9139024239618206E-002   0.0000000000000000     
   2.9519120709864823E-002  0.10592096402075786        0.0000000000000000     
   2.1245269755561270E-002   7.9484867867088166E-002   0.0000000000000000     
   2.2097084963326689E-002   8.5790118780943128E-002   0.0000000000000000     
   2.2917189836837097E-002   9.2258086255779206E-002   0.0000000000000000     
   2.3705584376092499E-002   9.8888770291596331E-002   0.0000000000000000     
   2.4462268581092888E-002  0.10568217088839456        0.0000000000000000     
   1.6961421039453313E-002   7.9254552874241740E-002   0.0000000000000000     
   1.7631668657505064E-002   8.5568076811522897E-002   0.0000000000000000     
   1.8279054784914889E-002   9.2044730992173418E-002   0.0000000000000000     
   1.8903579421682786E-002   9.8684515416193358E-002   0.0000000000000000     
   1.9505242567808757E-002  0.10548743008358268        0.0000000000000000     
   3.9932303313872097E-002  0.10653070726813868        0.0000000000000000     
   4.1087860769957824E-002  0.11343026036124405        0.0000000000000000     
   4.2187735073702236E-002  0.12046085766560395        0.0000000000000000     
   4.3231926225105355E-002  0.12762249918121840        0.0000000000000000     
   4.4220434224167174E-002  0.13491518490808740        0.0000000000000000     
   3.4675798954124558E-002  0.10620380948067257        0.0000000000000000     
   3.5688469997058006E-002  0.11311897195421006        0.0000000000000000     
   3.6651658418661179E-002  0.12016539042184095        0.0000000000000000     
   3.7565364218934111E-002  0.12734306488356525        0.0000000000000000     
   3.8429587397876781E-002  0.13465199533938293        0.0000000000000000     
   2.9519120709864823E-002  0.10592096402075786        0.0000000000000000     
   3.0387535817515618E-002  0.11284980027380803        0.0000000000000000     
   3.1213003096193195E-002  0.11991008815343659        0.0000000000000000     
   3.1995522545897541E-002  0.12710182765964348        0.0000000000000000     
   3.2735094166628668E-002  0.13442501879242871        0.0000000000000000     
   2.4462268581092888E-002  0.10568217088839456        0.0000000000000000     
   2.5185058231330677E-002  0.11262274532003802        0.0000000000000000     
   2.5871769106298261E-002  0.11969495086039085        0.0000000000000000     
   2.6522401205995642E-002  0.12689878750945308        0.0000000000000000     
   2.7136954530422822E-002  0.13423425526722468        0.0000000000000000     
   1.9505242567808757E-002  0.10548743008358268        0.0000000000000000     
   2.0081037238503165E-002  0.11243780709289997        0.0000000000000000     
   2.0627956448976383E-002  0.11951997854270377        0.0000000000000000     
   2.1146000199228413E-002  0.12673394443299410        0.0000000000000000     
   2.1635168489259247E-002  0.13407970476377096        0.0000000000000000     
   4.4220434224167174E-002  0.13491518490808740        0.0000000000000000     
   4.5155756623072765E-002  0.14232955395794680        0.0000000000000000     
   4.6040390974007236E-002  0.14985624544253248        0.0000000000000000     
   4.6874337276970546E-002  0.15749525936184436        0.0000000000000000     
   4.7657595531962728E-002  0.16524659571588252        0.0000000000000000     
   3.8429587397876781E-002  0.13465199533938293        0.0000000000000000     
   3.9246603417346301E-002  0.14208286356241204        0.0000000000000000     
   4.0018687739199768E-002  0.14962635132577051        0.0000000000000000     
   4.0745840363437175E-002  0.15728245862945844        0.0000000000000000     
   4.1428061290058535E-002  0.16505118547347575        0.0000000000000000     
   3.2735094166628668E-002  0.13442501879242871        0.0000000000000000     
   3.3433690363392311E-002  0.14187039135335788        0.0000000000000000     
   3.4093283541194210E-002  0.14942867514399669        0.0000000000000000     
   3.4713873700034370E-002  0.15709987016434498        0.0000000000000000     
   3.5295460839912786E-002  0.16488397641440286        0.0000000000000000     
   2.7136954530422822E-002  0.13423425526722468        0.0000000000000000     
   2.7717017461210802E-002  0.14169213733078440        0.0000000000000000     
   2.8264178379990575E-002  0.14926321689721081        0.0000000000000000     
   2.8778437286762125E-002  0.15694749396650401        0.0000000000000000     
   2.9259794181525484E-002  0.16474496853866386        0.0000000000000000     
   2.1635168489259247E-002  0.13407970476377096        0.0000000000000000     
   2.2096584710801767E-002  0.14154810149469152        0.0000000000000000     
   2.2531372255588839E-002  0.14912997658541299        0.0000000000000000     
   2.2939531123620457E-002  0.15682533003593541        0.0000000000000000     
   2.3321061314896634E-002  0.16463416184625876        0.0000000000000000     
   4.7657595531962728E-002  0.16524659571588252        0.0000000000000000     
   4.8387356870473089E-002  0.17309817462117036        0.0000000000000000     
   4.9060812423990935E-002  0.18103791619423124        0.0000000000000000     
   4.9677962192516280E-002  0.18906582043506520        0.0000000000000000     
   5.0238806176049110E-002  0.19718188734367226        0.0000000000000000     
   4.1428061290058535E-002  0.16505118547347575        0.0000000000000000     
   4.2062261488472703E-002  0.17292037980603139        0.0000000000000000     
   4.2645351928088583E-002  0.18087788957533435        0.0000000000000000     
   4.3177332608906147E-002  0.18892371478138456        0.0000000000000000     
   4.3658203530925400E-002  0.19705785542418214        0.0000000000000000     
   3.5295460839912786E-002  0.16488397641440286        0.0000000000000000     
   3.5835011006435540E-002  0.17276867250609382        0.0000000000000000     
   3.6329490245208741E-002  0.18074163705134128        0.0000000000000000     
   3.6778898556232363E-002  0.18880287005014529        0.0000000000000000     
   3.7183235939506426E-002  0.19695237150250586        0.0000000000000000     
   2.9259794181525484E-002  0.16474496853866386        0.0000000000000000     
   2.9705605424361591E-002  0.17264305272135752        0.0000000000000000     
   3.0113227375351406E-002  0.18062915862225207        0.0000000000000000     
   3.0482660034494940E-002  0.18870328624134738        0.0000000000000000     
   3.0813903401792190E-002  0.19686543557864358        0.0000000000000000     
   2.3321061314896634E-002  0.16463416184625876        0.0000000000000000     
   2.3674044742250853E-002  0.17254352045182261        0.0000000000000000     
   2.3996563318516601E-002  0.18054045428806664        0.0000000000000000     
   2.4288617043693873E-002  0.18862496335499082        0.0000000000000000     
   2.4550205917782682E-002  0.19679704765259520        0.0000000000000000     
   5.0238806176049110E-002  0.19718188734367226        0.0000000000000000     
   5.0741204795092247E-002  0.20537792419165796        0.0000000000000000     
   5.1183018470148507E-002  0.21364573825062785        0.0000000000000000     
   5.1564247201217876E-002  0.22198532952058203        0.0000000000000000     
   5.1884890988300389E-002  0.23039669800152043        0.0000000000000000     
   4.3658203530925400E-002  0.19705785542418214        0.0000000000000000     
   4.4087220744686247E-002  0.20527021279666216        0.0000000000000000     
   4.4463640300728559E-002  0.21355068819176007        0.0000000000000000     
   4.4787462199052358E-002  0.22189928160947575        0.0000000000000000     
   4.5058686439657616E-002  0.23031599304980924        0.0000000000000000     
   3.7183235939506426E-002  0.19695237150250586        0.0000000000000000     
   3.7542694041030840E-002  0.20517826738131312        0.0000000000000000     
   3.7857464506805522E-002  0.21346868365945720        0.0000000000000000     
   3.8127547336830485E-002  0.22182362033693809        0.0000000000000000     
   3.8352942531105709E-002  0.23024307741375585        0.0000000000000000     
   3.0813903401792190E-002  0.19686543557864358        0.0000000000000000     
   3.1107624684126041E-002  0.20510208794561083        0.0000000000000000     
   3.1364491088379402E-002  0.21339972465371934        0.0000000000000000     
   3.1584502614552278E-002  0.22175834570296921        0.0000000000000000     
   3.1767659262644653E-002  0.23017795109336034        0.0000000000000000     
   2.4550205917782682E-002  0.19679704765259520        0.0000000000000000     
   2.4782012673971843E-002  0.20504167448955521        0.0000000000000000     
   2.4984720045450194E-002  0.21334381117454648        0.0000000000000000     
   2.5158328032217729E-002  0.22170345770756894        0.0000000000000000     
   2.5302836634274455E-002  0.23012061408862267        0.0000000000000000     
   5.1884890988300389E-002  0.23039669800152043        0.0000000000000000     
   5.2153022716594298E-002  0.23887139140059999        0.0000000000000000     
   5.2376715271297912E-002  0.24740095742497761        0.0000000000000000     
   5.2555968652411231E-002  0.25598539607465337        0.0000000000000000     
   5.2690782859934247E-002  0.26462470734962718        0.0000000000000000     
   4.5058686439657616E-002  0.23031599304980924        0.0000000000000000     
   4.5286079495522220E-002  0.23878545446561972        0.0000000000000000     
   4.5478407839624035E-002  0.24729229780976628        0.0000000000000000     
   4.5635671471963055E-002  0.25583652308224897        0.0000000000000000     
   4.5757870392539278E-002  0.26441813028306788        0.0000000000000000     
   3.8352942531105709E-002  0.23024307741375585        0.0000000000000000     
   3.8542345303811371E-002  0.23870619899838749        0.0000000000000000     
   3.8704450869127632E-002  0.24719212919931005        0.0000000000000000     
   3.8839259227054494E-002  0.25570086801652347        0.0000000000000000     
   3.8946770377591949E-002  0.26423241545002796        0.0000000000000000     
   3.1767659262644653E-002  0.23017795109336034        0.0000000000000000     
   3.1921820141461728E-002  0.23863362499890339        0.0000000000000000     
   3.2054844359808689E-002  0.24710045159360891        0.0000000000000000     
   3.2166731917685536E-002  0.25557843087747689        0.0000000000000000     
   3.2257482815092275E-002  0.26406756285050736        0.0000000000000000     
   2.5302836634274455E-002  0.23012061408862267        0.0000000000000000     
   2.5424504008473309E-002  0.23856773246716736        0.0000000000000000     
   2.5529588311667222E-002  0.24701726499266280        0.0000000000000000     
   2.5618089543856203E-002  0.25546921166510916        0.0000000000000000     
   2.5690007705040249E-002  0.26392357248450621        0.0000000000000000     
   5.2690782859934247E-002  0.26462470734962718        0.0000000000000000     
   5.2811995308004456E-002  0.27326968669914298        0.0000000000000000     
   5.2950443410759336E-002  0.28187112957244476        0.0000000000000000     
   5.3106127168198902E-002  0.29042903596953251        0.0000000000000000     
   5.3279046580323147E-002  0.29894340589040613        0.0000000000000000     
   4.5757870392539278E-002  0.26441813028306788        0.0000000000000000     
   4.5869160855893945E-002  0.27298719392559934        0.0000000000000000     
   4.5993699116568296E-002  0.28149378852321988        0.0000000000000000     
   4.6131485174562330E-002  0.28993791407592950        0.0000000000000000     
   4.6282519029876040E-002  0.29831957058372810        0.0000000000000000     
   3.8946770377591949E-002  0.26423241545002796        0.0000000000000000     
   3.9045807020219300E-002  0.27273561886230996        0.0000000000000000     
   3.9155191854415815E-002  0.28115932561585633        0.0000000000000000     
   3.9274924880181507E-002  0.28950353571066706        0.0000000000000000     
   3.9405006097516369E-002  0.29776824914674210        0.0000000000000000     
   3.2257482815092275E-002  0.26406756285050736        0.0000000000000000     
   3.2341933800980528E-002  0.27251496150927496        0.0000000000000000     
   3.2434921624301914E-002  0.28086774085035432        0.0000000000000000     
   3.2536446285056433E-002  0.28912590087374535        0.0000000000000000     
   3.2646507783244107E-002  0.29728944157944825        0.0000000000000000     
   2.5690007705040249E-002  0.26392357248450621        0.0000000000000000     
   2.5757541198177622E-002  0.27232522186649427        0.0000000000000000     
   2.5832888426226580E-002  0.28061903422671369        0.0000000000000000     
   2.5916049389187127E-002  0.28880500956516436        0.0000000000000000     
   2.6007024087059266E-002  0.29688314788184644        0.0000000000000000     
   1.4026402519359406E-002   5.5781888365176016E-002   0.0000000000000000     
   1.4799214349370950E-002   6.1377209976194946E-002   0.0000000000000000     
   1.5545988046057117E-002   6.7154427931378866E-002   0.0000000000000000     
   1.6266723609417902E-002   7.3113542230727802E-002   0.0000000000000000     
   1.6961421039453313E-002   7.9254552874241740E-002   0.0000000000000000     
   1.0577292710359777E-002   5.5580513127580972E-002   0.0000000000000000     
   1.1149452023281681E-002   6.1181124947097286E-002   0.0000000000000000     
   1.1699760820556569E-002   6.6963878008101524E-002   0.0000000000000000     
   1.2228219102184438E-002   7.2928772310593679E-002   0.0000000000000000     
   1.2734826868165291E-002   7.9075807854573743E-002   0.0000000000000000     
   7.0898556916272840E-003   5.5436673653234382E-002   0.0000000000000000     
   7.4663288603870372E-003   6.1041064202129777E-002   0.0000000000000000     
   7.8266870747114112E-003   6.6827770916479401E-002   0.0000000000000000     
   8.1709303346004080E-003   7.2796793796283246E-002   0.0000000000000000     
   8.4990586400540240E-003   7.8948132841541327E-002   0.0000000000000000     
   3.5640914631619317E-003   5.5350369942136220E-002   0.0000000000000000     
   3.7498448606870199E-003   6.0957027741292406E-002   0.0000000000000000     
   3.9267668085216454E-003   6.6746106656512511E-002   0.0000000000000000     
   4.0948573066658094E-003   7.2717606687796560E-002   0.0000000000000000     
   4.2541163551195107E-003   7.8871527835144534E-002   0.0000000000000000     
   2.4963717291243137E-011   5.5321601994286505E-002   0.0000000000000000     
   2.4181626753078111E-011   6.0929015564585173E-002   0.0000000000000000     
   2.1987269535443665E-011   6.6718885228200867E-002   0.0000000000000000     
   1.8380644093351703E-011   7.2691210985133564E-002   0.0000000000000000     
   1.3361749640755649E-011   7.8845992835383294E-002   0.0000000000000000     
   1.6961421039453313E-002   7.9254552874241740E-002   0.0000000000000000     
   1.7631668657505064E-002   8.5568076811522897E-002   0.0000000000000000     
   1.8279054784914889E-002   9.2044730992173418E-002   0.0000000000000000     
   1.8903579421682786E-002   9.8684515416193358E-002   0.0000000000000000     
   1.9505242567808757E-002  0.10548743008358268        0.0000000000000000     
   1.2734826868165291E-002   7.9075807854573743E-002   0.0000000000000000     
   1.3223526456953384E-002   8.5395668535491479E-002   0.0000000000000000     
   1.3698260207002979E-002   9.1879038248796535E-002   0.0000000000000000     
   1.4159028118314074E-002   9.8525916994488996E-002   0.0000000000000000     
   1.4605830190886668E-002  0.10533630477256882        0.0000000000000000     
   8.4990586400540240E-003   7.8948132841541327E-002   0.0000000000000000     
   8.8155342819276478E-003   8.5272519767533875E-002   0.0000000000000000     
   9.1248195510766628E-003   9.1760686289541094E-002   0.0000000000000000     
   9.4269144475010690E-003   9.8412632407562983E-002   0.0000000000000000     
   9.7218189712008629E-003  0.10522835812159956        0.0000000000000000     
   4.2541163551195107E-003   7.8871527835144534E-002   0.0000000000000000     
   4.4076921324278529E-003   8.5198630507650114E-002   0.0000000000000000     
   4.5587328171359399E-003   9.1689675114407038E-002   0.0000000000000000     
   4.7072384092437698E-003   9.8344661655415305E-002   0.0000000000000000     
   4.8532089087513445E-003  0.10516359013067492        0.0000000000000000     
   1.3361749640755649E-011   7.8845992835383294E-002   0.0000000000000000     
   8.4540013878253717E-012   8.5174000755840196E-002   0.0000000000000000     
   5.1808111837040038E-012   9.1666004723394423E-002   0.0000000000000000     
   3.5421811154807276E-012   9.8322004738045990E-002   0.0000000000000000     
   3.5381086081753832E-012  0.10514200079979488        0.0000000000000000     
   1.9505242567808757E-002  0.10548743008358268        0.0000000000000000     
   2.0081037238503165E-002  0.11243780709289997        0.0000000000000000     
   2.0627956448976383E-002  0.11951997854270377        0.0000000000000000     
   2.1146000199228413E-002  0.12673394443299410        0.0000000000000000     
   2.1635168489259247E-002  0.13407970476377096        0.0000000000000000     
   1.4605830190886668E-002  0.10533630477256882        0.0000000000000000     
   1.5034877889248526E-002  0.11229441221188061        0.0000000000000000     
   1.5442382677927410E-002  0.11938444994126894        0.0000000000000000     
   1.5828344556923318E-002  0.12660641796073382        0.0000000000000000     
   1.6192763526236251E-002  0.13396031627027524        0.0000000000000000     
   9.7218189712008629E-003  0.10522835812159956        0.0000000000000000     
   1.0005985233782188E-002  0.11219198729646662        0.0000000000000000     
   1.0275865346851175E-002  0.11928764379697994        0.0000000000000000     
   1.0531459310407823E-002  0.12651532762313958        0.0000000000000000     
   1.0772767124452135E-002  0.13387503877494544        0.0000000000000000     
   4.8532089087513445E-003  0.10516359013067492        0.0000000000000000     
   4.9943592721041520E-003  0.11213053234665803        0.0000000000000000     
   5.1284044557476805E-003  0.11922956010983685        0.0000000000000000     
   5.2553444596819300E-003  0.12646067342021136        0.0000000000000000     
   5.3751792839069014E-003  0.13382387227778153        0.0000000000000000     
   3.5381086081753832E-012  0.10514200079979488        0.0000000000000000     
   4.2144174434988191E-012  0.11211004736245483        0.0000000000000000     
   4.6169268495127591E-012  0.11921019887983959        0.0000000000000000     
   4.7456370972677464E-012  0.12644245535194915        0.0000000000000000     
   4.6005486746547586E-012  0.13380681677878353        0.0000000000000000     
   2.1635168489259247E-002  0.13407970476377096        0.0000000000000000     
   2.2096584710801767E-002  0.14154810149469152        0.0000000000000000     
   2.2531372255588839E-002  0.14912997658541299        0.0000000000000000     
   2.2939531123620457E-002  0.15682533003593541        0.0000000000000000     
   2.3321061314896634E-002  0.16463416184625876        0.0000000000000000     
   1.6192763526236251E-002  0.13396031627027524        0.0000000000000000     
   1.6536313660742173E-002  0.14143704059484652        0.0000000000000000     
   1.6859669035317045E-002  0.14902748665940099        0.0000000000000000     
   1.7162829649960871E-002  0.15673165446393855        0.0000000000000000     
   1.7445795504673650E-002  0.16454954400845931        0.0000000000000000     
   1.0772767124452135E-002  0.13387503877494544        0.0000000000000000     
   1.1000125859608979E-002  0.14135771138101672        0.0000000000000000     
   1.1213872586503228E-002  0.14895427956997243        0.0000000000000000     
   1.1414007305134881E-002  0.15666474334181266        0.0000000000000000     
   1.1600530015503936E-002  0.16448910269653735        0.0000000000000000     
   5.3751792839069014E-003  0.13382387227778153        0.0000000000000000     
   5.4880213074021871E-003  0.14131011385320202        0.0000000000000000     
   5.5939829091473823E-003  0.14891035531712740        0.0000000000000000     
   5.6930640891424871E-003  0.15662459666955775        0.0000000000000000     
   5.7852648473875005E-003  0.16445283791049289        0.0000000000000000     
   4.6005486746547586E-012  0.13380681677878353        0.0000000000000000     
   4.1217951361055549E-012  0.14129424801140250        0.0000000000000000     
   3.2495075423868980E-012  0.14889571390086589        0.0000000000000000     
   1.9836892816305768E-012  0.15661121444717371        0.0000000000000000     
   3.2433691149469368E-013  0.16444074965032593        0.0000000000000000     
   2.3321061314896634E-002  0.16463416184625876        0.0000000000000000     
   2.3674044742250853E-002  0.17254352045182261        0.0000000000000000     
   2.3996563318516601E-002  0.18054045428806664        0.0000000000000000     
   2.4288617043693873E-002  0.18862496335499082        0.0000000000000000     
   2.4550205917782682E-002  0.19679704765259520        0.0000000000000000     
   1.7445795504673650E-002  0.16454954400845931        0.0000000000000000     
   1.7707438271679279E-002  0.17246784300422108        0.0000000000000000     
   1.7946629623201659E-002  0.18047323916248179        0.0000000000000000     
   1.8163369559240791E-002  0.18856573248324138        0.0000000000000000     
   1.8357658079796682E-002  0.19674532296649991        0.0000000000000000     
   1.1600530015503936E-002  0.16448910269653735        0.0000000000000000     
   1.1772895324222819E-002  0.17241378768528504        0.0000000000000000     
   1.1930557837903951E-002  0.18042522835919420        0.0000000000000000     
   1.2073517556547330E-002  0.18852342471826486        0.0000000000000000     
   1.2201774480152959E-002  0.19670837676249692        0.0000000000000000     
   5.7852648473875005E-003  0.16445283791049289        0.0000000000000000     
   5.8704158998814778E-003  0.17238135449501449        0.0000000000000000     
   5.9483479626234737E-003  0.18039642187820390        0.0000000000000000     
   6.0190610356134887E-003  0.18849804006006118        0.0000000000000000     
   6.0825551188515231E-003  0.19668620904058629        0.0000000000000000     
   3.2433691149469368E-013  0.16444074965032593        0.0000000000000000     
  -1.3447496154811445E-012  0.17237054343340941        0.0000000000000000     
  -2.6397731656829793E-012  0.18038681971951087        0.0000000000000000     
  -3.5607353112039608E-012  0.18848957850863041        0.0000000000000000     
  -4.1076352388924597E-012  0.19667881980076798        0.0000000000000000     
   2.4550205917782682E-002  0.19679704765259520        0.0000000000000000     
   2.4782012673971843E-002  0.20504167448955521        0.0000000000000000     
   2.4984720045450194E-002  0.21334381117454648        0.0000000000000000     
   2.5158328032217729E-002  0.22170345770756894        0.0000000000000000     
   2.5302836634274455E-002  0.23012061408862267        0.0000000000000000     
   1.8357658079796682E-002  0.19674532296649991        0.0000000000000000     
   1.8529974378989553E-002  0.20499571033166569        0.0000000000000000     
   1.8680797650939648E-002  0.21330059429814702        0.0000000000000000     
   1.8810127895646966E-002  0.22165997486594383        0.0000000000000000     
   1.8917965113111512E-002  0.23007385203505626        0.0000000000000000     
   1.2201774480152959E-002  0.19670837676249692        0.0000000000000000     
   1.2315626167600478E-002  0.20496287879046149        0.0000000000000000     
   1.2415370177769527E-002  0.21326972510072922        0.0000000000000000     
   1.2501006510660103E-002  0.22162891569330029        0.0000000000000000     
   1.2572535166272212E-002  0.23004045056817457        0.0000000000000000     
   6.0825551188515231E-003  0.19668620904058629        0.0000000000000000     
   6.1389680398046195E-003  0.20494317986594257        0.0000000000000000     
   6.1884376259398258E-003  0.21325120358229324        0.0000000000000000     
   6.2309638772571401E-003  0.22161028018963819        0.0000000000000000     
   6.2665467937565635E-003  0.23002040968797766        0.0000000000000000     
  -4.1076352388924597E-012  0.19667881980076798        0.0000000000000000     
  -4.3980242624835908E-012  0.20493661355810899        0.0000000000000000     
  -4.5494554304359447E-012  0.21324502974283890        0.0000000000000000     
  -4.5619252733025695E-012  0.22160406835495772        0.0000000000000000     
  -4.4354381278921551E-012  0.23001372939446543        0.0000000000000000     
   2.5302836634274455E-002  0.23012061408862267        0.0000000000000000     
   2.5424504008473309E-002  0.23856773246716736        0.0000000000000000     
   2.5529588311667222E-002  0.24701726499266280        0.0000000000000000     
   2.5618089543856203E-002  0.25546921166510916        0.0000000000000000     
   2.5690007705040249E-002  0.26392357248450621        0.0000000000000000     
   1.8917965113111512E-002  0.23007385203505626        0.0000000000000000     
   1.9008688793946040E-002  0.23851299964403161        0.0000000000000000     
   1.9086678428763326E-002  0.24694819153141734        0.0000000000000000     
   1.9151934017563370E-002  0.25537942769721345        0.0000000000000000     
   1.9204455560346161E-002  0.26380670814141988        0.0000000000000000     
   1.2572535166272212E-002  0.23004045056817457        0.0000000000000000     
   1.2632666386979872E-002  0.23847390477034835        0.0000000000000000     
   1.2684110415157112E-002  0.24689885334481787        0.0000000000000000     
   1.2726867250803926E-002  0.25531529629158306        0.0000000000000000     
   1.2760936893920317E-002  0.26372323361064387        0.0000000000000000     
   6.2665467937565635E-003  0.23002040968797766        0.0000000000000000     
   6.2964367875748056E-003  0.23845044784611769        0.0000000000000000     
   6.3218842708485752E-003  0.24686925043286437        0.0000000000000000     
   6.3428892435778740E-003  0.25527681744821795        0.0000000000000000     
   6.3594517057627038E-003  0.26367314889217830        0.0000000000000000     
  -4.4354381278921551E-012  0.23001372939446543        0.0000000000000000     
  -4.2691648827197781E-012  0.23844262887133938        0.0000000000000000     
  -4.1622801125879016E-012  0.24685938279555697        0.0000000000000000     
  -4.1147827875044618E-012  0.25526399116711823        0.0000000000000000     
  -4.1266716606369602E-012  0.26365645398602305        0.0000000000000000     
   2.5690007705040249E-002  0.26392357248450621        0.0000000000000000     
   2.5757541198177622E-002  0.27232522186649427        0.0000000000000000     
   2.5832888426226580E-002  0.28061903422671369        0.0000000000000000     
   2.5916049389187127E-002  0.28880500956516436        0.0000000000000000     
   2.6007024087059266E-002  0.29688314788184644        0.0000000000000000     
   1.9204455560346161E-002  0.26380670814141988        0.0000000000000000     
   1.9254205652093223E-002  0.27217272617729088        0.0000000000000000     
   1.9311146887786054E-002  0.28042017511808071        0.0000000000000000     
   1.9375279267424664E-002  0.28854905496378941        0.0000000000000000     
   1.9446602791009036E-002  0.29655936571441682        0.0000000000000000     
   1.2760936893920317E-002  0.26372323361064387        0.0000000000000000     
   1.2793503603009970E-002  0.27206380068498770        0.0000000000000000     
   1.2831751636576568E-002  0.28027813289760151        0.0000000000000000     
   1.2875680994620119E-002  0.28836623024848546        0.0000000000000000     
   1.2925291677140616E-002  0.29632809273763955        0.0000000000000000     
   6.3594517057627038E-003  0.26367314889217830        0.0000000000000000     
   6.3754350509278544E-003  0.27199844538958462        0.0000000000000000     
   6.3947026725981217E-003  0.28019290756527609        0.0000000000000000     
   6.4172545707735038E-003  0.28825653541925284        0.0000000000000000     
   6.4430907454540035E-003  0.29618932895151467        0.0000000000000000     
  -4.1266716606369602E-012  0.26365645398602305        0.0000000000000000     
  -4.1531173031877922E-012  0.27197666029108175        0.0000000000000000     
  -4.1492874674337044E-012  0.28016449912110453        0.0000000000000000     
  -4.1151827496858917E-012  0.28821997047609133        0.0000000000000000     
  -4.0508030957342456E-012  0.29614307435604220        0.0000000000000000     
   2.4963717291243137E-011   5.5321601994286505E-002   0.0000000000000000     
   2.4181626753078111E-011   6.0929015564585173E-002   0.0000000000000000     
   2.1987269535443665E-011   6.6718885228200867E-002   0.0000000000000000     
   1.8380644093351703E-011   7.2691210985133564E-002   0.0000000000000000     
   1.3361749640755649E-011   7.8845992835383294E-002   0.0000000000000000     
  -3.5640914184245352E-003   5.5350369830933492E-002   0.0000000000000000     
  -3.7498448171329633E-003   6.0957027682893405E-002   0.0000000000000000     
  -3.9267667687824977E-003   6.6746106635174315E-002   0.0000000000000000     
  -4.0948572733731370E-003   7.2717606687776201E-002   0.0000000000000000     
  -4.2541163309048821E-003   7.8871527840699104E-002   0.0000000000000000     
  -7.0898556624600035E-003   5.5436673473325447E-002   0.0000000000000000     
  -7.4663288312605738E-003   6.1041064107102430E-002   0.0000000000000000     
  -7.8266870476784330E-003   6.6827770881062745E-002   0.0000000000000000     
  -8.1709303117135750E-003   7.2796793795206399E-002   0.0000000000000000     
  -8.4990586233660050E-003   7.8948132849533365E-002   0.0000000000000000     
  -1.0577292707142687E-002   5.5580512921462377E-002   0.0000000000000000     
  -1.1149452018201209E-002   6.1181124837212254E-002   0.0000000000000000     
  -1.1699760814700540E-002   6.6963877965866170E-002   0.0000000000000000     
  -1.2228219096640675E-002   7.2928772307424117E-002   0.0000000000000000     
  -1.2734826864021621E-002   7.9075807861886130E-002   0.0000000000000000     
  -1.4026402552472585E-002   5.5781888175344269E-002   0.0000000000000000     
  -1.4799214377954863E-002   6.1377209873222857E-002   0.0000000000000000     
  -1.5545988069848814E-002   6.7154427889584561E-002   0.0000000000000000     
  -1.6266723628154435E-002   7.3113542224429395E-002   0.0000000000000000     
  -1.6961421052871732E-002   7.9254552877757331E-002   0.0000000000000000     
   1.3361749640755649E-011   7.8845992835383294E-002   0.0000000000000000     
   8.4540013878253717E-012   8.5174000755840196E-002   0.0000000000000000     
   5.1808111837040038E-012   9.1666004723394423E-002   0.0000000000000000     
   3.5421811154807276E-012   9.8322004738045990E-002   0.0000000000000000     
   3.5381086081753832E-012  0.10514200079979488        0.0000000000000000     
  -4.2541163309048821E-003   7.8871527840699104E-002   0.0000000000000000     
  -4.4076921171215698E-003   8.5198630511041221E-002   0.0000000000000000     
  -4.5587328077670332E-003   9.1689675115900746E-002   0.0000000000000000     
  -4.7072384028412758E-003   9.8344661655277749E-002   0.0000000000000000     
  -4.8532089023442934E-003  0.10516359012917216        0.0000000000000000     
  -8.4990586233660050E-003   7.8948132849533365E-002   0.0000000000000000     
  -8.8155342714265165E-003   8.5272519772190261E-002   0.0000000000000000     
  -9.1248195446859033E-003   9.1760686291323529E-002   0.0000000000000000     
  -9.4269144431441704E-003   9.8412632406933293E-002   0.0000000000000000     
  -9.7218189668013145E-003  0.10522835811901946        0.0000000000000000     
  -1.2734826864021621E-002   7.9075807861886130E-002   0.0000000000000000     
  -1.3223526454460845E-002   8.5395668539287303E-002   0.0000000000000000     
  -1.3698260205575805E-002   9.1879038249662828E-002   0.0000000000000000     
  -1.4159028117366511E-002   9.8525916993012663E-002   0.0000000000000000     
  -1.4605830189832955E-002  0.10533630476933679        0.0000000000000000     
  -1.6961421052871732E-002   7.9254552877757331E-002   0.0000000000000000     
  -1.7631668666224551E-002   8.5568076812332403E-002   0.0000000000000000     
  -1.8279054790436736E-002   9.2044730990918561E-002   0.0000000000000000     
  -1.8903579425508289E-002   9.8684515413515819E-002   0.0000000000000000     
  -1.9505242571439214E-002  0.10548743008012418        0.0000000000000000     
   3.5381086081753832E-012  0.10514200079979488        0.0000000000000000     
   4.2144174434988191E-012  0.11211004736245483        0.0000000000000000     
   4.6169268495127591E-012  0.11921019887983959        0.0000000000000000     
   4.7456370972677464E-012  0.12644245535194915        0.0000000000000000     
   4.6005486746547586E-012  0.13380681677878353        0.0000000000000000     
  -4.8532089023442934E-003  0.10516359012917216        0.0000000000000000     
  -4.9943592644706219E-003  0.11213053234434904        0.0000000000000000     
  -5.1284044474147888E-003  0.11922956010757343        0.0000000000000000     
  -5.2553444511767994E-003  0.12646067341884534        0.0000000000000000     
  -5.3751792757566492E-003  0.13382387227816470        0.0000000000000000     
  -9.7218189668013145E-003  0.10522835811901946        0.0000000000000000     
  -1.0005985228534572E-002  0.11219198729283270        0.0000000000000000     
  -1.0275865341221173E-002  0.11928764379362357        0.0000000000000000     
  -1.0531459304861122E-002  0.12651532762139214        0.0000000000000000     
  -1.0772767119454421E-002  0.13387503877613835        0.0000000000000000     
  -1.4605830189832955E-002  0.10533630476933679        0.0000000000000000     
  -1.5034877887977430E-002  0.11229441220790577        0.0000000000000000     
  -1.5442382676802223E-002  0.11938444993799004        0.0000000000000000     
  -1.5828344556307335E-002  0.12660641795958963        0.0000000000000000     
  -1.6192763526492768E-002  0.13396031627270447        0.0000000000000000     
  -1.9505242571439214E-002  0.10548743008012418        0.0000000000000000     
  -2.0081037242799197E-002  0.11243780708956830        0.0000000000000000     
  -2.0627956454157943E-002  0.11951997854067281        0.0000000000000000     
  -2.1146000205515436E-002  0.12673394443343775        0.0000000000000000     
  -2.1635168496871689E-002  0.13407970476786310        0.0000000000000000     
   4.6005486746547586E-012  0.13380681677878353        0.0000000000000000     
   4.1217951361055549E-012  0.14129424801140250        0.0000000000000000     
   3.2495075423868980E-012  0.14889571390086589        0.0000000000000000     
   1.9836892816305768E-012  0.15661121444717371        0.0000000000000000     
   3.2433691149469368E-013  0.16444074965032593        0.0000000000000000     
  -5.3751792757566492E-003  0.13382387227816470        0.0000000000000000     
  -5.4880213002262189E-003  0.14131011385549466        0.0000000000000000     
  -5.5939829036573850E-003  0.14891035532079844        0.0000000000000000     
  -5.6930640860501517E-003  0.15662459667407586        0.0000000000000000     
  -5.7852648474045155E-003  0.16445283791532705        0.0000000000000000     
  -1.0772767119454421E-002  0.13387503877613835        0.0000000000000000     
  -1.1000125855635872E-002  0.14135771138535516        0.0000000000000000     
  -1.1213872584040292E-002  0.14895427957653551        0.0000000000000000     
  -1.1414007304667673E-002  0.15666474334967936        0.0000000000000000     
  -1.1600530017518021E-002  0.16448910270478678        0.0000000000000000     
  -1.6192763526492768E-002  0.13396031627270447        0.0000000000000000     
  -1.6536313662107175E-002  0.14143704060098394        0.0000000000000000     
  -1.6859669037899209E-002  0.14902748666807716        0.0000000000000000     
  -1.7162829653868884E-002  0.15673165447398429        0.0000000000000000     
  -1.7445795510016182E-002  0.16454954401870520        0.0000000000000000     
  -2.1635168496871689E-002  0.13407970476786310        0.0000000000000000     
  -2.2096584719640117E-002  0.14154810150238092        0.0000000000000000     
  -2.2531372265234145E-002  0.14912997659542343        0.0000000000000000     
  -2.2939531133653768E-002  0.15682533004699051        0.0000000000000000     
  -2.3321061324898994E-002  0.16463416185708221        0.0000000000000000     
   3.2433691149469368E-013  0.16444074965032593        0.0000000000000000     
  -1.3447496154811445E-012  0.17237054343340941        0.0000000000000000     
  -2.6397731656829793E-012  0.18038681971951087        0.0000000000000000     
  -3.5607353112039608E-012  0.18848957850863041        0.0000000000000000     
  -4.1076352388924597E-012  0.19667881980076798        0.0000000000000000     
  -5.7852648474045155E-003  0.16445283791532705        0.0000000000000000     
  -5.8704159030114498E-003  0.17238135449971484        0.0000000000000000     
  -5.9483479681619236E-003  0.18039642188240215        0.0000000000000000     
  -6.0190610428559445E-003  0.18849804006338902        0.0000000000000000     
  -6.0825551270935032E-003  0.19668620904267548        0.0000000000000000     
  -1.1600530017518021E-002  0.16448910270478678        0.0000000000000000     
  -1.1772895328674208E-002  0.17241378769317586        0.0000000000000000     
  -1.1930557844219111E-002  0.18042522836616484        0.0000000000000000     
  -1.2073517564152736E-002  0.18852342472375366        0.0000000000000000     
  -1.2201774488475071E-002  0.19670837676594233        0.0000000000000000     
  -1.7445795510016182E-002  0.16454954401870520        0.0000000000000000     
  -1.7707438278333029E-002  0.17246784301379250        0.0000000000000000     
  -1.7946629630811332E-002  0.18047323917079885        0.0000000000000000     
  -1.8163369567451113E-002  0.18856573248972419        0.0000000000000000     
  -1.8357658088252345E-002  0.19674532297056857        0.0000000000000000     
  -2.3321061324898994E-002  0.16463416185708221        0.0000000000000000     
  -2.3674044751987908E-002  0.17254352046156474        0.0000000000000000     
  -2.3996563327938598E-002  0.18054045429630422        0.0000000000000000     
  -2.4288617052751069E-002  0.18862496336130075        0.0000000000000000     
  -2.4550205926425317E-002  0.19679704765655420        0.0000000000000000     
  -4.1076352388924597E-012  0.19667881980076798        0.0000000000000000     
  -4.3980242624835908E-012  0.20493661355810899        0.0000000000000000     
  -4.5494554304359447E-012  0.21324502974283890        0.0000000000000000     
  -4.5619252733025695E-012  0.22160406835495772        0.0000000000000000     
  -4.4354381278921551E-012  0.23001372939446543        0.0000000000000000     
  -6.0825551270935032E-003  0.19668620904267548        0.0000000000000000     
  -6.1389680485677391E-003  0.20494317986681626        0.0000000000000000     
  -6.1884376349717832E-003  0.21325120358236632        0.0000000000000000     
  -6.2309638863056391E-003  0.22161028018932569        0.0000000000000000     
  -6.2665468025693031E-003  0.23002040968769422        0.0000000000000000     
  -1.2201774488475071E-002  0.19670837676594233        0.0000000000000000     
  -1.2315626176264811E-002  0.20496287879191993        0.0000000000000000     
  -1.2415370186600638E-002  0.21326972510087544        0.0000000000000000     
  -1.2501006519482546E-002  0.22162891569280899        0.0000000000000000     
  -1.2572535174910540E-002  0.23004045056772038        0.0000000000000000     
  -1.8357658088252345E-002  0.19674532297056857        0.0000000000000000     
  -1.8529974387489243E-002  0.20499571033341998        0.0000000000000000     
  -1.8680797659436012E-002  0.21330059429836634        0.0000000000000000     
  -1.8810127904092651E-002  0.22165997486540764        0.0000000000000000     
  -1.8917965121459154E-002  0.23007385203454386        0.0000000000000000     
  -2.4550205926425317E-002  0.19679704765655420        0.0000000000000000     
  -2.4782012682241034E-002  0.20504167449131638        0.0000000000000000     
  -2.4984720053477912E-002  0.21334381117483883        0.0000000000000000     
  -2.5158328040135951E-002  0.22170345770712163        0.0000000000000000     
  -2.5302836642215141E-002  0.23012061408816473        0.0000000000000000     
  -4.4354381278921551E-012  0.23001372939446543        0.0000000000000000     
  -4.2691648827197781E-012  0.23844262887133938        0.0000000000000000     
  -4.1622801125879016E-012  0.24685938279555697        0.0000000000000000     
  -4.1147827875044618E-012  0.25526399116711823        0.0000000000000000     
  -4.1266716606369602E-012  0.26365645398602305        0.0000000000000000     
  -6.2665468025693031E-003  0.23002040968769422        0.0000000000000000     
  -6.2964367960797827E-003  0.23845044784602845        0.0000000000000000     
  -6.3218842791540868E-003  0.24686925043288463        0.0000000000000000     
  -6.3428892517922103E-003  0.25527681744826280        0.0000000000000000     
  -6.3594517139941567E-003  0.26367314889216287        0.0000000000000000     
  -1.2572535174910540E-002  0.23004045056772038        0.0000000000000000     
  -1.2632666395384793E-002  0.23847390477019959        0.0000000000000000     
  -1.2684110423405472E-002  0.24689885334483638        0.0000000000000000     
  -1.2726867258972577E-002  0.25531529629163063        0.0000000000000000     
  -1.2760936902086104E-002  0.26372323361058247        0.0000000000000000     
  -1.8917965121459154E-002  0.23007385203454386        0.0000000000000000     
  -1.9008688802184197E-002  0.23851299964385289        0.0000000000000000     
  -1.9086678436916433E-002  0.24694819153141215        0.0000000000000000     
  -1.9151934025655879E-002  0.25537942769722183        0.0000000000000000     
  -1.9204455568402511E-002  0.26380670814128176        0.0000000000000000     
  -2.5302836642215141E-002  0.23012061408816473        0.0000000000000000     
  -2.5424504016477986E-002  0.23856773246698820        0.0000000000000000     
  -2.5529588319686977E-002  0.24701726499261206        0.0000000000000000     
  -2.5618089551842107E-002  0.25546921166503622        0.0000000000000000     
  -2.5690007712943382E-002  0.26392357248426090        0.0000000000000000     
  -4.1266716606369602E-012  0.26365645398602305        0.0000000000000000     
  -4.1531173031877922E-012  0.27197666029108175        0.0000000000000000     
  -4.1492874674337044E-012  0.28016449912110453        0.0000000000000000     
  -4.1151827496858917E-012  0.28821997047609133        0.0000000000000000     
  -4.0508030957342456E-012  0.29614307435604220        0.0000000000000000     
  -6.3594517139941567E-003  0.26367314889216287        0.0000000000000000     
  -6.3754350592028367E-003  0.27199844538947560        0.0000000000000000     
  -6.3947026808611604E-003  0.28019290756509135        0.0000000000000000     
  -6.4172545789691199E-003  0.28825653541901036        0.0000000000000000     
  -6.4430907535267239E-003  0.29618932895123240        0.0000000000000000     
  -1.2760936902086104E-002  0.26372323361058247        0.0000000000000000     
  -1.2793503611191200E-002  0.27206380068476244        0.0000000000000000     
  -1.2831751644732993E-002  0.28027813289724141        0.0000000000000000     
  -1.2875681002711485E-002  0.28836623024801911        0.0000000000000000     
  -1.2925291685126678E-002  0.29632809273709565        0.0000000000000000     
  -1.9204455568402511E-002  0.26380670814128176        0.0000000000000000     
  -1.9254205660118203E-002  0.27217272617694255        0.0000000000000000     
  -1.9311146895764790E-002  0.28042017511755452        0.0000000000000000     
  -1.9375279275342275E-002  0.28854905496311767        0.0000000000000000     
  -1.9446602798850663E-002  0.29655936571363206        0.0000000000000000     
  -2.5690007712943382E-002  0.26392357248426090        0.0000000000000000     
  -2.5757541205983846E-002  0.27232522186601577        0.0000000000000000     
  -2.5832888433956550E-002  0.28061903422603085        0.0000000000000000     
  -2.5916049396861499E-002  0.28880500956430605        0.0000000000000000     
  -2.6007024094698683E-002  0.29688314788084147        0.0000000000000000     
  -1.4026402552472585E-002   5.5781888175344269E-002   0.0000000000000000     
  -1.4799214377954863E-002   6.1377209873222857E-002   0.0000000000000000     
  -1.5545988069848814E-002   6.7154427889584561E-002   0.0000000000000000     
  -1.6266723628154435E-002   7.3113542224429395E-002   0.0000000000000000     
  -1.6961421052871732E-002   7.9254552877757331E-002   0.0000000000000000     
  -1.7531911584551738E-002   5.6041413758225092E-002   0.0000000000000000     
  -1.8505753025413220E-002   6.1630005455962818E-002   0.0000000000000000     
  -1.9449259872512902E-002   6.7400111706299920E-002   0.0000000000000000     
  -2.0362432125850788E-002   7.3351732509236392E-002   0.0000000000000000     
  -2.1245269785426860E-002   7.9484867864772241E-002   0.0000000000000000     
  -2.1188546189482186E-002   5.6359704193358826E-002   0.0000000000000000     
  -2.2359205075467979E-002   6.1940197826260701E-002   0.0000000000000000     
  -2.3493467282082462E-002   6.7701620470094204E-002   0.0000000000000000     
  -2.4591332809325649E-002   7.3643972124859319E-002   0.0000000000000000     
  -2.5652801657197535E-002   7.9767252790556048E-002   0.0000000000000000     
  -2.4996306367263930E-002   5.6736759480745469E-002   0.0000000000000000     
  -2.6359570528119124E-002   6.2307786984116514E-002   0.0000000000000000     
  -2.7678610298557487E-002   6.8058954180967399E-002   0.0000000000000000     
  -2.8953425678579031E-002   7.3990261071298136E-002   0.0000000000000000     
  -3.0184016668183749E-002   8.0101707655108767E-002   0.0000000000000000     
  -2.8955192117896971E-002   5.7172579620385015E-002   0.0000000000000000     
  -3.0506849383366653E-002   6.2732772929530237E-002   0.0000000000000000     
  -3.2004688921937981E-002   6.8472112838919533E-002   0.0000000000000000     
  -3.3448710733610929E-002   7.4390599348552897E-002   0.0000000000000000     
  -3.4838914818385511E-002   8.0488232458430384E-002   0.0000000000000000     
  -1.6961421052871732E-002   7.9254552877757331E-002   0.0000000000000000     
  -1.7631668666224551E-002   8.5568076812332403E-002   0.0000000000000000     
  -1.8279054790436736E-002   9.2044730990918561E-002   0.0000000000000000     
  -1.8903579425508289E-002   9.8684515413515819E-002   0.0000000000000000     
  -1.9505242571439214E-002  0.10548743008012418        0.0000000000000000     
  -2.1245269785426860E-002   7.9484867864772241E-002   0.0000000000000000     
  -2.2097084982693745E-002   8.5790118777416158E-002   0.0000000000000000     
  -2.2917189849104035E-002   9.2258086251676835E-002   0.0000000000000000     
  -2.3705584384657735E-002   9.8888770287554287E-002   0.0000000000000000     
  -2.4462268589354845E-002  0.10568217088504850        0.0000000000000000     
  -2.5652801657197535E-002   7.9767252790556048E-002   0.0000000000000000     
  -2.6676899479844522E-002   8.6062168620629237E-002   0.0000000000000000     
  -2.7662651931413033E-002   9.2519425768523719E-002   0.0000000000000000     
  -2.8610059011903062E-002   9.9139024234239537E-002   0.0000000000000000     
  -2.9519120721314605E-002  0.10592096401777666        0.0000000000000000     
  -3.0184016668183749E-002   8.0101707655108767E-002   0.0000000000000000     
  -3.1371112157676899E-002   8.6384226341971654E-002   0.0000000000000000     
  -3.2515441037363743E-002   9.2828749541459268E-002   0.0000000000000000     
  -3.3617003307244271E-002   9.9435277253571625E-002   0.0000000000000000     
  -3.4675798967318483E-002  0.10620380947830865        0.0000000000000000     
  -3.4838914818385511E-002   8.0488232458430384E-002   0.0000000000000000     
  -3.6179723016190865E-002   8.6756291941443395E-002   0.0000000000000000     
  -3.7475557166956157E-002   9.3186057570483427E-002   0.0000000000000000     
  -3.8726417270681365E-002   9.9777529345550453E-002   0.0000000000000000     
  -3.9932303327366497E-002  0.10653070726664449        0.0000000000000000     
  -1.9505242571439214E-002  0.10548743008012418        0.0000000000000000     
  -2.0081037242799197E-002  0.11243780708956830        0.0000000000000000     
  -2.0627956454157943E-002  0.11951997854067281        0.0000000000000000     
  -2.1146000205515436E-002  0.12673394443343775        0.0000000000000000     
  -2.1635168496871689E-002  0.13407970476786310        0.0000000000000000     
  -2.4462268589354845E-002  0.10568217088504850        0.0000000000000000     
  -2.5185058241028679E-002  0.11262274531803132        0.0000000000000000     
  -2.5871769117512551E-002  0.11969495086037468        0.0000000000000000     
  -2.6522401218806467E-002  0.12689878751207856        0.0000000000000000     
  -2.7136954544910424E-002  0.13423425527314295        0.0000000000000000     
  -2.9519120721314605E-002  0.10592096401777666        0.0000000000000000     
  -3.0387535830694676E-002  0.11284980027350598        0.0000000000000000     
  -3.1213003111090307E-002  0.11991008815579843        0.0000000000000000     
  -3.1995522562501481E-002  0.12710182766465403        0.0000000000000000     
  -3.2735094184928211E-002  0.13442501880007279        0.0000000000000000     
  -3.4675798967318483E-002  0.10620380947830865        0.0000000000000000     
  -3.5688470011797195E-002  0.11311897195599221        0.0000000000000000     
  -3.6651658434891182E-002  0.12016539042694403        0.0000000000000000     
  -3.7565364236600479E-002  0.12734306489116418        0.0000000000000000     
  -3.8429587416925065E-002  0.13465199534865263        0.0000000000000000     
  -3.9932303327366497E-002  0.10653070726664449        0.0000000000000000     
  -4.1087860784336232E-002  0.11343026036549005        0.0000000000000000     
  -4.2187735088915213E-002  0.12046085767381154        0.0000000000000000     
  -4.3231926241103460E-002  0.12762249919160901        0.0000000000000000     
  -4.4220434240900969E-002  0.13491518491888246        0.0000000000000000     
  -2.1635168496871689E-002  0.13407970476786310        0.0000000000000000     
  -2.2096584719640117E-002  0.14154810150238092        0.0000000000000000     
  -2.2531372265234145E-002  0.14912997659542343        0.0000000000000000     
  -2.2939531133653768E-002  0.15682533004699051        0.0000000000000000     
  -2.3321061324898994E-002  0.16463416185708221        0.0000000000000000     
  -2.7136954544910424E-002  0.13423425527314295        0.0000000000000000     
  -2.7717017476967691E-002  0.14169213733968894        0.0000000000000000     
  -2.8264178396121567E-002  0.14926321690783781        0.0000000000000000     
  -2.8778437302372031E-002  0.15694749397758936        0.0000000000000000     
  -2.9259794195719096E-002  0.16474496854894374        0.0000000000000000     
  -3.2735094184928211E-002  0.13442501880007279        0.0000000000000000     
  -3.3433690382822907E-002  0.14187039136305071        0.0000000000000000     
  -3.4093283560637948E-002  0.14942867515458380        0.0000000000000000     
  -3.4713873718373353E-002  0.15709987017467203        0.0000000000000000     
  -3.5295460856029116E-002  0.16488397642331556        0.0000000000000000     
  -3.8429587416925065E-002  0.13465199534865263        0.0000000000000000     
  -3.9246603437205728E-002  0.14208286357246608        0.0000000000000000     
  -4.0018687758783290E-002  0.14962635133566146        0.0000000000000000     
  -4.0745840381657739E-002  0.15728245863823864        0.0000000000000000     
  -4.1428061305829066E-002  0.16505118548019773        0.0000000000000000     
  -4.4220434240900969E-002  0.13491518491888246        0.0000000000000000     
  -4.5155756640116201E-002  0.14232955396793523        0.0000000000000000     
  -4.6040390990557595E-002  0.14985624545107079        0.0000000000000000     
  -4.6874337292225184E-002  0.15749525936828912        0.0000000000000000     
  -4.7657595545118947E-002  0.16524659571959022        0.0000000000000000     
  -2.3321061324898994E-002  0.16463416185708221        0.0000000000000000     
  -2.3674044751987908E-002  0.17254352046156474        0.0000000000000000     
  -2.3996563327938598E-002  0.18054045429630422        0.0000000000000000     
  -2.4288617052751069E-002  0.18862496336130075        0.0000000000000000     
  -2.4550205926425317E-002  0.19679704765655420        0.0000000000000000     
  -2.9259794195719096E-002  0.16474496854894374        0.0000000000000000     
  -2.9705605436814126E-002  0.17264305273012492        0.0000000000000000     
  -3.0113227386308491E-002  0.18062915862935688        0.0000000000000000     
  -3.0482660044202203E-002  0.18870328624663971        0.0000000000000000     
  -3.0813903410495239E-002  0.19686543558197334        0.0000000000000000     
  -3.5295460856029116E-002  0.16488397642331556        0.0000000000000000     
  -3.5835011019986977E-002  0.17276867251310546        0.0000000000000000     
  -3.6329490256628627E-002  0.18074163705663276        0.0000000000000000     
  -3.6778898565954087E-002  0.18880287005389768        0.0000000000000000     
  -3.7183235947963349E-002  0.19695237150490005        0.0000000000000000     
  -4.1428061305829066E-002  0.16505118548019773        0.0000000000000000     
  -4.2062261501506437E-002  0.17292037981050626        0.0000000000000000     
  -4.2645351938898998E-002  0.18087788957813189        0.0000000000000000     
  -4.3177332618006721E-002  0.18892371478307460        0.0000000000000000     
  -4.3658203538829647E-002  0.19705785542533441        0.0000000000000000     
  -4.7657595545118947E-002  0.16524659571959022        0.0000000000000000     
  -4.8387356881372537E-002  0.17309817462232746        0.0000000000000000     
  -4.9060812433119598E-002  0.18103791619385423        0.0000000000000000     
  -4.9677962200360130E-002  0.18906582043417053        0.0000000000000000     
  -5.0238806183094141E-002  0.19718188734327632        0.0000000000000000     
  -2.4550205926425317E-002  0.19679704765655420        0.0000000000000000     
  -2.4782012682241034E-002  0.20504167449131638        0.0000000000000000     
  -2.4984720053477912E-002  0.21334381117483883        0.0000000000000000     
  -2.5158328040135951E-002  0.22170345770712163        0.0000000000000000     
  -2.5302836642215141E-002  0.23012061408816473        0.0000000000000000     
  -3.0813903410495239E-002  0.19686543558197334        0.0000000000000000     
  -3.1107624692092786E-002  0.20510208794718440        0.0000000000000000     
  -3.1364491095900018E-002  0.21339972465409954        0.0000000000000000     
  -3.1584502621916935E-002  0.22175834570271880        0.0000000000000000     
  -3.1767659270143550E-002  0.23017795109304212        0.0000000000000000     
  -3.7183235947963349E-002  0.19695237150490005        0.0000000000000000     
  -3.7542694048617098E-002  0.20517826738259937        0.0000000000000000     
  -3.7857464513876032E-002  0.21346868365995503        0.0000000000000000     
  -3.8127547343740131E-002  0.22182362033696698        0.0000000000000000     
  -3.8352942538209416E-002  0.23024307741363528        0.0000000000000000     
  -4.3658203538829647E-002  0.19705785542533441        0.0000000000000000     
  -4.4087220751813976E-002  0.20527021279756125        0.0000000000000000     
  -4.4463640307405940E-002  0.21355068819240516        0.0000000000000000     
  -4.4787462205605533E-002  0.22189928160986613        0.0000000000000000     
  -4.5058686446412748E-002  0.23031599304994418        0.0000000000000000     
  -5.0238806183094141E-002  0.19718188734327632        0.0000000000000000     
  -5.0741204801683405E-002  0.20537792419207004        0.0000000000000000     
  -5.1183018476489747E-002  0.21364573825145006        0.0000000000000000     
  -5.1564247207513104E-002  0.22198532952141631        0.0000000000000000     
  -5.1884890994753539E-002  0.23039669800196888        0.0000000000000000     
  -2.5302836642215141E-002  0.23012061408816473        0.0000000000000000     
  -2.5424504016477986E-002  0.23856773246698820        0.0000000000000000     
  -2.5529588319686977E-002  0.24701726499261206        0.0000000000000000     
  -2.5618089551842107E-002  0.25546921166503622        0.0000000000000000     
  -2.5690007712943382E-002  0.26392357248426090        0.0000000000000000     
  -3.1767659270143550E-002  0.23017795109304212        0.0000000000000000     
  -3.1921820149182462E-002  0.23863362499874186        0.0000000000000000     
  -3.2054844367636309E-002  0.24710045159349037        0.0000000000000000     
  -3.2166731925505086E-002  0.25557843087728754        0.0000000000000000     
  -3.2257482822788786E-002  0.26406756285013355        0.0000000000000000     
  -3.8352942538209416E-002  0.23024307741363528        0.0000000000000000     
  -3.8542345311213907E-002  0.23870619899825005        0.0000000000000000     
  -3.8704450876683637E-002  0.24719212919910136        0.0000000000000000     
  -3.8839259234618596E-002  0.25570086801618924        0.0000000000000000     
  -3.8946770385018793E-002  0.26423241544951370        0.0000000000000000     
  -4.5058686446412748E-002  0.23031599304994418        0.0000000000000000     
  -4.5286079502572324E-002  0.23878545446551266        0.0000000000000000     
  -4.5478407846828953E-002  0.24729229780944503        0.0000000000000000     
  -4.5635671479182648E-002  0.25583652308174126        0.0000000000000000     
  -4.5757870399633416E-002  0.26441813028240124        0.0000000000000000     
  -5.1884890994753539E-002  0.23039669800196888        0.0000000000000000     
  -5.2153022723257704E-002  0.23887139140052985        0.0000000000000000     
  -5.2376715278072271E-002  0.24740095742452145        0.0000000000000000     
  -5.2555968659197254E-002  0.25598539607394349        0.0000000000000000     
  -5.2690782866632653E-002  0.26462470734879628        0.0000000000000000     
  -2.5690007712943382E-002  0.26392357248426090        0.0000000000000000     
  -2.5757541205983846E-002  0.27232522186601577        0.0000000000000000     
  -2.5832888433956550E-002  0.28061903422603085        0.0000000000000000     
  -2.5916049396861499E-002  0.28880500956430605        0.0000000000000000     
  -2.6007024094698683E-002  0.29688314788084147        0.0000000000000000     
  -3.2257482822788786E-002  0.26406756285013355        0.0000000000000000     
  -3.2341933808522884E-002  0.27251496150866839        0.0000000000000000     
  -3.2434921631742823E-002  0.28086774084953220        0.0000000000000000     
  -3.2536446292448631E-002  0.28912590087272499        0.0000000000000000     
  -3.2646507790640281E-002  0.29728944157824677        0.0000000000000000     
  -3.8946770385018793E-002  0.26423241544951370        0.0000000000000000     
  -3.9045807027470049E-002  0.27273561886158681        0.0000000000000000     
  -3.9155191861558171E-002  0.28115932561492069        0.0000000000000000     
  -3.9274924887283152E-002  0.28950353570951537        0.0000000000000000     
  -3.9405006104645007E-002  0.29776824914537081        0.0000000000000000     
  -4.5757870399633416E-002  0.26441813028240124        0.0000000000000000     
  -4.5869160862825352E-002  0.27298719392477100        0.0000000000000000     
  -4.5993699123402579E-002  0.28149378852219625        0.0000000000000000     
  -4.6131485181365076E-002  0.28993791407467712        0.0000000000000000     
  -4.6282519036712856E-002  0.29831957058221348        0.0000000000000000     
  -5.2690782866632653E-002  0.26462470734879628        0.0000000000000000     
  -5.2811995314588807E-002  0.27326968669822094        0.0000000000000000     
  -5.2950443417276047E-002  0.28187112957135890        0.0000000000000000     
  -5.3106127174694394E-002  0.29042903596821029        0.0000000000000000     
  -5.3279046586843820E-002  0.29894340588877494        0.0000000000000000     
  -2.8955192117896971E-002   5.7172579620385015E-002   0.0000000000000000     
  -3.0506849383366653E-002   6.2732772929530237E-002   0.0000000000000000     
  -3.2004688921937981E-002   6.8472112838919533E-002   0.0000000000000000     
  -3.3448710733610929E-002   7.4390599348552897E-002   0.0000000000000000     
  -3.4838914818385511E-002   8.0488232458430384E-002   0.0000000000000000     
  -3.3034387409227553E-002   5.7667949147666445E-002   0.0000000000000000     
  -3.4772856503084287E-002   6.3215071841979803E-002   0.0000000000000000     
  -3.6448267032015230E-002   6.8940469791253872E-002   0.0000000000000000     
  -3.8060618996020402E-002   7.4844142995488611E-002   0.0000000000000000     
  -3.9609912395099776E-002   8.0926091454684060E-002   0.0000000000000000     
  -3.7203076209101932E-002   5.8223652597978702E-002   0.0000000000000000     
  -3.9129406749145702E-002   6.3754599900943162E-002   0.0000000000000000     
  -4.0985908508580554E-002   6.9463398385273670E-002   0.0000000000000000     
  -4.2772581487406501E-002   7.5350048050970259E-002   0.0000000000000000     
  -4.4489425685623522E-002   8.1414548898032929E-002   0.0000000000000000     
  -4.1461258517520097E-002   5.8839689971321822E-002   0.0000000000000000     
  -4.3576500121550926E-002   6.4351357106420287E-002   0.0000000000000000     
  -4.5617613351633966E-002   7.0040898620978981E-002   0.0000000000000000     
  -4.7584598207769238E-002   7.5908314514997868E-002   0.0000000000000000     
  -4.9477454689956735E-002   8.1953604788476977E-002   0.0000000000000000     
  -4.5808934334482063E-002   5.9516061267695777E-002   0.0000000000000000     
  -4.8114136620299931E-002   6.5005343458411219E-002   0.0000000000000000     
  -5.0343381561175446E-002   7.0672970498369778E-002   0.0000000000000000     
  -5.2496669157108614E-002   7.6518942387571454E-002   0.0000000000000000     
  -5.4573999408099413E-002   8.2543259126016233E-002   0.0000000000000000     
  -3.4838914818385511E-002   8.0488232458430384E-002   0.0000000000000000     
  -3.6179723016190865E-002   8.6756291941443395E-002   0.0000000000000000     
  -3.7475557166956157E-002   9.3186057570483427E-002   0.0000000000000000     
  -3.8726417270681365E-002   9.9777529345550453E-002   0.0000000000000000     
  -3.9932303327366497E-002  0.10653070726664449        0.0000000000000000     
  -3.9609912395099776E-002   8.0926091454684060E-002   0.0000000000000000     
  -4.1104100676484824E-002   8.7177888097328057E-002   0.0000000000000000     
  -4.2551137287406997E-002   9.3591105851908496E-002   0.0000000000000000     
  -4.3951022227866274E-002  0.10016574471842536        0.0000000000000000     
  -4.5303755497862690E-002  0.10690180469687866        0.0000000000000000     
  -4.4489425685623522E-002   8.1414548898032929E-002   0.0000000000000000     
  -4.6145613759657166E-002   8.7648537487909212E-002   0.0000000000000000     
  -4.7750318365932978E-002   9.4043650382046748E-002   0.0000000000000000     
  -4.9303539504450954E-002  0.10059988758044554        0.0000000000000000     
  -5.0805277175211105E-002  0.10731724908310560        0.0000000000000000     
  -4.9477454689956735E-002   8.1953604788476977E-002   0.0000000000000000     
  -5.1304262265707869E-002   8.8168240113186885E-002   0.0000000000000000     
  -5.3073100402534094E-002   9.4543691160898252E-002   0.0000000000000000     
  -5.4783969100435377E-002  0.10107995793161108        0.0000000000000000     
  -5.6436868359411758E-002  0.10777704042532531        0.0000000000000000     
  -5.4573999408099413E-002   8.2543259126016233E-002   0.0000000000000000     
  -5.6580046194636961E-002   8.8736995973161079E-002   0.0000000000000000     
  -5.8519483397210366E-002   9.5091228188462967E-002   0.0000000000000000     
  -6.0392311015819572E-002  0.10160595577192186        0.0000000000000000     
  -6.2198529050464628E-002  0.10828117872353779        0.0000000000000000     
  -3.9932303327366497E-002  0.10653070726664449        0.0000000000000000     
  -4.1087860784336232E-002  0.11343026036549005        0.0000000000000000     
  -4.2187735088915213E-002  0.12046085767381154        0.0000000000000000     
  -4.3231926241103460E-002  0.12762249919160901        0.0000000000000000     
  -4.4220434240900969E-002  0.13491518491888246        0.0000000000000000     
  -4.5303755497862690E-002  0.10690180469687866        0.0000000000000000     
  -4.6602066282515189E-002  0.11378401182976347        0.0000000000000000     
  -4.7838683766942773E-002  0.12079709215957493        0.0000000000000000     
  -4.9013607951145413E-002  0.12794104568631298        0.0000000000000000     
  -5.0126838835123137E-002  0.13521587240997765        0.0000000000000000     
  -5.0805277175211105E-002  0.10731724908310560        0.0000000000000000     
  -5.2247444640537509E-002  0.11418057267657659        0.0000000000000000     
  -5.3621955162754260E-002  0.12117469614740826        0.0000000000000000     
  -5.4928808741861339E-002  0.12829961949560062        0.0000000000000000     
  -5.6168005377858751E-002  0.13555534272115360        0.0000000000000000     
  -5.6436868359411758E-002  0.10777704042532531        0.0000000000000000     
  -5.8023995858403184E-002  0.11461994290592933        0.0000000000000000     
  -5.9537549276349688E-002  0.12159366963731152        0.0000000000000000     
  -6.0977528613251231E-002  0.12869822061947184        0.0000000000000000     
  -6.2343933869107838E-002  0.13593359585241035        0.0000000000000000     
  -6.2198529050464628E-002  0.10828117872353779        0.0000000000000000     
  -6.3931719936112213E-002  0.11510212251782176        0.0000000000000000     
  -6.5585466107729043E-002  0.12205401262928477        0.0000000000000000     
  -6.7159767565315096E-002  0.12913684905792677        0.0000000000000000     
  -6.8654624308870385E-002  0.13635063180374782        0.0000000000000000     
  -4.4220434240900969E-002  0.13491518491888246        0.0000000000000000     
  -4.5155756640116201E-002  0.14232955396793523        0.0000000000000000     
  -4.6040390990557595E-002  0.14985624545107079        0.0000000000000000     
  -4.6874337292225184E-002  0.15749525936828912        0.0000000000000000     
  -4.7657595545118947E-002  0.16524659571959022        0.0000000000000000     
  -5.0126838835123137E-002  0.13521587240997765        0.0000000000000000     
  -5.1181157811619138E-002  0.14261212504499499        0.0000000000000000     
  -5.2179346273376642E-002  0.15012035630579101        0.0000000000000000     
  -5.3121404220395664E-002  0.15774056619236573        0.0000000000000000     
  -5.4007331652676183E-002  0.16547275470471920        0.0000000000000000     
  -5.6168005377858751E-002  0.13555534272115360        0.0000000000000000     
  -5.7342814771779410E-002  0.14293223929918220        0.0000000000000000     
  -5.8456506624656200E-002  0.15042068270480127        0.0000000000000000     
  -5.9509080936489135E-002  0.15802067293801081        0.0000000000000000     
  -6.0500537707278208E-002  0.16573220999881083        0.0000000000000000     
  -6.2343933869107838E-002  0.13593359585241035        0.0000000000000000     
  -6.3640727520597018E-002  0.14328989673049691        0.0000000000000000     
  -6.4871872044396262E-002  0.15075722464810162        0.0000000000000000     
  -6.6037367440505618E-002  0.15833557960522429        0.0000000000000000     
  -6.7137213708925045E-002  0.16602496160186508        0.0000000000000000     
  -6.8654624308870385E-002  0.13635063180374782        0.0000000000000000     
  -7.0074896058071948E-002  0.14368509733893914        0.0000000000000000     
  -7.1425442532596861E-002  0.15112998213569195        0.0000000000000000     
  -7.2706263732445098E-002  0.15868528619400626        0.0000000000000000     
  -7.3917359657616657E-002  0.16635100951388204        0.0000000000000000     
  -4.7657595545118947E-002  0.16524659571959022        0.0000000000000000     
  -4.8387356881372537E-002  0.17309817462232746        0.0000000000000000     
  -4.9060812433119598E-002  0.18103791619385423        0.0000000000000000     
  -4.9677962200360130E-002  0.18906582043417053        0.0000000000000000     
  -5.0238806183094141E-002  0.19718188734327632        0.0000000000000000     
  -5.4007331652676183E-002  0.16547275470471920        0.0000000000000000     
  -5.4834665582133783E-002  0.17330495672021171        0.0000000000000000     
  -5.5600943020684065E-002  0.18122520711620357        0.0000000000000000     
  -5.6306163968327022E-002  0.18923350589269486        0.0000000000000000     
  -5.6950328425062639E-002  0.19732985304968553        0.0000000000000000     
  -6.0500537707278208E-002  0.16573220999881083        0.0000000000000000     
  -6.1428556026338732E-002  0.17354362587580169        0.0000000000000000     
  -6.2290814982986040E-002  0.18144325255758376        0.0000000000000000     
  -6.3087314577220124E-002  0.18943109004415704        0.0000000000000000     
  -6.3818054809040972E-002  0.19750713833552155        0.0000000000000000     
  -6.7137213708925045E-002  0.16602496160186508        0.0000000000000000     
  -6.8169028213987376E-002  0.17381418208909741        0.0000000000000000     
  -6.9130428320025514E-002  0.18169205251799475        0.0000000000000000     
  -7.0021414027039458E-002  0.18965857288855711        0.0000000000000000     
  -7.0841985335029126E-002  0.19771374320078447        0.0000000000000000     
  -7.3917359657616657E-002  0.16635100951388204        0.0000000000000000     
  -7.5056082145079750E-002  0.17411662536009895        0.0000000000000000     
  -7.6119783031802515E-002  0.18197160699743664        0.0000000000000000     
  -7.7108462317784968E-002  0.18991595442589501        0.0000000000000000     
  -7.8022120003027107E-002  0.19794966764547417        0.0000000000000000     
  -5.0238806183094141E-002  0.19718188734327632        0.0000000000000000     
  -5.0741204801683405E-002  0.20537792419207004        0.0000000000000000     
  -5.1183018476489747E-002  0.21364573825145006        0.0000000000000000     
  -5.1564247207513104E-002  0.22198532952141631        0.0000000000000000     
  -5.1884890994753539E-002  0.23039669800196888        0.0000000000000000     
  -5.6950328425062639E-002  0.19732985304968553        0.0000000000000000     
  -5.7530270946768887E-002  0.20550761024110034        0.0000000000000000     
  -5.8042826089323707E-002  0.21376013912086414        0.0000000000000000     
  -5.8487993852727099E-002  0.22208743968897685        0.0000000000000000     
  -5.8865774236979071E-002  0.23048951194543849        0.0000000000000000     
  -6.3818054809040972E-002  0.19750713833552155        0.0000000000000000     
  -6.4480043935613879E-002  0.20566547961962670        0.0000000000000000     
  -6.5070290214104112E-002  0.21390019608442185        0.0000000000000000     
  -6.5588793644511700E-002  0.22221128772990703        0.0000000000000000     
  -6.6035554226836601E-002  0.23059875455608225        0.0000000000000000     
  -7.0841985335029126E-002  0.19771374320078447        0.0000000000000000     
  -7.1590523768218381E-002  0.20585153232764905        0.0000000000000000     
  -7.2265410850830977E-002  0.21406590914212323        0.0000000000000000     
  -7.2866646582866873E-002  0.22235687364420686        0.0000000000000000     
  -7.3394230964326124E-002  0.23072442583390013        0.0000000000000000     
  -7.8022120003027107E-002  0.19794966764547417        0.0000000000000000     
  -7.8861710444582386E-002  0.20606576836516749        0.0000000000000000     
  -7.9628187999504232E-002  0.21425727829396823        0.0000000000000000     
  -8.0321552667792659E-002  0.22252419743187643        0.0000000000000000     
  -8.0941804449447652E-002  0.23086652577889205        0.0000000000000000     
  -5.1884890994753539E-002  0.23039669800196888        0.0000000000000000     
  -5.2153022723257704E-002  0.23887139140052985        0.0000000000000000     
  -5.2376715278072271E-002  0.24740095742452145        0.0000000000000000     
  -5.2555968659197254E-002  0.25598539607394349        0.0000000000000000     
  -5.2690782866632653E-002  0.26462470734879628        0.0000000000000000     
  -5.8865774236979071E-002  0.23048951194543849        0.0000000000000000     
  -5.9182260665268285E-002  0.23896543862691633        0.0000000000000000     
  -5.9443546560783482E-002  0.24751430247007766        0.0000000000000000     
  -5.9649631923524592E-002  0.25613610347492238        0.0000000000000000     
  -5.9800516753491677E-002  0.26483084164145060        0.0000000000000000     
  -6.6035554226836601E-002  0.23059875455608225        0.0000000000000000     
  -6.6412879020602333E-002  0.23906902496828702        0.0000000000000000     
  -6.6723075085332428E-002  0.24762852737186092        0.0000000000000000     
  -6.6966142421026900E-002  0.25627726176680399        0.0000000000000000     
  -6.7142081027685707E-002  0.26501522815311612        0.0000000000000000     
  -7.3394230964326124E-002  0.23072442583390013        0.0000000000000000     
  -7.3844877789259855E-002  0.23918215042464186        0.0000000000000000     
  -7.4215300851719193E-002  0.24774363212987124        0.0000000000000000     
  -7.4505500151704138E-002  0.25640887094958820        0.0000000000000000     
  -7.4715475689214716E-002  0.26517786688379286        0.0000000000000000     
  -8.0941804449447652E-002  0.23086652577889205        0.0000000000000000     
  -8.1478256971240809E-002  0.23930481499598086        0.0000000000000000     
  -8.1920223859943714E-002  0.24785961674410856        0.0000000000000000     
  -8.2267705115556339E-002  0.25653093102327523        0.0000000000000000     
  -8.2520700738078712E-002  0.26531875783348075        0.0000000000000000     
  -5.2690782866632653E-002  0.26462470734879628        0.0000000000000000     
  -5.2811995314588807E-002  0.27326968669822094        0.0000000000000000     
  -5.2950443417276047E-002  0.28187112957135890        0.0000000000000000     
  -5.3106127174694394E-002  0.29042903596821029        0.0000000000000000     
  -5.3279046586843820E-002  0.29894340588877494        0.0000000000000000     
  -5.9800516753491677E-002  0.26483084164145060        0.0000000000000000     
  -5.9933064361658656E-002  0.27355438913124958        0.0000000000000000     
  -6.0084138058999474E-002  0.28226261810590658        0.0000000000000000     
  -6.0253737845514140E-002  0.29095552856542184        0.0000000000000000     
  -6.0441863721202631E-002  0.29963312050979507        0.0000000000000000     
  -6.7142081027685707E-002  0.26501522815311612        0.0000000000000000     
  -6.7291121982933202E-002  0.27381259317316975        0.0000000000000000     
  -6.7453496364393767E-002  0.28263952346933724        0.0000000000000000     
  -6.7629204172067359E-002  0.29149601904161865        0.0000000000000000     
  -6.7818245405953992E-002  0.30038207989001392        0.0000000000000000     
  -7.4715475689214716E-002  0.26517786688379286        0.0000000000000000     
  -7.4886168178412454E-002  0.27404429882398157        0.0000000000000000     
  -7.5058518333458890E-002  0.28300184566165093        0.0000000000000000     
  -7.5232526154354037E-002  0.29205050739680094        0.0000000000000000     
  -7.5408191641097896E-002  0.30119028402943149        0.0000000000000000     
  -8.2520700738078712E-002  0.26531875783348075        0.0000000000000000     
  -8.2718202948096384E-002  0.27424950608368492        0.0000000000000000     
  -8.2899203966194879E-002  0.28334958468284749        0.0000000000000000     
  -8.3063703792374197E-002  0.29261899363096844        0.0000000000000000     
  -8.3211702426634337E-002  0.30205773292804772        0.0000000000000000     
  -4.5808934334482063E-002   5.9516061267695777E-002   0.0000000000000000     
  -4.8114136620299931E-002   6.5005343458411219E-002   0.0000000000000000     
  -5.0343381561175446E-002   7.0672970498369778E-002   0.0000000000000000     
  -5.2496669157108614E-002   7.6518942387571454E-002   0.0000000000000000     
  -5.4573999408099413E-002   8.2543259126016233E-002   0.0000000000000000     
  -5.0324839153737935E-002   6.0250839765619568E-002   0.0000000000000000     
  -5.2821680905898158E-002   6.5715548096643678E-002   0.0000000000000000     
  -5.5239766034270096E-002   7.1359248806117895E-002   0.0000000000000000     
  -5.7579094538853730E-002   7.7181941894042178E-002   0.0000000000000000     
  -5.9839666419649093E-002   8.3183627360416526E-002   0.0000000000000000     
  -5.5087708469037863E-002   6.1042098743612161E-002   0.0000000000000000     
  -5.7778497638851033E-002   6.6480960160845426E-002   0.0000000000000000     
  -6.0383319667982972E-002   7.2099368332895125E-002   0.0000000000000000     
  -6.2902174556433724E-002   7.7897323259761231E-002   0.0000000000000000     
  -6.5335062304203245E-002   8.3874824941443743E-002   0.0000000000000000     
  -6.0097542280381840E-002   6.1889838201673590E-002   0.0000000000000000     
  -6.2984586819158542E-002   6.7301579651016491E-002   0.0000000000000000     
  -6.5774042462314122E-002   7.2893329078701510E-002   0.0000000000000000     
  -6.8465909209848588E-002   7.8665086484728641E-002   0.0000000000000000     
  -7.1060187061761940E-002   8.4616851869097856E-002   0.0000000000000000     
  -6.5354340587769844E-002   6.2794058139803821E-002   0.0000000000000000     
  -6.8439948446820706E-002   6.8177406567156845E-002   0.0000000000000000     
  -7.1411934417263540E-002   7.3741131043537023E-002   0.0000000000000000     
  -7.4270298499098331E-002   7.9485231568944381E-002   0.0000000000000000     
  -7.7015040692325093E-002   8.5409708143378865E-002   0.0000000000000000     
  -5.4573999408099413E-002   8.2543259126016233E-002   0.0000000000000000     
  -5.6580046194636961E-002   8.8736995973161079E-002   0.0000000000000000     
  -5.8519483397210366E-002   9.5091228188462967E-002   0.0000000000000000     
  -6.0392311015819572E-002  0.10160595577192186        0.0000000000000000     
  -6.2198529050464628E-002  0.10828117872353779        0.0000000000000000     
  -5.9839666419649093E-002   8.3183627360416526E-002   0.0000000000000000     
  -6.2023488015559007E-002   8.9354899424730933E-002   0.0000000000000000     
  -6.4132565665486321E-002   9.5686352306475361E-002   0.0000000000000000     
  -6.6166899369431056E-002  0.10217798600564980        0.0000000000000000     
  -6.8126489127393178E-002  0.10882980052225422        0.0000000000000000     
  -6.5335062304203245E-002   8.3874824941443743E-002   0.0000000000000000     
  -6.7685110197588549E-002   9.0022044824795672E-002   0.0000000000000000     
  -6.9955445522886586E-002   9.6329154356669958E-002   0.0000000000000000     
  -7.2146068280097342E-002  0.10279615353706668        0.0000000000000000     
  -7.4256978469220872E-002  0.10942304236598578        0.0000000000000000     
  -7.1060187061761940E-002   8.4616851869097856E-002   0.0000000000000000     
  -7.3564912740725602E-002   9.0738432173355227E-002   0.0000000000000000     
  -7.5988122969411154E-002   9.7019634339046784E-002   0.0000000000000000     
  -7.8329817747818470E-002  0.10346045836617254        0.0000000000000000     
  -8.0589997075947689E-002  0.11006090425473247        0.0000000000000000     
  -7.7015040692325093E-002   8.5409708143378865E-002   0.0000000000000000     
  -7.9662895644970200E-002   9.1504061470409653E-002   0.0000000000000000     
  -8.2230598005059982E-002   9.7757792253605813E-002   0.0000000000000000     
  -8.4718147772594454E-002  0.10417090049296734        0.0000000000000000     
  -8.7125544947573630E-002  0.11074338618849426        0.0000000000000000     
  -6.2198529050464628E-002  0.10828117872353779        0.0000000000000000     
  -6.3931719936112213E-002  0.11510212251782176        0.0000000000000000     
  -6.5585466107729043E-002  0.12205401262928477        0.0000000000000000     
  -6.7159767565315096E-002  0.12913684905792677        0.0000000000000000     
  -6.8654624308870385E-002  0.13635063180374782        0.0000000000000000     
  -6.8126489127393178E-002  0.10882980052225422        0.0000000000000000     
  -7.0005986872046649E-002  0.11562725056184341        0.0000000000000000     
  -7.1800044536065394E-002  0.12255579082997206        0.0000000000000000     
  -7.3508662119449383E-002  0.12961542132664022        0.0000000000000000     
  -7.5131839622198673E-002  0.13680614205184782        0.0000000000000000     
  -7.4256978469220872E-002  0.10942304236598578        0.0000000000000000     
  -7.6282166664588522E-002  0.11619546608758392        0.0000000000000000     
  -7.8215623440531762E-002  0.12309906994601769        0.0000000000000000     
  -8.0057348797050579E-002  0.13013385394128707        0.0000000000000000     
  -8.1807342734144986E-002  0.13729981807339212        0.0000000000000000     
  -8.0589997075947689E-002  0.11006090425473247        0.0000000000000000     
  -8.2760259313737858E-002  0.11680676909504323        0.0000000000000000     
  -8.4832202821128203E-002  0.12368384997742152        0.0000000000000000     
  -8.6805827598118696E-002  0.13069214690186737        0.0000000000000000     
  -8.8681133644709351E-002  0.13783165986838064        0.0000000000000000     
  -8.7125544947573630E-002  0.11074338618849426        0.0000000000000000     
  -8.9440264819494630E-002  0.11746115958422142        0.0000000000000000     
  -9.1649782677854674E-002  0.12431013092418366        0.0000000000000000     
  -9.3754098522653692E-002  0.13129030020838101        0.0000000000000000     
  -9.5753212353891753E-002  0.13840166743681340        0.0000000000000000     
  -6.8654624308870385E-002  0.13635063180374782        0.0000000000000000     
  -7.0074896058071948E-002  0.14368509733893914        0.0000000000000000     
  -7.1425442532596861E-002  0.15112998213569195        0.0000000000000000     
  -7.2706263732445098E-002  0.15868528619400626        0.0000000000000000     
  -7.3917359657616657E-002  0.16635100951388204        0.0000000000000000     
  -7.5131839622198673E-002  0.13680614205184782        0.0000000000000000     
  -7.6675375286797312E-002  0.14411739833499237        0.0000000000000000     
  -7.8145067355729403E-002  0.15153863550547128        0.0000000000000000     
  -7.9540915828994932E-002  0.15906985356328457        0.0000000000000000     
  -8.0862920706593927E-002  0.16671105250843224        0.0000000000000000     
  -8.1807342734144986E-002  0.13729981807339212        0.0000000000000000     
  -8.3472220109366183E-002  0.14458635692914013        0.0000000000000000     
  -8.5058595780265353E-002  0.15198286509533851        0.0000000000000000     
  -8.6566469746842539E-002  0.15948934257198724        0.0000000000000000     
  -8.7995842009097686E-002  0.16710578935908638        0.0000000000000000     
  -8.8681133644709351E-002  0.13783165986838064        0.0000000000000000     
  -9.0465430525778559E-002  0.14509197312138244        0.0000000000000000     
  -9.2166027806204726E-002  0.15246267090529361        0.0000000000000000     
  -9.3782925485987850E-002  0.15994375322011428        0.0000000000000000     
  -9.5316123565127919E-002  0.16753522006584434        0.0000000000000000     
  -9.5753212353891753E-002  0.13840166743681340        0.0000000000000000     
  -9.7655006536034483E-002  0.14563424691171917        0.0000000000000000     
  -9.9467363433547534E-002  0.15297805293533656        0.0000000000000000     
 -0.10119028304643091       0.16043308550766558        0.0000000000000000     
 -0.10282376537468464       0.16799934462870625        0.0000000000000000     
  -7.3917359657616657E-002  0.16635100951388204        0.0000000000000000     
  -7.5056082145079750E-002  0.17411662536009895        0.0000000000000000     
  -7.6119783031802515E-002  0.18197160699743664        0.0000000000000000     
  -7.7108462317784968E-002  0.18991595442589501        0.0000000000000000     
  -7.8022120003027107E-002  0.19794966764547417        0.0000000000000000     
  -8.0862920706593927E-002  0.16671105250843224        0.0000000000000000     
  -8.2108444336474309E-002  0.17445223551064179        0.0000000000000000     
  -8.3274849066584028E-002  0.18228340573964072        0.0000000000000000     
  -8.4362134896923041E-002  0.19020456319542911        0.0000000000000000     
  -8.5370301827491391E-002  0.19821570787800680        0.0000000000000000     
  -8.7995842009097686E-002  0.16710578935908638        0.0000000000000000     
  -8.9344841305029593E-002  0.17482229236256153        0.0000000000000000     
  -9.0611596372637007E-002  0.18262893848833855        0.0000000000000000     
  -9.1796107211919969E-002  0.19052572773641749        0.0000000000000000     
  -9.2898373822878438E-002  0.19851266010679824        0.0000000000000000     
  -9.5316123565127919E-002  0.16753522006584434        0.0000000000000000     
  -9.6765273050745573E-002  0.17522679591585824        0.0000000000000000     
  -9.8130024949961564E-002  0.18300820524353018        0.0000000000000000     
  -9.9410379262775753E-002  0.19087944804886034        0.0000000000000000     
 -0.10060633598918822       0.19884052433184851        0.0000000000000000     
 -0.10282376537468464       0.16799934462870625        0.0000000000000000     
 -0.10436973957362231       0.17566574617053179        0.0000000000000000     
 -0.10583013479855757       0.18342120600521555        0.0000000000000000     
 -0.10720495104949038       0.19126572413275750        0.0000000000000000     
 -0.10849418832642078       0.19919930055315760        0.0000000000000000     
  -7.8022120003027107E-002  0.19794966764547417        0.0000000000000000     
  -7.8861710444582386E-002  0.20606576836516749        0.0000000000000000     
  -7.9628187999504232E-002  0.21425727829396823        0.0000000000000000     
  -8.0321552667792659E-002  0.22252419743187643        0.0000000000000000     
  -8.0941804449447652E-002  0.23086652577889205        0.0000000000000000     
  -8.5370301827491391E-002  0.19821570787800680        0.0000000000000000     
  -8.6302937277643016E-002  0.20630905254644558        0.0000000000000000     
  -8.7163628666731788E-002  0.21447680995981708        0.0000000000000000     
  -8.7952375994757762E-002  0.22271898011812125        0.0000000000000000     
  -8.8669179261720923E-002  0.23103556302135811        0.0000000000000000     
  -9.2898373822878438E-002  0.19851266010679824        0.0000000000000000     
  -9.3923537580337307E-002  0.20658224968574698        0.0000000000000000     
  -9.4876739859121470E-002  0.21472701055952992        0.0000000000000000     
  -9.5757980659230885E-002  0.22294694272814697        0.0000000000000000     
  -9.6567259980665635E-002  0.23124204619159822        0.0000000000000000     
 -0.10060633598918822       0.19884052433184851        0.0000000000000000     
 -0.10172351135266529       0.20688535978307168        0.0000000000000000     
 -0.10276752157667324       0.21500788009310673        0.0000000000000000     
 -0.10373836666121207       0.22320808526195368        0.0000000000000000     
 -0.10463604660628183       0.23148597528961240        0.0000000000000000     
 -0.10849418832642078       0.19919930055315760        0.0000000000000000     
 -0.10970285859462696       0.20721838283841973        0.0000000000000000     
 -0.11083597381938715       0.21531941856054759        0.0000000000000000     
 -0.11189353400070130       0.22350240771954125        0.0000000000000000     
 -0.11287553913856946       0.23176735031540069        0.0000000000000000     
  -8.0941804449447652E-002  0.23086652577889205        0.0000000000000000     
  -8.1478256971240809E-002  0.23930481499598086        0.0000000000000000     
  -8.1920223859943714E-002  0.24785961674410856        0.0000000000000000     
  -8.2267705115556339E-002  0.25653093102327523        0.0000000000000000     
  -8.2520700738078712E-002  0.26531875783348075        0.0000000000000000     
  -8.8669179261720923E-002  0.23103556302135811        0.0000000000000000     
  -8.9299559024317382E-002  0.23945200578233955        0.0000000000000000     
  -8.9829035839243343E-002  0.24799375551387745        0.0000000000000000     
  -9.0257609706498709E-002  0.25666081221597181        0.0000000000000000     
  -9.0585280626083564E-002  0.26545317588862272        0.0000000000000000     
  -9.6567259980665635E-002  0.23124204619159822        0.0000000000000000     
  -9.7295326406261762E-002  0.23963870988375344        0.0000000000000000     
  -9.7932928518855392E-002  0.24816332273848232        0.0000000000000000     
  -9.8480066318446496E-002  0.25681588475578498        0.0000000000000000     
  -9.8936739805035090E-002  0.26559639593566142        0.0000000000000000     
 -0.10463604660628183       0.23148597528961240        0.0000000000000000     
 -0.10546555911707392       0.23986492730022246        0.0000000000000000     
 -0.10623190189877987       0.24836831841792328        0.0000000000000000     
 -0.10693507495139967       0.25699614864271475        0.0000000000000000     
 -0.10757507827493332       0.26574841797459692        0.0000000000000000     
 -0.11287553913856946       0.23176735031540069        0.0000000000000000     
 -0.11381025715675389       0.24013065803174671        0.0000000000000000     
 -0.11472595597901683       0.24860874255220017        0.0000000000000000     
 -0.11562263560535826       0.25720160387676105        0.0000000000000000     
 -0.11650029603577824       0.26590924200542937        0.0000000000000000     
  -8.2520700738078712E-002  0.26531875783348075        0.0000000000000000     
  -8.2718202948096384E-002  0.27424950608368492        0.0000000000000000     
  -8.2899203966194879E-002  0.28334958468284749        0.0000000000000000     
  -8.3063703792374197E-002  0.29261899363096844        0.0000000000000000     
  -8.3211702426634337E-002  0.30205773292804772        0.0000000000000000     
  -9.0585280626083564E-002  0.26545317588862272        0.0000000000000000     
  -9.0842417101968664E-002  0.27443390029538101        0.0000000000000000     
  -9.1059387638124864E-002  0.28366603919979771        0.0000000000000000     
  -9.1236192234552135E-002  0.29314959260187290        0.0000000000000000     
  -9.1372830891250492E-002  0.30288456050160650        0.0000000000000000     
  -9.8936739805035090E-002  0.26559639593566142        0.0000000000000000     
  -9.9314001450013012E-002  0.27460316680217078        0.0000000000000000     
  -9.9622903724772019E-002  0.28393450787937224        0.0000000000000000     
  -9.9863446629312166E-002  0.29359041916726575        0.0000000000000000     
 -0.10003563016363344       0.30357090066585135        0.0000000000000000     
 -0.10757507827493332       0.26574841797459692        0.0000000000000000     
 -0.10813295599222936       0.27475730560405431        0.0000000000000000     
 -0.10858975222613637       0.28415499072157091        0.0000000000000000     
 -0.10894546697665429       0.29394147332714698        0.0000000000000000     
 -0.10920010024378321       0.30411675342078237        0.0000000000000000     
 -0.11650029603577824       0.26590924200542937        0.0000000000000000     
 -0.11729928072861776       0.27489631670103154        0.0000000000000000     
 -0.11795993314221787       0.28432748772639393        0.0000000000000000     
 -0.11848225327657853       0.29420275508151666        0.0000000000000000     
 -0.11886624113169980       0.30452211876639962        0.0000000000000000     
 </DataArray>
 <DataArray  type="Float64" Name="stress" NumberOfComponents="3" format="ascii">
   6039941928.1375380        21658799.527165413       -64334871.883099131     
   5818586963.8701801        10989151.663487673       -78617648.575565532     
   5597028494.1915054       -358847.57129383087       -79431903.057336494     
   5375266519.1014938       -12385198.177152157       -66777635.328445964     
   5153301038.6001616       -25089900.154099703       -40654845.388866402     
   5639831389.0093260        10068172.695389509        139141974.75933981     
   5451498497.7779217        6860880.2970194817        126291725.03517908     
   5262903138.4894724        2778694.3751873970        123652465.71292864     
   5074045311.1439962       -2178385.0700874329        131224196.79257250     
   4884925015.7414780       -8010358.0388364792        149006918.27411768     
   5249244023.3932199        1334497.9172487259        341713113.79942489     
   5084625971.4583969        2797390.8623914719        330226601.29023910     
   4919686488.8208275        3188848.1317000389        325693547.37417781     
   4754425575.4805050        2508869.7251760960        328113952.05123204     
   4588843231.4374294        757455.64281344414        337487815.32141721     
   4868179831.2892084       -4542224.8072671890        543378545.23715460     
   4717969384.9116096       -1201316.6404242516        533186980.18960363     
   4567378545.1855431        871613.69821000099        526691341.92640346     
   4416407312.1110153        1676566.2086412907        523891630.44754511     
   4265055685.6880255        1213540.8908653259        524787845.75303411     
   4496638812.6973181       -7561995.4781434536        744138269.07251573     
   4351528738.1375608       -5135242.2114179134        735172861.73328102     
   4205979307.5836368       -4173008.9252600670        726645849.36961019     
   4059990521.0355363       -4675295.6196835041        718557231.98150384     
   3913562378.4932580       -6642102.2946982384        710907009.56896782     
   5153301038.6001616       -25089900.154099703       -40654845.388866402     
   5001924036.8553934       -16703303.109436989       -24392132.574786622     
   4850694335.2876253       -7825705.4747581482       -10304722.912893945     
   4699611933.8968849        1542892.7499966621        1607383.5968244409     
   4548676832.6831493        11402491.564785004        11344186.954360850     
   4884925015.7414780       -8010358.0388364792        149006918.27411768     
   4729667770.7378263       -3835640.2917530537        156921986.17611110     
   4574572626.0524235        879411.84948062897        164999526.86905828     
   4419639581.6852655        6134798.3848628998        173239540.35295087     
   4264868637.6363487        11930519.314391851        181642026.62778825     
   4588843231.4374294        757455.64281344414        337487815.32141721     
   4436385103.0124130        2724102.0435869694        337072505.14277548     
   4284103875.0468674        5280416.6426002979        339157443.69819856     
   4131999547.5408010        8426399.4398689270        343742630.98770630     
   3980072120.4942122        12162050.435408115        350828067.01128137     
   4265055685.6880255        1213540.8908653259        524787845.75303411     
   4122076033.6791382        2975923.8965635300        516059424.32518744     
   3979288082.2709627        5377308.9046218395        512169027.57454145     
   3836691831.4634929        8417695.9150385857        513116655.50108445     
   3694287281.2567301        12097084.927815437        518902308.10483533     
   3913562378.4932580       -6642102.2946982384        710907009.56896782     
   3786740562.7380104       -3080174.7328126431        693882743.72335482     
   3660125247.7247009        1170088.6355364323        684034278.49806309     
   3533716433.4533267        6108687.8103411198        681361613.89309764     
   3407514119.9239006        11735622.791618824        685864749.90845728     
   4548676832.6831493        11402491.564785004        11344186.954360850     
   4344978133.8322706        5699712.9780693054        1780014.2412602517     
   4141307982.2041364        92091.800474643707       -2591837.0298459404     
   3937666377.7987361       -5420371.9679846764       -1771366.8589404323     
   3734053320.6160831       -10837678.327305317        4241424.7539684493     
   4264868637.6363487        11930519.314391851        181642026.62778825     
   4074722846.7912869        7351091.8969769478        171636024.66959736     
   3884571420.9193320        2752881.0565764904        166603780.23480773     
   3694414360.0204878       -1864113.2067933083        166545293.32341877     
   3504251664.0947452       -6499890.8931365013        171460563.93542847     
   3980072120.4942122        12162050.435408115        350828067.01128137     
   3802854769.3161020        8518633.6856310368        340340356.51676172     
   3625597600.8614712        4742492.6807680130        334607839.62703896     
   3448300615.1303086        833627.42081809044        333630516.34212065     
   3270963812.1226325       -3207962.0941939354        337408386.66199702     
   3694287281.2567301        12097084.927815437        518902308.10483533     
   3529373901.4067211        9202338.3440196514        507893009.78274912     
   3364386522.0305519        6060926.6730356216        501420341.14685452     
   3199325143.1282306        2672849.9148736000        499484302.19717550     
   3034189764.6997509       -961891.93048512936        502084892.93369204     
   3407514119.9239006        11735622.791618824        685864749.90845728     
   3254280243.0631337        9402205.8721562624        674293984.46756446     
   3100938184.4265752        6708183.0333942175        667041284.79427052     
   2947487944.0142312        3653554.2753397226        664106650.88858044     
   2793929521.8260994        238319.59799265862        665490082.75048780     
   3734053320.6160831       -10837678.327305317        4241424.7539684493     
   3563382360.4233589       -7342259.7293744087        320454.90028220770     
   3392043355.7729383       -6073655.9904682636        835849.29776917642     
   3220036306.6647649       -7031867.1107225418        5787607.9464267939     
   3047361213.0988932       -10216893.089961767        15175730.846270433     
   3504251664.0947452       -6499890.8931365013        171460563.93542847     
   3344731959.0340180       -2554792.8987584114        165498321.20389450     
   3184814358.2888932        63986.147611260414        163573830.61583400     
   3024498861.8593717        1356446.2460129261        165687092.17128348     
   2863785469.7454553        1322587.3964201212        171838105.87019232     
   3270963812.1226325       -3207962.0941939354        337408386.66199702     
   3121456470.4576406        845147.77572691441        329720044.62149388     
   2971821381.8815827        4472434.6087644100        325670842.61678439     
   2822058546.3944364        7673898.4048390388        325260780.64787483     
   2672167963.9962292        10449539.164038777        328489858.71475631     
   3034189764.6997509       -961891.93048512936        502084892.93369204     
   2893555894.6942453        2857562.2941299677        492985625.15308458     
   2753064426.5509915        7151689.3929001093        487126885.30059373     
   2612715360.2699890        11920489.365848184        484508673.37620699     
   2472508695.8512325        17163962.212953091        485130989.37993330     
   2793929521.8260994        238319.59799265862        665490082.75048780     
   2661030231.7438259        3482450.6564025879        655295062.79866302     
   2528543492.2971282        8101750.5000723600        647941958.66727006     
   2396469303.4859958        14096219.128961682        643430770.35629177     
   2264807665.3104434        21465856.543116212        641761497.86573374     
   3047361213.0988932       -10216893.089961767        15175730.846270433     
   2882811707.7578945       -11009806.439675212        10668393.378940536     
   2718900204.7836981       -9676045.2333813906        6674584.5220125187     
   2555626704.1763067       -6215609.4710685015        3194304.2754991944     
   2392991205.9356999       -628499.15280866623        227552.63937237821     
   2863785469.7454553        1322587.3964201212        171838105.87019232     
   2701572123.5274119        755985.39941251278        165447477.12521005     
   2539702107.9940939        1333819.0181621313        160288139.55224273     
   2378175423.1455140        3056088.2527133226        156360093.15129739     
   2216992068.9816480        5922793.1029567719        153663337.92235550     
   2672167963.9962292        10449539.164038777        328489858.71475631     
   2514341527.0771890        10724473.572568297        319872155.06303108     
   2356563749.1607914        11161604.656581044        313203505.14493519     
   2198834630.2470655        11760932.416158199        308483908.96047217     
   2041154170.3359857        12522456.851232529        305713366.50963265     
   2472508695.8512325        17163962.212953091        485130989.37993330     
   2321119918.4072199        18895658.079778433        473942427.19238645     
   2169485128.2838058        19807311.681929350        465420681.30007511     
   2017604325.4809620        19898923.019326806        459565751.70302129     
   1865477509.9987152        19170492.092015743        456377638.40121120     
   2264807665.3104434        21465856.543116212        641761497.86573374     
   2121907297.5175195        25269538.921092391        627658293.51327407     
   1978466245.3631103        27270940.094122887        616939668.01767886     
   1834484508.8472149        27470060.062201858        609605621.37895072     
   1689962087.9698339        25866898.825329185        605656153.59707665     
   2392991205.9356999       -628499.15280866623        227552.63937237821     
   2250195451.2542839        6937929.5210810900       -6627672.5128044942     
   2104142394.3958335        3646684.2715115547       -11280047.996931054     
   1954832035.3603950       -10502234.901346445       -13729573.813000891     
   1802264374.1479223       -35508827.997652054       -13976249.961017855     
   2216992068.9816480        5922793.1029567719        153663337.92235550     
   2078606390.7085562        12894090.881295919        143274368.04756001     
   1938074276.3622704        12710601.748983026        134212252.87162642     
   1795395725.9427876        5372325.7060278654        126476992.39455408     
   1650570739.4501071       -9120737.2476090193        120068586.61634748     
   2041154170.3359857        12522456.851232529        305713366.50963265     
   1904675725.7020891        18147770.903285623        293086662.36668724     
   1767161711.0988131        20321185.057404518        280910817.95340180     
   1628612126.5261865        19042699.313690126        269185833.26977903     
   1489026971.9841814        14312313.672047615        257911708.31582776     
   1865477509.9987152        19170492.092015743        456377638.40121120     
   1728403456.2348852        22698969.587055922        442809210.44456691     
   1591404698.6055119        26478434.196933925        428815647.24839407     
   1454481237.1105931        30508885.921668351        414396948.81269050     
   1317633071.7501271        34790324.761235654        399553115.13745952     
   1689962087.9698339        25866898.825329185        605656153.59707665     
   1549789582.3069487        26547686.932606518        592442012.28120160     
   1410803238.8823440        31182349.167491496        577926740.75660133     
   1273003057.6960175        39770885.529962242        562110339.02327144     
   1136389038.7479606        52313296.020009995        544992807.08121777     
   1802264374.1479223       -35508827.997652054       -13976249.961017855     
   1771383989.5007470       -16720590.113042235       -8296309.5719466545     
   1748566609.0160706        28944328.313220739       -41443575.014388226     
   1733812232.6939225        101485927.28124410       -113418046.28840148     
   1727120860.5342503        200904206.79086351       -224219723.39392751     
   1650570739.4501071       -9120737.2476090193        120068586.61634748     
   1527846169.3720057       -13916371.297095358        135659954.76035619     
   1409290433.5954695       -4815891.0080435872        124871587.31229272     
   1294903532.1205096        18180703.619591832        87703484.272164121     
   1184685464.9471316        55073412.585833967        24155645.639939010     
   1489026971.9841814        14312313.672047615        257911708.31582776     
   1310022417.1593156       -3397932.1063599586        278871306.04369271     
   1131292526.7751007       -20192629.749274671        285898638.41895556     
   952837300.83153915       -36071779.256673396        278993705.44159830     
   774656739.32861865       -51035380.628607243        258156507.11163259     
   1317633071.7501271        34790324.761235654        399553115.13745952     
   1117912732.8626981        14834727.459223986        421337744.27808535     
   914572888.55497599       -17185887.910414338        441637578.30557817     
   707613538.82698345       -61271521.347641230        460452617.21991169     
   497034683.67870235       -117422172.85247275        477782861.02110928     
   1136389038.7479606        52313296.020009995        544992807.08121777     
   951517116.48213124        40781607.399613142        563059269.46354115     
   759131518.93509269        4204334.5085134506        592088406.97217560     
   559232246.10684776       -57418522.653271049        632080219.60713148     
   351819297.99738842       -144086964.08577085        683034707.36840093     
   1727120860.5342503        200904206.79086351       -224219723.39392751     
   1456635175.1999917        184611843.09016150       -96654995.423656613     
   1153972848.8298287        61064009.269766927        60090141.602183647     
   819133881.42377055       -169739294.67027837        246015687.68357918     
   452118272.98178577       -507798068.73006785        461121642.82053125     
   1184685464.9471316        55073412.585833967        24155645.639939010     
   977648156.29460192        11870543.995497227        155554511.39261165     
   732782801.17815113       -157425812.80788782        312789528.20406049     
   450089399.59778696       -452815657.82431728        495860696.07423937     
   129567951.55354440       -874298991.05371904        704768015.00319445     
   774656739.32861865       -51035380.628607243        258156507.11163259     
   621512784.50980353       -124015260.96302956        386796204.31402844     
   424889377.79908586       -341926647.60379720        537927794.57839513     
   184786519.19646576       -704769540.55091715        711551277.90471137     
  -98795791.298061252       -1212543939.8043795        907666654.29301310     
   497034683.67870235       -117422172.85247275        477782861.02110928     
   388229059.84562612       -223045571.78536344        597070083.34056818     
   230292578.69264862       -492438495.11792570        735504940.72519660     
   23225240.219779670       -925600942.85014665        893087433.17498922     
  -232972955.57300472       -1522532914.9820414        1069817560.6899639     
   351819297.99738842       -144086964.08577085        683034707.36840093     
   277796982.30207527       -285220388.47148937        786376148.47225130     
   148992403.85884798       -608961355.35024989        905520966.64447534     
  -34594437.332269788       -1115309864.7219784        1040469161.8850795     
  -272963541.27128500       -1804265916.5867040        1191220734.1940548     
   4496638812.6973181       -7561995.4781434536        744138269.07251573     
   4351528738.1375608       -5135242.2114179134        735172861.73328102     
   4205979307.5836368       -4173008.9252600670        726645849.36961019     
   4059990521.0355363       -4675295.6196835041        718557231.98150384     
   3913562378.4932580       -6642102.2946982384        710907009.56896782     
   4132102614.4081998       -1081623.3752703667        826929949.56191814     
   3988886230.0471916       -4047984.5087985992        818392211.46167922     
   3845513603.0388670       -7535154.4667291641        812117328.01573575     
   3701984733.3832121       -11543133.249086142        808105299.22409356     
   3558299621.0802326       -16071920.855858326        806356125.08674693     
   3767174621.6633902        5281210.3908917904        907263703.11442542     
   3631064669.4403663       -1514442.5611114502        899483933.15784144     
   3495081587.9168634       -7887193.1813750267        895791477.53428078     
   3359225377.0928802       -13837041.469887972        896186336.24375331     
   3223496036.9684281       -19363987.426654935        900668509.28624797     
   3401854834.4628849        11526505.820348740        985139529.73003471     
   3278064056.3170657        2465383.6316275597        978448026.82176173     
   3154683262.2176199       -5229125.0691863298        977668297.92524171     
   3031712452.1645446       -11557020.282088995        982800343.04048467     
   2909151626.1578417       -16518302.007091165        993844162.16748512     
   3036143252.8066864        17654262.913094163        1060557429.4087483     
   2929884390.6773052        7891494.0694350004        1055284492.4534429     
   2824318625.9411416        439049.86982715130        1057747789.1886241     
   2719445958.5982037       -4703069.6856929064        1067947319.6142941     
   2615266388.6484842       -7534864.5971486568        1085883083.7304494     
   3913562378.4932580       -6642102.2946982384        710907009.56896782     
   3786740562.7380104       -3080174.7328126431        693882743.72335482     
   3660125247.7247009        1170088.6355364323        684034278.49806309     
   3533716433.4533267        6108687.8103411198        681361613.89309764     
   3407514119.9239006        11735622.791618824        685864749.90845728     
   3558299621.0802326       -16071920.855858326        806356125.08674693     
   3448729490.4984970       -10301292.060200691        795933752.92872643     
   3339358408.2032433       -3867168.9762754440        791096406.92221355     
   3230186374.1944723        3230448.3959350586        791844087.06721330     
   3121213388.4721842        10991560.056410432        798176793.36371279     
   3223496036.9684281       -19363987.426654935        900668509.28624797     
   3126632521.6492958       -12748178.370498538        896839336.28446329     
   3029960602.1611910       -5493716.5442520380        897004414.96536541     
   2933480278.5041084        2399398.0520660877        901163745.32895720     
   2837191550.6780553        10931165.418478012        909317327.37523389     
   2909151626.1578417       -16518302.007091165        993844162.16748512     
   2820449656.1904097       -10420833.663699985        996599493.79056370     
   2731931829.5985436       -3709554.0684157610        1001758302.6275117     
   2643598146.3822436        3615536.7787609100        1009320588.6783255     
   2555448606.5415149        11554438.877823949        1019286351.9430171     
   2615266388.6484842       -7534864.5971486568        1085883083.7304494     
   2530180894.1218357       -3319257.9398063421        1095214225.4470258     
   2445272090.5152979        1485318.4512461424        1105358069.9086530     
   2360539977.8288698        6878864.5759900808        1116314617.1153331     
   2275984556.0625510        12861380.434439659        1128083867.0670636     
   3407514119.9239006        11735622.791618824        685864749.90845728     
   3254280243.0631337        9402205.8721562624        674293984.46756446     
   3100938184.4265752        6708183.0333942175        667041284.79427052     
   2947487944.0142312        3653554.2753397226        664106650.88858044     
   2793929521.8260994        238319.59799265862        665490082.75048780     
   3121213388.4721842        10991560.056410432        798176793.36371279     
   2979392669.6228948        9129950.8337831497        787330670.76728868     
   2837525605.1607471        7113856.2349729538        780836956.02051139     
   2695612195.0857482        4943276.2599807978        778695649.12338471     
   2553652439.3978829        2618210.9087821245        780906750.07590353     
   2837191550.6780553        10931165.418478012        909317327.37523389     
   2706882110.0746646        9570799.9630244970        899267989.81336367     
   2576588160.0213466        8262069.6744827032        893605402.18318999     
   2446309700.5181074        7004974.5528676510        892329564.48470914     
   2316046731.5649395        5799514.5981603861        895440476.71792829     
   2555448606.5415149        11554438.877823949        1019286351.9430171     
   2436748564.4184370        10724753.259855509        1010105941.6057887     
   2318125849.0083685        10152823.351919413        1005346623.2823032     
   2199580460.3113084        9838649.1540004015        1005008396.9725657     
   2081112398.3272548        9782230.6661128998        1009091262.6765661     
   2275984556.0625510        12861380.434439659        1128083867.0670636     
   2168992032.6542168        12591810.724302173        1119844526.1445661     
   2062138672.1218178        12786117.267281890        1116060619.3178613     
   1955424474.4653616        13444300.063404083        1116732146.5869415     
   1848849439.6848409        14566359.112649918        1121859107.9518166     
   2793929521.8260994        238319.59799265862        665490082.75048780     
   2661030231.7438259        3482450.6564025879        655295062.79866302     
   2528543492.2971282        8101750.5000723600        647941958.66727006     
   2396469303.4859958        14096219.128961682        643430770.35629177     
   2264807665.3104434        21465856.543116212        641761497.86573374     
   2553652439.3978829        2618210.9087821245        780906750.07590353     
   2428568718.9863682        5826896.9338133335        772263694.11105251     
   2303841854.6008816        10225103.045611382        766798878.61869252     
   2179471846.2414236        15812829.244172215        764512303.59880507     
   2055458693.9080036        22590075.529511452        765403969.05140400     
   2316046731.5649395        5799514.5981603861        895440476.71792829     
   2199739508.4014916        9261033.8629934788        888284407.69559085     
   2083733446.6545277        13726424.516118884        884642903.79779339     
   1968028546.3240523        19195686.557540059        884515965.02453375     
   1852624807.4100661        25668819.987257600        887903591.37581253     
   2081112398.3272548        9782230.6661128998        1009091262.6765661     
   1974542599.9891863        13784861.443947196        1003357203.5522679     
   1868218268.4580615        18605714.911602378        1001474034.2045761     
   1762139403.7338765        24244791.069061279        1003441754.6334740     
   1656306005.8166511        30702089.916356862        1009260364.8389761     
   1848849439.6848409        14566359.112649918        1121859107.9518166     
   1752977993.7494588        19398379.676667929        1117482081.6810930     
   1657296320.0114813        24862974.232037544        1117292269.8390317     
   1561804418.4709072        30960142.778752685        1121289672.4256272     
   1466502289.1277363        37689885.316813052        1129474289.4408777     
   2264807665.3104434        21465856.543116212        641761497.86573374     
   2121907297.5175195        25269538.921092391        627658293.51327407     
   1978466245.3631103        27270940.094122887        616939668.01767886     
   1834484508.8472149        27470060.062201858        609605621.37895072     
   1689962087.9698339        25866898.825329185        605656153.59707665     
   2055458693.9080036        22590075.529511452        765403969.05140400     
   1921387004.9962249        26336598.833243847        753070079.02311897     
   1786949781.8113213        28864674.559871793        744156092.14061344     
   1652147024.3532758        30174302.709371269        738662008.40387583     
   1516978732.6221082        30265483.281807899        736587827.81290376     
   1852624807.4100661        25668819.987257600        887903591.37581253     
   1727482723.9191861        29388462.178667068        877543357.44145322     
   1602150256.2435293        32473490.420814037        870638350.94177604     
   1476627404.3830879        34923904.713692904        867188571.87677860     
   1350914168.3378775        36739705.057328522        867194020.24646628     
   1656306005.8166511        30702089.916356862        1009260364.8389761     
   1540194454.2864032        34425128.957363009        1001078128.7682799     
   1424067668.6597369        38097387.676952302        996386444.42117703     
   1307925648.9366479        41718866.075125515        995185311.79767072     
   1191768395.1171260        45289564.151879549        997474730.89776123     
   1466502289.1277363        37689885.316813052        1129474289.4408777     
   1359522196.0978794        41446599.169346511        1123674393.0035951     
   1252702019.0599504        45736366.328304052        1121400372.5788159     
   1146041758.0139523        50559186.793694377        1122652228.1665435     
   1039541412.9598804        55915060.565515637        1127429959.7667792     
   1689962087.9698339        25866898.825329185        605656153.59707665     
   1549789582.3069487        26547686.932606518        592442012.28120160     
   1410803238.8823440        31182349.167491496        577926740.75660133     
   1273003057.6960175        39770885.529962242        562110339.02327144     
   1136389038.7479606        52313296.020009995        544992807.08121777     
   1516978732.6221082        30265483.281807899        736587827.81290376     
   1374950918.7672081        28208080.097350776        727569019.90543890     
   1233228819.1065004        27169724.226887584        719056072.35708177     
   1091812433.6399724        27150415.670344353        711048985.16783881     
   950701762.36762750        28150154.427749872        703547758.33770847     
   1350914168.3378775        36739705.057328522        867194020.24646628     
   1212193876.4847882        33492959.639317811        861343356.36263394     
   1072898850.7817848        28330434.721614599        857805543.40574753     
   933029091.22887230        21252130.304209709        856580581.37581372     
   792584597.82605624        12258046.387115031        857668470.27282417     
   1191768395.1171260        45289564.151879549        997474730.89776123     
   1061518455.4596628        42402325.558446646        993765021.65278435     
   929813333.90819871        34664480.651684165        994175153.90259182     
   796653030.46272683        22076029.431568205        998705127.64718914     
   662037545.12325978        4636971.8981175721        1007354942.8865659     
   1039541412.9598804        55915060.565515637        1127429959.7667792     
   922924655.69185936        54936177.854798675        1124834015.7758825     
   803972268.48574162        46171862.017097414        1128164903.8476124     
   682684251.34152949        29622113.052415699        1137422623.9819651     
   559060604.25922334        5286930.9607481360        1152607176.1789317     
   1136389038.7479606        52313296.020009995        544992807.08121777     
   951517116.48213124        40781607.399613142        563059269.46354115     
   759131518.93509269        4204334.5085134506        592088406.97217560     
   559232246.10684776       -57418522.653271049        632080219.60713148     
   351819297.99738842       -144086964.08577085        683034707.36840093     
   950701762.36762750        28150154.427749872        703547758.33770847     
   791559960.43120480        11109561.420503348        721413543.08691072     
   623784317.33440197       -34710502.121351928        749380338.59092426     
   447374833.07720423       -109310036.19785458        787448144.84974492     
   262331507.65962094       -212689040.80897260        835616961.86336732     
   792584597.82605624        12258046.387115031        857668470.27282417     
   656711018.01474726       -11030020.468240738        874026717.19652975     
   511083431.16386425       -66831444.122165620        899624310.50353932     
   355701837.27341336       -155146224.57464913        934461250.19384956     
   190566236.34339443       -275974361.82570535        978537536.26746356     
   662037545.12325978        4636971.8981175721        1007354942.8865659     
   546970289.23274291       -25637138.266668111        1020898791.7924006     
   421028860.42348504       -92158491.493934661        1042820322.7100316     
   284213258.69546986       -194927087.78371936        1073119535.6394554     
   136523484.04871631       -333942927.13597703        1111796430.5806782     
   559060604.25922334        5286930.9607481360        1152607176.1789317     
   462337774.08520150       -32711791.974746525        1162029766.8745275     
   353620605.11325628       -110691644.23666354        1178968375.2103982     
   232909097.34337997       -228652625.82501483        1203423001.1865582     
   100203250.77557924       -386594736.73978633        1235393644.8030152     
   351819297.99738842       -144086964.08577085        683034707.36840093     
   277796982.30207527       -285220388.47148937        786376148.47225130     
   148992403.85884798       -608961355.35024989        905520966.64447534     
  -34594437.332269788       -1115309864.7219784        1040469161.8850795     
  -272963541.27128500       -1804265916.5867040        1191220734.1940548     
   262331507.65962094       -212689040.80897260        835616961.86336732     
   223615406.76027697       -352351772.10551345        885008422.97456384     
   140665964.13720357       -639458975.81448281        945415743.07062709     
   13483179.790419400       -1074010651.9358299        1016838922.1515596     
  -157932946.28008795       -1656006800.4695735        1099277960.2173562     
   190566236.34339443       -275974361.82570535        978537536.26746356     
   173477727.14428982       -418269986.96180421        986286091.91421270     
   122704797.24563786       -672847014.42969871        1000262988.4623265     
   38247446.647451043       -1039705444.2293785        1020468225.9118040     
  -79894324.650272369       -1518845276.3608708        1046901804.2626386     
   136523484.04871631       -333942927.13597703        1111796430.5806782     
   127383943.45411122       -482975033.04034734        1090209155.2911859     
   95108903.184155345       -709125471.19588637        1070062702.8195542     
   39698363.238837659       -1012394241.6026273        1051357073.1657839     
  -38847676.381843150       -1392781344.2605770        1034092266.3298583     
   100203250.77557924       -386594736.73978633        1235393644.8030152     
   85334055.689748108       -546466910.34114599        1196777613.1054997     
   57878281.952753633       -748294346.11304986        1154814886.1423378     
   17835929.564578056       -992077044.05556321        1109505463.9135177     
  -34793001.474786520       -1277815004.1686952        1060849346.4190588     
   3036143252.8066864        17654262.913094163        1060557429.4087483     
   2929884390.6773052        7891494.0694350004        1055284492.4534429     
   2824318625.9411416        439049.86982715130        1057747789.1886241     
   2719445958.5982037       -4703069.6856929064        1067947319.6142941     
   2615266388.6484842       -7534864.5971486568        1085883083.7304494     
   2665730268.8354530        19358848.728709936        1179791777.0088949     
   2578846358.8491278        12781898.146312356        1172141685.5606759     
   2492526561.2441730        8085322.1684843302        1170923980.9332657     
   2406770876.0205936        5269120.7952370644        1176138663.1266503     
   2321579303.1783834        4333294.0265570879        1187785732.1408329     
   2288292703.6454372        18956060.178684235        1298091109.1806986     
   2217058469.0316281        14447344.826395035        1287913380.7257543     
   2146259361.7873394        11389054.039177895        1282864192.2219203     
   2075895381.9125791        9781187.8170439005        1282943543.6691957     
   2005966529.4073400        9623746.1599851847        1288151435.0675850     
   1903830557.2366335        16445897.263027072        1415455425.9241712     
   1844520721.2248006        12887834.109677434        1402599577.9486706     
   1785517027.5706444        10350245.481914997        1393568423.0545933     
   1726819476.2741587        8833131.3797281981        1388361961.2419364     
   1668428067.3353477        8336491.8031227589        1386980192.5107038     
   1512343829.6090479        11828359.981732190        1531884727.2393026     
   1461233115.4286518        8103365.9961669445        1516200277.2294223     
   1410299558.5940814        4968896.4966902137        1503036673.4312806     
   1359543159.1053350        2424951.4832927585        1492393915.8448694     
   1308963916.9624169        471530.95598876476        1484272004.4701900     
   2615266388.6484842       -7534864.5971486568        1085883083.7304494     
   2530180894.1218357       -3319257.9398063421        1095214225.4470258     
   2445272090.5152979        1485318.4512461424        1105358069.9086530     
   2360539977.8288698        6878864.5759900808        1116314617.1153331     
   2275984556.0625510        12861380.434439659        1128083867.0670636     
   2321579303.1783834        4333294.0265570879        1187785732.1408329     
   2239846039.8193426        5595412.8807287216        1190480619.0801845     
   2158313797.7786427        7527602.7960373163        1195623016.7426093     
   2076982577.0562859        10129863.772490263        1203212925.1281033     
   1995852377.6522720        13402195.810080886        1213250344.2366693     
   2005966529.4073400        9623746.1599851847        1288151435.0675850     
   1932256377.1531045        9333641.1921396255        1284238452.6943173     
   1858771576.6154442        9794708.6128722429        1284407789.0221398     
   1785512127.7943559        11006948.422179937        1288659444.0510540     
   1712478030.6898434        12970360.620070815        1296993417.7810585     
   1668428067.3353477        8336491.8031227589        1386980192.5107038     
   1607411906.1231203        7895426.9944218993        1376487726.2894197     
   1546645427.0256972        8286635.9017359614        1371712386.7472460     
   1486128630.0430801        9510118.5250692368        1372654173.8841827     
   1425861515.1752663        11565874.864414454        1379313087.7002316     
   1308963916.9624169        471530.95598876476        1484272004.4701900     
   1265312626.7293952        1280770.2875953317        1467228439.8654916     
   1221935349.0094066        3003384.6626415849        1457536809.9179249     
   1178832083.8024578        5639374.0811540484        1455197114.6274908     
   1136002831.1085453        9188738.5431215167        1460209353.9941859     
   2275984556.0625510        12861380.434439659        1128083867.0670636     
   2168992032.6542168        12591810.724302173        1119844526.1445661     
   2062138672.1218178        12786117.267281890        1116060619.3178613     
   1955424474.4653616        13444300.063404083        1116732146.5869415     
   1848849439.6848409        14566359.112649918        1121859107.9518166     
   1995852377.6522720        13402195.810080886        1213250344.2366693     
   1900717121.7292175        12973452.580204487        1204156057.3758268     
   1805710806.0405097        12974510.131476283        1199764043.7585785     
   1710833430.5861497        13405368.463907361        1200074303.3849297     
   1616084995.3661320        14266027.577486098        1205086836.2548757     
   1712478030.6898434        12970360.620070815        1296993417.7810585     
   1629905296.9600949        12594020.282868266        1287032258.5666742     
   1547451280.8230972        12613405.254839063        1282020211.7436938     
   1465115982.2788517        13028515.535981715        1281957277.3121219     
   1382899401.3273621        13839351.126308978        1286843455.2719483     
   1425861515.1752663        11565874.864414454        1379313087.7002316     
   1356556558.3468485        11453513.832309008        1368473129.7171135     
   1287360096.4695802        11702802.637372255        1362829123.2732053     
   1218272129.5434749        12313741.279643834        1362381068.3685114     
   1149292657.5685260        13286329.759102821        1367128965.0030298     
   1136002831.1085453        9188738.5431215167        1460209353.9941859     
   1080670905.8894677        9551933.2284844518        1448478670.8271422     
   1025437252.9799573        10242702.279069543        1442190778.3471186     
   970301872.38001001        11261045.694862843        1441345676.5541105     
   915264764.08963180        12606963.475892603        1445943365.4481246     
   1848849439.6848409        14566359.112649918        1121859107.9518166     
   1752977993.7494588        19398379.676667929        1117482081.6810930     
   1657296320.0114813        24862974.232037544        1117292269.8390317     
   1561804418.4709072        30960142.778752685        1121289672.4256272     
   1466502289.1277363        37689885.316813052        1129474289.4408777     
   1616084995.3661320        14266027.577486098        1205086836.2548757     
   1531096151.1521497        18532744.940288723        1200845437.5534046     
   1446293650.8449762        23420608.659120083        1200918511.1015580     
   1361677494.4446056        28929618.733967006        1205306056.8993344     
   1277247681.9510477        35059775.164851904        1214008074.9467337     
   1382899401.3273621        13839351.126308978        1286843455.2719483     
   1309156752.6089659        17649843.420143783        1282733684.4673645     
   1235597019.5067828        22070054.434689820        1283065643.7333713     
   1162220202.0208118        27099984.169943869        1287839333.0699677     
   1089026300.1510532        32739632.625905752        1297054752.4771540     
   1149292657.5685260        13286329.759102821        1367128965.0030298     
   1087159798.1199107        16749675.116245806        1363146822.4229765     
   1025206425.9969070        20811311.558761358        1363733667.7344756     
   963432541.19952035        25471239.086669683        1368889500.9375310     
   901838143.72775078        30729457.699963838        1378614322.0321398     
   915264764.08963180        12606963.475892603        1445943365.4481246     
   865105287.68497574        15832240.028567284        1442084851.4202354     
   815121870.31534195        19644380.031319499        1442922583.1048639     
   765314511.98072731        24043383.484134942        1448456560.5020175     
   715683212.68113899        29029250.387035757        1458686783.6116915     
   1466502289.1277363        37689885.316813052        1129474289.4408777     
   1359522196.0978794        41446599.169346511        1123674393.0035951     
   1252702019.0599504        45736366.328304052        1121400372.5788159     
   1146041758.0139523        50559186.793694377        1122652228.1665435     
   1039541412.9598804        55915060.565515637        1127429959.7667792     
   1277247681.9510477        35059775.164851904        1214008074.9467337     
   1179892750.9525332        37645794.812300682        1208993810.8877771     
   1082571299.4107618        40343412.648885012        1208127801.8108215     
   985283327.32573509        43152628.674618304        1211410047.7158785     
   888028834.69745624        46073442.889519542        1218840548.6029472     
   1089026300.1510532        32739632.625905752        1297054752.4771540     
   1003074756.8110338        34688425.756397128        1292678611.5054600     
   917030256.39257884        36327361.958768487        1293073104.4852924     
   830892798.89568365        37656441.233008921        1298238231.4166334     
   744662384.32034671        38675663.579111159        1308173992.2994895     
   901838143.72775078        30729457.699963838        1378614322.0321398     
   829068213.67338562        32574492.001654863        1374728794.8566747     
   756078890.00540173        33688214.257949948        1376236280.6022325     
   682870172.72379470        34070624.468829811        1383136779.2688067     
   609442061.82856333        33721722.634303898        1395430290.8564007     
   715683212.68113899        29029250.387035757        1458686783.6116915     
   657873121.53958833        31303993.548081130        1455144360.9414020     
   599717200.24923491        32425969.546447843        1457617330.1616423     
   541215448.81007361        32395178.382122666        1466105691.2724035     
   482367867.22210479        31211620.055100814        1480609444.2736917     
   1039541412.9598804        55915060.565515637        1127429959.7667792     
   922924655.69185936        54936177.854798675        1124834015.7758825     
   803972268.48574162        46171862.017097414        1128164903.8476124     
   682684251.34152949        29622113.052415699        1137422623.9819651     
   559060604.25922334        5286930.9607481360        1152607176.1789317     
   888028834.69745624        46073442.889519542        1218840548.6029472     
   786503447.94694078        44280496.453026533        1216365051.1445701     
   682681399.92781460        34832012.454500377        1219759329.0352902     
   576562690.64004815        17727990.893838912        1229023382.2751143     
   468147320.08366758       -7031568.2288700938        1244157210.8640409     
   744662384.32034671        38675663.579111159        1308173992.2994895     
   658065348.90586913        36019747.662448496        1305864404.8213415     
   569210620.89223456        25838189.748601586        1309367535.9787719     
   478098200.27944070        8130989.8375511169        1318683385.7717876     
   384728087.06749165       -17101852.070677683        1333811954.2003794     
   609442061.82856333        33721722.634303898        1395430290.8564007     
   537610358.56862974        30153931.483003497        1393332076.8061960     
   463559931.37900704        19190393.899408087        1396989524.6780536     
   387290780.25969839        831109.88352611661        1406402634.4719648     
   308802905.21069199       -24923920.564684018        1421571406.1879451     
   482367867.22210479        31211620.055100814        1480609444.2736917     
   425138476.93522525        26683047.914705604        1478768067.0991404     
   365729331.38813210        14888624.906928703        1482625295.1331284     
   304140430.58081025       -4171648.9682755619        1492181128.3756623     
   240371774.51328015       -30497773.710840717        1507435566.8267279     
   559060604.25922334        5286930.9607481360        1152607176.1789317     
   462337774.08520150       -32711791.974746525        1162029766.8745275     
   353620605.11325628       -110691644.23666354        1178968375.2103982     
   232909097.34337997       -228652625.82501483        1203423001.1865582     
   100203250.77557924       -386594736.73978633        1235393644.8030152     
   468147320.08366758       -7031568.2288700938        1244157210.8640409     
   390502343.00062722       -41434003.223786071        1242693174.3412182     
   302709635.59443933       -109662205.96252458        1247558479.1848731     
   204769197.86510387       -211716176.44508809        1258753125.3950160     
   96681029.812620312       -347595914.67147607        1276277112.9716432     
   384728087.06749165       -17101852.070677683        1333811954.2003794     
   322770459.43598855       -48925150.216856614        1323615667.0130565     
   252511709.95612252       -108418854.52424975        1318562044.9184101     
   173951838.62788808       -195582964.99287018        1318651087.9164493     
   87090845.451299384       -310417481.62267435        1323882796.0071659     
   308802905.21069199       -24923920.564684018        1421571406.1879451     
   259142123.39129344       -55185232.953944907        1404797244.8900304     
   203026828.19831026       -106961589.92182980        1391979072.4109912     
   140457019.63174605       -180252991.46831670        1383116888.7508388     
   71432697.691601500       -275059437.59339905        1378210693.9095623     
   240371774.51328015       -30497773.710840717        1507435566.8267279     
   199617334.86654517       -60214251.435039163        1486237907.9721451     
   154254990.32101190       -105290412.15522903        1467809561.6626341     
   104284740.87667122       -165726255.87144637        1452150527.8981943     
   49706586.533549830       -241521782.58359665        1439260806.6788394     
   100203250.77557924       -386594736.73978633        1235393644.8030152     
   85334055.689748108       -546466910.34114599        1196777613.1054997     
   57878281.952753633       -748294346.11304986        1154814886.1423378     
   17835929.564578056       -992077044.05556321        1109505463.9135177     
  -34793001.474786520       -1277815004.1686952        1060849346.4190588     
   96681029.812620312       -347595914.67147607        1276277112.9716432     
   79762679.186741889       -488776319.60370874        1221958136.2585218     
   51463523.543053597       -667892741.26197720        1165096096.2412014     
   11783562.881533563       -884945179.64636111        1105690992.9197004     
  -39277202.797813416       -1139933634.7568126        1043742826.2940217     
   87090845.451299384       -310417481.62267435        1323882796.0071659     
   70419430.603835851       -432217290.49024141        1255267610.1839986     
   43572984.371918619       -587933870.63933492        1184912993.0181103     
   6551506.7555149198       -777567222.07003462        1112818944.5094969     
  -40645002.245350003       -1001117344.7822827        1038985464.6581692     
   71432697.691601500       -275059437.59339905        1378210693.9095623     
   57304309.941023916       -376789823.00075257        1296706034.8819346     
   34206664.439332038       -508417734.24514812        1214265576.4730577     
   2139761.1865285337       -669943171.32659328        1130889318.6829028     
  -38896399.817404419       -861366134.24511504        1046577261.5115101     
   49706586.533549830       -241521782.58359665        1439260806.6788394     
   40417317.198308021       -322493917.13523489        1346273410.3523397     
   23364563.745323390       -429344332.07934636        1253153846.6060379     
  -1451673.8254416585       -562073027.41606343        1159902115.4399397     
  -34031395.513959497       -720680003.14528418        1066518216.8540485     
   1512343829.6090479        11828359.981732190        1531884727.2393026     
   1461233115.4286518        8103365.9961669445        1516200277.2294223     
   1410299558.5940814        4968896.4966902137        1503036673.4312806     
   1359543159.1053350        2424951.4832927585        1492393915.8448694     
   1308963916.9624169        471530.95598876476        1484272004.4701900     
   1120989603.0681341        4890757.4564648271        1507397748.8538759     
   1077757585.5584111        627332.56496608257        1495561621.4904487     
   1034658434.5665935       -3193203.9335113168        1487389437.1017883     
   991692150.09268475       -6570852.0389618278        1482881195.6878996     
   948858732.13668144       -9505611.7513942122        1482036897.2487781     
   738480882.27318859        606806.65499138832        1481820437.5896816     
   706393552.18566740       -3215251.9169866741        1473780960.2401354     
   674394797.78813434       -6742058.1890033782        1470548522.6283889     
   642484619.08059049       -9973612.1610578299        1472123124.7544494     
   610663016.06303632       -12909913.833148420        1478504766.6183150     
   364817667.22420412       -1023492.4226954430        1455152793.4467237     
   347141015.31041670       -3424387.4496951699        1450858293.4784820     
   329508648.25870234       -5677666.2697860599        1452513930.0110791     
   311920566.06905627       -7783328.8829817474        1460119703.0445189     
   294376768.74148268       -9741375.2892693430        1473675612.5787981     
  -42.078813053006819       -139.77659208646338        1427394816.4249940     
  -25.067333190871825       -74.033143443513694        1426793621.2054880     
  -14.021704310461192       -28.175866127423998        1433285659.2498577     
  -8.9419203268987335       -2.2047370797160992        1446870930.5581028     
  -9.8279859525321758        3.8802252162266817        1467549435.1302290     
   1308963916.9624169        471530.95598876476        1484272004.4701900     
   1265312626.7293952        1280770.2875953317        1467228439.8654916     
   1221935349.0094066        3003384.6626415849        1457536809.9179249     
   1178832083.8024578        5639374.0811540484        1455197114.6274908     
   1136002831.1085453        9188738.5431215167        1460209353.9941859     
   948858732.13668144       -9505611.7513942122        1482036897.2487781     
   922830303.97290301       -6885671.0375916362        1472158529.9613731     
   897007385.21774209       -3580698.9617301822        1468066421.5972850     
   871389975.87119973        409304.47619485855        1469760572.1565156     
   845978075.93327832        5084339.2761871219        1477240981.6390615     
   610663016.06303632       -12909913.833148420        1478504766.6183150     
   597784090.72903717       -9821279.5089839697        1475711676.3597100     
   585042171.69923794       -6275957.5041503608        1477139169.2906125     
   572437258.97363949       -2273947.8186483383        1482787245.4110198     
   559969352.55224276        2184749.5475237668        1492655904.7209318     
   294376768.74148268       -9741375.2892693430        1473675612.5787981     
   290173986.99779636       -7526055.1265854836        1477887879.0605106     
   286039708.45389169       -5082390.9646282047        1484755052.9979131     
   281973933.10977352       -2410382.8033832759        1494277134.3910112     
   277976660.96543682        489969.35713353753        1506454123.2397971     
  -9.8279859525321758        3.8802252162266817        1467549435.1302290     
  -7.2208216512330994        2.1095965176208469        1478687138.0637672     
  -4.5182927454424151       0.65684914009765216        1490914072.7191863     
  -1.7203984802694647      -0.47801335920663024        1504230239.0964837     
   1.1728579645948072       -1.2950019262065053        1518635637.1956644     
   1136002831.1085453        9188738.5431215167        1460209353.9941859     
   1080670905.8894677        9551933.2284844518        1448478670.8271422     
   1025437252.9799573        10242702.279069543        1442190778.3471186     
   970301872.38001001        11261045.694862843        1441345676.5541105     
   915264764.08963180        12606963.475892603        1445943365.4481246     
   845978075.93327832        5084339.2761871219        1477240981.6390615     
   804718995.80913115        5428694.1667339206        1466988245.1615267     
   763533619.99927580        6018730.1049211919        1462122331.0995719     
   722421948.50371873        6854447.0907672048        1462643239.4531920     
   681383981.32245135        7935845.1242483854        1468550970.2223902     
   559969352.55224276        2184749.5475237668        1492655904.7209318     
   532623208.17604154        2462291.8391467035        1483852452.2717614     
   505326200.11886615        2903621.8608547747        1480379853.9667244     
   478078328.38071358        3508739.6126375198        1482238109.8058224     
   450879592.96158814        4277645.0945127308        1489427219.7890520     
   277976660.96543682        489969.35713353753        1506454123.2397971     
   264383542.99020392        652726.24574044347        1499071292.1578434     
   250814993.33872744        897377.54686778784        1496963346.9485772     
   237271012.01100296        1223923.2605028003        1500130287.6120007     
   223751599.00703508        1632363.3866600990        1508572114.1481199     
   1.1728579645948072       -1.2950019262065053        1518635637.1956644     
  0.25161690496723343       -2.6134939679433780        1512644764.8197727     
 -0.34113874728732507       -2.8370332639914175        1511872810.0451283     
 -0.60541555743002329       -1.9656423924438662        1516319772.8717320     
 -0.54120133283300143        7.1581934519029944E-004   1525985653.2995851     
   915264764.08963180        12606963.475892603        1445943365.4481246     
   865105287.68497574        15832240.028567284        1442084851.4202354     
   815121870.31534195        19644380.031319499        1442922583.1048639     
   765314511.98072731        24043383.484134942        1448456560.5020175     
   715683212.68113899        29029250.387035757        1458686783.6116915     
   681383981.32245135        7935845.1242483854        1468550970.2223902     
   643293336.24090087        10213491.744454831        1466108875.5444674     
   605334735.38798606        12931285.793447256        1468472935.3869896     
   567508178.76371801        16089227.271266639        1475643149.7499385     
   529813666.36809701        19687316.177900374        1487619518.6333327     
   450879592.96158814        4277645.0945127308        1489427219.7890520     
   425171804.36860734        5701869.3318584561        1488350193.8536656     
   399552045.19789112        7419524.9767533839        1492189231.2466314     
   374020315.44944453        9430612.0292124003        1500944331.9679527     
   348576615.12326539        11735130.489231467        1514615496.0176256     
   223751599.00703508        1632363.3866600990        1508572114.1481199     
   210740692.06810290        2297372.7908013016        1508808806.3478279     
   197773799.74505705        3109097.5812310800        1514071470.6838021     
   184850922.03790656        4067537.7579788119        1524360107.1560490     
   171972058.94664469        5172693.3210208416        1539674715.7645638     
 -0.54120133283300143        7.1581934519029944E-004   1525985653.2995851     
 -0.66061053147916515        2.1212947836031271        1527484713.0269494     
 -0.97051272695980573        3.6068963978567505        1534119653.6984980     
  -1.4708936221034181        4.4575686662891068        1545890475.3142328     
  -2.1617607886920314        4.6732880843502418        1562797177.8741508     
   715683212.68113899        29029250.387035757        1458686783.6116915     
   657873121.53958833        31303993.548081130        1455144360.9414020     
   599717200.24923491        32425969.546447843        1457617330.1616423     
   541215448.81007361        32395178.382122666        1466105691.2724035     
   482367867.22210479        31211620.055100814        1480609444.2736917     
   529813666.36809701        19687316.177900374        1487619518.6333327     
   487294194.53194737        21644802.483523667        1485247656.3671770     
   444515350.04812199        22737713.296891749        1488695630.1812868     
   401477132.91662854        22966048.618034780        1497963440.0756662     
   358179543.13746572        22329808.446945339        1513051086.0503073     
   348576615.12326539        11735130.489231467        1514615496.0176256     
   320789031.70605409        13207740.673470557        1513515061.2402608     
   292828533.14230859        14103967.035925522        1518038906.7329009     
   264695119.43203184        14423809.576611385        1528187032.4955518     
   236388790.57521698        14167268.295503594        1543959438.5282078     
   171972058.94664469        5172693.3210208416        1539674715.7645638     
   158357633.06192344        5992808.1179629117        1539946575.5606527     
   144656749.53179789        6524730.7635567784        1545647159.8164871     
   130869408.35627379        6768461.2578245848        1556776468.5320652     
   116995609.53535399        6723999.6007692590        1573334501.7073932     
  -2.1617607886920314        4.6732880843502418        1562797177.8741508     
  -1.4004592357580872        4.8169596516673279        1564542199.3283482     
 -0.78341788184870964        4.4797631950131374        1571520389.4320309     
 -0.31063105384624379        3.6617204003374106        1583731748.1851993     
   1.7885509922916043E-002   2.3627732554370455        1601176275.5878568     
   482367867.22210479        31211620.055100814        1480609444.2736917     
   425138476.93522525        26683047.914705604        1478768067.0991404     
   365729331.38813210        14888624.906928703        1482625295.1331284     
   304140430.58081025       -4171648.9682755619        1492181128.3756623     
   240371774.51328015       -30497773.710840717        1507435566.8267279     
   358179543.13746572        22329808.446945339        1513051086.0503073     
   315956952.70136887        19143214.680392861        1509742089.3325684     
   272099545.85906214        10507232.893145159        1511968492.2821548     
   226607322.61055294       -3578136.9147768319        1519730294.8990686     
   179480282.95583463       -23112894.743401289        1533027497.1833134     
   236388790.57521698        14167268.295503594        1543959438.5282078     
   208706698.44356361        12182762.438867137        1539818584.2636271     
   179934728.75972563        6565331.4082808048        1541049924.1251659     
   150072881.52368873       -2685024.7963003293        1547653458.1128118     
   119121156.73546848       -15568306.174828082        1559629186.2265718     
   116995609.53535399        6723999.6007692590        1573334501.7073932     
   103387714.16182722        5801691.1901862472        1568997551.8923295     
   89234880.090117052        3062920.4523252584        1569869590.6621599     
   74537107.320239842       -1492312.6127591692        1575950618.0168874     
   59294395.852173172       -7864008.0051419251        1587240633.9565172     
   1.7885509922916043E-002   2.3627732554370455        1601176275.5878568     
 -0.14386166250942128       0.93428296235018604        1597278992.2186623     
 -0.14975159390916926        2.5313336591672064E-002   1598427491.8931425     
   1.7682741717758854E-004 -0.36426178007985910        1604621774.6113074     
  0.30595992772297997      -0.23431783070625328        1615861840.3731511     
   240371774.51328015       -30497773.710840717        1507435566.8267279     
   199617334.86654517       -60214251.435039163        1486237907.9721451     
   154254990.32101190       -105290412.15522903        1467809561.6626341     
   104284740.87667122       -165726255.87144637        1452150527.8981943     
   49706586.533549830       -241521782.58359665        1439260806.6788394     
   179480282.95583463       -23112894.743401289        1533027497.1833134     
   148288358.61745217       -45588081.360977240        1507385307.6434383     
   113640505.59700985       -79583030.252079129        1484658519.3864715     
   75536723.894521251       -125097741.41667210        1464847132.4123993     
   33977013.509974502       -182132214.85479215        1447951146.7212226     
   119121156.73546848       -15568306.174828082        1559629186.2265718     
   97909144.099204898       -30676982.767659947        1530886438.2542918     
   74393178.997634977       -53465500.911514446        1505205180.3027360     
   48573261.430752739       -83933860.606409997        1482585412.3718939     
   20449391.398563206       -122082061.85232845        1463027134.4617677     
   59294395.852173172       -7864008.0051419251        1587240633.9565172     
   48479691.311809011       -15480955.655078083        1556741299.8047028     
   36513010.522875950       -26937824.133571651        1529449544.4114254     
   23394353.485373553       -42234613.440631092        1505365367.7766778     
   9123720.1993139721       -61371323.576214463        1484488769.9004776     
  0.30595992772297997      -0.23431783070625328        1615861840.3731511     
  0.25525524917190290       -2.3256900068772457E-002   1584949892.2946684     
  0.17273124322811087        8.1743769262667410E-002   1557391611.7125382     
   5.8389556925761268E-002   8.0683422397410900E-002   1533186998.6267631     
  -8.7774750837618140E-002  -2.6452329337944957E-002   1512336053.0373468     
   49706586.533549830       -241521782.58359665        1439260806.6788394     
   40417317.198308021       -322493917.13523489        1346273410.3523397     
   23364563.745323390       -429344332.07934636        1253153846.6060379     
  -1451673.8254416585       -562073027.41606343        1159902115.4399397     
  -34031395.513959497       -720680003.14528418        1066518216.8540485     
   33977013.509974502       -182132214.85479215        1447951146.7212226     
   29817993.481743634       -242018936.20184213        1347481617.7821088     
   19836360.366895512       -321314367.83761209        1246224737.2978971     
   4032114.1654254496       -420018509.76212049        1144180505.2685828     
  -17594745.122662514       -538131361.97536480        1041348921.6941732     
   20449391.398563206       -122082061.85232845        1463027134.4617677     
   19548666.033625141       -161444956.38792890        1357339822.4463737     
   14766198.613210082       -213746991.10844925        1250209974.7605805     
   6101989.1373208314       -278988166.01388252        1141637591.4043937     
  -6443962.3940425962       -357168481.10423523        1031622672.3778034     
   9123720.1993139721       -61371323.576214463        1484488769.9004776     
   9609334.8539501242       -80771977.693502650        1375848024.3451371     
   8154078.4842618555       -106642201.89187483        1265109558.9940941     
   4757951.0902509689       -138981996.17132077        1152273373.8473670     
  -579047.32810790092       -177791360.53192455        1037339468.9049314     
  -8.7774750837618140E-002  -2.6452329337944957E-002   1512336053.0373468     
  -5.7262711056399282E-002 -0.11850442788235932        1403006223.4783902     
  -1.9942243826982925E-002 -0.18786384993428651        1290923489.9984531     
   2.4203304196000308E-002 -0.23447230878493372        1176087852.5975008     
   7.5151972557118280E-002 -0.25840300595240817        1058499311.2755702     
  -42.078813053006819       -139.77659208646338        1427394816.4249940     
  -25.067333190871825       -74.033143443513694        1426793621.2054880     
  -14.021704310461192       -28.175866127423998        1433285659.2498577     
  -8.9419203268987335       -2.2047370797160992        1446870930.5581028     
  -9.8279859525321758        3.8802252162266817        1467549435.1302290     
  -364817723.88297027        1023302.7124963403        1455152830.5877371     
  -347141050.65788186        3424285.6192036569        1450858319.5564132     
  -329508670.29268444        5677625.6596048623        1452513945.3109314     
  -311920582.78737926        7783322.8337020874        1460119707.8512874     
  -294376788.14196455        9741377.1414950341        1473675607.1774821     
  -738480910.23317254       -606906.16222706437        1481820494.2716863     
  -706393570.73172057        3215196.9265711904        1473780999.3854969     
  -674394810.98420787        6742034.1689136922        1470548544.8071105     
  -642484630.99062848        9973605.5648077130        1472123130.5365255     
  -610663030.75098729        12909911.114243269        1478504756.5737426     
  -1120989601.1294146       -4890766.4007640481        1507397807.4768445     
  -1077757585.2888544       -627340.11105179787        1495561660.6927414     
  -1034658436.0962712        3193197.3520618081        1487389457.7383983     
  -991692153.55167007        6570845.9885755181        1482881198.6138206     
  -948858737.65504885        9505605.7984856963        1482036883.3190103     
  -1512343796.5717015       -11828278.003112912        1531884770.2032197     
  -1461233094.3292775       -8103325.4936615825        1516200303.4781435     
  -1410299545.6288779       -4968884.7909563780        1503036684.1047940     
  -1359543150.4705031       -2424955.8949966431        1492393912.0831721     
  -1308963908.8541532       -471538.80579131842        1484271987.4132779     
  -9.8279859525321758        3.8802252162266817        1467549435.1302290     
  -7.2208216512330994        2.1095965176208469        1478687138.0637672     
  -4.5182927454424151       0.65684914009765216        1490914072.7191863     
  -1.7203984802694647      -0.47801335920663024        1504230239.0964837     
   1.1728579645948072       -1.2950019262065053        1518635637.1956644     
  -294376788.14196455        9741377.1414950341        1473675607.1774821     
  -290174001.18555081        7526055.3403817564        1477887875.1954925     
  -286039717.28277826        5082390.0271313488        1484755050.2288511     
  -281973936.43365574        2410381.2017145753        1494277132.2775559     
  -277976658.63817632       -489971.13584658504        1506454121.3416061     
  -610663030.75098729        12909911.114243269        1478504756.5737426     
  -597784101.46398687        9821276.6770582497        1475711669.3357146     
  -585042178.37964106        6275954.8976904154        1477139164.4064984     
  -572437261.49795198        2273945.7761341333        1482787241.7860954     
  -559969350.81891847       -2184750.6876085997        1492655901.4745088     
  -948858737.65504885        9505605.7984856963        1482036883.3190103     
  -922830308.05612922        6885666.1196244955        1472158520.4844263     
  -897007387.80887794        3580695.2685371637        1468066415.2521267     
  -871389976.91329134       -409306.75476592779        1469760567.6221070     
  -845978075.36936879       -5084339.9502805471        1477240977.5943673     
  -1308963908.8541532       -471538.80579131842        1484271987.4132779     
  -1265312620.9619813       -1280776.3319287896        1467228428.6416333     
  -1221935345.5704858       -3003388.8603181243        1457536802.7657363     
  -1178832082.6796672       -5639376.3909655213        1455197109.7855847     
  -1136002832.2895255       -9188738.9238677621        1460209349.7011802     
   1.1728579645948072       -1.2950019262065053        1518635637.1956644     
  0.25161690496723343       -2.6134939679433780        1512644764.8197727     
 -0.34113874728732507       -2.8370332639914175        1511872810.0451283     
 -0.60541555743002329       -1.9656423924438662        1516319772.8717320     
 -0.54120133283300143        7.1581934519029944E-004   1525985653.2995851     
  -277976658.63817632       -489971.13584658504        1506454121.3416061     
  -264383542.10863081       -652729.46984916925        1499071290.7023823     
  -250814993.48147464       -897380.81181390584        1496963345.9660947     
  -237271012.75671101       -1223925.1617544293        1500130287.1327412     
  -223751599.93433765       -1632362.5196636021        1508572114.2023282     
  -559969350.81891847       -2184750.6876085997        1492655901.4745088     
  -532623207.40519202       -2462293.2070934176        1483852449.6359274     
  -505326200.12473083       -2903622.8374677300        1480379852.0019722     
  -478078328.97753900       -3508739.5787363350        1482238108.5726411     
  -450879593.96361101       -4277643.4308874607        1489427219.3479288     
  -845978075.36936879       -5084339.9502805471        1477240977.5943673     
  -804718995.63806784       -5428693.8252362013        1466988241.6204095     
  -763533620.27090800       -6018728.9139942527        1462122328.1527650     
  -722421949.26789439       -6854445.2165747285        1462643237.1914315     
  -681383982.62902021       -7935842.7329504490        1468550968.7364082     
  -1136002832.2895255       -9188738.9238677621        1460209349.7011802     
  -1080670906.8072565       -9551931.3242695332        1448478666.6558263     
  -1025437253.9200094       -10242699.041408062        1442190774.4184709     
  -970301873.62778044       -11261042.075272322        1441345672.9891145     
  -915264765.93056428       -12606960.425850511        1445943362.3677542     
 -0.54120133283300143        7.1581934519029944E-004   1525985653.2995851     
 -0.66061053147916515        2.1212947836031271        1527484713.0269494     
 -0.97051272695980573        3.6068963978567505        1534119653.6984980     
  -1.4708936221034181        4.4575686662891068        1545890475.3142328     
  -2.1617607886920314        4.6732880843502418        1562797177.8741508     
  -223751599.93433765       -1632362.5196636021        1508572114.2023282     
  -210740693.50147071       -2297369.0558790788        1508808805.9850037     
  -197773801.97596130       -3109091.9499522746        1514071470.0152760     
  -184850925.35781530       -4067531.2019032836        1524360106.2931406     
  -171972063.64702079       -5172686.8116935641        1539674714.8186023     
  -450879593.96361101       -4277643.4308874607        1489427219.3479288     
  -425171805.82586718       -5701866.0781038254        1488350192.6829040     
  -399552047.31235510       -7419520.8060920089        1492189229.5688822     
  -374020318.42307866       -9430607.6148646325        1500944330.0058651     
  -348576619.15802920       -11735126.504396409        1514615493.9938464     
  -681383982.62902021       -7935842.7329504490        1468550968.7364082     
  -643293337.63380396       -10213488.945389003        1466108873.1206601     
  -605334736.97969377       -12931282.961518109        1468472932.3593223     
  -567508180.66668713       -16089224.781326085        1475643146.4523957     
  -529813668.69478714       -19687314.404819101        1487619515.3998830     
  -915264765.93056428       -12606960.425850511        1445943362.3677542     
  -865105288.92527819       -15832237.657735437        1442084847.2982609     
  -815121870.97796869       -19644378.416205972        1442922578.3865900     
  -765314512.08864880       -24043382.701312006        1448456555.6327379     
  -715683212.25729907       -29029250.512981325        1458686779.0367100     
  -2.1617607886920314        4.6732880843502418        1562797177.8741508     
  -1.4004592357580872        4.8169596516673279        1564542199.3283482     
 -0.78341788184870964        4.4797631950131374        1571520389.4320309     
 -0.31063105384624379        3.6617204003374106        1583731748.1851993     
   1.7885509922916043E-002   2.3627732554370455        1601176275.5878568     
  -171972063.64702079       -5172686.8116935641        1539674714.8186023     
  -158357636.38940880       -5992801.5409847423        1539946574.6753328     
  -144656751.66414636       -6524724.7114392221        1545647158.9273384     
  -130869409.47122334       -6768456.3230273500        1556776467.5746253     
  -116995609.81065144       -6723996.3757859357        1573334500.6171954     
  -348576619.15802920       -11735126.504396409        1514615493.9938464     
  -320789034.70184755       -13207736.895999178        1513515059.4670069     
  -292828535.16609085       -14103963.689019784        1518038905.0812426     
  -264695120.55076265       -14423806.883469209        1528187030.8365531     
  -236388790.85586828       -14167266.479362436        1543959436.7329381     
  -529813668.69478714       -19687314.404819101        1487619515.3998830     
  -487294196.33776009       -21644801.248034149        1485247653.7033765     
  -444515351.28924549       -22737712.452956706        1488695627.8937409     
  -401477133.54924333       -22966048.019588500        1497963437.9709768     
  -358179543.11775112       -22329807.947918728        1513051083.9350781     
  -715683212.25729907       -29029250.512981325        1458686779.0367100     
  -657873121.29716194       -31303994.597139150        1455144357.3844421     
  -599717200.03361642       -32425971.003270209        1457617327.3648398     
  -541215448.46666646       -32395179.731383413        1466105688.9778984     
  -482367866.59631598       -31211620.781499639        1480609442.2236238     
   1.7885509922916043E-002   2.3627732554370455        1601176275.5878568     
 -0.14386166250942128       0.93428296235018604        1597278992.2186623     
 -0.14975159390916926        2.5313336591672064E-002   1598427491.8931425     
   1.7682741717758854E-004 -0.36426178007985910        1604621774.6113074     
  0.30595992772297997      -0.23431783070625328        1615861840.3731511     
  -116995609.81065144       -6723996.3757859357        1573334500.6171954     
  -103387714.53362295       -5801689.9015774690        1568997551.1965821     
  -89234880.344891533       -3062920.3883578256        1569869590.3230269     
  -74537107.244467169        1492312.1638371088        1575950617.9965429     
  -59294395.232327044        7864007.7550828718        1587240634.2171113     
  -236388790.85586828       -14167266.479362436        1543959436.7329381     
  -208706698.70184669       -12182761.671014935        1539818583.1427519     
  -179934728.88025916       -6565331.3041114435        1541049923.6030054     
  -150072881.39110768        2685024.6213368326        1547653458.1136990     
  -119121156.23438430        15568306.105355814        1559629186.6748292     
  -358179543.11775112       -22329807.947918728        1513051083.9350781     
  -315956952.64851493       -19143214.373973265        1509742088.0571644     
  -272099545.75585014       -10507232.721934989        1511968491.7330670     
  -226607322.43975025        3578137.0082227141        1519730294.9627862     
  -179480282.70021412        23112894.816498652        1533027497.7463276     
  -482367866.59631598       -31211620.781499639        1480609442.2236238     
  -425138476.37363738       -26683048.010484532        1478768065.9398165     
  -365729330.97165698       -14888624.641801655        1482625294.7132103     
  -304140430.39039075        4171649.3245029896        1492181128.5438008     
  -240371774.62981594        30497773.888503224        1507435567.4315903     
  0.30595992772297997      -0.23431783070625328        1615861840.3731511     
  0.25525524917190290       -2.3256900068772457E-002   1584949892.2946684     
  0.17273124322811087        8.1743769262667410E-002   1557391611.7125382     
   5.8389556925761268E-002   8.0683422397410900E-002   1533186998.6267631     
  -8.7774750837618140E-002  -2.6452329337944957E-002   1512336053.0373468     
  -59294395.232327044        7864007.7550828718        1587240634.2171113     
  -48479690.823790409        15480955.658670399        1556741299.9660609     
  -36513010.210413031        26937824.245058004        1529449544.4890332     
  -23394353.392191246        42234613.514261335        1505365367.7860210     
  -9123720.3691249564        61371323.466280021        1484488769.8570225     
  -119121156.23438430        15568306.105355814        1559629186.6748292     
  -97909143.716157734        30676982.796577886        1530886438.5273335     
  -74393178.756418586        53465500.959506355        1505205180.4315121     
  -48573261.355174303        83933860.594118357        1482585412.3873603     
  -20449391.512422651        122082061.70042145        1463027134.3948936     
  -179480282.70021412        23112894.816498652        1533027497.7463276     
  -148288358.42183462        45588081.390510827        1507385307.9784813     
  -113640505.46528454        79583030.225090355        1484658519.5399747     
  -75536723.830557108        125097741.32026222        1464847132.4308009     
  -33977013.517669022        182132214.67596829        1447951146.6509683     
  -240371774.62981594        30497773.888503224        1507435567.4315903     
  -199617334.94082940        60214251.440435067        1486237908.3195081     
  -154254990.33700061        105290412.04184592        1467809561.8144243     
  -104284740.81834626        165726255.69267255        1452150527.9163349     
  -49706586.384853750        241521782.39296028        1439260806.6252439     
  -8.7774750837618140E-002  -2.6452329337944957E-002   1512336053.0373468     
  -5.7262711056399282E-002 -0.11850442788235932        1403006223.4783902     
  -1.9942243826982925E-002 -0.18786384993428651        1290923489.9984531     
   2.4203304196000308E-002 -0.23447230878493372        1176087852.5975008     
   7.5151972557118280E-002 -0.25840300595240817        1058499311.2755702     
  -9123720.3691249564        61371323.466280021        1484488769.8570225     
  -9609334.9585364722        80771977.445943013        1375848024.3287613     
  -8154078.5145227611        106642201.53702690        1265109558.9973156     
  -4757951.0370840356        138981995.73952663        1152273373.8626719     
   579047.47379809618        177791360.05350262        1037339468.9248463     
  -20449391.512422651        122082061.70042145        1463027134.3948936     
  -19548666.099472687        161444956.13846171        1357339822.4283831     
  -14766198.626469821        213746990.77668101        1250209974.7764840     
  -6101989.0934260488        278988165.61503577        1141637591.4392004     
   6443962.4996661246        357168480.65354818        1031622672.4165263     
  -33977013.517669022        182132214.67596829        1447951146.6509683     
  -29817993.480052933        242018935.95910895        1347481617.7772563     
  -19836360.355769739        321314367.53114265        1246224737.3359616     
  -4032114.1448308825        420018509.39201939        1144180505.3270881     
   17594745.152770668        538131361.54178464        1041348921.7506185     
  -49706586.384853750        241521782.39296028        1439260806.6252439     
  -40417317.100291997        322493916.90783840        1346273410.3753827     
  -23364563.702425569        429344331.80039746        1253153846.6757424     
   1451673.8086965680        562073027.07048273        1159902115.5263264     
   34031395.433105320        720680002.71817684        1066518216.9271182     
  -1512343796.5717015       -11828278.003112912        1531884770.2032197     
  -1461233094.3292775       -8103325.4936615825        1516200303.4781435     
  -1410299545.6288779       -4968884.7909563780        1503036684.1047940     
  -1359543150.4705031       -2424955.8949966431        1492393912.0831721     
  -1308963908.8541532       -471538.80579131842        1484271987.4132779     
  -1903830509.0958114       -16445775.434765339        1415455460.6276200     
  -1844520687.8767252       -12887771.446684003        1402599600.2074013     
  -1785517003.5530612       -10350223.776674271        1393568433.6147401     
  -1726819456.1248157       -8833132.4247245789        1388361960.8496389     
  -1668428045.5919878       -8336497.3908380270        1386980181.9120986     
  -2288292643.0805449       -18955899.304603338        1298091128.1821318     
  -2217058427.2395635       -14447261.144328594        1287913393.4878063     
  -2146259331.6473966       -11389023.813436031        1282864199.0968723     
  -2075895356.3040438       -9781187.3119255304        1282943545.0093305     
  -2005966501.2095065       -9623751.6397916079        1288151431.2251825     
  -2665730198.5259032       -19358649.612630367        1179791772.8667438     
  -2578846312.4177885       -12781794.586586714        1172141683.3193533     
  -2492526529.9118896       -8085284.9012509584        1170923980.5511889     
  -2406770851.0081916       -5269120.5565966368        1176138664.5622473     
  -2321579275.7067084       -4333301.5526528358        1187785735.3525283     
  -3036143175.4318819       -17654026.358842015        1060557394.6814669     
  -2929884343.4114017       -7891371.7734645605        1055284469.7020499     
  -2824318598.3465281       -439007.04010212421        1057747777.9776888     
  -2719445940.2372594        4703067.8412474394        1067947319.5083848     
  -2615266369.0835919        7534852.8705850840        1085883094.2941377     
  -1308963908.8541532       -471538.80579131842        1484271987.4132779     
  -1265312620.9619813       -1280776.3319287896        1467228428.6416333     
  -1221935345.5704858       -3003388.8603181243        1457536802.7657363     
  -1178832082.6796672       -5639376.3909655213        1455197109.7855847     
  -1136002832.2895255       -9188738.9238677621        1460209349.7011802     
  -1668428045.5919878       -8336497.3908380270        1386980181.9120986     
  -1607411890.4841650       -7895431.1802719235        1376487719.3666301     
  -1546645417.5111403       -8286638.7523624897        1371712382.4597514     
  -1486128626.6729083       -9510120.1070960760        1372654171.1914649     
  -1425861517.9694672       -11565875.244466186        1379313085.5617700     
  -2005966501.2095065       -9623751.6397916079        1288151431.2251825     
  -1932256356.7636230       -9333645.0558072329        1284238450.3327520     
  -1858771564.0866508       -9794711.0348597765        1284407787.8217573     
  -1785512123.1785908       -11006949.576949000        1288659443.6921978     
  -1712478034.0394406       -12970360.682079196        1296993417.9440751     
  -2321579275.7067084       -4333301.5526528358        1187785735.3525283     
  -2239846019.8003492       -5595417.9585199356        1190480621.5399990     
  -2158313785.2970181       -7527605.7078143358        1195623018.8517516     
  -2076982572.1967180       -10129864.800546885        1203212927.2877820     
  -1995852380.4994440       -13402195.236692071        1213250346.8480952     
  -2615266369.0835919        7534852.8705850840        1085883094.2941377     
  -2530180879.5943422        3319250.1115943193        1095214232.9883728     
  -2445272081.1422453       -1485322.7712328434        1105358075.5497329     
  -2360539973.7272892       -6878865.7778638601        1116314621.9782188     
  -2275984557.3494811       -12861378.908324838        1128083872.2738283     
  -1136002832.2895255       -9188738.9238677621        1460209349.7011802     
  -1080670906.8072565       -9551931.3242695332        1448478666.6558263     
  -1025437253.9200094       -10242699.041408062        1442190774.4184709     
  -970301873.62778044       -11261042.075272322        1441345672.9891145     
  -915264765.93056428       -12606960.425850511        1445943362.3677542     
  -1425861517.9694672       -11565875.244466186        1379313085.5617700     
  -1356556560.5025835       -11453511.570605218        1368473127.6667280     
  -1287360098.3631864       -11702798.988363922        1362829121.3962548     
  -1218272131.5512738       -12313737.497738481        1362381066.7503481     
  -1149292660.0668540       -13286327.098754644        1367128963.7290084     
  -1712478034.0394406       -12970360.682079196        1296993417.9440751     
  -1629905299.3977408       -12594017.376886487        1287032258.6781342     
  -1547451282.8160000       -12613400.938220680        1282020211.8533270     
  -1465115984.2942100       -13028511.366060734        1281957277.4696605     
  -1382899403.8323765       -13839348.660423636        1286843455.5271327     
  -1995852380.4994440       -13402195.236692071        1213250346.8480952     
  -1900717123.4927323       -12973448.743123174        1204156059.6900384     
  -1805710807.2784421       -12974504.890954256        1199764045.7896900     
  -1710833431.8565769       -13405363.680203915        1200074305.1470485     
  -1616084997.2271333       -14266025.110855281        1205086837.7621105     
  -2275984557.3494811       -12861378.908324838        1128083872.2738283     
  -2168992032.7875557       -12591805.669304132        1119844530.7024457     
  -2062138671.7505226       -12786110.846594453        1116060623.2053394     
  -1955424474.2383778       -13444294.440176129        1116732149.7825115     
  -1848849440.2511282       -14566356.450075150        1121859110.4339566     
  -915264765.93056428       -12606960.425850511        1445943362.3677542     
  -865105288.92527819       -15832237.657735437        1442084847.2982609     
  -815121870.97796869       -19644378.416205972        1442922578.3865900     
  -765314512.08864880       -24043382.701312006        1448456555.6327379     
  -715683212.25729907       -29029250.512981325        1458686779.0367100     
  -1149292660.0668540       -13286327.098754644        1367128963.7290084     
  -1087159799.2195678       -16749673.522911370        1363146820.2506020     
  -1025206425.6593132       -20811310.903833807        1363733664.9218192     
  -963432539.38608432       -25471239.241511703        1368889497.7426627     
  -901838140.39987803       -30729458.535931319        1378614318.7131300     
  -1382899403.8323765       -13839348.660423636        1286843455.5271327     
  -1309156753.4522221       -17649842.569600046        1282733684.0392518     
  -1235597018.5881431       -22070054.865693569        1283065642.6928005     
  -1162220199.2401376       -27099985.548699975        1287839331.4877830     
  -1089026295.4082022       -32739634.618611515        1297054750.4241955     
  -1616084997.2271333       -14266025.110855281        1205086837.7621105     
  -1531096151.6232386       -18532744.797792435        1200845438.6642048     
  -1446293649.7644660       -23420610.301804781        1200918511.6995332     
  -1361677491.6508060       -28929621.622861147        1205306056.8681006     
  -1277247677.2822781       -35059778.761017323        1214008074.1699061     
  -1848849440.2511282       -14566356.450075150        1121859110.4339566     
  -1752977993.7326157       -19398380.207496285        1117482084.1254685     
  -1657296319.1882789       -24862977.212167084        1117292271.9420226     
  -1561804416.6181016       -30960147.464039862        1121289673.8836167     
  -1466502286.0220933       -37689890.963138223        1129474289.9502523     
  -715683212.25729907       -29029250.512981325        1458686779.0367100     
  -657873121.29716194       -31303994.597139150        1455144357.3844421     
  -599717200.03361642       -32425971.003270209        1457617327.3648398     
  -541215448.46666646       -32395179.731383413        1466105688.9778984     
  -482367866.59631598       -31211620.781499639        1480609442.2236238     
  -901838140.39987803       -30729458.535931319        1378614318.7131300     
  -829068211.12318838       -32574493.857886344        1374728792.2759724     
  -756078888.04167259       -33688216.497084230        1376236278.5814540     
  -682870171.15533507       -34070626.453540951        1383136777.6295705     
  -609442060.46417046       -33721723.727247715        1395430289.4203215     
  -1089026295.4082022       -32739634.618611515        1297054750.4241955     
  -1003074753.2150433       -34688428.798400402        1292678609.9538083     
  -917030253.71563554       -36327365.290691167        1293073103.3360279     
  -830892796.90998149       -37656444.095495343        1298238230.5708580     
  -744662382.79807830       -38675665.212801814        1308173991.6583011     
  -1277247677.2822781       -35059778.761017323        1214008074.1699061     
  -1179892747.5727258       -37645799.418670237        1208993810.4179409     
  -1082571297.0554962       -40343417.384063601        1208127801.6285632     
  -985283325.73060083       -43152632.657236457        1211410047.8017700     
  -888028833.59803283       -46073445.238171607        1218840548.9375536     
  -1466502286.0220933       -37689890.963138223        1129474289.9502523     
  -1359522194.1962204       -41446605.718656898        1123674393.6683774     
  -1252702018.0612516       -45736372.777192950        1121400373.4590592     
  -1146041757.6171951       -50559192.138767242        1122652229.3222959     
  -1039541412.8640456       -55915063.803365529        1127429961.2580914     
  -482367866.59631598       -31211620.781499639        1480609442.2236238     
  -425138476.37363738       -26683048.010484532        1478768065.9398165     
  -365729330.97165698       -14888624.641801655        1482625294.7132103     
  -304140430.39039075        4171649.3245029896        1492181128.5438008     
  -240371774.62981594        30497773.888503224        1507435567.4315903     
  -609442060.46417046       -33721723.727247715        1395430289.4203215     
  -537610357.47152567       -30153931.609774202        1393332075.9692917     
  -463559930.67882025       -19190393.492103577        1396989524.3580139     
  -387290780.08606803       -831109.37427277863        1406402634.5864794     
  -308802905.69326121        24923920.743735880        1421571406.6546886     
  -744662382.79807830       -38675665.212801814        1308173991.6583011     
  -658065347.65674734       -36019747.935242325        1305864404.4309309     
  -569210620.09461284       -25838189.254995137        1309367535.8258576     
  -478098200.11166215       -8130989.1720304787        1318683385.8430820     
  -384728087.70790625        17101852.313615263        1333811954.4826043     
  -888028833.59803283       -46073445.238171607        1218840548.9375536     
  -786503446.92931306       -44280496.986931086        1216365051.3247302     
  -682681399.21902657       -34832011.930465996        1219759329.1167488     
  -576562690.46717536       -17727990.068780482        1229023382.3136129     
  -468147320.67375308        7031568.5981307626        1244157210.9153230     
  -1039541412.8640456       -55915063.803365529        1127429961.2580914     
  -922924655.28921914       -54936178.764815331        1124834016.6506879     
  -803972268.05207253       -46171861.518534809        1128164904.2306828     
  -682684251.15259326       -29622112.064477295        1137422623.9980721     
  -559060604.59080243       -5286930.4027144909        1152607175.9528561     
  -240371774.62981594        30497773.888503224        1507435567.4315903     
  -199617334.94082940        60214251.440435067        1486237908.3195081     
  -154254990.33700061        105290412.04184592        1467809561.8144243     
  -104284740.81834626        165726255.69267255        1452150527.9163349     
  -49706586.384853750        241521782.39296028        1439260806.6252439     
  -308802905.69326121        24923920.743735880        1421571406.6546886     
  -259142123.72488627        55185232.893867552        1404797245.1860800     
  -203026828.35252240        106961589.72397116        1391979072.5719616     
  -140457019.57618648        180252991.23397130        1383116888.8123245     
  -71432697.395863801        275059437.42393357        1378210693.9071789     
  -384728087.70790625        17101852.313615263        1333811954.4826043     
  -322770459.89588016        48925150.131225586        1323615667.2281389     
  -252511710.19071725        108418854.25928116        1318562045.0756476     
  -173951838.59242716        195582964.69776326        1318651088.0251434     
  -87090845.101004228        310417481.44669443        1323882796.0766168     
  -468147320.67375308        7031568.5981307626        1244157210.9153230     
  -390502343.45380676        41434003.152500466        1242693174.4456720     
  -302709635.85158575        109662205.64778903        1247558479.3255017     
  -204769197.86707732        211716176.08402568        1258753125.5547962     
  -96681029.500297815        347595914.46118265        1276277113.1335669     
  -559060604.59080243       -5286930.4027144909        1152607175.9528561     
  -462337774.39867145        32711791.957693934        1162029766.8386946     
  -353620605.33511931        110691643.88950908        1178968375.3214989     
  -232909097.40013319        228652625.39276934        1203423001.4012711     
  -100203250.59371594        386594736.46746683        1235393645.0780132     
  -49706586.384853750        241521782.39296028        1439260806.6252439     
  -40417317.100291997        322493916.90783840        1346273410.3753827     
  -23364563.702425569        429344331.80039746        1253153846.6757424     
   1451673.8086965680        562073027.07048273        1159902115.5263264     
   34031395.433105320        720680002.71817684        1066518216.9271182     
  -71432697.395863801        275059437.42393357        1378210693.9071789     
  -57304309.748806074        376789822.82358575        1296706034.9215217     
  -34206664.360910833        508417734.02602851        1214265576.5372303     
  -2139761.2321629822        669943171.03131151        1130889318.7543077     
   38896399.637425303        861366133.83939600        1046577261.5727496     
  -87090845.101004228        310417481.44669443        1323882796.0766168     
  -70419430.373903394        432217290.34630811        1255267610.2539856     
  -43572984.278384626        587933870.47398973        1184912993.0838714     
  -6551506.8144525886        777567221.82970798        1112818944.5662665     
   40645002.017879546        1001117344.4134288        1038985464.7012066     
  -96681029.500297815        347595914.46118265        1276277113.1335669     
  -79762678.975562990        488776319.47608680        1221958136.3727796     
  -51463523.454852998        667892741.14425254        1165096096.3156631     
  -11783562.938168168        884945179.46566498        1105690992.9622197     
   39277202.574493885        1139933634.4403296        1043742826.3124340     
  -100203250.59371594        386594736.46746683        1235393645.0780132     
  -85334055.553793490        546466910.21288753        1196777613.2779028     
  -57878281.890319198        748294346.03681445        1154814886.2326078     
  -17835929.603301048        992077043.93922639        1109505463.9421456     
   34793001.307246506        1277815003.9200585        1060849346.4064945     
  -3036143175.4318819       -17654026.358842015        1060557394.6814669     
  -2929884343.4114017       -7891371.7734645605        1055284469.7020499     
  -2824318598.3465281       -439007.04010212421        1057747777.9776888     
  -2719445940.2372594        4703067.8412474394        1067947319.5083848     
  -2615266369.0835919        7534852.8705850840        1085883094.2941377     
  -3401854796.6886673       -11526380.516654253        985139461.83178711     
  -3278064033.0870848       -2465317.3697099686        978447979.49847698     
  -3154683248.2073307        5229150.0377891064        977668270.84291148     
  -3031712442.0494099        11557021.705840349        982800335.86508667     
  -2909151614.6133285        16518297.634434938        993844174.56500590     
  -3767174625.3361154       -5281196.8916704655        907263624.46903622     
  -3631064671.8028803        1514452.3220124245        899483877.72123325     
  -3495081588.7577200        7887199.9088070393        895791445.07386065     
  -3359225376.2006230        13837045.868712425        896186326.52691448     
  -3223496034.1315913        19363990.201728582        900668522.08039606     
  -4132102661.3742051        1081524.5161232948        826929882.59322059     
  -3988886259.5588026        4047937.3016993999        818392164.37031889     
  -3845513619.9976974        7535142.5729470253        812117300.67053509     
  -3701984742.6908908        11543140.329872608        808105291.49386203     
  -3558299627.6383810        16071930.572469950        806356136.84030306     
  -4496638904.8029470        7561783.7067213058        744138236.20433450     
  -4351528796.3548384        5135137.5693488121        735172839.44573486     
  -4205979341.9272652        4172978.0302109718        726645837.63293517     
  -4059990541.5202227        4675305.0893030167        718557230.76593494     
  -3913562395.1337023        6642118.7466382980        710907018.84473515     
  -2615266369.0835919        7534852.8705850840        1085883094.2941377     
  -2530180879.5943422        3319250.1115943193        1095214232.9883728     
  -2445272081.1422453       -1485322.7712328434        1105358075.5497329     
  -2360539973.7272892       -6878865.7778638601        1116314621.9782188     
  -2275984557.3494811       -12861378.908324838        1128083872.2738283     
  -2909151614.6133285        16518297.634434938        993844174.56500590     
  -2820449647.5085402        10420830.354627013        996599502.92608464     
  -2731931823.7318182        3709551.9812690020        1001758309.7060274     
  -2643598143.2831621       -3615537.4856481552        1009320594.9048325     
  -2555448606.1625752       -11554438.046121478        1019286358.5224991     
  -3223496034.1315913        19363990.201728582        900668522.08039606     
  -3126632519.2634392        12748179.445458055        896839345.76891112     
  -3029960600.0142760        5493716.6258919239        897004422.42802846     
  -2933480276.3840938       -2399398.2569501400        901163752.05774689     
  -2837191548.3729048       -10931165.203090310        909317334.65806389     
  -3558299627.6383810        16071930.572469950        806356136.84030306     
  -3448729494.8590455        10301297.384072781        795933761.51684976     
  -3339358409.9896154        3867171.1626570225        791096413.71573734     
  -3230186373.0300908       -3230448.0917817354        791844093.43696129     
  -3121213383.9804735       -10991560.379233479        798176800.68052483     
  -3913562395.1337023        6642118.7466382980        710907018.84473515     
  -3786740574.2953534        3080184.1704752445        693882750.16990387     
  -3660125253.6578350       -1170084.4084434509        684034283.56915092     
  -3533716433.2211423       -6108686.9901149273        681361619.04247630     
  -3407514112.9852724       -11735623.574542284        685864756.58987808     
  -2275984557.3494811       -12861378.908324838        1128083872.2738283     
  -2168992032.7875557       -12591805.669304132        1119844530.7024457     
  -2062138671.7505226       -12786110.846594453        1116060623.2053394     
  -1955424474.2383778       -13444294.440176129        1116732149.7825115     
  -1848849440.2511282       -14566356.450075150        1121859110.4339566     
  -2555448606.1625752       -11554438.046121478        1019286358.5224991     
  -2436748563.4329104       -10724750.386781693        1010105947.0135311     
  -2318125847.7902827       -10152819.684231639        1005346627.4623195     
  -2199580459.2346911       -9838645.9384747744        1005008399.8688636     
  -2081112397.7661450       -9782229.1495217085        1009091264.2331669     
  -2837191548.3729048       -10931165.203090310        909317334.65806389     
  -2706882107.8084135       -9570799.2232993841        899267995.72233891     
  -2576588157.8931065       -8262068.7407902479        893605406.62785065     
  -2446309698.6269846       -7004973.7555638552        892329567.37459648     
  -2316046730.0100508       -5799514.2676301003        895440477.96258235     
  -3121213383.9804735       -10991560.379233479        798176800.68052483     
  -2979392665.9140725       -9129952.1788709164        787330676.82887256     
  -2837525602.0590019       -7113858.0162707567        780836960.70193362     
  -2695612192.4152627       -4943277.8914502859        778695652.29971075     
  -2553652436.9828615       -2618211.8043988943        780906751.62220347     
  -3407514112.9852724       -11735623.574542284        685864756.58987808     
  -3254280237.7498789       -9402209.2534800768        674293990.33312631     
  -3100938180.2879610       -6708187.5106705427        667041289.68456697     
  -2947487940.5995269       -3653558.3461282253        664106654.64420640     
  -2793929518.6845717       -238321.75986111164        665490085.21203804     
  -1848849440.2511282       -14566356.450075150        1121859110.4339566     
  -1752977993.7326157       -19398380.207496285        1117482084.1254685     
  -1657296319.1882789       -24862977.212167084        1117292271.9420226     
  -1561804416.6181016       -30960147.464039862        1121289673.8836167     
  -1466502286.0220933       -37689890.963138223        1129474289.9502523     
  -2081112397.7661450       -9782229.1495217085        1009091264.2331669     
  -1974542599.2574208       -13784861.780147076        1003357205.2246683     
  -1868218267.4187801       -18605716.644392848        1001474035.6697247     
  -1762139402.2502260       -24244793.742265224        1003441755.5683337     
  -1656306003.7517662       -30702093.073760331        1009260364.9204979     
  -2316046730.0100508       -5799514.2676301003        895440477.96258235     
  -2199739507.1439433       -9261034.0613050461        888284409.10883987     
  -2083733445.6438401       -13726425.075005889        884642905.03716171     
  -1968028545.5097363       -19195687.308703065        884515965.74754369     
  -1852624806.7416410       -25668820.762422800        887903591.23999679     
  -2553652436.9828615       -2618211.8043988943        780906751.62220347     
  -2428568717.3921933       -5826897.0509853363        772263695.77797925     
  -2303841853.8634462       -10225102.503969669        766798880.04433179     
  -2179471846.3966212       -15812828.163368106        764512304.42125678     
  -2055458694.9917207       -22590074.029160261        765403968.90875256     
  -2793929518.6845717       -238321.75986111164        665490085.21203804     
  -2661030230.0021653       -3482450.7491821051        655295065.23209345     
  -2528543492.0776081       -8101748.9313075542        647941960.69123375     
  -2396469304.9108810       -14096216.306216002        643430771.58946145     
  -2264807668.5020032       -21465852.873945117        641761497.92677212     
  -1466502286.0220933       -37689890.963138223        1129474289.9502523     
  -1359522194.1962204       -41446605.718656898        1123674393.6683774     
  -1252702018.0612516       -45736372.777192950        1121400373.4590592     
  -1146041757.6171951       -50559192.138767242        1122652229.3222959     
  -1039541412.8640456       -55915063.803365529        1127429961.2580914     
  -1656306003.7517662       -30702093.073760331        1009260364.9204979     
  -1540194453.0626326       -34425132.583531618        1001078129.1759418     
  -1424067668.1224053       -38097391.256349385        996386445.27386320     
  -1307925648.9311090       -41718869.092250407        995185313.21425700     
  -1191768395.4887316       -45289566.091219127        997474732.99712443     
  -1852624806.7416410       -25668820.762422800        887903591.23999679     
  -1727482723.5609105       -29388462.937969565        877543357.63175547     
  -1602150256.1871018       -32473491.136588037        870638351.63590217     
  -1476627404.6202254       -34923905.358310938        867188573.25244355     
  -1350914168.8602705       -36739705.603108525        867194022.48137403     
  -2055458694.9917207       -22590074.029160261        765403968.90875256     
  -1921387005.6910558       -26336596.781959176        753070079.03581500     
  -1786949782.2553263       -28864672.417875290        744156092.54518235     
  -1652147024.6845269       -30174300.936898589        738662009.43686545     
  -1516978732.9786725       -30265482.339060187        736587829.71084893     
  -2264807668.5020032       -21465852.873945117        641761497.92677212     
  -2121907299.4530761       -25269534.115524530        627658293.38812292     
  -1978466246.3270857       -27270935.100224853        616939668.00170195     
  -1834484509.1240427       -27470055.828087807        609605621.76750135     
  -1689962087.8439419       -25866896.299085557        605656154.68553412     
  -1039541412.8640456       -55915063.803365529        1127429961.2580914     
  -922924655.28921914       -54936178.764815331        1124834016.6506879     
  -803972268.05207253       -46171861.518534809        1128164904.2306828     
  -682684251.15259326       -29622112.064477295        1137422623.9980721     
  -559060604.59080243       -5286930.4027144909        1152607175.9528561     
  -1191768395.4887316       -45289566.091219127        997474732.99712443     
  -1061518455.5541987       -42402326.211907327        993765022.98392999     
  -929813333.87253976       -34664480.508851767        994175154.55831671     
  -796653030.44376731       -22076028.982071072        998705127.72029793     
  -662037545.26786304       -4636971.6315348446        1007354942.4698616     
  -1350914168.8602705       -36739705.603108525        867194022.48137403     
  -1212193876.8511944       -33492959.968587577        861343357.82798290     
  -1072898851.0102018       -28330434.894346356        857805544.16237056     
  -933029091.33728039       -21252130.380346417        856580581.48453856     
  -792584597.83244359       -12258046.426617831        857668469.79448509     
  -1516978732.9786725       -30265482.339060187        736587829.71084893     
  -1374950919.1802254       -28208080.034889996        727569021.18285716     
  -1233228819.4650486       -27169724.674976707        719056073.04283774     
  -1091812433.8331621       -27150416.259342432        711048985.29079342     
  -950701762.28454256       -28150154.787953019        703547757.92672265     
  -1689962087.8439419       -25866896.299085557        605656154.68553412     
  -1549789582.5412776       -26547686.410795510        592442013.04854667     
  -1410803239.2370956       -31182349.850790560        577926741.19972634     
  -1273003057.9313886       -39770886.619026065        562110339.13906670     
  -1136389038.6241636       -52313296.715544879        544992806.86657667     
  -559060604.59080243       -5286930.4027144909        1152607175.9528561     
  -462337774.39867145        32711791.957693934        1162029766.8386946     
  -353620605.33511931        110691643.88950908        1178968375.3214989     
  -232909097.40013319        228652625.39276934        1203423001.4012711     
  -100203250.59371594        386594736.46746683        1235393645.0780132     
  -662037545.26786304       -4636971.6315348446        1007354942.4698616     
  -546970289.38259351        25637138.232112080        1020898791.6164330     
  -421028860.54095924        92158491.283649474        1042820322.7369384     
  -284213258.74294293        194927087.52311966        1073119535.8313735     
  -136523483.98855624        333942926.95049787        1111796430.8997295     
  -792584597.83244359       -12258046.426617831        857668469.79448509     
  -656711018.03414261        11030020.406242132        874026716.96755767     
  -511083431.19452918        66831444.043478400        899624310.49152780     
  -355701837.31359577        155146224.48511726        934461250.36638653     
  -190566236.39134032        275974361.73115575        978537536.59214175     
  -950701762.28454256       -28150154.787953019        703547757.92672265     
  -791559960.35331869       -11109561.519922644        721413542.89206934     
  -623784317.29582477        34710502.168992519        749380338.58527458     
  -447374833.11208183        109310036.27875143        787448145.00633228     
  -262331507.80205792        212689040.80943528        835616962.15524578     
  -1136389038.6241636       -52313296.715544879        544992806.86657667     
  -951517116.34011698       -40781607.546364069        563059269.38996410     
  -759131518.84485769       -4204334.3398245871        592088407.01816964     
  -559232246.13839579        57418522.904068053        632080219.75119948     
  -351819298.22072107        144086964.18533111        683034707.58904493     
  -100203250.59371594        386594736.46746683        1235393645.0780132     
  -85334055.553793490        546466910.21288753        1196777613.2779028     
  -57878281.890319198        748294346.03681445        1154814886.2326078     
  -17835929.603301048        992077043.93922639        1109505463.9421456     
   34793001.307246506        1277815003.9200585        1060849346.4064945     
  -136523483.98855624        333942926.95049787        1111796430.8997295     
  -127383943.40902409        482975032.92818242        1090209155.4873672     
  -95108903.168681353        709125471.10858715        1070062702.9124417     
  -39698363.267480671        1012394241.4918182        1051357073.1749477     
   38847676.294523895        1392781344.0777664        1034092266.2748868     
  -190566236.39134032        275974361.73115575        978537536.59214175     
  -173477727.17902762        418269986.86901546        986286092.11102962     
  -122704797.26859748        672847014.33392775        1000262988.5499676     
  -38247446.660054684        1039705444.1259086        1020468225.9089522     
   79894324.646615028        1518845276.2449319        1046901804.1879907     
  -262331507.80205792        212689040.80943528        835616962.15524578     
  -223615406.86377341        352351772.03543413        885008423.14887977     
  -140665964.19008622        639458975.71279287        945415743.14518034     
  -13483179.780992508        1074010651.8414814        1016838922.1441376     
   157932946.36349523        1656006800.4215274        1099277960.1457732     
  -351819298.22072107        144086964.18533111        683034707.58904493     
  -277796982.46328151        285220388.42742407        786376148.60092783     
  -148992403.93315303        608961355.24515796        905520966.69809663     
   34594437.369676113        1115309864.6385496        1040469161.8805422     
   272963541.44518983        1804265916.6075673        1191220734.1482658     
  -4496638904.8029470        7561783.7067213058        744138236.20433450     
  -4351528796.3548384        5135137.5693488121        735172839.44573486     
  -4205979341.9272652        4172978.0302109718        726645837.63293517     
  -4059990541.5202227        4675305.0893030167        718557230.76593494     
  -3913562395.1337023        6642118.7466382980        710907018.84473515     
  -4868179922.9895039        4541999.9828836918        543378516.56948662     
  -4717969445.0657187        1201200.8171315193        533186961.94974530     
  -4567378583.8396168       -871654.00754952431        526691331.91050297     
  -4416407339.3111906       -1676564.4911699295        523891626.45176327     
  -4265055711.4804506       -1213530.6337273121        524787845.57352513     
  -5249244078.5842552       -1334724.9634139538        341713090.34077096     
  -5084626003.6570807       -2797508.8992252350        330226588.06987327     
  -4919686508.1047316       -3188890.7511498928        325693540.01418042     
  -4754425591.9272146       -2508870.5191578865        328113946.17368978     
  -4588843255.1245308       -757448.20329213142        337487806.54840189     
  -5639831371.5872126       -10068391.132172823        139141957.51818073     
  -5451498472.1289253       -6860991.5797262192        126291717.80612598     
  -5262903114.7226124       -2778732.2005624771        123652461.94396861     
  -5074045299.3682880        2178387.0053317547        131224189.93171792     
  -4884925026.0659428        8010366.0379459858        149006901.76936850     
  -6039941801.9983816       -21658998.523394585       -64334881.898277558     
  -5818586850.4812622       -10989247.224380970       -78617648.841511771     
  -5597028403.6932631        358821.64418649673       -79431902.300138339     
  -5375266461.6344051        12385208.082321882       -66777642.274155676     
  -5153301024.3046913        25089912.089970350       -40654868.763576262     
  -3913562395.1337023        6642118.7466382980        710907018.84473515     
  -3786740574.2953534        3080184.1704752445        693882750.16990387     
  -3660125253.6578350       -1170084.4084434509        684034283.56915092     
  -3533716433.2211423       -6108686.9901149273        681361619.04247630     
  -3407514112.9852724       -11735623.574542284        685864756.58987808     
  -4265055711.4804506       -1213530.6337273121        524787845.57352513     
  -4122076051.3549366       -2975917.8372833729        516059425.14728546     
  -3979288091.5093889       -5377305.9740788937        512169029.62804067     
  -3836691831.9438138       -8417695.0441164970        513116659.01578259     
  -3694287272.6582150       -12097085.047393560        518902313.31051975     
  -4588843255.1245308       -757448.20329213142        337487806.54840189     
  -4436385119.0463791       -2724097.0346024036        337072500.94508570     
  -4284103883.3273416       -5280413.7296307087        339157443.08167440     
  -4131999547.9674282       -8426398.2883975506        343742632.95816982     
  -3980072112.9666238       -12162050.710879803        350828070.57456726     
  -4884925026.0659428        8010366.0379459858        149006901.76936850     
  -4729667777.3696861        3835646.5785193443        156921977.56330451     
  -4574572629.1116953       -879407.67511773109        164999523.93006045     
  -4419639581.2919636       -6134796.7229497433        173239540.86963281     
  -4264868633.9104967       -11930520.565012932        181642028.38201833     
  -5153301024.3046913        25089912.089970350       -40654868.763576262     
  -5001924026.3248625        16703313.002093315       -24392144.998059288     
  -4850694328.8624392        7825712.1895062923       -10304727.826808734     
  -4699611931.9174337       -1542890.3477954865        1607382.7501691631     
  -4548676835.4898310       -11402494.609774351        11344186.732876481     
  -3407514112.9852724       -11735623.574542284        685864756.58987808     
  -3254280237.7498789       -9402209.2534800768        674293990.33312631     
  -3100938180.2879610       -6708187.5106705427        667041289.68456697     
  -2947487940.5995269       -3653558.3461282253        664106654.64420640     
  -2793929518.6845717       -238321.75986111164        665490085.21203804     
  -3694287272.6582150       -12097085.047393560        518902313.31051975     
  -3529373894.7624388       -9202341.4570720196        507893013.87379682     
  -3364386516.7995119       -6060930.9762582779        501420344.12088954     
  -3199325138.7694383       -2672853.6049563885        499484304.05178761     
  -3034189760.6722269        961890.65682113171        502084893.66649812     
  -3980072112.9666238       -12162050.710879803        350828070.57456726     
  -3802854763.6229916       -8518637.2150635719        340340358.77194268     
  -3625597596.3715806       -4742497.3599979877        334607840.72874391     
  -3448300611.2124038       -833631.14569401741        333630516.44496834     
  -3270963808.1454520        3207961.4278371334        337408385.92062432     
  -4264868633.9104967       -11930520.565012932        181642028.38201833     
  -4074722844.3315244       -7351096.5274314880        171636025.02755356     
  -3884571419.0041766       -2752886.6619009972        166603779.50813165     
  -3694414357.9284110        1864109.0316627026        166545291.82374546     
  -3504251661.1042681        6499890.5531737804        171460561.97440442     
  -4548676835.4898310       -11402494.609774351        11344186.732876481     
  -4344978136.8880749       -5699719.3942413330        1780012.6406380530     
  -4141307984.6972871       -92098.881948471069       -2591839.5409520073     
  -3937666378.9174795        5420366.9270832539       -1771369.8118794474     
  -3734053319.5486565        10837678.032831669        4241421.8278475655     
  -2793929518.6845717       -238321.75986111164        665490085.21203804     
  -2661030230.0021653       -3482450.7491821051        655295065.23209345     
  -2528543492.0776081       -8101748.9313075542        647941960.69123375     
  -2396469304.9108810       -14096216.306216002        643430771.58946145     
  -2264807668.5020032       -21465852.873945117        641761497.92677212     
  -3034189760.6722269        961890.65682113171        502084893.66649812     
  -2893555892.5402379       -2857561.1691356897        492985625.47540849     
  -2753064426.5181503       -7151686.6947556734        487126885.15336245     
  -2612715362.6059608       -11920485.920034528        484508672.70036942     
  -2472508700.8036618       -17163958.844957709        485130988.11642957     
  -3270963808.1454520        3207961.4278371334        337408385.92062432     
  -3121456467.9068384       -845145.43764424324        329720042.94098014     
  -2971821381.1301818       -4472430.5096431971        325670840.26034927     
  -2822058547.8154783       -7673893.7881641388        325260777.87873775     
  -2672167967.9627342       -10449535.273197770        328489855.79614031     
  -3504251661.1042681        6499890.5531737804        171460561.97440442     
  -3344731956.1019726        2554796.4452986717        165498317.62880868     
  -3184814355.9136982       -63980.375963330269        163573826.01219702     
  -3024498860.5394392       -1356439.9106167555        165687087.12455374     
  -2863785469.9791932       -1322582.1586523056        171838100.96590701     
  -3734053319.5486565        10837678.032831669        4241421.8278475655     
  -3563382357.1256523        7342264.4796581268        320449.53889267024     
  -3392043350.8687172        6073663.7062308788        835842.40889508987     
  -3220036300.7778530        7031875.7125675678        5787600.4378378512     
  -3047361206.8530617        10216900.498683810        15175723.625723194     
  -2264807668.5020032       -21465852.873945117        641761497.92677212     
  -2121907299.4530761       -25269534.115524530        627658293.38812292     
  -1978466246.3270857       -27270935.100224853        616939668.00170195     
  -1834484509.1240427       -27470055.828087807        609605621.76750135     
  -1689962087.8439419       -25866896.299085557        605656154.68553412     
  -2472508700.8036618       -17163958.844957709        485130988.11642957     
  -2321119921.8475289       -18895654.190163136        473942426.31088132     
  -2169485130.3857327       -19807307.849827766        465420680.84410411     
  -2017604326.4182599       -19898919.823911548        459565751.71609539     
  -1865477509.9451342       -19170490.112468839        456377638.92685640     
  -2672167967.9627342       -10449535.273197770        328489855.79614031     
  -2514341529.9949856       -10724469.990722418        319872153.22373891     
  -2356563751.0929585       -11161601.593983769        313203504.17665076     
  -2198834631.2566605       -11760930.083003402        308483908.65487462     
  -2041154170.4860940       -12522455.457809091        305713366.65841490     
  -2863785469.9791932       -1322582.1586523056        171838100.96590701     
  -2701572123.8954234       -755981.51715981960        165447474.12668747     
  -2539702108.4487696       -1333816.3327325583        160288137.99933338     
  -2378175423.6392250       -3056086.6053346395        156360092.58383936     
  -2216992069.4668193       -5922792.3350588083        153663337.88019565     
  -3047361206.8530617        10216900.498683810        15175723.625723194     
  -2882811703.5488653        11009811.230475187        10668389.019748041     
  -2718900202.4531651        9676047.9339436293        6674582.3121686727     
  -2555626703.5659704        6215610.6090631485        3194303.5029892535     
  -2392991206.8873010        628499.25576448441        227552.59220754207     
  -1689962087.8439419       -25866896.299085557        605656154.68553412     
  -1549789582.5412776       -26547686.410795510        592442013.04854667     
  -1410803239.2370956       -31182349.850790560        577926741.19972634     
  -1273003057.9313886       -39770886.619026065        562110339.13906670     
  -1136389038.6241636       -52313296.715544879        544992806.86657667     
  -1865477509.9451342       -19170490.112468839        456377638.92685640     
  -1728403456.4218521       -22698969.170239449        442809210.85120702     
  -1591404698.8444002       -26478434.714103162        428815647.52926534     
  -1454481237.2127862       -30508886.744084418        414396948.96102577     
  -1317633071.5269983       -34790325.260167718        399553115.14649653     
  -2041154170.4860940       -12522455.457809091        305713366.65841490     
  -1904675725.9834979       -18147770.633969545        293086662.53885144     
  -1767161711.3740981       -20321185.454132080        280910818.13853902     
  -1628612126.6578820       -19042699.918238461        269185833.45747089     
  -1489026971.8348546       -14312314.026310444        257911708.49564674     
  -2216992069.4668193       -5922792.3350588083        153663337.88019565     
  -2078606391.2262323       -12894090.802070498        143274368.11147988     
  -1938074276.8261936       -12710602.070901275        134212253.02754545     
  -1795395726.2666893       -5372326.1415095329        126476992.62840717     
  -1650570739.5477366        9120736.9860292673        120068586.91404428     
  -2392991206.8873010        628499.25576448441        227552.59220754207     
  -2250195452.1500335       -6937929.6744449139       -6627672.4309084658     
  -2104142395.2006645       -3646684.5643264055       -11280047.803707412     
  -1954832036.0392113        10502234.586085916       -13729573.526170397     
  -1802264374.6656342        35508827.776897550       -13976249.598315679     
  -1136389038.6241636       -52313296.715544879        544992806.86657667     
  -951517116.34011698       -40781607.546364069        563059269.38996410     
  -759131518.84485769       -4204334.3398245871        592088407.01816964     
  -559232246.13839579        57418522.904068053        632080219.75119948     
  -351819298.22072107        144086964.18533111        683034707.58904493     
  -1317633071.5269983       -34790325.260167718        399553115.14649653     
  -1117912732.6846318       -14834727.543743730        421337744.30709487     
  -914572888.47739601        17185888.055582464        441637578.35837662     
  -707613538.90528297        61271521.537816763        460452617.30033839     
  -497034683.96831048        117422172.90294373        477782861.13296759     
  -1489026971.8348546       -14312314.026310444        257911708.49564674     
  -1310022417.0460138        3397932.0537912846        278871306.13940972     
  -1131292526.7386215        20192629.862381756        285898638.45971042     
  -952837300.91270375        36071779.399398267        278993705.45654309     
  -774656739.56825328        51035380.664856970        258156507.12989873     
  -1650570739.5477366        9120736.9860292673        120068586.91404428     
  -1527846169.4242408        13916371.246312141        135659954.88690785     
  -1409290433.6285434        4815891.0805828571        124871587.32215694     
  -1294903532.1606662       -18180703.511205852        87703484.219803840     
  -1184685465.0205686       -55073412.528924882        24155645.579841252     
  -1802264374.6656342        35508827.776897550       -13976249.598315679     
  -1771383989.8193352        16720590.033739448       -8296309.4504207876     
  -1748566609.1471665       -28944328.289853096       -41443575.054264657     
  -1733812232.6491394       -101485927.19392818       -113418046.40985706     
  -1727120860.3252511       -200904206.67844349       -224219723.51721865     
  -351819298.22072107        144086964.18533111        683034707.58904493     
  -277796982.46328151        285220388.42742407        786376148.60092783     
  -148992403.93315303        608961355.24515796        905520966.69809663     
   34594437.369676113        1115309864.6385496        1040469161.8805422     
   272963541.44518983        1804265916.6075673        1191220734.1482658     
  -497034683.96831048        117422172.90294373        477782861.13296759     
  -388229060.03926694        223045571.73462528        597070083.41849434     
  -230292578.77033967        492438495.03259706        735504940.76852298     
  -23225240.161511421        925600942.79694426        893087433.18305171     
   232972955.78723499        1522532915.0276184        1069817560.6621119     
  -774656739.56825328        51035380.664856970        258156507.12989873     
  -621512784.66983318        124015260.92541903        386796204.35080159     
  -424889377.86430311        341926647.54300332        537927794.61543286     
  -184786519.15164837        704769540.51764774        711551277.92380726     
   98795791.468101084        1212543939.8493297        907666654.27591646     
  -1184685465.0205686       -55073412.528924882        24155645.579841252     
  -977648156.35495448       -11870544.000123799        155554511.39786354     
  -732782801.21502173        157425812.77642298        312789528.23884994     
  -450089399.60077488        452815657.80065745        495860696.10279727     
  -129567951.51219672        874298991.07269812        704768014.98972833     
  -1727120860.3252511       -200904206.67844349       -224219723.51721865     
  -1456635175.0946605       -184611843.04208201       -96654995.440324053     
  -1153972848.8225365       -61064009.267286122        60090141.638753109     
  -819133881.50886035        169739294.64601040        246015687.72004262     
  -452118273.15367758        507798068.69768500        461121642.80351406     
 </DataArray>
 <DataArray  type="Float64" Name="VM" NumberOfComponents="1" format="ascii">
   6030171360.3109283     
   5814694823.2012806     
   5598898539.4731655     
   5382712610.1382790     
   5166371585.1079197     
   5639955508.2977962     
   5452460881.4514046     
   5265871529.3621960     
   5080221762.7704201     
   4895742615.6511116     
   5281842770.2105331     
   5115305878.7713528     
   4950339992.8059196     
   4787025893.9570751     
   4625548725.0400667     
   4960553255.3380861     
   4808094154.9419699     
   4657164142.9100885     
   4507841975.8724661     
   4360244546.3958988     
   4681350942.6761351     
   4536475756.9612589     
   4392251530.8476439     
   4248705689.0405169     
   4105870823.3818331     
   5166371585.1079197     
   5010474693.3318729     
   4854644728.8361492     
   4698841502.2864447     
   4543028809.8932028     
   4895742615.6511116     
   4739386750.1183081     
   4583052157.9642477     
   4426756587.5037718     
   4270520602.1564770     
   4625548725.0400667     
   4473286114.0784216     
   4321577878.0948477     
   4170509606.2096558     
   4020193671.9203830     
   4360244546.3958988     
   4216420838.4941168     
   4074348541.0965853     
   3934189251.7422309     
   3796181445.2156334     
   4105870823.3818331     
   3974354939.5686822     
   3846549649.9672685     
   3722682329.2195702     
   3603128122.5423408     
   4543028809.8932028     
   4342132177.5484753     
   4141264370.2494726     
   3940380554.3315272     
   3739491154.4584775     
   4270520602.1564770     
   4081892138.3969274     
   3893902849.1046576     
   3706588694.3695374     
   3520056164.6550879     
   4020193671.9203830     
   3844070305.2509985     
   3669287846.9184465     
   3495973568.7786417     
   3324340677.0857501     
   3796181445.2156334     
   3632898602.2647452     
   3471744400.1525626     
   3312942937.0375328     
   3156817184.3221703     
   3603128122.5423408     
   3453092530.1130829     
   3306038897.1241689     
   3162284404.1376252     
   3022252062.9962254     
   3739491154.4584775     
   3567059200.8310728     
   3395084567.0057015     
   3223573579.1217356     
   3052595652.9066954     
   3520056164.6550879     
   3358266306.4699631     
   3197359521.7057920     
   3037408315.1174026     
   2878552824.4729939     
   3324340677.0857501     
   3172853454.3403034     
   3022686808.9288836     
   2873986928.2409868     
   2726973534.6568999     
   3156817184.3221703     
   3015544701.2080879     
   2876039573.5963631     
   2738526021.4063497     
   2603307902.9193377     
   3022252062.9962254     
   2891377175.8843298     
   2762715792.0605741     
   2636568250.2507858     
   2513318914.8680234     
   3052595652.9066954     
   2888391455.6341105     
   2723775651.7426972     
   2558746152.5494390     
   2393305549.8583961     
   2878552824.4729939     
   2716352106.0633464     
   2554168736.8876133     
   2392029515.9437380     
   2229976545.2431369     
   2726973534.6568999     
   2569439224.1523662     
   2412779218.9229274     
   2257130627.9183316     
   2102686110.9944086     
   2603307902.9193377     
   2453153053.9409175     
   2305197521.9188738     
   2159763197.3426390     
   2017288619.0931611     
   2513318914.8680234     
   2373051687.1871552     
   2236730072.1545658     
   2104887564.3628728     
   1978227743.7272131     
   2393305549.8583961     
   2246763847.0455370     
   2102412207.3641465     
   1960248502.6721687     
   1820439522.0785012     
   2229976545.2431369     
   2086995850.2556133     
   1945687065.3498731     
   1806050528.8672469     
   1668163892.5105865     
   2102686110.9944086     
   1962460883.1577206     
   1823210165.2053092     
   1684965860.3487096     
   1547788775.1204994     
   2017288619.0931611     
   1880664979.1553504     
   1744356814.3025327     
   1608491949.8227310     
   1473246235.8453457     
   1978227743.7272131     
   1847801887.1658065     
   1717365398.3889689     
   1587259950.0595038     
   1457984894.1123741     
   1820439522.0785012     
   1779861199.1591082     
   1735760520.3565631     
   1696772721.7221363     
   1681412077.3200707     
   1668163892.5105865     
   1552733244.0600870     
   1428176616.5675929     
   1294851011.3558481     
   1158886770.0876663     
   1547788775.1204994     
   1397830198.0703511     
   1244302370.3722951     
   1084934603.9858325     
   917696530.39746284     
   1473246235.8453457     
   1328887316.8858814     
   1198994546.3122501     
   1088061356.6447520     
   1002009841.6952442     
   1457984894.1123741     
   1348833120.8005791     
   1274681427.5105555     
   1243673628.1182127     
   1262869621.3891487     
   1681412077.3200707     
   1383828756.1170518     
   1129490334.4782710     
   1010149546.7920613     
   1153149645.8223715     
   1158886770.0876663     
   1008426115.2475941     
   985202677.21428239     
   1161491930.6191828     
   1544202568.9844329     
   917696530.39746284     
   963103788.50823724     
   1144912552.4690950     
   1476480184.9204330     
   1957499793.6818054     
   1002009841.6952442     
   1164706811.1329904     
   1425425490.0403166     
   1808753524.2036071     
   2334781086.4304729     
   1262869621.3891487     
   1446691928.9339139     
   1715712081.9084599     
   2110511213.5975082     
   2663532671.3510952     
   4681350942.6761351     
   4536475756.9612589     
   4392251530.8476439     
   4248705689.0405169     
   4105870823.3818331     
   4373806350.2094364     
   4235171085.9714608     
   4098244972.1927152     
   3963162782.0584517     
   3830087963.9123039     
   4079352835.9898424     
   3951878794.2065225     
   3827603821.1065502     
   3706820495.5839148     
   3589893130.9928555     
   3800662752.0283422     
   3689134041.1457901     
   3582744194.6503682     
   3481973730.8698878     
   3387428071.4793754     
   3541076508.1480489     
   3449933294.0157223     
   3366307626.0909433     
   3290855909.4655604     
   3224408000.0053926     
   4105870823.3818331     
   3974354939.5686822     
   3846549649.9672685     
   3722682329.2195702     
   3603128122.5423408     
   3830087963.9123039     
   3718857244.1173382     
   3611335483.1427903     
   3507809953.8183804     
   3408672088.4760036     
   3589893130.9928555     
   3496972218.3473601     
   3407519323.1529989     
   3321831121.8819480     
   3240267825.5117273     
   3387428071.4793754     
   3311203398.5657949     
   3237925048.8310585     
   3167846327.9529848     
   3101251088.3149981     
   3224408000.0053926     
   3163654105.0404024     
   3105024183.9969854     
   3048677326.9778056     
   2994781869.3044138     
   3603128122.5423408     
   3453092530.1130829     
   3306038897.1241689     
   3162284404.1376252     
   3022252062.9962254     
   3408672088.4760036     
   3272511433.5337749     
   3140148957.1893497     
   3011996867.2620120     
   2888582298.0381536     
   3240267825.5117273     
   3118885070.5603261     
   3002195646.8041673     
   2890691965.3047314     
   2784980267.8595362     
   3101251088.3149981     
   2995441052.5363464     
   2895244464.3321004     
   2801202551.3913813     
   2713956910.8989625     
   2994781869.3044138     
   2905086701.3713946     
   2821876425.1732330     
   2745696336.5999393     
   2677168093.1238542     
   3022252062.9962254     
   2891377175.8843298     
   2762715792.0605741     
   2636568250.2507858     
   2513318914.8680234     
   2888582298.0381536     
   2770018519.0122643     
   2654840180.5253153     
   2543486022.1834249     
   2436496971.9353604     
   2784980267.8595362     
   2680618469.0027966     
   2580951468.6039553     
   2486530243.4450893     
   2398007763.8322158     
   2713956910.8989625     
   2625255556.9280763     
   2542572881.6083517     
   2466513014.6085167     
   2397761372.4919887     
   2677168093.1238542     
   2604918774.0985875     
   2539895665.7386799     
   2482681911.2953024     
   2433909139.6151056     
   2513318914.8680234     
   2373051687.1871552     
   2236730072.1545658     
   2104887564.3628728     
   1978227743.7272131     
   2436496971.9353604     
   2311528168.2065077     
   2191745385.9096236     
   2077862503.1911762     
   1970764639.5451241     
   2398007763.8322158     
   2290095896.4683409     
   2188594520.3610315     
   2094308151.4687240     
   2008174074.6994283     
   2397761372.4919887     
   2307993698.7575808     
   2225651526.5641809     
   2151517187.1036072     
   2086445757.1130292     
   2433909139.6151056     
   2362541698.0908508     
   2299277389.1328516     
   2244787089.9900646     
   2199759478.8362250     
   1978227743.7272131     
   1847801887.1658065     
   1717365398.3889689     
   1587259950.0595038     
   1457984894.1123741     
   1970764639.5451241     
   1854877633.5202115     
   1743332995.3988662     
   1637046227.7648656     
   1537140922.4673839     
   2008174074.6994283     
   1911981418.4773419     
   1824557458.0095611     
   1747099584.8742592     
   1680895796.9924355     
   2086445757.1130292     
   2011545498.4019649     
   1949019157.3509784     
   1899945331.3819406     
   1865351791.4975102     
   2199759478.8362250     
   2144728570.1992826     
   2104673490.9507024     
   2080361358.7973480     
   2072469759.4400723     
   1457984894.1123741     
   1348833120.8005791     
   1274681427.5105555     
   1243673628.1182127     
   1262869621.3891487     
   1537140922.4673839     
   1476214486.3677549     
   1447990412.9447505     
   1456440601.9347391     
   1504864314.6777718     
   1680895796.9924355     
   1652393011.8540037     
   1651605539.9072082     
   1680902563.9543307     
   1742892958.2544017     
   1865351791.4975102     
   1854874535.4724734     
   1867346392.5814991     
   1904975386.2216408     
   1970792099.9747248     
   2072469759.4400723     
   2069031104.9077067     
   2084788312.4958205     
   2122372424.1901252     
   2185595251.6772151     
   1262869621.3891487     
   1446691928.9339139     
   1715712081.9084599     
   2110511213.5975082     
   2663532671.3510952     
   1504864314.6777718     
   1613278225.3834310     
   1788876069.0201116     
   2066408946.9736621     
   2476085500.7699261     
   1742892958.2544017     
   1787704001.1671996     
   1884653619.8569047     
   2060651003.1369312     
   2340926552.1021905     
   1970792099.9747248     
   1968929359.5075896     
   2003609579.4953511     
   2093505084.9484987     
   2257273386.5878391     
   2185595251.6772151     
   2156239826.3202095     
   2146484702.6853845     
   2166849492.0893135     
   2228400037.2237825     
   3541076508.1480489     
   3449933294.0157223     
   3366307626.0909433     
   3290855909.4655604     
   3224408000.0053926     
   3351210687.7182651     
   3277102037.0233965     
   3210263238.1247067     
   3151158312.6727719     
   3100353849.0128365     
   3201310262.8110924     
   3140014172.1706204     
   3085342234.1474237     
   3037591972.9926672     
   2997113908.3972559     
   3099043924.3077440     
   3046392561.4428053     
   2999299333.6750078     
   2957934602.1873770     
   2922491238.5346160     
   3051138750.4456019     
   3003334283.3320246     
   2959614776.8595128     
   2920066001.9615798     
   2884780700.6782656     
   3224408000.0053926     
   3163654105.0404024     
   3105024183.9969854     
   3048677326.9778056     
   2994781869.3044138     
   3100353849.0128365     
   3042390678.4918766     
   2988422891.7609253     
   2938721442.8315563     
   2893576804.1008759     
   2997113908.3972559     
   2943377659.4802198     
   2895864584.1754518     
   2854899500.8130150     
   2820835612.9948726     
   2922491238.5346160     
   2873203708.7953362     
   2832692866.0937986     
   2801262917.1889381     
   2779251207.7471919     
   2884780700.6782656     
   2838604409.4179292     
   2804051663.6448374     
   2781335099.6424661     
   2770700724.4882469     
   2994781869.3044138     
   2905086701.3713946     
   2821876425.1732330     
   2745696336.5999393     
   2677168093.1238542     
   2893576804.1008759     
   2817483000.0204086     
   2748751156.7810097     
   2687886042.8842444     
   2635447204.4462008     
   2820835612.9948726     
   2757821410.0644908     
   2702956419.2480173     
   2656668906.7268786     
   2619420181.3707900     
   2779251207.7471919     
   2728185415.2423134     
   2685940600.6396279     
   2652844444.8142972     
   2629240399.6044159     
   2770700724.4882469     
   2729814962.4933987     
   2698307978.6616874     
   2676400194.0919247     
   2664317260.1458011     
   2677168093.1238542     
   2604918774.0985875     
   2539895665.7386799     
   2482681911.2953024     
   2433909139.6151056     
   2635447204.4462008     
   2577268470.0934963     
   2526866949.9403787     
   2484732940.0478415     
   2451378720.3189402     
   2619420181.3707900     
   2574356934.0672436     
   2537457334.9760447     
   2509100337.0644331     
   2489668439.3205833     
   2629240399.6044159     
   2595861164.1018567     
   2570885836.7862730     
   2554581496.4868541     
   2547209392.0012474     
   2664317260.1458011     
   2640792952.9077783     
   2625809159.8291984     
   2619534855.5085387     
   2622130967.2026634     
   2433909139.6151056     
   2362541698.0908508     
   2299277389.1328516     
   2244787089.9900646     
   2199759478.8362250     
   2451378720.3189402     
   2394607319.2716498     
   2347047495.2848396     
   2309257614.4781208     
   2281780067.4802856     
   2489668439.3205833     
   2446552911.4111285     
   2413517151.1602945     
   2390978858.4397511     
   2379322412.8111157     
   2547209392.0012474     
   2516157090.2433476     
   2495876226.1351972     
   2486646078.0597520     
   2488710998.7002010     
   2622130967.2026634     
   2601060987.6823058     
   2591372338.2923393     
   2593227435.5616655     
   2606762440.5330248     
   2199759478.8362250     
   2144728570.1992826     
   2104673490.9507024     
   2080361358.7973480     
   2072469759.4400723     
   2281780067.4802856     
   2241506967.5999765     
   2215158337.0450416     
   2203182457.7884412     
   2205965698.3077903     
   2379322412.8111157     
   2350848699.7630172     
   2335228255.1780324     
   2332709627.4997435     
   2343512475.8914399     
   2488710998.7002010     
   2469381687.8074040     
   2461930011.1294026     
   2466491043.7241774     
   2483198099.9984694     
   2606762440.5330248     
   2594296765.6154447     
   2592887908.3875794     
   2602614287.7737055     
   2623571129.6955938     
   2072469759.4400723     
   2069031104.9077067     
   2084788312.4958205     
   2122372424.1901252     
   2185595251.6772151     
   2205965698.3077903     
   2191631334.9908261     
   2192273068.3612165     
   2209860947.5403051     
   2247315260.4155750     
   2343512475.8914399     
   2319103562.7821770     
   2306233171.4132843     
   2306307878.3440723     
   2321416662.7012525     
   2483198099.9984694     
   2450482965.9173961     
   2426354046.9433227     
   2411757470.6221719     
   2408070329.6584921     
   2623571129.6955938     
   2584995551.6649942     
   2552355181.4673867     
   2526231716.5572739     
   2507433697.7312827     
   2185595251.6772151     
   2156239826.3202095     
   2146484702.6853845     
   2166849492.0893135     
   2228400037.2237825     
   2247315260.4155750     
   2182612092.1217818     
   2134349564.2301745     
   2112191361.1166592     
   2127067288.0945268     
   2321416662.7012525     
   2224701664.8148332     
   2141317182.8663132     
   2079626397.6407948     
   2049797532.6401806     
   2408070329.6584921     
   2282802150.4616427     
   2168034278.7510777     
   2070505711.9248655     
   1998982840.9806709     
   2507433697.7312827     
   2357122506.6439109     
   2214971239.3468585     
   2085960450.4903271     
   1976966205.3845770     
   3051138750.4456019     
   3003334283.3320246     
   2959614776.8595128     
   2920066001.9615798     
   2884780700.6782656     
   2840405436.0574522     
   2805530143.3721404     
   2776835277.9666600     
   2754418755.4932079     
   2738383250.6319795     
   2670633201.0140934     
   2649030837.4830585     
   2635704740.6367397     
   2630728669.8584552     
   2634177030.2544365     
   2546738173.1935320     
   2537060645.6177068     
   2537689732.0078473     
   2548652868.0369296     
   2569976584.3829088     
   2472320344.5085435     
   2471279043.8430891     
   2482523583.5806069     
   2506053963.7210951     
   2541870184.2645626     
   2884780700.6782656     
   2838604409.4179292     
   2804051663.6448374     
   2781335099.6424661     
   2770700724.4882469     
   2738383250.6319795     
   2712889548.1215467     
   2696943462.2582488     
   2690641635.7736816     
   2694090991.3009992     
   2634177030.2544365     
   2626116550.4474788     
   2625224905.8841715     
   2631532884.8823247     
   2645073156.9908490     
   2569976584.3829088     
   2576606139.6496625     
   2587815877.0184140     
   2603610423.4522996     
   2623994500.8220100     
   2541870184.2645626     
   2561161251.6250601     
   2582338923.6690702     
   2605403200.3965898     
   2630354081.8076267     
   2770700724.4882469     
   2729814962.4933987     
   2698307978.6616874     
   2676400194.0919247     
   2664317260.1458011     
   2694090991.3009992     
   2664469383.1876335     
   2644206770.3749275     
   2633432055.2951398     
   2632273847.1363730     
   2645073156.9908490     
   2624468778.8824558     
   2613133991.8642855     
   2611126804.5490332     
   2618503834.6092505     
   2623994500.8220100     
   2609860289.4970284     
   2604876518.5223246     
   2609057544.2199087     
   2622417142.5435905     
   2630354081.8076267     
   2619977586.4709220     
   2618640521.5800924     
   2626342887.1351399     
   2643084683.1360669     
   2664317260.1458011     
   2640792952.9077783     
   2625809159.8291984     
   2619534855.5085387     
   2622130967.2026634     
   2632273847.1363730     
   2618355603.3391247     
   2613045711.3199835     
   2616440663.2567124     
   2628629871.0507226     
   2618503834.6092505     
   2612266869.8095465     
   2614692812.8059478     
   2625824547.7042580     
   2645700867.4762497     
   2622417142.5435905     
   2621725540.4831152     
   2629780694.1505184     
   2646593230.7408133     
   2672172576.4231429     
   2643084683.1360669     
   2645681130.7474422     
   2657173185.0957699     
   2677560846.1810522     
   2706844114.0032849     
   2622130967.2026634     
   2601060987.6823058     
   2591372338.2923393     
   2593227435.5616655     
   2606762440.5330248     
   2628629871.0507226     
   2616344500.4700079     
   2614698390.9069686     
   2623771024.2512512     
   2643627033.4284315     
   2645700867.4762497     
   2640270188.9651880     
   2644833415.3201919     
   2659421075.9858952     
   2684057307.8538127     
   2672172576.4231429     
   2671791611.1725674     
   2680876671.7063160     
   2699434338.6192098     
   2727469682.5405641     
   2706844114.0032849     
   2709866579.8222532     
   2721953159.6267056     
   2743103853.4166441     
   2773318661.1920743     
   2606762440.5330248     
   2594296765.6154447     
   2592887908.3875794     
   2602614287.7737055     
   2623571129.6955938     
   2643627033.4284315     
   2632890114.6383071     
   2632382137.2405705     
   2642142127.4134226     
   2662220052.5355148     
   2684057307.8538127     
   2674750100.2673573     
   2675022034.4891944     
   2684888397.6360650     
   2704369858.6488466     
   2727469682.5405641     
   2719445312.7434311     
   2720509239.2830496     
   2730664807.5722151     
   2749916807.8058434     
   2773318661.1920743     
   2766568368.3851361     
   2768557628.1738124     
   2779286440.5581198     
   2798754805.5380483     
   2623571129.6955938     
   2584995551.6649942     
   2552355181.4673867     
   2526231716.5572739     
   2507433697.7312827     
   2662220052.5355148     
   2616765042.8189154     
   2576999075.7801456     
   2543253050.5492325     
   2515989360.0199509     
   2704369858.6488466     
   2654123338.3904805     
   2609463216.4257803     
   2570536852.6769385     
   2537550767.9284925     
   2749916807.8058434     
   2696974392.9006743     
   2649658497.6301184     
   2608005709.6041536     
   2572067328.1028709     
   2798754805.5380483     
   2745213740.9051852     
   2697481398.7676973     
   2655557779.1255879     
   2619442881.9788651     
   2507433697.7312827     
   2357122506.6439109     
   2214971239.3468585     
   2085960450.4903271     
   1976966205.3845770     
   2515989360.0199509     
   2348147978.3139181     
   2183858603.3263726     
   2026221225.5774038     
   1879800357.4267604     
   2537550767.9284925     
   2357268936.4216156     
   2176726209.3165593     
   1997394098.3512881     
   1821550241.6284959     
   2572067328.1028709     
   2384589267.5596313     
   2194040839.6105413     
   2000800261.6781449     
   1805471316.5285180     
   2619442881.9788651     
   2430078062.3999062     
   2235945073.3614540     
   2037043914.8634479     
   1833374586.9059517     
   2472320344.5085435     
   2471279043.8430891     
   2482523583.5806069     
   2506053963.7210951     
   2541870184.2645626     
   2546738231.3218842     
   2537060688.1132426     
   2537689758.4379539     
   2548652877.9812775     
   2569976577.4633327     
   2670633289.3584533     
   2649030900.3764176     
   2635704778.0184116     
   2630728681.6659861     
   2634177016.4535742     
   2840405526.8777127     
   2805530204.5143137     
   2776835310.4653006     
   2754418760.3647170     
   2738383228.8849392     
   3051138818.8460073     
   3003334322.5927005     
   2959614789.7232032     
   2920065991.1539435     
   2884780668.8919125     
   2541870184.2645626     
   2561161251.6250601     
   2582338923.6690702     
   2605403200.3965898     
   2630354081.8076267     
   2569976577.4633327     
   2576606134.6301694     
   2587815873.1830816     
   2603610420.0867095     
   2623994497.2125072     
   2634177016.4535742     
   2626116540.7371206     
   2625224898.8397961     
   2631532879.0810122     
   2645073151.0088568     
   2738383228.8849392     
   2712889533.2386670     
   2696943452.1408439     
   2690641628.3117218     
   2694090984.3664551     
   2884780668.8919125     
   2838604388.0996981     
   2804051650.0849071     
   2781335091.0830469     
   2770700718.1062307     
   2630354081.8076267     
   2619977586.4709220     
   2618640521.5800924     
   2626342887.1351399     
   2643084683.1360669     
   2623994497.2125072     
   2609860286.7373395     
   2604876516.6861529     
   2609057543.3753104     
   2622417142.7524209     
   2645073151.0088568     
   2624468774.1180167     
   2613133988.4328880     
   2611126802.5608735     
   2618503834.1687379     
   2694090984.3664551     
   2664469377.3380733     
   2644206765.7339492     
   2633432051.9873366     
   2632273845.2878151     
   2770700718.1062307     
   2729814956.5853000     
   2698307973.3207178     
   2676400189.4228926     
   2664317256.2680945     
   2643084683.1360669     
   2645681130.7474422     
   2657173185.0957699     
   2677560846.1810522     
   2706844114.0032849     
   2622417142.7524209     
   2621725540.1181245     
   2629780693.3673768     
   2646593229.6979890     
   2672172575.2827964     
   2618503834.1687379     
   2612266868.3016882     
   2614692810.5604410     
   2625824545.0563750     
   2645700864.7679906     
   2632273845.2878151     
   2618355599.9400287     
   2613045706.8943410     
   2616440658.3390093     
   2628629866.1866579     
   2664317256.2680945     
   2640792946.9317083     
   2625809152.4927287     
   2619534847.5694222     
   2622130959.4383717     
   2706844114.0032849     
   2709866579.8222532     
   2721953159.6267056     
   2743103853.4166441     
   2773318661.1920743     
   2672172575.2827964     
   2671791610.0153918     
   2680876670.4294291     
   2699434337.1226315     
   2727469680.7266173     
   2645700864.7679906     
   2640270186.4827480     
   2644833412.8623190     
   2659421073.3536901     
   2684057304.8500810     
   2628629866.1866579     
   2616344496.3671417     
   2614698387.2696815     
   2623771020.7810020     
   2643627029.8235497     
   2622130959.4383717     
   2601060981.5326629     
   2591372333.3739343     
   2593227431.4765372     
   2606762436.8692203     
   2773318661.1920743     
   2766568368.3851361     
   2768557628.1738124     
   2779286440.5581198     
   2798754805.5380483     
   2727469680.7266173     
   2719445311.5746703     
   2720509238.7051501     
   2730664807.5285296     
   2749916808.2394223     
   2684057304.8500810     
   2674750098.3775635     
   2675022033.5979695     
   2684888397.6250577     
   2704369859.3989425     
   2643627029.8235497     
   2632890112.4543018     
   2632382136.2921305     
   2642142127.5127401     
   2662220053.4928989     
   2606762436.8692203     
   2594296763.5369711     
   2592887907.6268740     
   2602614288.0618873     
   2623571130.7597666     
   2798754805.5380483     
   2745213740.9051852     
   2697481398.7676973     
   2655557779.1255879     
   2619442881.9788651     
   2749916808.2394223     
   2696974393.1699700     
   2649658497.7605176     
   2608005709.6202645     
   2572067328.0274401     
   2704369859.3989425     
   2654123338.8474717     
   2609463216.6409435     
   2570536852.7005200     
   2537550767.8085599     
   2662220053.4928989     
   2616765043.3864808     
   2576999076.0361829     
   2543253050.5713820     
   2515989359.8848867     
   2623571130.7597666     
   2584995552.2710762     
   2552355181.7224536     
   2526231716.5688181     
   2507433697.6086307     
   2619442881.9788651     
   2430078062.3999062     
   2235945073.3614540     
   2037043914.8634479     
   1833374586.9059517     
   2572067328.0274401     
   2384589267.5245943     
   2194040839.5990553     
   2000800261.6721072     
   1805471316.5086825     
   2537550767.8085599     
   2357268936.3752193     
   2176726209.3109994     
   1997394098.3514526     
   1821550241.5967324     
   2515989359.8848867     
   2348147978.2788968     
   2183858603.3441348     
   2026221225.5972528     
   1879800357.3944473     
   2507433697.6086307     
   2357122506.6419468     
   2214971239.4050155     
   2085960450.5436797     
   1976966205.3641586     
   3051138818.8460073     
   3003334322.5927005     
   2959614789.7232032     
   2920065991.1539435     
   2884780668.8919125     
   3099043979.1872697     
   3046392590.7719016     
   2999299340.5240197     
   2957934589.6001248     
   2922491209.4835329     
   3201310299.3569326     
   3140014187.6198277     
   3085342232.2138577     
   3037591957.4019947     
   2997113882.7991524     
   3351210705.6621890     
   3277102038.5139303     
   3210263227.7926683     
   3151158295.2880783     
   3100353829.3449740     
   3541076511.0288992     
   3449933284.7015500     
   3366307610.3344045     
   3290855893.4117737     
   3224407990.0033312     
   2884780668.8919125     
   2838604388.0996981     
   2804051650.0849071     
   2781335091.0830469     
   2770700718.1062307     
   2922491209.4835329     
   2873203688.9585762     
   2832692853.9143338     
   2801262911.0340366     
   2779251205.8951120     
   2997113882.7991524     
   2943377641.7802396     
   2895864573.7884378     
   2854899497.0925169     
   2820835615.2269745     
   3100353829.3449740     
   3042390664.7997842     
   2988422884.2494674     
   2938721441.6983495     
   2893576809.5380602     
   3224407990.0033312     
   3163654098.1077528     
   3105024180.9432836     
   3048677328.6858988     
   2994781876.7369542     
   2770700718.1062307     
   2729814956.5853000     
   2698307973.3207178     
   2676400189.4228926     
   2664317256.2680945     
   2779251205.8951120     
   2728185413.7770534     
   2685940599.5446200     
   2652844444.0894690     
   2629240399.2708106     
   2820835615.2269745     
   2757821412.5011168     
   2702956421.7558036     
   2656668909.1908131     
   2619420183.7006588     
   2893576809.5380602     
   2817483005.4498439     
   2748751161.9474730     
   2687886047.5484776     
   2635447208.3928785     
   2994781876.7369542     
   2905086708.6067019     
   2821876431.8321972     
   2745696342.3127933     
   2677168097.5386896     
   2664317256.2680945     
   2640792946.9317083     
   2625809152.4927287     
   2619534847.5694222     
   2622130959.4383717     
   2629240399.2708106     
   2595861161.4599257     
   2570885832.3023539     
   2554581490.6483479     
   2547209385.3161907     
   2619420183.7006588     
   2574356934.0636640     
   2537457332.8530321     
   2509100333.0507550     
   2489668433.6589208     
   2635447208.3928785     
   2577268471.9656577     
   2526866949.7246361     
   2484732937.7296538     
   2451378715.8801842     
   2677168097.5386896     
   2604918777.0584908     
   2539895667.0377588     
   2482681910.7014899     
   2433909136.8634434     
   2622130959.4383717     
   2601060981.5326629     
   2591372333.3739343     
   2593227431.4765372     
   2606762436.8692203     
   2547209385.3161907     
   2516157084.9078083     
   2495876221.9018502     
   2486646074.6590958     
   2488710995.8406701     
   2489668433.6589208     
   2446552906.9222841     
   2413517147.7332788     
   2390978855.9353418     
   2379322411.0603709     
   2451378715.8801842     
   2394607315.8588228     
   2347047492.9266176     
   2309257613.1724043     
   2281780067.1901078     
   2433909136.8634434     
   2362541696.1922760     
   2299277388.2581258     
   2244787090.2819667     
   2199759480.4024010     
   2606762436.8692203     
   2594296763.5369711     
   2592887907.6268740     
   2602614288.0618873     
   2623571130.7597666     
   2488710995.8406701     
   2469381686.1463466     
   2461930010.4906569     
   2466491043.9326429     
   2483198100.8754306     
   2379322411.0603709     
   2350848698.7383194     
   2335228254.7855034     
   2332709627.6524382     
   2343512476.5025115     
   2281780067.1901078     
   2241506967.4631343     
   2215158337.0392489     
   2203182457.9096427     
   2205965698.5610857     
   2199759480.4024010     
   2144728571.2350969     
   2104673491.4900968     
   2080361358.9111440     
   2072469759.2257409     
   2623571130.7597666     
   2584995552.2710762     
   2552355181.7224536     
   2526231716.5688181     
   2507433697.6086307     
   2483198100.8754306     
   2450482966.4610529     
   2426354047.2196674     
   2411757470.6983056     
   2408070329.6068664     
   2343512476.5025115     
   2319103563.2115412     
   2306233171.6872187     
   2306307878.4901786     
   2321416662.7566791     
   2205965698.5610857     
   2191631335.2458401     
   2192273068.6057649     
   2209860947.7622986     
   2247315260.6168103     
   2072469759.2257409     
   2069031104.9176822     
   2084788312.6799541     
   2122372424.4943635     
   2185595252.0647044     
   2507433697.6086307     
   2357122506.6419468     
   2214971239.4050155     
   2085960450.5436797     
   1976966205.3641586     
   2408070329.6068664     
   2282802150.4769483     
   2168034278.7953563     
   2070505711.9536018     
   1998982840.9412541     
   2321416662.7566791     
   2224701664.8734465     
   2141317182.9136569     
   2079626397.6528959     
   2049797532.5801711     
   2247315260.6168103     
   2182612092.2514119     
   2134349564.2979305     
   2112191361.1194031     
   2127067288.0106609     
   2185595252.0647044     
   2156239826.5496249     
   2146484702.7909105     
   2166849492.0887299     
   2228400037.1106248     
   3541076511.0288992     
   3449933284.7015500     
   3366307610.3344045     
   3290855893.4117737     
   3224407990.0033312     
   3800662721.1747084     
   3689134012.2531548     
   3582744171.1620374     
   3481973716.5946727     
   3387428070.5497422     
   4079352793.1216345     
   3951878763.0120516     
   3827603802.1700020     
   3706820489.7356219     
   3589893139.3285675     
   4373806309.8792334     
   4235171064.2055445     
   4098244966.2629333     
   3963162789.3653173     
   3830087981.9966626     
   4681350913.4981022     
   4536475751.6959810     
   4392251543.1042585     
   4248705712.5447826     
   4105870851.9417739     
   3224407990.0033312     
   3163654098.1077528     
   3105024180.9432836     
   3048677328.6858988     
   2994781876.7369542     
   3387428070.5497422     
   3311203397.9860463     
   3237925049.5647993     
   3167846331.0259538     
   3101251094.8304439     
   3589893139.3285675     
   3496972223.9914937     
   3407519327.1721377     
   3321831125.3964930     
   3240267829.7221355     
   3830087981.9966626     
   3718857256.1647720     
   3611335490.2733369     
   3507809957.2001219     
   3408672089.3634977     
   4105870851.9417739     
   3974354958.4648218     
   3846549660.3271589     
   3722682332.2147803     
   3603128119.4395285     
   2994781876.7369542     
   2905086708.6067019     
   2821876431.8321972     
   2745696342.3127933     
   2677168097.5386896     
   3101251094.8304439     
   2995441058.3654208     
   2895244469.1688066     
   2801202554.9164276     
   2713956912.7820177     
   3240267829.7221355     
   3118885074.0268602     
   3002195649.3475285     
   2890691966.7182984     
   2784980267.9053888     
   3408672089.3634977     
   3272511433.9288273     
   3140148957.0815420     
   3011996866.6103983     
   2888582296.7632661     
   3603128119.4395285     
   3453092526.9650068     
   3306038894.1158981     
   3162284401.4305382     
   3022252060.7191286     
   2677168097.5386896     
   2604918777.0584908     
   2539895667.0377588     
   2482681910.7014899     
   2433909136.8634434     
   2713956912.7820177     
   2625255558.1724887     
   2542572881.9558787     
   2466513013.7682009     
   2397761370.1316924     
   2784980267.9053888     
   2680618469.2972679     
   2580951468.8424387     
   2486530243.2838302     
   2398007762.8773885     
   2888582296.7632661     
   2770018518.9593425     
   2654840181.3550310     
   2543486023.5139003     
   2436496973.3290825     
   3022252060.7191286     
   2891377175.8944097     
   2762715793.9973245     
   2636568253.7126913     
   2513318919.3989849     
   2433909136.8634434     
   2362541696.1922760     
   2299277388.2581258     
   2244787090.2819667     
   2199759480.4024010     
   2397761370.1316924     
   2307993697.3246713     
   2225651526.2863150     
   2151517188.2074571     
   2086445759.8204315     
   2398007762.8773885     
   2290095896.1425109     
   2188594520.8971586     
   2094308153.1263063     
   2008174077.7677920     
   2436496973.3290825     
   2311528169.6216769     
   2191745387.5257721     
   2077862505.2327347     
   1970764642.2933190     
   2513318919.3989849     
   2373051690.9055786     
   2236730075.1358910     
   2104887566.7297540     
   1978227745.6662464     
   2199759480.4024010     
   2144728571.2350969     
   2104673491.4900968     
   2080361358.9111440     
   2072469759.2257409     
   2086445759.8204315     
   2011545500.2650912     
   1949019158.3692498     
   1899945331.5784047     
   1865351790.9201915     
   2008174077.7677920     
   1911981420.5882325     
   1824557459.1611667     
   1747099585.0720098     
   1680895796.2541883     
   1970764642.2933190     
   1854877635.3486130     
   1743332996.3467450     
   1637046227.8656802     
   1537140921.7476406     
   1978227745.6662464     
   1847801888.3100681     
   1717365398.8562789     
   1587259949.9589148     
   1457984893.5313046     
   2072469759.2257409     
   2069031104.9176822     
   2084788312.6799541     
   2122372424.4943635     
   2185595252.0647044     
   1865351790.9201915     
   1854874535.2215738     
   1867346392.6218784     
   1904975386.5093830     
   1970792100.4675729     
   1680895796.2541883     
   1652393011.4857011     
   1651605539.8823311     
   1680902564.2347059     
   1742892958.7901659     
   1537140921.7476406     
   1476214486.0147264     
   1447990412.9303012     
   1456440602.2192419     
   1504864315.1989934     
   1457984893.5313046     
   1348833120.5630767     
   1274681427.5707324     
   1243673628.4207547     
   1262869621.8473461     
   2185595252.0647044     
   2156239826.5496249     
   2146484702.7909105     
   2166849492.0887299     
   2228400037.1106248     
   1970792100.4675729     
   1968929359.7938812     
   2003609579.6077337     
   2093505084.9151373     
   2257273386.4265008     
   1742892958.7901659     
   1787704001.4741774     
   1884653619.9647329     
   2060651003.0829418     
   2340926551.9298553     
   1504864315.1989934     
   1613278225.6757934     
   1788876069.1115768     
   2066408946.9108491     
   2476085500.6214142     
   1262869621.8473461     
   1446691929.1776755     
   1715712081.9711368     
   2110511213.5381222     
   2663532671.2616444     
   4681350913.4981022     
   4536475751.6959810     
   4392251543.1042585     
   4248705712.5447826     
   4105870851.9417739     
   4960553225.4272394     
   4808094151.0529251     
   4657164157.6585932     
   4507842001.9634037     
   4360244576.5705948     
   5281842707.7358694     
   5115305849.6078377     
   4950339989.3611956     
   4787025908.6850185     
   4625548750.3060055     
   5639955380.7895174     
   5452460799.8292446     
   5265871486.4674311     
   5080221751.4421244     
   4895742628.4579992     
   6030171135.5698872     
   5814694662.2225695     
   5598898436.0091372     
   5382712557.9116011     
   5166371577.3765221     
   4105870851.9417739     
   3974354958.4648218     
   3846549660.3271589     
   3722682332.2147803     
   3603128119.4395285     
   4360244576.5705948     
   4216420859.0276012     
   4074348552.3149962     
   3934189254.0081539     
   3796181438.9385152     
   4625548750.3060055     
   4473286131.5071039     
   4321577887.5936012     
   4170509607.6872354     
   4020193665.2766447     
   4895742628.4579992     
   4739386759.0257626     
   4583052162.7826538     
   4426756587.9993525     
   4270520598.0436149     
   5166371577.3765221     
   5010474687.9540644     
   4854644725.8077707     
   4698841501.5066338     
   4543028811.1814480     
   3603128119.4395285     
   3453092526.9650068     
   3306038894.1158981     
   3162284401.4305382     
   3022252060.7191286     
   3796181438.9385152     
   3632898596.0297632     
   3471744394.2988963     
   3312942931.8900423     
   3156817180.1876540     
   4020193665.2766447     
   3844070298.4862599     
   3669287840.4806080     
   3495973563.1079235     
   3324340672.6162987     
   4270520598.0436149     
   4081892133.6860328     
   3893902844.3095112     
   3706588689.9988461     
   3520056161.2188687     
   4543028811.1814480     
   4342132177.4005413     
   4141264369.2067204     
   3940380552.9286027     
   3739491153.2332234     
   3022252060.7191286     
   2891377175.8944097     
   2762715793.9973245     
   2636568253.7126913     
   2513318919.3989849     
   3156817180.1876540     
   3015544699.8389959     
   2876039574.7748342     
   2738526024.8999615     
   2603307908.4774275     
   3324340672.6162987     
   3172853452.4567304     
   3022686809.4380264     
   2873986930.9485745     
   2726973539.3727760     
   3520056161.2188687     
   3358266304.7888899     
   3197359521.5077724     
   3037408316.1289010     
   2878552826.4302220     
   3739491153.2332234     
   3567059199.9143977     
   3395084565.9646277     
   3223573577.5093865     
   3052595650.2762380     
   2513318919.3989849     
   2373051690.9055786     
   2236730075.1358910     
   2104887566.7297540     
   1978227745.6662464     
   2603307908.4774275     
   2453153058.4820752     
   2305197525.3821640     
   2159763199.6853738     
   2017288620.2970984     
   2726973539.3727760     
   2569439228.0521483     
   2412779221.9099813     
   2257130629.8982124     
   2102686111.8725975     
   2878552826.4302220     
   2716352107.8108869     
   2554168738.3809414     
   2392029517.1398087     
   2229976546.0957971     
   3052595650.2762380     
   2888391453.7859216     
   2723775650.7534084     
   2558746152.5072803     
   2393305550.8614821     
   1978227745.6662464     
   1847801888.3100681     
   1717365398.8562789     
   1587259949.9589148     
   1457984893.5313046     
   2017288620.2970984     
   1880664979.7997911     
   1744356814.4977407     
   1608491949.6725812     
   1473246235.4444387     
   2102686111.8725975     
   1962460883.6348810     
   1823210165.3683286     
   1684965860.2798796     
   1547788774.9002926     
   2229976546.0957971     
   2086995850.8217378     
   1945687065.6845052     
   1806050529.0227251     
   1668163892.5408940     
   2393305550.8614821     
   2246763847.8642216     
   2102412208.0198119     
   1960248503.1860170     
   1820439522.4741583     
   1457984893.5313046     
   1348833120.5630767     
   1274681427.5707324     
   1243673628.4207547     
   1262869621.8473461     
   1473246235.4444387     
   1328887316.7300651     
   1198994546.3683076     
   1088061356.8725336     
   1002009842.0343125     
   1547788774.9002926     
   1397830197.9965556     
   1244302370.4201779     
   1084934604.1374123     
   917696530.63914025     
   1668163892.5408940     
   1552733244.1194491     
   1428176616.6389070     
   1294851011.4377584     
   1158886770.1836188     
   1820439522.4741583     
   1779861199.4357686     
   1735760520.5017700     
   1696772721.7414587     
   1681412077.2115054     
   1262869621.8473461     
   1446691929.1776755     
   1715712081.9711368     
   2110511213.5381222     
   2663532671.2616444     
   1002009842.0343125     
   1164706811.3177481     
   1425425490.0969849     
   1808753524.1723258     
   2334781086.3711596     
   917696530.63914025     
   963103788.64913857     
   1144912552.5258052     
   1476480184.9137738     
   1957499793.6406500     
   1158886770.1836188     
   1008426115.3059916     
   985202677.26105845     
   1161491930.6436906     
   1544202568.9623628     
   1681412077.2115054     
   1383828756.0355878     
   1129490334.4779875     
   1010149546.8809338     
   1153149645.8865898     
 </DataArray>
 <DataArray  type="Float64" Name="strain" NumberOfComponents="3" format="ascii">
  0.10055740480465647       -2.9838729648568263E-002  -2.7878444482676290E-003
   9.6921503639518902E-002  -2.8909782291626107E-002  -3.4067647716078397E-003
   9.3285602474381557E-002  -2.7991123263812423E-002  -3.4420491324845814E-003
   8.9649701309243990E-002  -2.7082752565126669E-002  -2.8936975308993251E-003
   8.6013800144106534E-002  -2.6184670195569137E-002  -1.7617099668508773E-003
   9.3946848953345152E-002  -2.8031354066790137E-002   6.0294855729047248E-003
   9.0824003894813599E-002  -2.7143144483939285E-002   5.4726414181910932E-003
   8.7701158836281934E-002  -2.6268204119527572E-002   5.3582735142269078E-003
   8.4578313777750380E-002  -2.5406532973554774E-002   5.6863818610114747E-003
   8.1455468719218826E-002  -2.4558131046021336E-002   6.4569664585450992E-003
   8.7480727900300759E-002  -2.6223978485011956E-002   1.4807568264641746E-002
   8.4729779236661334E-002  -2.5376506676252131E-002   1.4309819389243694E-002
   8.1978830573021966E-002  -2.4545284975242471E-002   1.4113387052881038E-002
   7.9227881909382541E-002  -2.3730313381982927E-002   1.4218271255553389E-002
   7.6476933245743089E-002  -2.2931591896473591E-002   1.4624471997261412E-002
   8.1159041645523150E-002  -2.4416602903233831E-002   2.3546403626943366E-002
   7.8638829665062276E-002  -2.3609868868565115E-002   2.3104769141549492E-002
   7.6118617684601333E-002  -2.2822365830957550E-002   2.2823291483477483E-002
   7.3598405704140391E-002  -2.2054093790411056E-002   2.2701970652726954E-002
   7.1078193723679434E-002  -2.1305052746925707E-002   2.2740806649298145E-002
   7.4981790189012687E-002  -2.2609227321455649E-002   3.2245991659809015E-002
   7.2551155180016424E-002  -2.1843231060878099E-002   3.1857490675108846E-002
   7.0120520171020245E-002  -2.1099446686672518E-002   3.1487986806016444E-002
   6.7689885162024024E-002  -2.0377874198839074E-002   3.1137480052531835E-002
   6.5259250153027804E-002  -1.9678513597377933E-002   3.0805970414655270E-002
   8.6013800144106534E-002  -2.6184670195569137E-002  -1.7617099668508773E-003
   8.3448917129803735E-002  -2.5288008569434250E-002  -1.0569924115740870E-003
   8.0884034115500880E-002  -2.4383900101017431E-002  -4.4653799289207097E-004
   7.8319151101198109E-002  -2.3472344790317817E-002   6.9653289195725776E-005
   7.5754268086895227E-002  -2.2553342637335994E-002   4.9158143468897020E-004
   8.1455468719218826E-002  -2.4558131046021336E-002   6.4569664585450992E-003
   7.8846974380422541E-002  -2.3712266191885017E-002   6.7999527342981481E-003
   7.6238480041626311E-002  -2.2858206266104103E-002   7.1499794976591924E-003
   7.3629985702830109E-002  -2.1995951268678614E-002   7.5070467486278714E-003
   7.1021491364033851E-002  -2.1125501199608543E-002   7.8711544872041572E-003
   7.6476933245743089E-002  -2.2931591896473591E-002   1.4624471997261412E-002
   7.3926131206655615E-002  -2.2136523814335618E-002   1.4606475222853604E-002
   7.1375329167568127E-002  -2.1332512431190997E-002   1.4696822560255271E-002
   6.8824527128480667E-002  -2.0519557747039521E-002   1.4895514009467273E-002
   6.6273725089393165E-002  -1.9697659761880926E-002   1.5202549570488860E-002
   7.1078193723679434E-002  -2.1305052746925707E-002   2.2740806649298145E-002
   6.8686387608502819E-002  -2.0560781436786302E-002   2.2362575054091456E-002
   6.6294581493326260E-002  -1.9806818596277781E-002   2.2193991194896796E-002
   6.3902775378149687E-002  -1.9043164225400151E-002   2.2235055071713659E-002
   6.1510969262973086E-002  -1.8269818324153392E-002   2.2485766684542864E-002
   6.5259250153027804E-002  -1.9678513597377933E-002   3.0805970414655270E-002
   6.3127743585964236E-002  -1.8985039059236930E-002   3.0068252228012043E-002
   6.0996237018900668E-002  -1.8281124761364564E-002   2.9641485401582734E-002
   5.8864730451837072E-002  -1.7566770703760948E-002   2.9525669935367566E-002
   5.6733223884773587E-002  -1.6841976886425858E-002   2.9720805829366481E-002
   7.5754268086895227E-002  -2.2553342637335994E-002   4.9158143468897020E-004
   7.2387803665647510E-002  -2.1629895452860204E-002   7.7133950454610911E-005
   6.9021339244399904E-002  -2.0705005047679442E-002  -1.1231293795999076E-004
   6.5654874823152187E-002  -1.9778671421793424E-002  -7.6759230554085400E-005
   6.2288410401904581E-002  -1.8850894575202171E-002   1.8379507267196615E-004
   7.1021491364033851E-002  -2.1125501199608543E-002   7.8711544872041572E-003
   6.7875291987036568E-002  -2.0251096035673488E-002   7.4375610690158855E-003
   6.4729092610039313E-002  -1.9376975753653713E-002   7.2194971435083355E-003
   6.1582893233042099E-002  -1.8503140353548997E-002   7.2169627106814793E-003
   5.8436693856044775E-002  -1.7629589835359338E-002   7.4299577705352338E-003
   6.6273725089393165E-002  -1.9697659761880926E-002   1.5202549570488860E-002
   6.3338319653506878E-002  -1.8872296618486661E-002   1.4748082115726341E-002
   6.0402914217620673E-002  -1.8048946459627888E-002   1.4499673050505021E-002
   5.7467508781734386E-002  -1.7227609285304573E-002   1.4457322374825228E-002
   5.4532103345848182E-002  -1.6408285095516395E-002   1.4621030088686537E-002
   6.1510969262973086E-002  -1.8269818324153392E-002   2.2485766684542864E-002
   5.8776886665058592E-002  -1.7493497201299946E-002   2.2008697090585796E-002
   5.6042804067144021E-002  -1.6720917165602166E-002   2.1728214783030362E-002
   5.3308721469229478E-002  -1.5952078217059927E-002   2.1644319761877605E-002
   5.0574638871314942E-002  -1.5186980355673507E-002   2.1757012027126654E-002
   5.6733223884773587E-002  -1.6841976886425858E-002   2.9720805829366481E-002
   5.4190993021691447E-002  -1.6114697784113063E-002   2.9219405993594461E-002
   5.1648762158609279E-002  -1.5392887871576305E-002   2.8905122341085054E-002
   4.9106531295527153E-002  -1.4676547148815493E-002   2.8777954871838485E-002
   4.6564300432445027E-002  -1.3965675615830619E-002   2.8837903585854474E-002
   6.2288410401904581E-002  -1.8850894575202171E-002   1.8379507267196615E-004
   5.9426417305702861E-002  -1.7939282797606371E-002   1.3886379012229000E-005
   5.6564424209501307E-002  -1.7061444378705826E-002   3.6220136236664313E-005
   5.3702431113299698E-002  -1.6217379318502534E-002   2.5079634434516107E-004
   5.0840438017098033E-002  -1.5407087616993831E-002   6.5761500333838541E-004
   5.8436693856044775E-002  -1.7629589835359338E-002   7.4299577705352338E-003
   5.5758306615060760E-002  -1.6766239676816064E-002   7.1715939188354283E-003
   5.3079919374076828E-002  -1.5923005355650943E-002   7.0881993266861398E-003
   5.0401532133092800E-002  -1.5099886871863311E-002   7.1797739940889505E-003
   4.7723144892108826E-002  -1.4296884225453610E-002   7.4463179210416675E-003
   5.4532103345848182E-002  -1.6408285095516395E-002   1.4621030088686537E-002
   5.2020048768748717E-002  -1.5593196556026090E-002   1.4287868600264736E-002
   4.9507994191649224E-002  -1.4784566332595173E-002   1.4112403180060656E-002
   4.6995939614549745E-002  -1.3982394425224864E-002   1.4094633828074576E-002
   4.4483885037450294E-002  -1.3186680833913833E-002   1.4234560544306107E-002
   5.0574638871314942E-002  -1.5186980355673507E-002   2.1757012027126654E-002
   4.8211643766766774E-002  -1.4420153435235727E-002   2.1362710423300332E-002
   4.5848648662218695E-002  -1.3646127309539957E-002   2.1108831696359062E-002
   4.3485653557670575E-002  -1.2864901978585808E-002   2.0995375846302303E-002
   4.1122658453122449E-002  -1.2076477442373612E-002   2.1022342873130442E-002
   4.6564300432445027E-002  -1.3965675615830619E-002   2.8837903585854474E-002
   4.4333091609115083E-002  -1.3247110314445754E-002   2.8396119387942065E-002
   4.2101882785785111E-002  -1.2507688286484436E-002   2.8077484875581704E-002
   3.9870673962455125E-002  -1.1747409531947285E-002   2.7882000048772643E-002
   3.7639465139125139E-002  -1.0966274050833613E-002   2.7809664907515130E-002
   5.0840438017098033E-002  -1.5407087616993831E-002   6.5761500333838541E-004
   4.8101910828163286E-002  -1.4597555312784061E-002   4.6229704642075653E-004
   4.5363383639228538E-002  -1.3755768444474847E-002   2.8923199595387583E-004
   4.2624856450293791E-002  -1.2881727012066010E-002   1.3841985193829842E-004
   3.9886329261359044E-002  -1.1975431015558646E-002   9.8606143728030560E-006
   4.7723144892108826E-002  -1.4296884225453610E-002   7.4463179210416675E-003
   4.5022422131793138E-002  -1.3495260860980185E-002   7.1693906754257686E-003
   4.2321699371477423E-002  -1.2676280223001102E-002   6.9458193805971846E-003
   3.9620976611161665E-002  -1.1839942311515680E-002   6.7756040365562209E-003
   3.6920253850846019E-002  -1.0986247126525628E-002   6.6587446433020725E-003
   4.4483885037450294E-002  -1.3186680833913833E-002   1.4234560544306107E-002
   4.1852069750090315E-002  -1.2392966409176476E-002   1.3861126719398015E-002
   3.9220254462730281E-002  -1.1596792001527606E-002   1.3572151889613859E-002
   3.6588439175370302E-002  -1.0798157610966024E-002   1.3367636054953794E-002
   3.3956623888010268E-002  -9.9970632374927204E-003   1.3247579215417415E-002
   4.1122658453122449E-002  -1.2076477442373612E-002   2.1022342873130442E-002
   3.8590853683054774E-002  -1.1290671957373127E-002   2.0537505178336746E-002
   3.6059048912987120E-002  -1.0517303780053541E-002   2.0168229523003255E-002
   3.3527244142919396E-002  -9.7563729104160300E-003   1.9914515907130923E-002
   3.0995439372851839E-002  -9.0078793484599795E-003   1.9776364330719151E-002
   3.7639465139125139E-002  -1.0966274050833613E-002   2.7809664907515130E-002
   3.5238773930686529E-002  -1.0188377505569390E-002   2.7198526052241878E-002
   3.2838082722247891E-002  -9.4378155585801704E-003   2.6734052280766085E-002
   3.0437391513809239E-002  -8.7145882098660435E-003   2.6416243593087863E-002
   2.8036700305370588E-002  -8.0186954594270166E-003   2.6245099989206655E-002
   3.9886329261359044E-002  -1.1975431015558646E-002   9.8606143728030560E-006
   3.7468567873299330E-002  -1.1135345097586735E-002  -2.8719914222152809E-004
   3.5050806485239672E-002  -1.0459933900787310E-002  -4.8880207986701230E-004
   3.2633045097179986E-002  -9.9491974251577492E-003  -5.9494819856337200E-004
   3.0215283709120300E-002  -9.6031356707004800E-003  -6.0563749831077374E-004
   3.6920253850846019E-002  -1.0986247126525628E-002   6.6587446433020725E-003
   3.4578969390736125E-002  -1.0178130438854516E-002   6.2085559487276010E-003
   3.2237684930626259E-002  -9.4785280193283028E-003   5.8158642911038116E-003
   2.9896400470516324E-002  -8.8874398679468086E-003   5.4806696704306768E-003
   2.7555116010406500E-002  -8.4048659847106855E-003   5.2029720867083906E-003
   3.3956623888010268E-002  -9.9970632374927204E-003   1.3247579215417415E-002
   3.1653856573851724E-002  -9.2209157801223518E-003   1.2700422035889780E-002
   2.9351089259693194E-002  -8.4971221378706552E-003   1.2172802111314079E-002
   2.7048321945534658E-002  -7.8256823107360970E-003   1.1664719441690424E-002
   2.4745554631376121E-002  -7.2065962987201138E-003   1.1176174027019203E-002
   3.0995439372851839E-002  -9.0078793484599795E-003   1.9776364330719151E-002
   2.8693229422646141E-002  -8.2637011213901601E-003   1.9188399119264565E-002
   2.6391019472440529E-002  -7.5157162564119945E-003   1.8582011380763742E-002
   2.4088809522234876E-002  -6.7639247535251600E-003   1.7957201115216589E-002
   2.1786599572029275E-002  -6.0083266127300416E-003   1.7313968322623247E-002
   2.8036700305370588E-002  -8.0186954594270166E-003   2.6245099989206655E-002
   2.5697087937119445E-002  -7.3064864626579684E-003   2.5672487198852068E-002
   2.3357475568868274E-002  -6.5343103749535281E-003   2.5043492099452724E-002
   2.1017863200617146E-002  -5.7021671963140494E-003   2.4358114691008431E-002
   1.8678250832365961E-002  -4.8100569267396365E-003   2.3616354973519438E-002
   3.0215283709120300E-002  -9.6031356707004800E-003  -6.0563749831077374E-004
   2.9606669442244327E-002  -9.1355964493877728E-003  -3.5950674811768835E-004
   2.8998055175368409E-002  -8.2604275731933408E-003  -1.7958882506234897E-003
   2.8389440908492491E-002  -6.9776290421155462E-003  -4.9147820058307312E-003
   2.7780826641616518E-002  -5.2872008561568595E-003  -9.7161880137368595E-003
   2.7555116010406500E-002  -8.4048659847106855E-003   5.2029720867083906E-003
   2.5533684679352242E-002  -7.8711703684782863E-003   5.8785980396154347E-003
   2.3512253348298040E-002  -7.1267170181114059E-003   5.4111021168660178E-003
   2.1490822017243866E-002  -6.1715059336093503E-003   3.8004843184604453E-003
   1.9469390686189691E-002  -5.0055371149717587E-003   1.0467446443973571E-003
   2.4745554631376121E-002  -7.2065962987201138E-003   1.1176174027019203E-002
   2.1850696613187059E-002  -6.6067442875692439E-003   1.2084423261893351E-002
   1.8955838594998053E-002  -5.9930064630300817E-003   1.2388940998154740E-002
   1.6060980576809020E-002  -5.3653828251022523E-003   1.2089727235802594E-002
   1.3166122558620014E-002  -4.7238733737865468E-003   1.1186781974837412E-002
   2.1786599572029275E-002  -6.0083266127300416E-003   1.7313968322623247E-002
   1.8557705243748848E-002  -5.3423182066597574E-003   1.8257968918717032E-002
   1.5328810915468338E-002  -4.8592959079484521E-003   1.9137628393241721E-002
   1.2099916587187932E-002  -4.5592597165956053E-003   1.9952946746196173E-002
   8.8710222589074017E-003  -4.4422096326013905E-003   2.0703923977581404E-002
   1.8678250832365961E-002  -4.8100569267396365E-003   2.3616354973519438E-002
   1.5654710571037456E-002  -4.0778921257504375E-003   2.4399235010086784E-002
   1.2631170309708978E-002  -3.7255853528669058E-003   2.5657164302127611E-002
   9.6076300483804861E-003  -3.7531366080887571E-003   2.7390142849642363E-002
   6.5840897870519943E-003  -4.1605458914164561E-003   2.9598170652630706E-002
   2.7780826641616518E-002  -5.2872008561568595E-003  -9.7161880137368595E-003
   2.3354193704549053E-002  -4.2063118244972664E-003  -4.1883831350251199E-003
   1.8927560767481644E-002  -4.7521307563196946E-003   2.6039061360946247E-003
   1.4500927830414234E-002  -6.9246576516234920E-003   1.0660679799621764E-002
   1.0074294893346769E-002  -1.0723892510410060E-002   1.9981937855556353E-002
   1.9469390686189691E-002  -5.0055371149717587E-003   1.0467446443973571E-003
   1.6234783218265880E-002  -4.6903983815480554E-003   6.7406954936798380E-003
   1.3000175750341958E-002  -6.2876775526888862E-003   1.3554212888842621E-002
   9.7655682824180357E-003  -9.7973746283942231E-003   2.1487296829883706E-002
   6.5309608144943354E-003  -1.5219489608663039E-002   3.0539947316805094E-002
   1.3166122558620014E-002  -4.7238733737865468E-003   1.1186781974837412E-002
   1.0978622713311875E-002  -5.1744849385995106E-003   1.6761168853607900E-002
   8.7911228680037506E-003  -7.8232243490587161E-003   2.3310204431730458E-002
   6.6036230226956816E-003  -1.2670091605164281E-002   3.0833888709204157E-002
   4.4161231773875431E-003  -1.9715086706916018E-002   3.9332221686030566E-002
   8.8710222589074017E-003  -4.4422096326013905E-003   2.0703923977581404E-002
   7.5857121896872534E-003  -5.6585714956508548E-003   2.5873036944757954E-002
   6.3004021204671051E-003  -9.3587711454286709E-003   3.1871880764758519E-002
   5.0150920512470609E-003  -1.5542808581934676E-002   3.8700455437582867E-002
   3.7297819820267947E-003  -2.4210683805168998E-002   4.6358760963231771E-002
   6.5840897870519943E-003  -4.1605458914164561E-003   2.9598170652630706E-002
   6.0560516473920356E-003  -6.1426580527018659E-003   3.4076299767130891E-002
   5.5280135077320491E-003  -1.0894317941798404E-002   3.9239241887927268E-002
   4.9999753680720627E-003  -1.8415525558704959E-002   4.5086997015020114E-002
   4.4719372284121039E-003  -2.8706280903421977E-002   5.1619565148409041E-002
   7.4981790189012687E-002  -2.2609227321455649E-002   3.2245991659809015E-002
   7.2551155180016424E-002  -2.1843231060878099E-002   3.1857490675108846E-002
   7.0120520171020245E-002  -2.1099446686672518E-002   3.1487986806016444E-002
   6.7689885162024024E-002  -2.0377874198839074E-002   3.1137480052531835E-002
   6.5259250153027804E-002  -1.9678513597377933E-002   3.0805970414655270E-002
   6.8873785023679690E-002  -2.0678540128295508E-002   3.5833631147683120E-002
   6.6501677089997185E-002  -2.0011897558715935E-002   3.5463662496672765E-002
   6.4129569156314764E-002  -1.9353153922973154E-002   3.5191750880681882E-002
   6.1757461222632301E-002  -1.8702309221067498E-002   3.5017896299710721E-002
   5.9385353288949838E-002  -1.8059363452998800E-002   3.4942098753759032E-002
   6.2759837642435382E-002  -1.8747852935135423E-002   3.9314760468291771E-002
   6.0525316703478327E-002  -1.8180564056553689E-002   3.8977637103506463E-002
   5.8290795764521265E-002  -1.7606861159273901E-002   3.8817630693152166E-002
   5.6056274825564106E-002  -1.7026744243295866E-002   3.8834741237229312E-002
   5.3821753886607079E-002  -1.6440213308619722E-002   3.9028968735737413E-002
   5.6639948045279678E-002  -1.6817165741975282E-002   4.2689379621634840E-002
   5.4622074020459627E-002  -1.6349230554391539E-002   4.2399414495609675E-002
   5.2604199995639596E-002  -1.5860568395574537E-002   4.2365626243427143E-002
   5.0586325970819523E-002  -1.5351179265524206E-002   4.2588014865087669E-002
   4.8568451945999486E-002  -1.4821063164240728E-002   4.3066580360591022E-002
   5.0514116232212636E-002  -1.4886478548815196E-002   4.5957488607712427E-002
   4.8791949040941252E-002  -1.4517897052229278E-002   4.5728994672982526E-002
   4.7069781849669895E-002  -1.4114275631875256E-002   4.5835737531507048E-002
   4.5347614658398525E-002  -1.3675614287752567E-002   4.6277717183286077E-002
   4.3625447467127154E-002  -1.3201913019861566E-002   4.7054933628319473E-002
   6.5259250153027804E-002  -1.9678513597377933E-002   3.0805970414655270E-002
   6.3127743585964236E-002  -1.8985039059236930E-002   3.0068252228012043E-002
   6.0996237018900668E-002  -1.8281124761364564E-002   2.9641485401582734E-002
   5.8864730451837072E-002  -1.7566770703760948E-002   2.9525669935367566E-002
   5.6733223884773587E-002  -1.6841976886425858E-002   2.9720805829366481E-002
   5.9385353288949838E-002  -1.8059363452998800E-002   3.4942098753759032E-002
   5.7530331301942628E-002  -1.7415335653495831E-002   3.4490462626911481E-002
   5.5675309314935431E-002  -1.6761244857287472E-002   3.4280844299962587E-002
   5.3820287327928200E-002  -1.6097091064373445E-002   3.4313243772912574E-002
   5.1965265340921024E-002  -1.5422874274754084E-002   3.4587661045760887E-002
   5.3821753886607079E-002  -1.6440213308619722E-002   3.9028968735737413E-002
   5.2174282919340759E-002  -1.5845632247754787E-002   3.8863037905660078E-002
   5.0526811952074452E-002  -1.5241364953210157E-002   3.8870191315165836E-002
   4.8879340984808145E-002  -1.4627411424986109E-002   3.9050428964254813E-002
   4.7231870017541866E-002  -1.4003771663082309E-002   3.9403750852926800E-002
   4.8568451945999486E-002  -1.4821063164240728E-002   4.3066580360591022E-002
   4.7059598438158663E-002  -1.4275928842013716E-002   4.3185978064257759E-002
   4.5550744930317806E-002  -1.3721485049132981E-002   4.3409526447192176E-002
   4.4041891422476921E-002  -1.3157731785598537E-002   4.3737225509394108E-002
   4.2533037914636126E-002  -1.2584669051410508E-002   4.4169075250864075E-002
   4.3625447467127154E-002  -1.3201913019861566E-002   4.7054933628319473E-002
   4.2186277858396293E-002  -1.2706225436272617E-002   4.7459283102704447E-002
   4.0747108249665404E-002  -1.2201605145055722E-002   4.7898849696041634E-002
   3.9307938640934542E-002  -1.1688052146211179E-002   4.8373633408331104E-002
   3.7868769032203653E-002  -1.1165566439738761E-002   4.8883634239572760E-002
   5.6733223884773587E-002  -1.6841976886425858E-002   2.9720805829366481E-002
   5.4190993021691447E-002  -1.6114697784113063E-002   2.9219405993594461E-002
   5.1648762158609279E-002  -1.5392887871576305E-002   2.8905122341085054E-002
   4.9106531295527153E-002  -1.4676547148815493E-002   2.8777954871838485E-002
   4.6564300432445027E-002  -1.3965675615830619E-002   2.8837903585854474E-002
   5.1965265340921024E-002  -1.5422874274754084E-002   3.4587661045760887E-002
   4.9610894739545996E-002  -1.4744797500884754E-002   3.4117662399915843E-002
   4.7256524138170913E-002  -1.4069063755220851E-002   3.3836268094222161E-002
   4.4902153536795900E-002  -1.3395673037762394E-002   3.3743478128680005E-002
   4.2547782935420803E-002  -1.2724625348509710E-002   3.3839292503289153E-002
   4.7231870017541866E-002  -1.4003771663082309E-002   3.9403750852926800E-002
   4.5066847834762627E-002  -1.3374897217656251E-002   3.8968279558579094E-002
   4.2901825651983368E-002  -1.2745239638865355E-002   3.8722900761271564E-002
   4.0736803469204122E-002  -1.2114798926709410E-002   3.8667614461004064E-002
   3.8571781286424855E-002  -1.1483575081188691E-002   3.8802420657776893E-002
   4.2533037914636126E-002  -1.2584669051410508E-002   4.4169075250864075E-002
   4.0558852307341339E-002  -1.2004996934427928E-002   4.3771257469584178E-002
   3.8584666700046545E-002  -1.1421415522509852E-002   4.3565020342233141E-002
   3.6610481092751807E-002  -1.0833924815656535E-002   4.3550363868811177E-002
   3.4636295485457019E-002  -1.0242524813867726E-002   4.3727288049317865E-002
   3.7868769032203653E-002  -1.1165566439738761E-002   4.8883634239572760E-002
   3.6086908157282105E-002  -1.0635096651199383E-002   4.8526596132931199E-002
   3.4305047282360557E-002  -1.0097591406154391E-002   4.8362626837107320E-002
   3.2523186407439009E-002  -9.5530507046034073E-003   4.8391726352100803E-002
   3.0741325532517433E-002  -9.0014745465467061E-003   4.8613894677912051E-002
   4.6564300432445027E-002  -1.3965675615830619E-002   2.8837903585854474E-002
   4.4333091609115083E-002  -1.3247110314445754E-002   2.8396119387942065E-002
   4.2101882785785111E-002  -1.2507688286484436E-002   2.8077484875581704E-002
   3.9870673962455125E-002  -1.1747409531947285E-002   2.7882000048772643E-002
   3.7639465139125139E-002  -1.0966274050833613E-002   2.7809664907515130E-002
   4.2547782935420803E-002  -1.2724625348509710E-002   3.3839292503289153E-002
   4.0447010831770408E-002  -1.2045728646034953E-002   3.3464760078145611E-002
   3.8346238728119972E-002  -1.1348790888910887E-002   3.3227951406810008E-002
   3.6245466624469529E-002  -1.0633812077137580E-002   3.3128866489281553E-002
   3.4144694520819169E-002  -9.9007922107148261E-003   3.3167505325560842E-002
   3.8571781286424855E-002  -1.1483575081188691E-002   3.8802420657776893E-002
   3.6616019970709901E-002  -1.0844346977624236E-002   3.8492324333475603E-002
   3.4660258654994870E-002  -1.0189893491337323E-002   3.8334525831237712E-002
   3.2704497339279839E-002  -9.5202146223279278E-003   3.8329025151063130E-002
   3.0748736023564816E-002  -8.8353103705960390E-003   3.8475822292951878E-002
   3.4636295485457019E-002  -1.0242524813867726E-002   4.3727288049317865E-002
   3.2840119025933368E-002  -9.6429653092134776E-003   4.3478812153931609E-002
   3.1043942566409681E-002  -9.0309960937636005E-003   4.3397208148864969E-002
   2.9247766106885970E-002  -8.4066171675183602E-003   4.3482476034117208E-002
   2.7451589647362402E-002  -7.7698285304773074E-003   4.3734615809688966E-002
   3.0741325532517433E-002  -9.0014745465467061E-003   4.8613894677912051E-002
   2.9119307997440974E-002  -8.4415836408028300E-003   4.8424223539514033E-002
   2.7497290462364501E-002  -7.8720986961901135E-003   4.8415998359691376E-002
   2.5875272927288022E-002  -7.2930197127086573E-003   4.8589219138443843E-002
   2.4253255392211542E-002  -6.7043466903584648E-003   4.8943885875771365E-002
   3.7639465139125139E-002  -1.0966274050833613E-002   2.7809664907515130E-002
   3.5238773930686529E-002  -1.0188377505569390E-002   2.7198526052241878E-002
   3.2838082722247891E-002  -9.4378155585801704E-003   2.6734052280766085E-002
   3.0437391513809239E-002  -8.7145882098660435E-003   2.6416243593087863E-002
   2.8036700305370588E-002  -8.0186954594270166E-003   2.6245099989206655E-002
   3.4144694520819169E-002  -9.9007922107148261E-003   3.3167505325560842E-002
   3.1891433755770859E-002  -9.1679917110937259E-003   3.2633036757668488E-002
   2.9638172990722661E-002  -8.4536709997254100E-003   3.2246763992759914E-002
   2.7384912225674407E-002  -7.7578300766101907E-003   3.2008687030834621E-002
   2.5131651460626098E-002  -7.0804689417470756E-003   3.1918805871892497E-002
   3.0748736023564816E-002  -8.8353103705960390E-003   3.8475822292951878E-002
   2.8644436421093100E-002  -8.1476059166181447E-003   3.8026878822462973E-002
   2.6540136818621420E-002  -7.4695264408707468E-003   3.7727661874143628E-002
   2.4435837216149666E-002  -6.8010719433538903E-003   3.7578171447993740E-002
   2.2331537613677982E-002  -6.1422424240672457E-003   3.7578407544013537E-002
   2.7451589647362402E-002  -7.7698285304773074E-003   4.3734615809688966E-002
   2.5497781926653237E-002  -7.1272201221426329E-003   4.3380052246625465E-002
   2.3543974205944188E-002  -6.4853818820161460E-003   4.3176745924917673E-002
   2.1590166485235169E-002  -5.8443138100978138E-003   4.3124696844565734E-002
   1.9636358764526036E-002  -5.2040159063876379E-003   4.3223905005569656E-002
   2.4253255392211542E-002  -6.7043466903584648E-003   4.8943885875771365E-002
   2.2451470272451257E-002  -6.1068343276669546E-003   4.8692557030155792E-002
   2.0649685152690986E-002  -5.5012373231613509E-003   4.8594016145082020E-002
   1.8847900032930735E-002  -4.8875556768415221E-003   4.8648263220550214E-002
   1.7046114913170429E-002  -4.2657893887074749E-003   4.8855298256560431E-002
   2.8036700305370588E-002  -8.0186954594270166E-003   2.6245099989206655E-002
   2.5697087937119445E-002  -7.3064864626579684E-003   2.5672487198852068E-002
   2.3357475568868274E-002  -6.5343103749535281E-003   2.5043492099452724E-002
   2.1017863200617146E-002  -5.7021671963140494E-003   2.4358114691008431E-002
   1.8678250832365961E-002  -4.8100569267396365E-003   2.3616354973519438E-002
   2.5131651460626098E-002  -7.0804689417470756E-003   3.1918805871892497E-002
   2.2774808245633382E-002  -6.4046199255468617E-003   3.1527990862569022E-002
   2.0417965030640570E-002  -5.7133153584177088E-003   3.1159096468806879E-002
   1.8061121815647820E-002  -5.0065552403607896E-003   3.0812122690606347E-002
   1.5704278600655042E-002  -4.2843395713756394E-003   3.0487069527967370E-002
   2.2331537613677982E-002  -6.1422424240672457E-003   3.7578407544013537E-002
   2.0035766476549879E-002  -5.5027533884353108E-003   3.7324878775714138E-002
   1.7739995339421673E-002  -4.8923203418820144E-003   3.7171573547582396E-002
   1.5444224202293490E-002  -4.3109432844075334E-003   3.7118491859618595E-002
   1.3148453065165364E-002  -3.7586222160116978E-003   3.7165633711822382E-002
   1.9636358764526036E-002  -5.2040159063876379E-003   4.3223905005569656E-002
   1.7479962629868815E-002  -4.6008868513242041E-003   4.3063150938287324E-002
   1.5323566495211558E-002  -4.0713253253462575E-003   4.3080923335778981E-002
   1.3167170360554273E-002  -3.6153313284541643E-003   4.3277222198044862E-002
   1.1010774225897076E-002  -3.2329048606476729E-003   4.3652047525084524E-002
   1.7046114913170429E-002  -4.2657893887074749E-003   4.8855298256560431E-002
   1.5107396705590331E-002  -3.6990203142126532E-003   4.8742807350288242E-002
   1.3168678498010206E-002  -3.2503303088104174E-003   4.8887145833396539E-002
   1.1229960290430080E-002  -2.9197193725007189E-003   4.9288313705885156E-002
   9.2912420828499820E-003  -2.7071875052836480E-003   4.9946310967753704E-002
   1.8678250832365961E-002  -4.8100569267396365E-003   2.3616354973519438E-002
   1.5654710571037456E-002  -4.0778921257504375E-003   2.4399235010086784E-002
   1.2631170309708978E-002  -3.7255853528669058E-003   2.5657164302127611E-002
   9.6076300483804861E-003  -3.7531366080887571E-003   2.7390142849642363E-002
   6.5840897870519943E-003  -4.1605458914164561E-003   2.9598170652630706E-002
   1.5704278600655042E-002  -4.2843395713756394E-003   3.0487069527967370E-002
   1.3137118200084230E-002  -3.7726404451476347E-003   3.1261253533766131E-002
   1.0569957799513460E-002  -3.6974299553612089E-003   3.2473148005606717E-002
   8.0027973989426765E-003  -4.0587081020169308E-003   3.4122752943488946E-002
   5.4356369983718789E-003  -4.8564748851143147E-003   3.6210068347412583E-002
   1.3148453065165364E-002  -3.7586222160116978E-003   3.7165633711822382E-002
   1.1000333735920326E-002  -3.4673887645444157E-003   3.7874491078516287E-002
   8.8522144066752323E-003  -3.6692745578554148E-003   3.8983720121820040E-002
   6.7040950774301354E-003  -4.3642795959445528E-003   4.0493320841733481E-002
   4.5559757481851010E-003  -5.5524038788120622E-003   4.2403293238256756E-002
   1.1010774225897076E-002  -3.2329048606476729E-003   4.3652047525084524E-002
   9.2443571785457215E-003  -3.1621370839415158E-003   4.4238947644337362E-002
   7.4779401311944240E-003  -3.6411191603496693E-003   4.5188880650768037E-002
   5.7115230838430944E-003  -4.6698510898726727E-003   4.6501846544376405E-002
   3.9451060364918238E-003  -6.2483328725098652E-003   4.8177845325162727E-002
   9.2912420828499820E-003  -2.7071875052836480E-003   4.9946310967753704E-002
   7.8691885279604246E-003  -2.8568854033384494E-003   5.0354623231229523E-002
   6.4471349730709226E-003  -3.6129637628440070E-003   5.1088629592450585E-002
   5.0250814181814069E-003  -4.9754225838004804E-003   5.2148330051417530E-002
   3.6030278632919188E-003  -6.9442618662076683E-003   5.3533724608130662E-002
   6.5840897870519943E-003  -4.1605458914164561E-003   2.9598170652630706E-002
   6.0560516473920356E-003  -6.1426580527018659E-003   3.4076299767130891E-002
   5.5280135077320491E-003  -1.0894317941798404E-002   3.9239241887927268E-002
   4.9999753680720627E-003  -1.8415525558704959E-002   4.5086997015020114E-002
   4.4719372284121039E-003  -2.8706280903421977E-002   5.1619565148409041E-002
   5.4356369983718789E-003  -4.8564748851143147E-003   3.6210068347412583E-002
   5.4886823065321833E-003  -6.9906065688932761E-003   3.8350364995564434E-002
   5.5417276146924738E-003  -1.1360979417594064E-002   4.0968015533060509E-002
   5.5947729228528059E-003  -1.7967593431215928E-002   4.4063019959900918E-002
   5.6478182310130687E-003  -2.6810448609759119E-002   4.7635378276085438E-002
   4.5559757481851010E-003  -5.5524038788120622E-003   4.2403293238256756E-002
   4.9826453872138521E-003  -7.8385550850848529E-003   4.2739063982949216E-002
   5.4093150262424575E-003  -1.1827640893389835E-002   4.3344729500034151E-002
   5.8359846652710767E-003  -1.7519661303726897E-002   4.4220289789511508E-002
   6.2626543042998140E-003  -2.4914616316096483E-002   4.5365744851381007E-002
   3.9451060364918238E-003  -6.2483328725098652E-003   4.8177845325162727E-002
   4.5379408894369241E-003  -8.6865036012763464E-003   4.7242396729284722E-002
   5.1307757423820211E-003  -1.2294302369185550E-002   4.6369383788847349E-002
   5.7236105953270972E-003  -1.7071729176237976E-002   4.5558806503850635E-002
   6.3164454482721663E-003  -2.3018784022433736E-002   4.4810664874293860E-002
   3.6030278632919188E-003  -6.9442618662076683E-003   5.3533724608130662E-002
   4.1545688132015313E-003  -9.5344521174678398E-003   5.1860363234571660E-002
   4.7061097631111437E-003  -1.2760963844981266E-002   5.0041978399501308E-002
   5.2576507130207839E-003  -1.6623797048748945E-002   4.8078570102919105E-002
   5.8091916629303686E-003  -2.1122951728770989E-002   4.5970138344825884E-002
   5.0514116232212636E-002  -1.4886478548815196E-002   4.5957488607712427E-002
   4.8791949040941252E-002  -1.4517897052229278E-002   4.5728994672982526E-002
   4.7069781849669895E-002  -1.4114275631875256E-002   4.5835737531507048E-002
   4.5347614658398525E-002  -1.3675614287752567E-002   4.6277717183286077E-002
   4.3625447467127154E-002  -1.3201913019861566E-002   4.7054933628319473E-002
   4.4332043570280671E-002  -1.3006003865365434E-002   5.1124310337052115E-002
   4.2916863156753901E-002  -1.2681200158473765E-002   5.0792806374295951E-002
   4.1501682743227131E-002  -1.2327877436746126E-002   5.0740039173774842E-002
   4.0086502329700374E-002  -1.1946035700182350E-002   5.0966008735488177E-002
   3.8671321916173604E-002  -1.1535674948782632E-002   5.1470715059436095E-002
   3.8043431426530536E-002  -1.1125529181915783E-002   5.6250614731163606E-002
   3.6878737759728497E-002  -1.0844503264718225E-002   5.5809579831449352E-002
   3.5714044092926438E-002  -1.0541479241617066E-002   5.5590781662949881E-002
   3.4549350426124434E-002  -1.0216457112612164E-002   5.5594220225665146E-002
   3.3384656759322409E-002  -9.8694368777036134E-003   5.5819895519595347E-002
   3.1648279800962090E-002  -9.2450544984660488E-003   6.1336401790047422E-002
   3.0677572849864956E-002  -9.0078063709627121E-003   6.0779315044442395E-002
   2.9706865898767830E-002  -8.7550810464879711E-003   6.0387964999032373E-002
   2.8736158947670672E-002  -8.4868785250419906E-003   6.0162351653817246E-002
   2.7765451996573515E-002  -8.2031988066246925E-003   6.0102475008797167E-002
   2.5146588693575472E-002  -7.3645798150163699E-003   6.6381671513703111E-002
   2.4313368427163362E-002  -7.1711094772071438E-003   6.5702012013274969E-002
   2.3480148160751238E-002  -6.9686828513589039E-003   6.5131589182022165E-002
   2.2646927894339121E-002  -6.7572999374717960E-003   6.4670403019944339E-002
   2.1813707627927004E-002  -6.5369607355456050E-003   6.4318453527041575E-002
   4.3625447467127154E-002  -1.3201913019861566E-002   4.7054933628319473E-002
   4.2186277858396293E-002  -1.2706225436272617E-002   4.7459283102704447E-002
   4.0747108249665404E-002  -1.2201605145055722E-002   4.7898849696041634E-002
   3.9307938640934542E-002  -1.1688052146211179E-002   4.8373633408331104E-002
   3.7868769032203653E-002  -1.1165566439738761E-002   4.8883634239572760E-002
   3.8671321916173604E-002  -1.1535674948782632E-002   5.1470715059436095E-002
   3.7302790265918734E-002  -1.1105973317751233E-002   5.1587493493474662E-002
   3.5934258615663857E-002  -1.0666108942292592E-002   5.1810330725513068E-002
   3.4565726965408980E-002  -1.0216081822406591E-002   5.2139226755551139E-002
   3.3197195315154124E-002  -9.7558919580933434E-003   5.2574181583589008E-002
   3.3384656759322409E-002  -9.8694368777036134E-003   5.5819895519595347E-002
   3.2157604746591045E-002  -9.5057211992298635E-003   5.5650332950087082E-002
   3.0930552733859709E-002  -9.1306127395293507E-003   5.5657670857626060E-002
   2.9703500721128366E-002  -8.7441114986021133E-003   5.5841909242212336E-002
   2.8476448708397037E-002  -8.3462174764480368E-003   5.6203048103845868E-002
   2.7765451996573515E-002  -8.2031988066246925E-003   6.0102475008797167E-002
   2.6750721300413231E-002  -7.9054690807085701E-003   5.9647801472541520E-002
   2.5735990604252943E-002  -7.5951165367662207E-003   5.9440870092380665E-002
   2.4721259908092656E-002  -7.2721411747975803E-003   5.9481680868314589E-002
   2.3706529211932368E-002  -6.9365429948027579E-003   5.9770233800343367E-002
   2.1813707627927004E-002  -6.5369607355456050E-003   6.4318453527041575E-002
   2.1082139927385279E-002  -6.3052169621870546E-003   6.3579899060837969E-002
   2.0350572226843569E-002  -6.0596203340030075E-003   6.3159928429776746E-002
   1.9619004526301859E-002  -5.8001708509930541E-003   6.3058541633857934E-002
   1.8887436825760148E-002  -5.5268685131573680E-003   6.3275738673081394E-002
   3.7868769032203653E-002  -1.1165566439738761E-002   4.8883634239572760E-002
   3.6086908157282105E-002  -1.0635096651199383E-002   4.8526596132931199E-002
   3.4305047282360557E-002  -1.0097591406154391E-002   4.8362626837107320E-002
   3.2523186407439009E-002  -9.5530507046034073E-003   4.8391726352100803E-002
   3.0741325532517433E-002  -9.0014745465467061E-003   4.8613894677912051E-002
   3.3197195315154124E-002  -9.7558919580933434E-003   5.2574181583589008E-002
   3.1613751432585935E-002  -9.2873613989760129E-003   5.2180095819619160E-002
   3.0030307550017780E-002  -8.8123121946779431E-003   5.1989775229538404E-002
   2.8446863667449623E-002  -8.3307443451989573E-003   5.2003219813346949E-002
   2.6863419784881437E-002  -7.8426578505392253E-003   5.2220429571044613E-002
   2.8476448708397037E-002  -8.3462174764480368E-003   5.6203048103845868E-002
   2.7102118181253909E-002  -7.9396261467526708E-003   5.5771397871222553E-002
   2.5727787654110761E-002  -7.5270329832015023E-003   5.5554209175560067E-002
   2.4353457126967622E-002  -7.1084379857945645E-003   5.5551482016858611E-002
   2.2979126599824491E-002  -6.6838411545316612E-003   5.5763216395117762E-002
   2.3706529211932368E-002  -6.9365429948027579E-003   5.9770233800343367E-002
   2.2552008403285931E-002  -6.5918908945290927E-003   5.9300502287741585E-002
   2.1397487594639476E-002  -6.2417537717250303E-003   5.9055928675172231E-002
   2.0242966785993029E-002  -5.8861316263899765E-003   5.9036512962635491E-002
   1.9088445977346588E-002  -5.5250244585242497E-003   5.9242255150131290E-002
   1.8887436825760148E-002  -5.5268685131573680E-003   6.3275738673081394E-002
   1.7963422098682041E-002  -5.2441556423059310E-003   6.2767409069176161E-002
   1.7039407371603942E-002  -4.9564745602486276E-003   6.2494933728375140E-002
   1.6115392644525852E-002  -4.6638252669856696E-003   6.2458312650678124E-002
   1.5191377917447735E-002  -4.3662077625166162E-003   6.2657545836085404E-002
   3.0741325532517433E-002  -9.0014745465467061E-003   4.8613894677912051E-002
   2.9119307997440974E-002  -8.4415836408028300E-003   4.8424223539514033E-002
   2.7497290462364501E-002  -7.8720986961901135E-003   4.8415998359691376E-002
   2.5875272927288022E-002  -7.2930197127086573E-003   4.8589219138443843E-002
   2.4253255392211542E-002  -6.7043466903584648E-003   4.8943885875771365E-002
   2.6863419784881437E-002  -7.8426578505392253E-003   5.2220429571044613E-002
   2.5425605461167719E-002  -7.3466016734226036E-003   5.2036635627314198E-002
   2.3987791137454001E-002  -6.8411247765728794E-003   5.2039802147734182E-002
   2.2549976813740255E-002  -6.3262271599902435E-003   5.2229929132304495E-002
   2.1112162490026537E-002  -5.8019088236743732E-003   5.2607016581025123E-002
   2.2979126599824491E-002  -6.6838411545316612E-003   5.5763216395117762E-002
   2.1731029993048712E-002  -6.2516197060424328E-003   5.5585126326919129E-002
   2.0482933386272929E-002  -5.8101508569557495E-003   5.5599511228446093E-002
   1.9234836779497146E-002  -5.3594346072716615E-003   5.5806371099698604E-002
   1.7986740172721359E-002  -4.8994709569901707E-003   5.6205705940676670E-002
   1.9088445977346588E-002  -5.5250244585242497E-003   5.9242255150131290E-002
   1.8035581593083948E-002  -5.1566377386621232E-003   5.9069695638328978E-002
   1.6982717208821309E-002  -4.7791769373385119E-003   5.9095125601827281E-002
   1.5929852824558659E-002  -4.3926420545531081E-003   5.9318545040626343E-002
   1.4876988440296028E-002  -3.9970330903060236E-003   5.9739953954726054E-002
   1.5191377917447735E-002  -4.3662077625166162E-003   6.2657545836085404E-002
   1.4339260261273426E-002  -4.0616557712820911E-003   6.2490343561543538E-002
   1.3487142605099103E-002  -3.7482030177213854E-003   6.2526645267877434E-002
   1.2635024948924781E-002  -3.4258495018347213E-003   6.2766450955087427E-002
   1.1782907292750472E-002  -3.0945952236217655E-003   6.3209760623173294E-002
   2.4253255392211542E-002  -6.7043466903584648E-003   4.8943885875771365E-002
   2.2451470272451257E-002  -6.1068343276669546E-003   4.8692557030155792E-002
   2.0649685152690986E-002  -5.5012373231613509E-003   4.8594016145082020E-002
   1.8847900032930735E-002  -4.8875556768415221E-003   4.8648263220550214E-002
   1.7046114913170429E-002  -4.2657893887074749E-003   4.8855298256560431E-002
   2.1112162490026537E-002  -5.8019088236743732E-003   5.2607016581025123E-002
   1.9476650208480717E-002  -5.2720338412243217E-003   5.2389731805137008E-002
   1.7841137926934938E-002  -4.7404662862390590E-003   5.2352204745135605E-002
   1.6205625645389160E-002  -4.2072061587183698E-003   5.2494435401021403E-002
   1.4570113363843340E-002  -3.6722534586619560E-003   5.2816423772794385E-002
   1.7986740172721359E-002  -4.8994709569901707E-003   5.6205705940676670E-002
   1.6544470484735244E-002  -4.4372333547818832E-003   5.6016073165236602E-002
   1.5102200796749139E-002  -3.9796952493167531E-003   5.6033167861029340E-002
   1.3659931108763018E-002  -3.5268566405949366E-003   5.6256990028054114E-002
   1.2217661420776890E-002  -3.0787175286165480E-003   5.6687539666311210E-002
   1.4876988440296028E-002  -3.9970330903060236E-003   5.9739953954726054E-002
   1.3654931101214820E-002  -3.6024328683393475E-003   5.9571581110455900E-002
   1.2432873762133614E-002  -3.2189242123945097E-003   5.9636905492763403E-002
   1.1210816423052430E-002  -2.8465071224718103E-003   5.9935927101648287E-002
   9.9887590839712014E-003  -2.4851815985710846E-003   6.0468645937110703E-002
   1.1782907292750472E-002  -3.0945952236217655E-003   6.3209760623173294E-002
   1.0808032057919401E-002  -2.7676323818965898E-003   6.3056255640794090E-002
   9.8331568230883432E-003  -2.4581531754720443E-003   6.3163417640337838E-002
   8.8582815882572788E-003  -2.1661576043483233E-003   6.3531246621804149E-002
   7.8834063534262422E-003  -1.8916456685255101E-003   6.4159742585193302E-002
   1.7046114913170429E-002  -4.2657893887074749E-003   4.8855298256560431E-002
   1.5107396705590331E-002  -3.6990203142126532E-003   4.8742807350288242E-002
   1.3168678498010206E-002  -3.2503303088104174E-003   4.8887145833396539E-002
   1.1229960290430080E-002  -2.9197193725007189E-003   4.9288313705885156E-002
   9.2912420828499820E-003  -2.7071875052836480E-003   4.9946310967753704E-002
   1.4570113363843340E-002  -3.6722534586619560E-003   5.2816423772794385E-002
   1.2886988316850548E-002  -3.1945089655175951E-003   5.2709152216264710E-002
   1.1203863269857742E-002  -2.8328734587307336E-003   5.2856237591529243E-002
   9.5207382228649426E-003  -2.5873469383029257E-003   5.3257679898588289E-002
   7.8376131758721435E-003  -2.4579294042328392E-003   5.3913479137441767E-002
   1.2217661420776890E-002  -3.0787175286165480E-003   5.6687539666311210E-002
   1.0787657076785577E-002  -2.6899976168218709E-003   5.6587457542258135E-002
   9.3576527327942360E-003  -2.4154166086511469E-003   5.6739259892413449E-002
   7.9276483888029228E-003  -2.2549745041046849E-003   5.7142946716777464E-002
   6.4976440448115819E-003  -2.2086713031820859E-003   5.7798518015349770E-002
   9.9887590839712014E-003  -2.4851815985710846E-003   6.0468645937110703E-002
   8.8094029853954797E-003  -2.1854862681264242E-003   6.0377723328268490E-002
   7.6300468868197441E-003  -1.9979597585715672E-003   6.0536212736048992E-002
   6.4506907882440102E-003  -1.9226020699063904E-003   6.0944114160451805E-002
   5.2713346896682868E-003  -1.9594132021315269E-003   6.1601427601477625E-002
   7.8834063534262422E-003  -1.8916456685255101E-003   6.4159742585193302E-002
   6.9522260426802263E-003  -1.6809749194310331E-003   6.4079949574296080E-002
   6.0210457319342242E-003  -1.5805029084918487E-003   6.4247096122435565E-002
   5.0898654211882152E-003  -1.5902296357086440E-003   6.4661182229612035E-002
   4.1586851104422062E-003  -1.7101551010804128E-003   6.5322207895824880E-002
   9.2912420828499820E-003  -2.7071875052836480E-003   4.9946310967753704E-002
   7.8691885279604246E-003  -2.8568854033384494E-003   5.0354623231229523E-002
   6.4471349730709226E-003  -3.6129637628440070E-003   5.1088629592450585E-002
   5.0250814181814069E-003  -4.9754225838004804E-003   5.2148330051417530E-002
   3.6030278632919188E-003  -6.9442618662076683E-003   5.3533724608130662E-002
   7.8376131758721435E-003  -2.4579294042328392E-003   5.3913479137441767E-002
   6.7155423994627178E-003  -2.6430784353995707E-003   5.3850037554786123E-002
   5.5934716230532783E-003  -3.3412516106809398E-003   5.4060867431344500E-002
   4.4714008466438387E-003  -4.5524489300769883E-003   5.4545968767117356E-002
   3.3493300702343853E-003  -6.2766703935877022E-003   5.5305341562104537E-002
   6.4976440448115819E-003  -2.2086713031820859E-003   5.7798518015349770E-002
   5.6241334083507594E-003  -2.4292714674608862E-003   5.7356678903899116E-002
   4.7506227718899577E-003  -3.0695394585181085E-003   5.7137688613131107E-002
   3.8771121354291525E-003  -4.1294752763539437E-003   5.7141547143046138E-002
   3.0036014989683613E-003  -5.6090789209677361E-003   5.7368254493643855E-002
   5.2713346896682868E-003  -1.9594132021315269E-003   6.1601427601477625E-002
   4.5949615546246152E-003  -2.2154644995222156E-003   6.0874547278567989E-002
   3.9185884195809869E-003  -2.7978273063553813E-003   6.0319093137809615E-002
   3.2422152845373508E-003  -3.7065016226306754E-003   5.9935065179203016E-002
   2.5658421494936870E-003  -4.9414874483479920E-003   5.9722463402747700E-002
   4.1586851104422062E-003  -1.7101551010804128E-003   6.5322207895824880E-002
   3.6280268382842817E-003  -2.0016575315833784E-003   6.4403642678792949E-002
   3.0973685661263434E-003  -2.5261151541922100E-003   6.3605081005380815E-002
   2.5667102939684189E-003  -3.2835279689074626E-003   6.2926522875588420E-002
   2.0360520218104805E-003  -4.2738959757276929E-003   6.2367968289416376E-002
   3.6030278632919188E-003  -6.9442618662076683E-003   5.3533724608130662E-002
   4.1545688132015313E-003  -9.5344521174678398E-003   5.1860363234571660E-002
   4.7061097631111437E-003  -1.2760963844981266E-002   5.0041978399501308E-002
   5.2576507130207839E-003  -1.6623797048748945E-002   4.8078570102919105E-002
   5.8091916629303686E-003  -2.1122951728770989E-002   4.5970138344825884E-002
   3.3493300702343853E-003  -6.2766703935877022E-003   5.5305341562104537E-002
   3.7732595844642419E-003  -8.5450853893288548E-003   5.2951519237869282E-002
   4.1971890986941124E-003  -1.1388863305414887E-002   5.0487497503785395E-002
   4.6211186129240314E-003  -1.4808004141847020E-002   4.7913276359853679E-002
   5.0450481271538394E-003  -1.8802507898624476E-002   4.5228855806074275E-002
   3.0036014989683613E-003  -5.6090789209677361E-003   5.7368254493643855E-002
   3.3347436291818050E-003  -7.5557186611898697E-003   5.4394929774639944E-002
   3.6658857593953181E-003  -1.0016762765848508E-002   5.1346229697451451E-002
   3.9970278896087549E-003  -1.2992211234944817E-002   4.8222154262078196E-002
   4.3281700198222472E-003  -1.6482064068477964E-002   4.5022703468520664E-002
   2.5658421494936870E-003  -4.9414874483479920E-003   5.9722463402747700E-002
   2.8390209473541615E-003  -6.5663519330509956E-003   5.6190594844883840E-002
   3.1121997452146083E-003  -8.6446622262824624E-003   5.2618174980499172E-002
   3.3853785430751088E-003  -1.1176418328042531E-002   4.9005203809592460E-002
   3.6585573409355018E-003  -1.4161620238331563E-002   4.5351681332165439E-002
   2.0360520218104805E-003  -4.2738959757276929E-003   6.2367968289416376E-002
   2.2860915389813080E-003  -5.5769852049121216E-003   5.8338514448601386E-002
   2.5361310561521216E-003  -7.2725616867157228E-003   5.4303333352928307E-002
   2.7861705733229561E-003  -9.3606254211405157E-003   5.0262425002397387E-002
   3.0362100904937628E-003  -1.1841176408184939E-002   4.6215789397008766E-002
   2.5146588693575472E-002  -7.3645798150163699E-003   6.6381671513703111E-002
   2.4313368427163362E-002  -7.1711094772071438E-003   6.5702012013274969E-002
   2.3480148160751238E-002  -6.9686828513589039E-003   6.5131589182022165E-002
   2.2646927894339121E-002  -6.7572999374717960E-003   6.4670403019944339E-002
   2.1813707627927004E-002  -6.5369607355456050E-003   6.4318453527041575E-002
   1.8658706263853242E-002  -5.5234353910662559E-003   6.5320569117001293E-002
   1.7959489763148692E-002  -5.3783323850426223E-003   6.4807670264586115E-002
   1.7260273262444115E-002  -5.2265122383914897E-003   6.4453542274410830E-002
   1.6561056761739558E-002  -5.0679749511127886E-003   6.4258185146475646E-002
   1.5861840261034994E-002  -4.9027205232066440E-003   6.4221598880780384E-002
   1.2304980671278186E-002  -3.6822909671160864E-003   6.4212218962219542E-002
   1.1789302129346056E-002  -3.5855552928781148E-003   6.3863841610405869E-002
   1.1273623587413923E-002  -3.4843416254240617E-003   6.3723769313896853E-002
   1.0757945045481799E-002  -3.3786499647539166E-003   6.3792002072692811E-002
   1.0242266503549681E-002  -3.2684803108676552E-003   6.4068539886793646E-002
   6.0854119158502123E-003  -1.8411465431659446E-003   6.3056621049358025E-002
   5.8028055257554213E-003  -1.7927782007136697E-003   6.2870526050734218E-002
   5.5201991356606363E-003  -1.7421710124566128E-003   6.2942270300480094E-002
   5.2375927455658462E-003  -1.6893249783949769E-003   6.3271853798595817E-002
   4.9549863554710586E-003  -1.6342400985285693E-003   6.3859276545081251E-002
  -2.4305904511301435E-012  -2.1192158028426888E-009   6.1853775378416409E-002
  -4.7623169296961976E-011  -1.1085490581042023E-009   6.1827723585571148E-002
  -9.2815741203899904E-011  -3.9948924723809398E-010   6.2109045234160498E-002
  -1.3800832004973174E-010   7.9639836392253471E-012   6.2697740324184459E-002
  -1.8320089195666966E-010   1.1381035003310558E-010   6.3593808855643252E-002
   2.1813707627927004E-002  -6.5369607355456050E-003   6.4318453527041575E-002
   2.1082139927385279E-002  -6.3052169621870546E-003   6.3579899060837969E-002
   2.0350572226843569E-002  -6.0596203340030075E-003   6.3159928429776746E-002
   1.9619004526301859E-002  -5.8001708509930541E-003   6.3058541633857934E-002
   1.8887436825760148E-002  -5.5268685131573680E-003   6.3275738673081394E-002
   1.5861840261034994E-002  -4.9027205232066440E-003   6.4221598880780384E-002
   1.5414933421403008E-002  -4.7289127038243756E-003   6.3793536298326167E-002
   1.4968026581771019E-002  -4.5447152421175460E-003   6.3616211602549017E-002
   1.4521119742139021E-002  -4.3501281380860842E-003   6.3689624793449015E-002
   1.4074212902507037E-002  -4.1451513917299398E-003   6.4013775871025996E-002
   1.0242266503549681E-002  -3.2684803108676552E-003   6.4068539886793646E-002
   1.0012174576362207E-002  -3.1526084454615855E-003   6.3947505975587432E-002
   9.7820826491747184E-003  -3.0298101502320290E-003   6.4009364002593203E-002
   9.5519907219872337E-003  -2.9000854251790033E-003   6.4254113967810861E-002
   9.3218987947997593E-003  -2.7634342703024839E-003   6.4681755871240379E-002
   4.9549863554710586E-003  -1.6342400985285693E-003   6.3859276545081251E-002
   4.8738633922628671E-003  -1.5763041870987399E-003   6.4041808092622124E-002
   4.7927404290546696E-003  -1.5149050583465953E-003   6.4339385629909568E-002
   4.7116174658464755E-003  -1.4500427122719223E-003   6.4752009156943818E-002
   4.6304945026382797E-003  -1.3817171488749586E-003   6.5279678673724542E-002
  -1.8320089195666966E-010   1.1381035003310558E-010   6.3593808855643252E-002
  -1.3089501010865590E-010   7.1264050216512942E-011   6.4076442649429910E-002
  -7.8589124791195175E-011   3.3538949395506279E-011   6.4606276484498071E-002
  -2.6283241208457930E-011   6.3510308123682080E-013   6.5183310360847624E-002
   2.6022642374279314E-011  -2.7447655259749126E-011   6.5807544278478791E-002
   1.8887436825760148E-002  -5.5268685131573680E-003   6.3275738673081394E-002
   1.7963422098682041E-002  -5.2441556423059310E-003   6.2767409069176161E-002
   1.7039407371603942E-002  -4.9564745602486276E-003   6.2494933728375140E-002
   1.6115392644525852E-002  -4.6638252669856696E-003   6.2458312650678124E-002
   1.5191377917447735E-002  -4.3662077625166162E-003   6.2657545836085404E-002
   1.4074212902507037E-002  -4.1451513917299398E-003   6.4013775871025996E-002
   1.3384839792651849E-002  -3.9331167429334235E-003   6.3569490623666153E-002
   1.2695466682796658E-002  -3.7173559315810262E-003   6.3358634347648116E-002
   1.2006093572941476E-002  -3.4978689576724738E-003   6.3381207042971649E-002
   1.1316720463086280E-002  -3.2746558212081167E-003   6.3637208709636905E-002
   9.3218987947997593E-003  -2.7634342703024839E-003   6.4681755871240379E-002
   8.8647420104049600E-003  -2.6220778435610964E-003   6.4300272931776328E-002
   8.4075852260101624E-003  -2.4782373029134178E-003   6.4149793671891386E-002
   7.9504284416153717E-003  -2.3319126483596093E-003   6.4230318091585636E-002
   7.4932716572205724E-003  -2.1831038798993951E-003   6.4541846190858926E-002
   4.6304945026382797E-003  -1.3817171488749586E-003   6.5279678673724542E-002
   4.4031287519413634E-003  -1.3110389441886791E-003   6.4959755993506549E-002
   4.1757630012444515E-003  -1.2391186742458406E-003   6.4868411701105008E-002
   3.9483972505475352E-003  -1.1659563390466346E-003   6.5005645796520031E-002
   3.7210314998506171E-003  -1.0915519385908401E-003   6.5371458279751868E-002
   2.6022642374279314E-011  -2.7447655259749126E-011   6.5807544278478791E-002
   1.7261084922504111E-011  -4.4816317323892463E-011   6.5547939808856814E-002
   8.4995205318350031E-012  -4.5578193996753669E-011   6.5514488435288898E-002
  -2.6204732828105648E-013  -2.9733628753580987E-011   6.5707190157775056E-002
  -9.0236013106093083E-012   2.7179369865848457E-012   6.6126044976315357E-002
   1.5191377917447735E-002  -4.3662077625166162E-003   6.2657545836085404E-002
   1.4339260261273426E-002  -4.0616557712820911E-003   6.2490343561543538E-002
   1.3487142605099103E-002  -3.7482030177213854E-003   6.2526645267877434E-002
   1.2635024948924781E-002  -3.4258495018347213E-003   6.2766450955087427E-002
   1.1782907292750472E-002  -3.0945952236217655E-003   6.3209760623173294E-002
   1.1316720463086280E-002  -3.2746558212081167E-003   6.3637208709636905E-002
   1.0670488145292742E-002  -3.0462418187969242E-003   6.3531384606926922E-002
   1.0024255827499197E-002  -2.8111522470491423E-003   6.3633827200102883E-002
   9.3780235097056346E-003  -2.5693871059641465E-003   6.3944536489163997E-002
   8.7317911919121138E-003  -2.3209463955421450E-003   6.4463512474111084E-002
   7.4932716572205724E-003  -2.1831038798993951E-003   6.4541846190858926E-002
   7.0576873928174973E-003  -2.0308278663120627E-003   6.4495175066992178E-002
   6.6221031284144187E-003  -1.8741014763768993E-003   6.4661533354020695E-002
   6.1865188640113471E-003  -1.7129247100936829E-003   6.5040921051944617E-002
   5.7509345996082650E-003  -1.5472975674624689E-003   6.5633338160763777E-002
   3.7210314998506171E-003  -1.0915519385908401E-003   6.5371458279751868E-002
   3.5008580038477085E-003  -1.0154139138271595E-003   6.5381714941739208E-002
   3.2806845078447956E-003  -9.3705070570476723E-004   6.5609763729631426E-002
   3.0605110118418818E-003  -8.5646231422321917E-004   6.6055604643428786E-002
   2.8403375158389740E-003  -7.7364873938287615E-004   6.6719237683131094E-002
  -9.0236013106093083E-012   2.7179369865848457E-012   6.6126044976315357E-002
  -2.1616649442668390E-011   3.8657965717447951E-011   6.6191004231167805E-002
  -3.4209694105280519E-011   6.4967503599078213E-011   6.6478518326934910E-002
  -4.6802737033169173E-011   8.1647279215335544E-011   6.6988587263616756E-002
  -5.9395786899951730E-011   8.8696938682630844E-011   6.7721211041213203E-002
   1.1782907292750472E-002  -3.0945952236217655E-003   6.3209760623173294E-002
   1.0808032057919401E-002  -2.7676323818965898E-003   6.3056255640794090E-002
   9.8331568230883432E-003  -2.4581531754720443E-003   6.3163417640337838E-002
   8.8582815882572788E-003  -2.1661576043483233E-003   6.3531246621804149E-002
   7.8834063534262422E-003  -1.8916456685255101E-003   6.4159742585193302E-002
   8.7317911919121138E-003  -2.3209463955421450E-003   6.4463512474111084E-002
   8.0133458964481707E-003  -2.0757242646010088E-003   6.4360731775911006E-002
   7.2949006009842415E-003  -1.8436148619590809E-003   6.4510143974522427E-002
   6.5764553055203019E-003  -1.6246181876158963E-003   6.4911749069945540E-002
   5.8580100100563692E-003  -1.4187342415715731E-003   6.5565547062179985E-002
   5.7509345996082650E-003  -1.5472975674624689E-003   6.5633338160763777E-002
   5.2804451584002148E-003  -1.3838161473057609E-003   6.5585652653744636E-002
   4.8099557171921818E-003  -1.2290765484461175E-003   6.5781685958425706E-002
   4.3394662759841402E-003  -1.0830787708833028E-003   6.6221438074807251E-002
   3.8689768347760986E-003  -9.4582281461769169E-004   6.6904909002889007E-002
   2.8403375158389740E-003  -7.7364873938287615E-004   6.6719237683131094E-002
   2.6093298437755760E-003  -6.9190803001023538E-004   6.6731018274294951E-002
   2.3783221717121805E-003  -6.1453823493304305E-004   6.6978043592047773E-002
   2.1473144996487733E-003  -5.4153935415095916E-004   6.7460313636389491E-002
   1.9163068275853869E-003  -4.7291138766394902E-004   6.8177828407320368E-002
  -5.9395786899951730E-011   8.8696938682630844E-011   6.7721211041213203E-002
  -4.7425785520971431E-011   8.7284957039912570E-011   6.7796828637561757E-002
  -3.5455780672544179E-011   7.8579809326129180E-011   6.8099216875388002E-002
  -2.3485786232457784E-011   6.2581828608188061E-011   6.8628375754691967E-002
  -1.1515774445136628E-011   3.9290126707669515E-011   6.9384305275473790E-002
   7.8834063534262422E-003  -1.8916456685255101E-003   6.4159742585193302E-002
   6.9522260426802263E-003  -1.6809749194310331E-003   6.4079949574296080E-002
   6.0210457319342242E-003  -1.5805029084918487E-003   6.4247096122435565E-002
   5.0898654211882152E-003  -1.5902296357086440E-003   6.4661182229612035E-002
   4.1586851104422062E-003  -1.7101551010804128E-003   6.5322207895824880E-002
   5.8580100100563692E-003  -1.4187342415715731E-003   6.5565547062179985E-002
   5.1702331382875166E-003  -1.2607311855002967E-003   6.5422157204411302E-002
   4.4824562665186432E-003  -1.1853771810762248E-003   6.5518634665560044E-002
   3.7946793947497663E-003  -1.1926722282990451E-003   6.5854979445626308E-002
   3.1069025229809172E-003  -1.2826163271691948E-003   6.6431191544610246E-002
   3.8689768347760986E-003  -9.4582281461769169E-004   6.6904909002889007E-002
   3.4175311618650575E-003  -8.4048745157003224E-004   6.6725471984757173E-002
   2.9660854889540234E-003  -7.9025145366061478E-004   6.6778830045423856E-002
   2.5146398160429805E-003  -7.9511482089011584E-004   6.7064983184888516E-002
   2.0631941431319481E-003  -8.5507755325781032E-004   6.7583931403151443E-002
   1.9163068275853869E-003  -4.7291138766394902E-004   6.8177828407320368E-002
   1.6941201134128558E-003  -4.2024371763936530E-004   6.7989893915334276E-002
   1.4719333992403247E-003  -3.9512572624516434E-004   6.8027682262026934E-002
   1.2497466850677932E-003  -3.9755741348051869E-004   6.8291193447398452E-002
   1.0275599708952626E-003  -4.2753877934656459E-004   6.8780427471449079E-002
  -1.1515774445136628E-011   3.9290126707669515E-011   6.9384305275473790E-002
  -7.0691091869079514E-012   1.6290691018383541E-011   6.9215422996142029E-002
  -2.6224265814445147E-012   1.1706469127403807E-012   6.9265191315369512E-002
   1.8242560240189221E-012  -6.0719138050835397E-012   6.9533610233156656E-002
   6.2709212822475990E-012  -5.4350968170524538E-012   7.0020679749503212E-002
   4.1586851104422062E-003  -1.7101551010804128E-003   6.5322207895824880E-002
   3.6280268382842817E-003  -2.0016575315833784E-003   6.4403642678792949E-002
   3.0973685661263434E-003  -2.5261151541922100E-003   6.3605081005380815E-002
   2.5667102939684189E-003  -3.2835279689074626E-003   6.2926522875588420E-002
   2.0360520218104805E-003  -4.2738959757276929E-003   6.2367968289416376E-002
   3.1069025229809172E-003  -1.2826163271691948E-003   6.6431191544610246E-002
   2.6994130504290892E-003  -1.5012431491035483E-003   6.5320029997882334E-002
   2.2919235778772265E-003  -1.8945863655197015E-003   6.4335202506747097E-002
   1.8844341053253812E-003  -2.4626459764171410E-003   6.3476709071203966E-002
   1.4769446327735358E-003  -3.2054219817964080E-003   6.2744549691252982E-002
   2.0631941431319481E-003  -8.5507755325781032E-004   6.7583931403151443E-002
   1.7852039821583815E-003  -1.0008287666236904E-003   6.6338412324352641E-002
   1.5072138211848218E-003  -1.2630575768467489E-003   6.5225557813118562E-002
   1.2292236602112622E-003  -1.6417639839272635E-003   6.4245367869448733E-002
   9.5123349923769557E-004  -2.1369479878649567E-003   6.3397842493343265E-002
   1.0275599708952626E-003  -4.2753877934656459E-004   6.8780427471449079E-002
   8.8539963347220724E-004  -5.0041438414367978E-004   6.7458789658203788E-002
   7.4323929604912416E-004  -6.3152878817390734E-004   6.6276146924495100E-002
   6.0107895862604802E-004  -8.2088199143738605E-004   6.5232499270322708E-002
   4.5891862120297187E-004  -1.0684739939334775E-003   6.4327846695687363E-002
   6.2709212822475990E-012  -5.4350968170524538E-012   7.0020679749503212E-002
   4.3705386532089108E-012  -1.6638912470057221E-012   6.8681161999435636E-002
   2.4701352074885108E-012   4.9873993823723595E-013   6.7486969840876654E-002
   5.6974217010896666E-013   1.0527759219947086E-012   6.6438103273826404E-002
  -1.3306508672705775E-012  -1.9984014443252818E-015   6.5534562298285026E-002
   2.0360520218104805E-003  -4.2738959757276929E-003   6.2367968289416376E-002
   2.2860915389813080E-003  -5.5769852049121216E-003   5.8338514448601386E-002
   2.5361310561521216E-003  -7.2725616867157228E-003   5.4303333352928307E-002
   2.7861705733229561E-003  -9.3606254211405157E-003   5.0262425002397387E-002
   3.0362100904937628E-003  -1.1841176408184939E-002   4.6215789397008766E-002
   1.4769446327735358E-003  -3.2054219817964080E-003   6.2744549691252982E-002
   1.7070612390382711E-003  -4.1827389041060870E-003   5.8390870103891379E-002
   1.9371778453029856E-003  -5.4544212657946789E-003   5.4003071949575543E-002
   2.1672944515676931E-003  -7.0204690668624684E-003   4.9581155228305251E-002
   2.3974110578324492E-003  -8.8808823073094345E-003   4.5125119940080838E-002
   9.5123349923769557E-004  -2.1369479878649567E-003   6.3397842493343265E-002
   1.1330358825000636E-003  -2.7884926033002744E-003   5.8818058972676196E-002
   1.3148382657624143E-003  -3.6362808448735379E-003   5.4175765572958487E-002
   1.4966406490247598E-003  -4.6803127125846465E-003   4.9470962294190395E-002
   1.6784430322871330E-003  -5.9205882064337079E-003   4.4703649136371482E-002
   4.5891862120297187E-004  -1.0684739939334775E-003   6.4327846695687363E-002
   5.6401546936668198E-004  -1.3942463024947949E-003   5.9620081054955941E-002
   6.6911231753040510E-004  -1.8181404239525564E-003   5.4821414223077417E-002
   7.7420916569411998E-004  -2.3401563583066009E-003   4.9931846200052574E-002
   8.7930601385782445E-004  -2.9602941055582033E-003   4.4951376985880365E-002
  -1.3306508672705775E-012  -1.9984014443252818E-015   6.5534562298285026E-002
  -3.6185637819485805E-013  -1.6887602427573256E-012   6.0796936350730246E-002
   6.0694851922171722E-013  -3.0313529464365274E-012   5.5940017899932970E-002
   1.5757499471913405E-012  -4.0288883340622306E-012   5.0963806945891699E-002
   2.5445479057140119E-012  -4.6824766286590602E-012   4.5868303488608042E-002
  -2.4305904511301435E-012  -2.1192158028426888E-009   6.1853775378416409E-002
  -4.7623169296961976E-011  -1.1085490581042023E-009   6.1827723585571148E-002
  -9.2815741203899904E-011  -3.9948924723809398E-010   6.2109045234160498E-002
  -1.3800832004973174E-010   7.9639836392253471E-012   6.2697740324184459E-002
  -1.8320089195666966E-010   1.1381035003310558E-010   6.3593808855643252E-002
  -6.0854119116119862E-003   1.8411436646231238E-003   6.3056622658801936E-002
  -5.8028056057273826E-003   1.7927766802761369E-003   6.2870527180777902E-002
  -5.5201992998427651E-003   1.7421704457901699E-003   6.2942270963473698E-002
  -5.2375929939581650E-003   1.6893249611652644E-003   6.3271854006889117E-002
  -4.9549866880735510E-003   1.6342402264014066E-003   6.3859276311024227E-002
  -1.2304980639741741E-002   3.6822894484620783E-003   6.4212221418439741E-002
  -1.1789302163494867E-002   3.5855544691014568E-003   6.3863843306704859E-002
  -1.1273623687248033E-002   3.4843412910696009E-003   6.3723770274974792E-002
  -1.0757945211001180E-002   3.3786499143666042E-003   6.3792002323249442E-002
  -1.0242266734754339E-002   3.2684803389923245E-003   6.4068539451528850E-002
  -1.8658706186819755E-002   5.5234352323010050E-003   6.5320571657329934E-002
  -1.7959489720925648E-002   5.3783322579267420E-003   6.4807671963352131E-002
  -1.7260273255031496E-002   5.2265121363490527E-003   6.4453543168663932E-002
  -1.6561056789137378E-002   5.0679748675679422E-003   6.4258185273265558E-002
  -1.5861840323243243E-002   4.9027204515833395E-003   6.4221598277157108E-002
  -2.5146588552846127E-002   7.3645810161399594E-003   6.6381673375472849E-002
  -2.4313368278019651E-002   7.1711100467520272E-003   6.5702013150719552E-002
  -2.3480148003193181E-002   6.9686829816284490E-003   6.5131589644541077E-002
  -2.2646927728366736E-002   6.7572998207692386E-003   6.4670402856937453E-002
  -2.1813707453540263E-002   6.5369605641742434E-003   6.4318452787908709E-002
  -1.8320089195666966E-010   1.1381035003310558E-010   6.3593808855643252E-002
  -1.3089501010865590E-010   7.1264050216512942E-011   6.4076442649429910E-002
  -7.8589124791195175E-011   3.3538949395506279E-011   6.4606276484498071E-002
  -2.6283241208457930E-011   6.3510308123682080E-013   6.5183310360847624E-002
   2.6022642374279314E-011  -2.7447655259749126E-011   6.5807544278478791E-002
  -4.9549866880735510E-003   1.6342402264014066E-003   6.3859276311024227E-002
  -4.8738636297944223E-003   1.5763042616007833E-003   6.4041807925138014E-002
  -4.7927405715152954E-003   1.5149050868660807E-003   6.4339385509916885E-002
  -4.7116175132361684E-003   1.4500427021968548E-003   6.4752009065360758E-002
  -4.6304944549570397E-003   1.3817171075934387E-003   6.5279678591469603E-002
  -1.0242266734754339E-002   3.2684803389923245E-003   6.4068539451528850E-002
  -1.0012174741118405E-002   3.1526084519375719E-003   6.3947505671214294E-002
  -9.7820827474824693E-003   3.0298101401930455E-003   6.4009363790948265E-002
  -9.5519907538465371E-003   2.9000854037586621E-003   6.4254113810730804E-002
  -9.3218987602105997E-003   2.7634342426344494E-003   6.4681755730562049E-002
  -1.5861840323243243E-002   4.9027204515833395E-003   6.4221598277157108E-002
  -1.5414933464866942E-002   4.7289126422743882E-003   6.3793535887658473E-002
  -1.4968026606490653E-002   4.5447151935200103E-003   6.3616211327592154E-002
  -1.4521119748114359E-002   4.3501281053203583E-003   6.3689624596957969E-002
  -1.4074212889738077E-002   4.1451513776755017E-003   6.4013775695755920E-002
  -2.1813707453540263E-002   6.5369605641742434E-003   6.4318452787908709E-002
  -2.1082139801040047E-002   6.3052168326110936E-003   6.3579898574470772E-002
  -2.0350572148539841E-002   6.0596202468471277E-003   6.3159928119848580E-002
  -1.9619004496039628E-002   5.8001708068822454E-003   6.3058541424042006E-002
  -1.8887436843539419E-002   5.5268685127164985E-003   6.3275738487051147E-002
   2.6022642374279314E-011  -2.7447655259749126E-011   6.5807544278478791E-002
   1.7261084922504111E-011  -4.4816317323892463E-011   6.5547939808856814E-002
   8.4995205318350031E-012  -4.5578193996753669E-011   6.5514488435288898E-002
  -2.6204732828105648E-013  -2.9733628753580987E-011   6.5707190157775056E-002
  -9.0236013106093083E-012   2.7179369865848457E-012   6.6126044976315357E-002
  -4.6304944549570397E-003   1.3817171075934387E-003   6.5279678591469603E-002
  -4.4031287211279344E-003   1.3110388860456679E-003   6.4959755930436569E-002
  -4.1757629872988412E-003   1.2391186205438082E-003   6.4868411658530772E-002
  -3.9483972534697445E-003   1.1659563110876479E-003   6.5005645775752116E-002
  -3.7210315196406427E-003   1.0915519576772947E-003   6.5371458282100892E-002
  -9.3218987602105997E-003   2.7634342426344494E-003   6.4681755730562049E-002
  -8.8647419907177324E-003   2.6220778169077363E-003   6.4300272817556861E-002
  -8.4075852212248427E-003   2.4782372866658589E-003   6.4149793586752130E-002
  -7.9504284517319685E-003   2.3319126519087564E-003   6.4230318038147785E-002
  -7.4932716822390787E-003   2.1831039126365970E-003   6.4541846171743578E-002
  -1.4074212889738077E-002   4.1451513776755017E-003   6.4013775695755920E-002
  -1.3384839791508282E-002   3.9331167477697354E-003   6.3569490470217746E-002
  -1.2695466693278494E-002   3.7173559527879686E-003   6.3358634219953150E-002
  -1.2006093595048700E-002   3.4978689927298934E-003   6.3381206944962035E-002
  -1.1316720496818918E-002   3.2746558675959270E-003   6.3637208645244359E-002
  -1.8887436843539419E-002   5.5268685127164985E-003   6.3275738487051147E-002
  -1.7963422123499592E-002   5.2441556786317900E-003   6.2767408888419141E-002
  -1.7039407403459782E-002   4.9564746189099118E-003   6.2494933558133736E-002
  -1.6115392683419980E-002   4.6638253335510305E-003   6.2458312496194962E-002
  -1.5191377963380152E-002   4.3662078225553125E-003   6.2657545702602679E-002
  -9.0236013106093083E-012   2.7179369865848457E-012   6.6126044976315357E-002
  -2.1616649442668390E-011   3.8657965717447951E-011   6.6191004231167805E-002
  -3.4209694105280519E-011   6.4967503599078213E-011   6.6478518326934910E-002
  -4.6802737033169173E-011   8.1647279215335544E-011   6.6988587263616756E-002
  -5.9395786899951730E-011   8.8696938682630844E-011   6.7721211041213203E-002
  -3.7210315196406427E-003   1.0915519576772947E-003   6.5371458282100892E-002
  -3.5008580464117832E-003   1.0154139832427023E-003   6.5381714926016826E-002
  -3.2806845731829272E-003   9.3705081071393526E-004   6.5609763700661961E-002
  -3.0605110999540721E-003   8.5646244009068839E-004   6.6055604606036100E-002
  -2.8403376267252117E-003   7.7364887137354454E-004   6.6719237642139440E-002
  -7.4932716822390787E-003   2.1831039126365970E-003   6.4541846171743578E-002
  -7.0576874333739339E-003   2.0308279278276054E-003   6.4495175016259176E-002
  -6.6221031845087918E-003   1.8741015564602420E-003   6.4661533281318226E-002
  -6.1865189356436548E-003   1.7129247985343161E-003   6.5040920966920823E-002
  -5.7509346867785048E-003   1.5472976540502059E-003   6.5633338073066677E-002
  -1.1316720496818918E-002   3.2746558675959270E-003   6.3637208645244359E-002
  -1.0670488182503121E-002   3.0462418724125362E-003   6.3531384501895272E-002
  -1.0024255868187304E-002   2.8111523022065002E-003   6.3633827068903970E-002
  -9.3780235538714896E-003   2.5693871569780011E-003   6.3944536346270481E-002
  -8.7317912395556904E-003   2.3209464367269506E-003   6.4463512333994930E-002
  -1.5191377963380152E-002   4.3662078225553125E-003   6.2657545702602679E-002
  -1.4339260293799293E-002   4.0616558169974670E-003   6.2490343382924640E-002
  -1.3487142624218448E-002   3.7482030479530776E-003   6.2526645063418901E-002
  -1.2635024954637586E-002   3.4258495154213774E-003   6.2766450744085309E-002
  -1.1782907285056744E-002   3.0945952194034732E-003   6.3209760424924100E-002
  -5.9395786899951730E-011   8.8696938682630844E-011   6.7721211041213203E-002
  -4.7425785520971431E-011   8.7284957039912570E-011   6.7796828637561757E-002
  -3.5455780672544179E-011   7.8579809326129180E-011   6.8099216875388002E-002
  -2.3485786232457784E-011   6.2581828608188061E-011   6.8628375754691967E-002
  -1.1515774445136628E-011   3.9290126707669515E-011   6.9384305275473790E-002
  -2.8403376267252117E-003   7.7364887137354454E-004   6.6719237642139440E-002
  -2.6093299321185565E-003   6.9190815626396507E-004   6.6731018235931083E-002
  -2.3783222375119099E-003   6.1453834646341132E-004   6.6978043553517996E-002
  -2.1473145429052520E-003   5.4153944197232740E-004   6.7460313594900428E-002
  -1.9163068482985941E-003   4.7291144279015818E-004   6.8177828360078463E-002
  -5.7509346867785048E-003   1.5472976540502059E-003   6.5633338073066677E-002
  -5.2804452272174627E-003   1.3838162252425845E-003   6.5585652576903630E-002
  -4.8099557676564153E-003   1.2290766143467913E-003   6.5781685886853847E-002
  -4.3394663080953645E-003   1.0830788213626596E-003   6.6221438002917299E-002
  -3.8689768485343258E-003   9.4582284628996760E-004   6.6904908925093987E-002
  -8.7317912395556904E-003   2.3209464367269506E-003   6.4463512333994930E-002
  -8.0133459327224980E-003   2.0757242942215648E-003   6.4360731660479648E-002
  -7.2949006258893074E-003   1.8436148822302822E-003   6.4510143875395443E-002
  -6.5764553190561133E-003   1.6246182007530752E-003   6.4911748978742329E-002
  -5.8580100122229252E-003   1.4187342497901101E-003   6.5565546970520056E-002
  -1.1782907285056744E-002   3.0945952194034732E-003   6.3209760424924100E-002
  -1.0808032048633669E-002   2.7676323632001565E-003   6.3056255486659163E-002
  -9.8331568122105896E-003   2.4581531501135789E-003   6.3163417519143061E-002
  -8.8582815757875227E-003   2.1661575801436087E-003   6.3531246522375601E-002
  -7.8834063393644349E-003   1.8916456532899195E-003   6.4159742496357031E-002
  -1.1515774445136628E-011   3.9290126707669515E-011   6.9384305275473790E-002
  -7.0691091869079514E-012   1.6290691018383541E-011   6.9215422996142029E-002
  -2.6224265814445147E-012   1.1706469127403807E-012   6.9265191315369512E-002
   1.8242560240189221E-012  -6.0719138050835397E-012   6.9533610233156656E-002
   6.2709212822475990E-012  -5.4350968170524538E-012   7.0020679749503212E-002
  -1.9163068482985941E-003   4.7291144279015818E-004   6.8177828360078463E-002
  -1.6941201260524952E-003   4.2024374097515693E-004   6.7989893885185226E-002
  -1.4719334038064032E-003   3.9512572858516060E-004   6.8027682247331162E-002
  -1.2497466815603051E-003   3.9755740561962100E-004   6.8291193446516865E-002
  -1.0275599593141983E-003   4.2753877207968305E-004   6.8780427482741491E-002
  -3.8689768485343258E-003   9.4582284628996760E-004   6.6904908925093987E-002
  -3.4175311700090369E-003   8.4048746565898447E-004   6.6725471936185915E-002
  -2.9660854914837619E-003   7.9025145599943836E-004   6.6778830022796901E-002
  -2.5146398129584791E-003   7.9511481731115233E-004   6.7064983184926957E-002
  -2.0631941344331842E-003   8.5507754959451843E-004   6.7583931422575932E-002
  -5.8580100122229252E-003   1.4187342497901101E-003   6.5565546970520056E-002
  -5.1702331389387162E-003   1.2607311903430202E-003   6.5422157149143789E-002
  -4.4824562656544942E-003   1.1853771834136675E-003   6.5518634641766244E-002
  -3.7946793923702847E-003   1.1926722290024633E-003   6.5854979448387405E-002
  -3.1069025190860623E-003   1.2826163271093816E-003   6.6431191569007536E-002
  -7.8834063393644349E-003   1.8916456532899195E-003   6.4159742496357031E-002
  -6.9522260328415339E-003   1.6809749150267783E-003   6.4079949524058710E-002
  -6.0210457263186086E-003   1.5805029108282576E-003   6.4247096104239121E-002
  -5.0898654197956937E-003   1.5902296406936703E-003   6.4661182236898040E-002
  -4.1586851132727823E-003   1.7101551046241337E-003   6.5322207922035580E-002
   6.2709212822475990E-012  -5.4350968170524538E-012   7.0020679749503212E-002
   4.3705386532089108E-012  -1.6638912470057221E-012   6.8681161999435636E-002
   2.4701352074885108E-012   4.9873993823723595E-013   6.7486969840876654E-002
   5.6974217010896666E-013   1.0527759219947086E-012   6.6438103273826404E-002
  -1.3306508672705775E-012  -1.9984014443252818E-015   6.5534562298285026E-002
  -1.0275599593141983E-003   4.2753877207968305E-004   6.8780427482741491E-002
  -8.8539962535652550E-004   5.0041438176345876E-004   6.7458789665195973E-002
  -7.4323929139884053E-004   6.3152878846969851E-004   6.6276146927858104E-002
  -6.0107895744116076E-004   8.2088199219864516E-004   6.5232499270727579E-002
  -4.5891862348348272E-004   1.0684739929502918E-003   6.4327846693804314E-002
  -2.0631941344331842E-003   8.5507754959451843E-004   6.7583931422575932E-002
  -1.7852039759188518E-003   1.0008287651904202E-003   6.6338412336184455E-002
  -1.5072138174045081E-003   1.2630575764405322E-003   6.5225557818698862E-002
  -1.2292236588901636E-003   1.6417639833445109E-003   6.4245367870118947E-002
  -9.5123350037581815E-004   2.1369479859024709E-003   6.3397842490445389E-002
  -3.1069025190860623E-003   1.2826163271093816E-003   6.6431191569007536E-002
  -2.6994130473164644E-003   1.5012431486176869E-003   6.5320030012400859E-002
  -2.2919235755468606E-003   1.8945863644112618E-003   6.4335202513398901E-002
  -1.8844341037772630E-003   2.4626459744904895E-003   6.3476709072001369E-002
  -1.4769446320076584E-003   3.2054219788544835E-003   6.2744549688208626E-002
  -4.1586851132727823E-003   1.7101551046241337E-003   6.5322207922035580E-002
  -3.6280268395493323E-003   2.0016575320447316E-003   6.4403642693845353E-002
  -3.0973685658259066E-003   2.5261151523824354E-003   6.3605081011958386E-002
  -2.5667102921024670E-003   3.2835279656362737E-003   6.2926522876374513E-002
  -2.0360520183790309E-003   4.2738959718069403E-003   6.2367968287093900E-002
  -1.3306508672705775E-012  -1.9984014443252818E-015   6.5534562298285026E-002
  -3.6185637819485805E-013  -1.6887602427573256E-012   6.0796936350730246E-002
   6.0694851922171722E-013  -3.0313529464365274E-012   5.5940017899932970E-002
   1.5757499471913405E-012  -4.0288883340622306E-012   5.0963806945891699E-002
   2.5445479057140119E-012  -4.6824766286590602E-012   4.5868303488608042E-002
  -4.5891862348348272E-004   1.0684739929502918E-003   6.4327846693804314E-002
  -5.6401546987198958E-004   1.3942462988917326E-003   5.9620081054246321E-002
  -6.6911231626051379E-004   1.8181404181897287E-003   5.4821414223217013E-002
  -7.7420916264903366E-004   2.3401563508441969E-003   4.9931846200715779E-002
  -8.7930600903754486E-004   2.9602940968560532E-003   4.4951376986743341E-002
  -9.5123350037581815E-004   2.1369479859024709E-003   6.3397842490445389E-002
  -1.1330358823501870E-003   2.7884925994717258E-003   5.8818058971896597E-002
  -1.3148382643245688E-003   3.6362808394103663E-003   5.4175765573647644E-002
  -1.4966406462989463E-003   4.6803127057177263E-003   4.9470962295698681E-002
  -1.6784430282733055E-003   5.9205881983941389E-003   4.4703649138049473E-002
  -1.4769446320076584E-003   3.2054219788544835E-003   6.2744549688208626E-002
  -1.7070612377964268E-003   4.1827389000520798E-003   5.8390870103681103E-002
  -1.9371778435852088E-003   5.4544212606312259E-003   5.4003071951225001E-002
  -2.1672944493739453E-003   7.0204690605911446E-003   4.9581155230840487E-002
  -2.3974110551627454E-003   8.8808822999325576E-003   4.5125119942526798E-002
  -2.0360520183790309E-003   4.2738959718069403E-003   6.2367968287093900E-002
  -2.2860915362107256E-003   5.5769852006321008E-003   5.8338514449599921E-002
  -2.5361310540424134E-003   7.2725616818520855E-003   5.4303333355948835E-002
  -2.7861705718741376E-003   9.3606254154645629E-003   5.0262425006140810E-002
  -3.0362100897057959E-003   1.1841176401470754E-002   4.6215789400175122E-002
  -2.5146588552846127E-002   7.3645810161399594E-003   6.6381673375472849E-002
  -2.4313368278019651E-002   7.1711100467520272E-003   6.5702013150719552E-002
  -2.3480148003193181E-002   6.9686829816284490E-003   6.5131589644541077E-002
  -2.2646927728366736E-002   6.7572998207692386E-003   6.4670402856937453E-002
  -2.1813707453540263E-002   6.5369605641742434E-003   6.4318452787908709E-002
  -3.1648279607756361E-002   9.2450562882329668E-003   6.1336403293863528E-002
  -3.0677572607378665E-002   9.0078072486055594E-003   6.0779316008987394E-002
  -2.9706865607000983E-002   8.7550812881540679E-003   6.0387965456638742E-002
  -2.8736158606623308E-002   8.4868784068786694E-003   6.0162351636817685E-002
  -2.7765451606245606E-002   8.2031986047793048E-003   6.0102474549524276E-002
  -3.8043431221486068E-002   1.1125531560326002E-002   5.6250615554559041E-002
  -3.6878737481604418E-002   1.0844504450459008E-002   5.5809580384471605E-002
  -3.5714043741722760E-002   1.0541479594679715E-002   5.5590781960864463E-002
  -3.4549350001841103E-002   1.0216456992988128E-002   5.5594220283737658E-002
  -3.3384656261959481E-002   9.8694366453843385E-003   5.5819895353091245E-002
  -4.4332043394035237E-002   1.3006006832419009E-002   5.1124310157558903E-002
  -4.2916862900696878E-002   1.2681201652312499E-002   5.0792806277171976E-002
  -4.1501682407358569E-002   1.2327877901205264E-002   5.0740039157218191E-002
  -4.0086501914020217E-002   1.1946035579097684E-002   5.0966008797697387E-002
  -3.8671321420681880E-002   1.1535674685989331E-002   5.1470715198609560E-002
  -5.0514116125403824E-002   1.4886482104512044E-002   4.5957487102863570E-002
  -4.8791948864656043E-002   1.4517898854165934E-002   4.5728993687088826E-002
  -4.7069781603908289E-002   1.4114276207730939E-002   4.5835737045699848E-002
  -4.5347614343160564E-002   1.3675614165207090E-002   4.6277717178696678E-002
  -4.3625447082412797E-002   1.3201912726594378E-002   4.7054934086079303E-002
  -2.1813707453540263E-002   6.5369605641742434E-003   6.4318452787908709E-002
  -2.1082139801040047E-002   6.3052168326110936E-003   6.3579898574470772E-002
  -2.0350572148539841E-002   6.0596202468471277E-003   6.3159928119848580E-002
  -1.9619004496039628E-002   5.8001708068822454E-003   6.3058541424042006E-002
  -1.8887436843539419E-002   5.5268685127164985E-003   6.3275738487051147E-002
  -2.7765451606245606E-002   8.2031986047793048E-003   6.0102474549524276E-002
  -2.6750721018834724E-002   7.9054689327496264E-003   5.9647801172553971E-002
  -2.5735990431423862E-002   7.5951164416829947E-003   5.9440869906589228E-002
  -2.4721259844012994E-002   7.2721411315796076E-003   5.9481680751630142E-002
  -2.3706529256602122E-002   6.9365430024395658E-003   5.9770233707676701E-002
  -3.3384656261959481E-002   9.8694366453843385E-003   5.5819895353091245E-002
  -3.2157604387448011E-002   9.5057210328879926E-003   5.5650332847752587E-002
  -3.0930552512936547E-002   9.1306126365189241E-003   5.5657670805609481E-002
  -2.9703500638425102E-002   8.7441114562771382E-003   5.5841909226661907E-002
  -2.8476448763913614E-002   8.3462174921625498E-003   5.6203048110909926E-002
  -3.8671321420681880E-002   1.1535674685989331E-002   5.1470715198609560E-002
  -3.7302789906879887E-002   1.1105973133026414E-002   5.1587493600066620E-002
  -3.5934258393077893E-002   1.0666108831354850E-002   5.1810330816909236E-002
  -3.4565726879275900E-002   1.0216081780974474E-002   5.2139226849137216E-002
  -3.3197195365473942E-002   9.7558919818856865E-003   5.2574181696750794E-002
  -4.3625447082412797E-002   1.3201912726594378E-002   4.7054934086079303E-002
  -4.2186277577130338E-002   1.2706225233164947E-002   4.7459283429496152E-002
  -4.0747108071847928E-002   1.2201605026190679E-002   4.7898849940488430E-002
  -3.9307938566565503E-002   1.1688052105672048E-002   4.8373633619056153E-002
  -3.7868769061283059E-002   1.1165566471608657E-002   4.8883634465199222E-002
  -1.8887436843539419E-002   5.5268685127164985E-003   6.3275738487051147E-002
  -1.7963422123499592E-002   5.2441556786317900E-003   6.2767408888419141E-002
  -1.7039407403459782E-002   4.9564746189099118E-003   6.2494933558133736E-002
  -1.6115392683419980E-002   4.6638253335510305E-003   6.2458312496194962E-002
  -1.5191377963380152E-002   4.3662078225553125E-003   6.2657545702602679E-002
  -2.3706529256602122E-002   6.9365430024395658E-003   5.9770233707676701E-002
  -2.2552008450523367E-002   6.5918909430028316E-003   5.9300502198891547E-002
  -2.1397487644444622E-002   6.2417538420098673E-003   5.9055928593837709E-002
  -2.0242966838365871E-002   5.8861316994607282E-003   5.9036512892515089E-002
  -1.9088446032287126E-002   5.5250245153550259E-003   5.9242255094923701E-002
  -2.8476448763913614E-002   8.3462174921625498E-003   5.6203048110909926E-002
  -2.7102118236411246E-002   7.9396262073739288E-003   5.5771397876052481E-002
  -2.5727787708908899E-002   7.5270330651096562E-003   5.5554209180310843E-002
  -2.4353457181406531E-002   7.1084380653700374E-003   5.5551482023685289E-002
  -2.2979126653904159E-002   6.6838412081548226E-003   5.5763216406175750E-002
  -3.3197195365473942E-002   9.7558919818856865E-003   5.2574181696750794E-002
  -3.1613751481163258E-002   9.2873614717449426E-003   5.2180095919901665E-002
  -3.0030307596852598E-002   8.8123122882096394E-003   5.1989775317553236E-002
  -2.8446863712541928E-002   8.3307444312794854E-003   5.2003219889705438E-002
  -2.6863419828231278E-002   7.8426579009547442E-003   5.2220429636358118E-002
  -3.7868769061283059E-002   1.1165566471608657E-002   4.8883634465199222E-002
  -3.6086908184779401E-002   1.0635096736116040E-002   4.8526596330439320E-002
  -3.4305047308275743E-002   1.0097591511309373E-002   4.8362627005564707E-002
  -3.2523186431772086E-002   9.5530507971889542E-003   4.8391726490575493E-002
  -3.0741325555268428E-002   9.0014745937543883E-003   4.8613894785471456E-002
  -1.5191377963380152E-002   4.3662078225553125E-003   6.2657545702602679E-002
  -1.4339260293799293E-002   4.0616558169974670E-003   6.2490343382924640E-002
  -1.3487142624218448E-002   3.7482030479530776E-003   6.2526645063418901E-002
  -1.2635024954637586E-002   3.4258495154213774E-003   6.2766450744085309E-002
  -1.1782907285056744E-002   3.0945952194034732E-003   6.3209760424924100E-002
  -1.9088446032287126E-002   5.5250245153550259E-003   5.9242255094923701E-002
  -1.8035581619378242E-002   5.1566377707159827E-003   5.9069695544192752E-002
  -1.6982717206469385E-002   4.7791769465660022E-003   5.9095125479945498E-002
  -1.5929852793560514E-002   4.3926420429052267E-003   5.9318544902182052E-002
  -1.4876988380651643E-002   3.9970330597338677E-003   5.9739953810902302E-002
  -2.2979126653904159E-002   6.6838412081548226E-003   5.5763216406175750E-002
  -2.1731030011355700E-002   6.2516197244344429E-003   5.5585126308367580E-002
  -2.0482933368807250E-002   5.8101508451791559E-003   5.5599511183354690E-002
  -1.9234836726258794E-002   5.3594345703890222E-003   5.5806371031137267E-002
  -1.7986740083710311E-002   4.8994709000641512E-003   5.6205705851715138E-002
  -2.6863419828231278E-002   7.8426579009547442E-003   5.2220429636358118E-002
  -2.5425605469731681E-002   7.3466016781529864E-003   5.2036635675448875E-002
  -2.3987791111232077E-002   6.8411247437922505E-003   5.2039802173646441E-002
  -2.2549976752732463E-002   6.3262270978730112E-003   5.2229929130951029E-002
  -2.1112162394232879E-002   5.8019087403944347E-003   5.2607016547362599E-002
  -3.0741325555268428E-002   9.0014745937543883E-003   4.8613894785471456E-002
  -2.9119307994506113E-002   8.4415836318714743E-003   4.8424223645436970E-002
  -2.7497290433743812E-002   7.8720986424052758E-003   4.8415998450820980E-002
  -2.5875272872981497E-002   7.2930196253565109E-003   4.8589219201623388E-002
  -2.4253255312219196E-002   6.7043465807248293E-003   4.8943885897844264E-002
  -1.1782907285056744E-002   3.0945952194034732E-003   6.3209760424924100E-002
  -1.0808032048633669E-002   2.7676323632001565E-003   6.3056255486659163E-002
  -9.8331568122105896E-003   2.4581531501135789E-003   6.3163417519143061E-002
  -8.8582815757875227E-003   2.1661575801436087E-003   6.3531246522375601E-002
  -7.8834063393644349E-003   1.8916456532899195E-003   6.4159742496357031E-002
  -1.4876988380651643E-002   3.9970330597338677E-003   5.9739953810902302E-002
  -1.3654931049430375E-002   3.6024328246511694E-003   5.9571580998625473E-002
  -1.2432873718209121E-002   3.2189241652569589E-003   5.9636905405196339E-002
  -1.1210816386987881E-002   2.8465070815509932E-003   5.9935927030614719E-002
  -9.9887590557666030E-003   2.4851815735333904E-003   6.0468645874880600E-002
  -1.7986740083710311E-002   4.8994709000641512E-003   5.6205705851715138E-002
  -1.6544470409592053E-002   4.4372332861018771E-003   5.6016073097998359E-002
  -1.5102200735473803E-002   3.9796951803999919E-003   5.6033167811227871E-002
  -1.3659931061355549E-002   3.5268565829583189E-003   5.6256989991403848E-002
  -1.2217661387237296E-002   3.0787174937770279E-003   5.6687539638526380E-002
  -2.1112162394232879E-002   5.8019087403944347E-003   5.2607016547362599E-002
  -1.9476650129118749E-002   5.2720337475524598E-003   5.2389731784777439E-002
  -1.7841137864004618E-002   4.7404661955430874E-003   5.2352204737237742E-002
  -1.6205625598890498E-002   4.2072060843657295E-003   5.2494435404743370E-002
  -1.4570113333776356E-002   3.6722534140206375E-003   5.2816423787293988E-002
  -2.4253255312219196E-002   6.7043465807248293E-003   4.8943885897844264E-002
  -2.2451470208010388E-002   6.1068342090034866E-003   4.8692557058963026E-002
  -2.0649685103801566E-002   5.5012372106863772E-003   4.8594016183225897E-002
  -1.8847899999592750E-002   4.8875555857731887E-003   4.8648263270632819E-002
  -1.7046114895383935E-002   4.2657893342641362E-003   4.8855298321183960E-002
  -7.8834063393644349E-003   1.8916456532899195E-003   6.4159742496357031E-002
  -6.9522260328415339E-003   1.6809749150267783E-003   6.4079949524058710E-002
  -6.0210457263186086E-003   1.5805029108282576E-003   6.4247096104239121E-002
  -5.0898654197956937E-003   1.5902296406936703E-003   6.4661182236898040E-002
  -4.1586851132727823E-003   1.7101551046241337E-003   6.5322207922035580E-002
  -9.9887590557666030E-003   2.4851815735333904E-003   6.0468645874880600E-002
  -8.8094029664765559E-003   2.1854862605280578E-003   6.0377723292002639E-002
  -7.6300468771864863E-003   1.9979597618590417E-003   6.0536212722180599E-002
  -6.4506907878964367E-003   1.9226020775257938E-003   6.0944114165414107E-002
  -5.2713346986063662E-003   1.9594132075285708E-003   6.1601427621703175E-002
  -1.2217661387237296E-002   3.0787174937770279E-003   5.6687539638526380E-002
  -1.0787657054602912E-002   2.6899976060296982E-003   5.6587457525340334E-002
  -9.3576527219685710E-003   2.4154166128898119E-003   5.6739259885787166E-002
  -7.9276483893342166E-003   2.2549745143578027E-003   5.7142946719866881E-002
  -6.4976440566998465E-003   2.2086713104331190E-003   5.7798518027579515E-002
  -1.4570113333776356E-002   3.6722534140206375E-003   5.2816423787293988E-002
  -1.2886988297220563E-002   3.1945089515310471E-003   5.2709152224071638E-002
  -1.1203863260664781E-002   2.8328734639207001E-003   5.2856237595059113E-002
  -9.5207382241090221E-003   2.5873469511895359E-003   5.3257679900256566E-002
  -7.8376131875532058E-003   2.4579294133376117E-003   5.3913479139664003E-002
  -1.7046114895383935E-002   4.2657893342641362E-003   4.8855298321183960E-002
  -1.5107396694329575E-002   3.6990202970325070E-003   4.8742807388196474E-002
  -1.3168678493275202E-002   3.2503303149514495E-003   4.8887145849996261E-002
  -1.1229960292220835E-002   2.9197193880216785E-003   4.9288313706583126E-002
  -9.2912420911664684E-003   2.7071875162421044E-003   4.9946310957957096E-002
  -4.1586851132727823E-003   1.7101551046241337E-003   6.5322207922035580E-002
  -3.6280268395493323E-003   2.0016575320447316E-003   6.4403642693845353E-002
  -3.0973685658259066E-003   2.5261151523824354E-003   6.3605081011958386E-002
  -2.5667102921024670E-003   3.2835279656362737E-003   6.2926522876374513E-002
  -2.0360520183790309E-003   4.2738959718069403E-003   6.2367968287093900E-002
  -5.2713346986063662E-003   1.9594132075285708E-003   6.1601427621703175E-002
  -4.5949615598841094E-003   2.2154645001888906E-003   6.0874547291396797E-002
  -3.9185884211618959E-003   2.7978273038287982E-003   6.0319093144785008E-002
  -3.2422152824396313E-003   3.7065016184471208E-003   5.9935065181867392E-002
  -2.5658421437173978E-003   4.9414874440448786E-003   5.9722463402644421E-002
  -6.4976440566998465E-003   2.2086713104331190E-003   5.7798518027579515E-002
  -5.6241334155874637E-003   2.4292714683331607E-003   5.7356678913219356E-002
  -4.7506227744750270E-003   3.0695394552749389E-003   5.7137688619944726E-002
  -3.8771121333626025E-003   4.1294752712581900E-003   5.7141547147756211E-002
  -3.0036014922502092E-003   5.6090789162832611E-003   5.7368254496653392E-002
  -7.8376131875532058E-003   2.4579294133376117E-003   5.3913479139664003E-002
  -6.7155424066592823E-003   2.6430784364773752E-003   5.3850037559312454E-002
  -5.5934716257653744E-003   3.3412516067210796E-003   5.4060867437438404E-002
  -4.4714008448714171E-003   4.5524489240691482E-003   5.4545968774041172E-002
  -3.3493300639775435E-003   6.2766703885211994E-003   5.5305341569121230E-002
  -9.2912420911664684E-003   2.7071875162421044E-003   4.9946310957957096E-002
  -7.8691885330996608E-003   2.8568854046215897E-003   5.0354623229676765E-002
  -6.4471349750328671E-003   3.6129637581674146E-003   5.1088629597264956E-002
  -5.0250814169660665E-003   4.9754225768801549E-003   5.2148330060721754E-002
  -3.6030278588992659E-003   6.9442618607596929E-003   5.3533724620047241E-002
  -2.0360520183790309E-003   4.2738959718069403E-003   6.2367968287093900E-002
  -2.2860915362107256E-003   5.5769852006321008E-003   5.8338514449599921E-002
  -2.5361310540424134E-003   7.2725616818520855E-003   5.4303333355948835E-002
  -2.7861705718741376E-003   9.3606254154645629E-003   5.0262425006140810E-002
  -3.0362100897057959E-003   1.1841176401470754E-002   4.6215789400175122E-002
  -2.5658421437173978E-003   4.9414874440448786E-003   5.9722463402644421E-002
  -2.8390209432646966E-003   6.5663519291371264E-003   5.6190594846599273E-002
  -3.1121997428119903E-003   8.6446622222383640E-003   5.2618174983279975E-002
  -3.3853785423592743E-003   1.1176418323349341E-002   4.9005203812686665E-002
  -3.6585573419065584E-003   1.4161620232469474E-002   4.5351681334819149E-002
  -3.0036014922502092E-003   5.6090789162832611E-003   5.7368254496653392E-002
  -3.3347436246299305E-003   7.5557186576413193E-003   5.4394929777672713E-002
  -3.6658857570096926E-003   1.0016762762625087E-002   5.1346229700301088E-002
  -3.9970278893894165E-003   1.2992211231234063E-002   4.8222154264538214E-002
  -4.3281700217691517E-003   1.6482064063467750E-002   4.5022703470385617E-002
  -3.3493300639775435E-003   6.2766703885211994E-003   5.5305341569121230E-002
  -3.7732595803064840E-003   8.5450853861459286E-003   5.2951519242820447E-002
  -4.1971890966354796E-003   1.1388863303011809E-002   5.0487497507012064E-002
  -4.6211186129644618E-003   1.4808004139118591E-002   4.7913276361696192E-002
  -5.0450481292934170E-003   1.8802507894466358E-002   4.5228855806872137E-002
  -3.6030278588992659E-003   6.9442618607596929E-003   5.3533724620047241E-002
  -4.1545688102943290E-003   9.5344521146504269E-003   5.1860363242042462E-002
  -4.7061097616893921E-003   1.2760963843398504E-002   5.0041978403413012E-002
  -5.2576507130844830E-003   1.6623797047003612E-002   4.8078570104159640E-002
  -5.8091916644795183E-003   2.1122951725464745E-002   4.5970138344281430E-002
  -5.0514116125403824E-002   1.4886482104512044E-002   4.5957487102863570E-002
  -4.8791948864656043E-002   1.4517898854165934E-002   4.5728993687088826E-002
  -4.7069781603908289E-002   1.4114276207730939E-002   4.5835737045699848E-002
  -4.5347614343160564E-002   1.3675614165207090E-002   4.6277717178696678E-002
  -4.3625447082412797E-002   1.3201912726594378E-002   4.7054934086079303E-002
  -5.6639948042227856E-002   1.6817167641499098E-002   4.2689376679377444E-002
  -5.4622073964602863E-002   1.6349231542606923E-002   4.2399412444934004E-002
  -5.2604199886977787E-002   1.5860568741666470E-002   4.2365625069859497E-002
  -5.0586325809352704E-002   1.5351179238677723E-002   4.2588014554153758E-002
  -4.8568451731727649E-002   1.4821063033640558E-002   4.3066580897816925E-002
  -6.2759837771143565E-002   1.8747853178486068E-002   3.9314757060324904E-002
  -6.0525316791658068E-002   1.8180564231047941E-002   3.8977634701253441E-002
  -5.8290795812172704E-002   1.7606861275602050E-002   3.8817629286533963E-002
  -5.6056274832687283E-002   1.7026744312148324E-002   3.8834740816166294E-002
  -5.3821753853201829E-002   1.6440213340686766E-002   3.9028969290150498E-002
  -6.8873785312150701E-002   2.0678538715473080E-002   3.5833628245706226E-002
  -6.6501677345821866E-002   2.0011896919489000E-002   3.5463660456047152E-002
  -6.4129569379493032E-002   1.9353153809537605E-002   3.5191749695723189E-002
  -6.1757461413164211E-002   1.8702309385618999E-002   3.5017895964734022E-002
  -5.9385353446835369E-002   1.8059363647733070E-002   3.4942099263079798E-002
  -7.4981790665249404E-002   2.2609224252460092E-002   3.2245990235521160E-002
  -7.2551155627094049E-002   2.1843229607930004E-002   3.1857489709315179E-002
  -7.0120520588938806E-002   2.1099446343473174E-002   3.1487986297427190E-002
  -6.7689885550783563E-002   2.0377874459089496E-002   3.1137479999857179E-002
  -6.5259250512628236E-002   1.9678513954779153E-002   3.0805970816605188E-002
  -4.3625447082412797E-002   1.3201912726594378E-002   4.7054934086079303E-002
  -4.2186277577130338E-002   1.2706225233164947E-002   4.7459283429496152E-002
  -4.0747108071847928E-002   1.2201605026190679E-002   4.7898849940488430E-002
  -3.9307938566565503E-002   1.1688052105672048E-002   4.8373633619056153E-002
  -3.7868769061283059E-002   1.1165566471608657E-002   4.8883634465199222E-002
  -4.8568451731727649E-002   1.4821063033640558E-002   4.3066580897816925E-002
  -4.7059598276915478E-002   1.4275928743453153E-002   4.3185978460130336E-002
  -4.5550744822103320E-002   1.3721484985013577E-002   4.3409526753927855E-002
  -4.4041891367291128E-002   1.3157731758321675E-002   4.3737225779209410E-002
  -4.2533037912478977E-002   1.2584669063377518E-002   4.4169075535974961E-002
  -5.3821753853201829E-002   1.6440213340686766E-002   3.9028969290150498E-002
  -5.2174282884951281E-002   1.5845632253741498E-002   3.8863038316652818E-002
  -5.0526811916700727E-002   1.5241364943836246E-002   3.8870191638547900E-002
  -4.8879340948450145E-002   1.4627411410971300E-002   3.9050429255835697E-002
  -4.7231869980199626E-002   1.4003771655146352E-002   3.9403751168516105E-002
  -5.9385353446835369E-002   1.8059363647733070E-002   3.4942099263079798E-002
  -5.7530331401237790E-002   1.7415335764029774E-002   3.4490462999063491E-002
  -5.5675309355640211E-002   1.6761244902659029E-002   3.4280844594348617E-002
  -5.3820287310042604E-002   1.6097091063620759E-002   3.4313244048934988E-002
  -5.1965265264445060E-002   1.5422874246915144E-002   3.4587661362822743E-002
  -6.5259250512628236E-002   1.9678513954779153E-002   3.0805970816605188E-002
  -6.3127743825774935E-002   1.8985039274318022E-002   3.0068252507362503E-002
  -6.0996237138921702E-002   1.8281124861481785E-002   2.9641485621329872E-002
  -5.8864730452068463E-002   1.7566770716270462E-002   2.9525670158507308E-002
  -5.6733223765215168E-002   1.6841976838683992E-002   2.9720806118894716E-002
  -3.7868769061283059E-002   1.1165566471608657E-002   4.8883634465199222E-002
  -3.6086908184779401E-002   1.0635096736116040E-002   4.8526596330439320E-002
  -3.4305047308275743E-002   1.0097591511309373E-002   4.8362627005564707E-002
  -3.2523186431772086E-002   9.5530507971889542E-003   4.8391726490575493E-002
  -3.0741325555268428E-002   9.0014745937543883E-003   4.8613894785471456E-002
  -4.2533037912478977E-002   1.2584669063377518E-002   4.4169075535974961E-002
  -4.0558852305281265E-002   1.2004996977384857E-002   4.3771257703919680E-002
  -3.8584666698083560E-002   1.1421415577547556E-002   4.3565020523367179E-002
  -3.6610481090885813E-002   1.0833924863865543E-002   4.3550363994317422E-002
  -3.4636295483688143E-002   1.0242524836338696E-002   4.3727288116770568E-002
  -4.7231869980199626E-002   1.4003771655146352E-002   3.9403751168516105E-002
  -4.5066847800690396E-002   1.3374897218653745E-002   3.8968279814634688E-002
  -4.2901825621181160E-002   1.2745239643785697E-002   3.8722900953873526E-002
  -4.0736803441671923E-002   1.2114798930542191E-002   3.8667614586232517E-002
  -3.8571781262162694E-002   1.1483575078923086E-002   3.8802420711711902E-002
  -5.1965265264445060E-002   1.5422874246915144E-002   3.4587661362822743E-002
  -4.9610894671006857E-002   1.4744797459922514E-002   3.4117662662584480E-002
  -4.7256524077568682E-002   1.4069063710023831E-002   3.3836268297083791E-002
  -4.4902153484130465E-002   1.3395672997218810E-002   3.3743478266320799E-002
  -4.2547782890692359E-002   1.2724625321507657E-002   3.3839292570295484E-002
  -5.6733223765215168E-002   1.6841976838683992E-002   2.9720806118894716E-002
  -5.4190992916230585E-002   1.6114697701191394E-002   2.9219406247768809E-002
  -5.1648762067246001E-002   1.5392887776261965E-002   2.8905122552997903E-002
  -4.9106531218261473E-002   1.4676547063895498E-002   2.8777955034582275E-002
  -4.6564300369276890E-002   1.3965675564091840E-002   2.8837903692521649E-002
  -3.0741325555268428E-002   9.0014745937543883E-003   4.8613894785471456E-002
  -2.9119307994506113E-002   8.4415836318714743E-003   4.8424223645436970E-002
  -2.7497290433743812E-002   7.8720986424052758E-003   4.8415998450820980E-002
  -2.5875272872981497E-002   7.2930196253565109E-003   4.8589219201623388E-002
  -2.4253255312219196E-002   6.7043465807248293E-003   4.8943885897844264E-002
  -3.4636295483688143E-002   1.0242524836338696E-002   4.3727288116770568E-002
  -3.2840119012056274E-002   9.6429652999513171E-003   4.3478812226402291E-002
  -3.1043942540424370E-002   9.0309960596873518E-003   4.3397208212354738E-002
  -2.9247766068792442E-002   8.4066171155467093E-003   4.3482476074627796E-002
  -2.7451589597160639E-002   7.7698284675294937E-003   4.3734615813221578E-002
  -3.8571781262162694E-002   1.1483575078923086E-002   3.8802420711711902E-002
  -3.6616019948759196E-002   1.0844346968031299E-002   3.8492324394716393E-002
  -3.4660258635355636E-002   1.0189893476969102E-002   3.8334525884943675E-002
  -3.2704497321952089E-002   9.5202146057369649E-003   3.8329025182393561E-002
  -3.0748736008548570E-002   8.8353103543344913E-003   3.8475822287066530E-002
  -4.2547782890692359E-002   1.2724625321507657E-002   3.3839292570295484E-002
  -4.0447010804614963E-002   1.2045728636111211E-002   3.3464760150379101E-002
  -3.8346238718537588E-002   1.1348790894251070E-002   3.3227951468587709E-002
  -3.6245466632460178E-002   1.0633812095926971E-002   3.3128866524921127E-002
  -3.4144694546382880E-002   9.9007922411392668E-003   3.3167505319379280E-002
  -4.6564300369276890E-002   1.3965675564091840E-002   2.8837903692521649E-002
  -4.4333091579623507E-002   1.3247110304191123E-002   2.8396119493390715E-002
  -4.2101882789970263E-002   1.2507688311532913E-002   2.8077484963286797E-002
  -3.9870674000316936E-002   1.1747409586117471E-002   2.7882000102209994E-002
  -3.7639465210663664E-002   1.0966274127944264E-002   2.7809664910160126E-002
  -2.4253255312219196E-002   6.7043465807248293E-003   4.8943885897844264E-002
  -2.2451470208010388E-002   6.1068342090034866E-003   4.8692557058963026E-002
  -2.0649685103801566E-002   5.5012372106863772E-003   4.8594016183225897E-002
  -1.8847899999592750E-002   4.8875555857731887E-003   4.8648263270632819E-002
  -1.7046114895383935E-002   4.2657893342641362E-003   4.8855298321183960E-002
  -2.7451589597160639E-002   7.7698284675294937E-003   4.3734615813221578E-002
  -2.5497781888126216E-002   7.1272200555876353E-003   4.3380052264290814E-002
  -2.3543974179091674E-002   6.4853818196728696E-003   4.3176745961867408E-002
  -2.1590166470057230E-002   5.8443137597847042E-003   4.3124696905951138E-002
  -1.9636358761022765E-002   5.2040158759233401E-003   4.3223905096542059E-002
  -3.0748736008548570E-002   8.8353103543344913E-003   3.8475822287066530E-002
  -2.8644436411325330E-002   8.1476059021717284E-003   3.8026878830709404E-002
  -2.6540136814102094E-002   7.4695264286590429E-003   3.7727661904222429E-002
  -2.4435837216878871E-002   6.8010719337959456E-003   3.7578171507605888E-002
  -2.2331537619655631E-002   6.1422424175828771E-003   3.7578407640859540E-002
  -3.4144694546382880E-002   9.9007922411392668E-003   3.3167505319379280E-002
  -3.1891433777607801E-002   9.1679917487559603E-003   3.2633036758218652E-002
  -2.9638173008832727E-002   8.4536710376453758E-003   3.2246764010291237E-002
  -2.7384912240057620E-002   7.7578301078076572E-003   3.2008687075597501E-002
  -2.5131651471282573E-002   7.0804689592423586E-003   3.1918805954136785E-002
  -3.7639465210663664E-002   1.0966274127944264E-002   2.7809664910160126E-002
  -3.5238773986973643E-002   1.0188377595339970E-002   2.7198526046818661E-002
  -3.2838082763283635E-002   9.4378156466316809E-003   2.6734052280073750E-002
  -3.0437391539593607E-002   8.7145882818187512E-003   2.6416243609925061E-002
  -2.8036700315903607E-002   8.0186955009016181E-003   2.6245100036373148E-002
  -1.7046114895383935E-002   4.2657893342641362E-003   4.8855298321183960E-002
  -1.5107396694329575E-002   3.6990202970325070E-003   4.8742807388196474E-002
  -1.3168678493275202E-002   3.2503303149514495E-003   4.8887145849996261E-002
  -1.1229960292220835E-002   2.9197193880216785E-003   4.9288313706583126E-002
  -9.2912420911664684E-003   2.7071875162421044E-003   4.9946310957957096E-002
  -1.9636358761022765E-002   5.2040158759233401E-003   4.3223905096542059E-002
  -1.7479962628177109E-002   4.6008868409058712E-003   4.3063150995970301E-002
  -1.5323566495331405E-002   4.0713253275485028E-003   4.3080923364193724E-002
  -1.3167170362485766E-002   3.6153313358509853E-003   4.3277222201212912E-002
  -1.1010774229640044E-002   3.2329048658137349E-003   4.3652047507027336E-002
  -2.2331537619655631E-002   6.1422424175828771E-003   3.7578407640859540E-002
  -2.0035766481010304E-002   5.5027533847795129E-003   3.7324878839212594E-002
  -1.7739995342364968E-002   4.8923203401452370E-003   3.7171573580369391E-002
  -1.5444224203719608E-002   4.3109432836806287E-003   3.7118491864330007E-002
  -1.3148453065074305E-002   3.7586222153852544E-003   3.7165633691094352E-002
  -2.5131651471282573E-002   7.0804689592423586E-003   3.1918805954136785E-002
  -2.2774808252829307E-002   6.4046199286529604E-003   3.1527990917923812E-002
  -2.0417965034375925E-002   5.7133153527422972E-003   3.1159096498522967E-002
  -1.8061121815922655E-002   5.0065552315101038E-003   3.0812122695934384E-002
  -1.5704278597469278E-002   4.2843395649568294E-003   3.0487069510157984E-002
  -2.8036700315903607E-002   8.0186955009016181E-003   2.6245100036373148E-002
  -2.5697087943633984E-002   7.3064864725264633E-003   2.5672487232103691E-002
  -2.3357475571364306E-002   6.5343103653389689E-003   2.5043492118654809E-002
  -2.1017863199094683E-002   5.7021671793398426E-003   2.4358114696026223E-002
  -1.8678250826825005E-002   4.8100569145284044E-003   2.3616354964218322E-002
  -9.2912420911664684E-003   2.7071875162421044E-003   4.9946310957957096E-002
  -7.8691885330996608E-003   2.8568854046215897E-003   5.0354623229676765E-002
  -6.4471349750328671E-003   3.6129637581674146E-003   5.1088629597264956E-002
  -5.0250814169660665E-003   4.9754225768801549E-003   5.2148330060721754E-002
  -3.6030278588992659E-003   6.9442618607596929E-003   5.3533724620047241E-002
  -1.1010774229640044E-002   3.2329048658137349E-003   4.3652047507027336E-002
  -9.2443571808704522E-003   3.1621370841148355E-003   4.4238947636712100E-002
  -7.4779401321009020E-003   3.6411191574322876E-003   4.5188880651933994E-002
  -5.7115230833313137E-003   4.6698510857667089E-003   4.6501846552692849E-002
  -3.9451060345617600E-003   6.2483328691177453E-003   4.8177845338988279E-002
  -1.3148453065074305E-002   3.7586222153852544E-003   3.7165633691094352E-002
  -1.1000333735933586E-002   3.4673887636080813E-003   3.7874491068594168E-002
  -8.8522144067928778E-003   3.6692745566972856E-003   3.8983720121299539E-002
  -6.7040950776521818E-003   4.3642795946532663E-003   4.0493320849210084E-002
  -4.5559757485114510E-003   5.5524038774759643E-003   4.2403293252326141E-002
  -1.5704278597469278E-002   4.2843395649568294E-003   3.0487069510157984E-002
  -1.3137118198289032E-002   3.7726404431012162E-003   3.1261253525323003E-002
  -1.0569957799108708E-002   3.6974299559623322E-003   3.2473148005361899E-002
  -8.0027973999284539E-003   4.0587081035395999E-003   3.4122752950274400E-002
  -5.4356370007481412E-003   4.8564748858342111E-003   3.6210068360060653E-002
  -1.8678250826825005E-002   4.8100569145284044E-003   2.3616354964218322E-002
  -1.5654710567936797E-002   4.0778921225945175E-003   2.4399235006898445E-002
  -1.2631170309048506E-002   3.7255853552272122E-003   2.5657164304120683E-002
  -9.6076300501602707E-003   3.7531366124264470E-003   2.7390142855885313E-002
  -6.5840897912720076E-003   4.1605458941924578E-003   2.9598170662191947E-002
  -3.6030278588992659E-003   6.9442618607596929E-003   5.3533724620047241E-002
  -4.1545688102943290E-003   9.5344521146504269E-003   5.1860363242042462E-002
  -4.7061097616893921E-003   1.2760963843398504E-002   5.0041978403413012E-002
  -5.2576507130844830E-003   1.6623797047003612E-002   4.8078570104159640E-002
  -5.8091916644795183E-003   2.1122951725464745E-002   4.5970138344281430E-002
  -3.9451060345617600E-003   6.2483328691177453E-003   4.8177845338988279E-002
  -4.5379408881246475E-003   8.6865035991814943E-003   4.7242396737785908E-002
  -5.1307757416876251E-003   1.2294302367653193E-002   4.6369383792872476E-002
  -5.7236105952504363E-003   1.7071729174534374E-002   4.5558806504247734E-002
  -6.3164454488134347E-003   2.3018784019823491E-002   4.4810664871911765E-002
  -4.5559757485114510E-003   5.5524038774759643E-003   4.2403293252326141E-002
  -4.9826453873288712E-003   7.8385550837120621E-003   4.2739063991477949E-002
  -5.4093150261462636E-003   1.1827640891908450E-002   4.3344729503831933E-002
  -5.8359846649637878E-003   1.7519661302065417E-002   4.4220289789387933E-002
  -6.2626543037810761E-003   2.4914616314182458E-002   4.5365744848146261E-002
  -5.4356370007481412E-003   4.8564748858342111E-003   3.6210068360060653E-002
  -5.4886823079067278E-003   6.9906065682427687E-003   3.8350365003118121E-002
  -5.5417276150654012E-003   1.1360979416163645E-002   4.0968015536291147E-002
  -5.5947729222239496E-003   1.7967593429596321E-002   4.4063019959579300E-002
  -5.6478182293827166E-003   2.6810448608541315E-002   4.7635378272983503E-002
  -6.5840897912720076E-003   4.1605458941924578E-003   2.9598170662191947E-002
  -6.0560516498584793E-003   6.1426580527734753E-003   3.4076299772706875E-002
  -5.5280135084450066E-003   1.0894317940418397E-002   3.9239241890250853E-002
  -4.9999753670314784E-003   1.8415525557127443E-002   4.5086997014823493E-002
  -4.4719372256180057E-003   2.8706280902900172E-002   5.1619565146424851E-002
  -7.4981790665249404E-002   2.2609224252460092E-002   3.2245990235521160E-002
  -7.2551155627094049E-002   2.1843229607930004E-002   3.1857489709315179E-002
  -7.0120520588938806E-002   2.1099446343473174E-002   3.1487986297427190E-002
  -6.7689885550783563E-002   2.0377874459089496E-002   3.1137479999857179E-002
  -6.5259250512628236E-002   1.9678513954779153E-002   3.0805970816605188E-002
  -8.1159042049739477E-002   2.4416599614662249E-002   2.3546402384677756E-002
  -7.8638830088514300E-002   2.3609867238947452E-002   2.3104768351155630E-002
  -7.6118618127289192E-002   2.2822365352405588E-002   2.2823291049455130E-002
  -7.3598406166064001E-002   2.2054093955036456E-002   2.2701970479576408E-002
  -7.1078194204838879E-002   2.1305053046840133E-002   2.2740806641519423E-002
  -8.7480727684920517E-002   2.6223974976864378E-002   1.4807567248100076E-002
  -8.4729779183121884E-002   2.5376504869964983E-002   1.4309818816361175E-002
  -8.1978830681323112E-002   2.4545284361337828E-002   1.4113386733947818E-002
  -7.9227882179524450E-002   2.3730313450983441E-002   1.4218271000859890E-002
  -7.6476933677725706E-002   2.2931592138901113E-002   1.4624471617097415E-002
  -9.3946847570792691E-002   2.8031350339066521E-002   6.0294848257878321E-003
  -9.0824002910916801E-002   2.7143142500982528E-002   5.4726411049321258E-003
  -8.7701158251040717E-002   2.6268203370270349E-002   5.3582733509053068E-003
  -8.4578313591164800E-002   2.5406532946930304E-002   5.6863815637077765E-003
  -8.1455468931288785E-002   2.4558131230962149E-002   6.4569657433393018E-003
 -0.10055740170735605        2.9838725701268665E-002  -2.7878448822586943E-003
  -9.6921501271899135E-002   2.8909780131999963E-002  -3.4067647831321768E-003
  -9.3285600836441995E-002   2.7991122379202760E-002  -3.4420490996726616E-003
  -8.9649700400985022E-002   2.7082752442877389E-002  -2.8936978318800793E-003
  -8.6013799965528048E-002   2.6184670323022963E-002  -1.7617109797549713E-003
  -6.5259250512628236E-002   1.9678513954779153E-002   3.0805970816605188E-002
  -6.3127743825774935E-002   1.8985039274318022E-002   3.0068252507362503E-002
  -6.0996237138921702E-002   1.8281124861481785E-002   2.9641485621329872E-002
  -5.8864730452068463E-002   1.7566770716270462E-002   2.9525670158507308E-002
  -5.6733223765215168E-002   1.6841976838683992E-002   2.9720806118894716E-002
  -7.1078194204838879E-002   2.1305053046840133E-002   2.2740806641519423E-002
  -6.8686387933395862E-002   2.0560781626153296E-002   2.2362575089715703E-002
  -6.6294581661952748E-002   1.9806818691312296E-002   2.2193991283881762E-002
  -6.3902775390509647E-002   1.9043164242317126E-002   2.2235055224017246E-002
  -6.1510969119066616E-002   1.8269818279167849E-002   2.2485766910122523E-002
  -7.6476933677725706E-002   2.2931592138901113E-002   1.4624471617097415E-002
  -7.3926131498933317E-002   2.2136523977988529E-002   1.4606475040953713E-002
  -7.1375329320140873E-002   2.1332512521142863E-002   1.4696822533539225E-002
  -6.8824527141348485E-002   2.0519557768363849E-002   1.4895514094854026E-002
  -6.6273724962555999E-002   1.9697659719651789E-002   1.5202549724897915E-002
  -8.1455468931288785E-002   2.4558131230962149E-002   6.4569657433393018E-003
  -7.8846974522387370E-002   2.3712266329823754E-002   6.7999523610765295E-003
  -7.6238480113485996E-002   2.2858206350973180E-002   7.1499793703026192E-003
  -7.3629985704584636E-002   2.1995951294410655E-002   7.5070467710174216E-003
  -7.1021491295683220E-002   2.1125501160135604E-002   7.8711545632207947E-003
  -8.6013799965528048E-002   2.6184670323022963E-002  -1.7617109797549713E-003
  -8.3448917003758172E-002   2.5288008681659202E-002  -1.0569929499159025E-003
  -8.0884034041988184E-002   2.4383900180803969E-002  -4.4653820582837844E-004
  -7.8319151080218252E-002   2.3472344820457243E-002   6.9653252507330399E-005
  -7.5754268118448320E-002   2.2553342600619586E-002   4.9158142509131419E-004
  -5.6733223765215168E-002   1.6841976838683992E-002   2.9720806118894716E-002
  -5.4190992916230585E-002   1.6114697701191394E-002   2.9219406247768809E-002
  -5.1648762067246001E-002   1.5392887776261965E-002   2.8905122552997903E-002
  -4.9106531218261473E-002   1.4676547063895498E-002   2.8777955034582275E-002
  -4.6564300369276890E-002   1.3965675564091840E-002   2.8837903692521649E-002
  -6.1510969119066616E-002   1.8269818279167849E-002   2.2485766910122523E-002
  -5.8776886538755291E-002   1.7493497116194329E-002   2.2008697267864530E-002
  -5.6042803958443910E-002   1.6720917067726590E-002   2.1728214911905214E-002
  -5.3308721378132529E-002   1.5952078133764588E-002   2.1644319842244131E-002
  -5.0574638797821217E-002   1.5186980314308152E-002   2.1757012058881586E-002
  -6.6273724962555999E-002   1.9697659719651789E-002   1.5202549724897915E-002
  -6.3338319540974547E-002   1.8872296531197236E-002   1.4748082213450850E-002
  -6.0402914119393025E-002   1.8048946359191270E-002   1.4499673098245569E-002
  -5.7467508697811594E-002   1.7227609203633788E-002   1.4457322379281962E-002
  -5.4532103276230051E-002   1.6408285064524547E-002   1.4621030056560388E-002
  -7.1021491295683220E-002   2.1125501160135604E-002   7.8711545632207947E-003
  -6.7875291922888256E-002   2.0251095946200434E-002   7.4375610845273214E-003
  -6.4729092550093445E-002   1.9376975650655867E-002   7.2194971120190382E-003
  -6.1582893177298495E-002   1.8503140273503100E-002   7.2169626456956362E-003
  -5.8436693804503670E-002   1.7629589814740901E-002   7.4299576855575249E-003
  -7.5754268118448320E-002   2.2553342600619586E-002   4.9158142509131419E-004
  -7.2387803684496710E-002   2.1629895361203022E-002   7.7133881094315626E-005
  -6.9021339250545044E-002   2.0705004942120631E-002  -1.1231304677458698E-004
  -6.5654874816593406E-002   1.9778671343372120E-002  -7.6759358514776055E-005
  -6.2288410382641768E-002   1.8850894564957144E-002   1.8379494587339451E-004
  -4.6564300369276890E-002   1.3965675564091840E-002   2.8837903692521649E-002
  -4.4333091579623507E-002   1.3247110304191123E-002   2.8396119493390715E-002
  -4.2101882789970263E-002   1.2507688311532913E-002   2.8077484963286797E-002
  -3.9870674000316936E-002   1.1747409586117471E-002   2.7882000102209994E-002
  -3.7639465210663664E-002   1.0966274127944264E-002   2.7809664910160126E-002
  -5.0574638797821217E-002   1.5186980314308152E-002   2.1757012058881586E-002
  -4.8211643736491616E-002   1.4420153443215594E-002   2.1362710437267701E-002
  -4.5848648675162064E-002   1.3646127354344825E-002   2.1108831689979041E-002
  -4.3485653613832512E-002   1.2864902047695897E-002   2.0995375817016007E-002
  -4.1122658552502911E-002   1.2076477523269014E-002   2.1022342818378614E-002
  -5.4532103276230051E-002   1.6408285064524547E-002   1.4621030056560388E-002
  -5.2020048737925748E-002   1.5593196582240121E-002   1.4287868527442474E-002
  -4.9507994199621479E-002   1.4784566397156855E-002   1.4112403077948470E-002
  -4.6995939661317154E-002   1.3982394509274658E-002   1.4094633708078636E-002
  -4.4483885123012913E-002   1.3186680918593707E-002   1.4234560417832748E-002
  -5.8436693804503670E-002   1.7629589814740901E-002   7.4299576855575249E-003
  -5.5758306583926040E-002   1.6766239721264842E-002   7.1715937639150427E-003
  -5.3079919363348486E-002   1.5923005439969103E-002   7.0881991271952039E-003
  -5.0401532142770905E-002   1.5099886970853585E-002   7.1797737753973292E-003
  -4.7723144922193296E-002   1.4296884313918429E-002   7.4463177085226373E-003
  -6.2288410382641768E-002   1.8850894564957144E-002   1.8379494587339451E-004
  -5.9426417274492493E-002   1.7939282860289230E-002   1.3886146685349043E-005
  -5.6564424166343108E-002   1.7061444482780769E-002   3.6219837718787229E-005
  -5.3702431058193723E-002   1.6217379432432059E-002   2.5079601897297354E-004
  -5.0840437950044448E-002   1.5407087709243372E-002   6.5761469044800513E-004
  -3.7639465210663664E-002   1.0966274127944264E-002   2.7809664910160126E-002
  -3.5238773986973643E-002   1.0188377595339970E-002   2.7198526046818661E-002
  -3.2838082763283635E-002   9.4378156466316809E-003   2.6734052280073750E-002
  -3.0437391539593607E-002   8.7145882818187512E-003   2.6416243609925061E-002
  -2.8036700315903607E-002   8.0186955009016181E-003   2.6245100036373148E-002
  -4.1122658552502911E-002   1.2076477523269014E-002   2.1022342818378614E-002
  -3.8590853759841337E-002   1.1290672039401595E-002   2.0537505140138190E-002
  -3.6059048967179735E-002   1.0517303854431531E-002   2.0168229503244511E-002
  -3.3527244174518106E-002   9.7563729683594405E-003   1.9914515907697466E-002
  -3.0995439381856560E-002   9.0078793811845248E-003   1.9776364353497111E-002
  -4.4483885123012913E-002   1.3186680918593707E-002   1.4234560417832748E-002
  -4.1852069816629478E-002   1.2392966483462886E-002   1.3861126639695354E-002
  -3.9220254510246050E-002   1.1596792062231728E-002   1.3572151847654867E-002
  -3.6588439203862656E-002   1.0798157654899911E-002   1.3367636041711234E-002
  -3.3956623897479193E-002   9.9970632614669874E-003   1.3247579221864647E-002
  -4.7723144922193296E-002   1.4296884313918429E-002   7.4463177085226373E-003
  -4.5022422157337927E-002   1.3495260927524455E-002   7.1693905454897899E-003
  -4.2321699392482502E-002   1.2676280270031641E-002   6.9458193133044473E-003
  -3.9620976627627078E-002   1.1839942341440547E-002   6.7756040119663716E-003
  -3.6920253862771694E-002   1.0986247141749783E-002   6.6587446414751450E-003
  -5.0840437950044448E-002   1.5407087709243372E-002   6.5761469044800513E-004
  -4.8101910781966795E-002   1.4597555371585580E-002   4.6229685752241512E-004
  -4.5363383613889141E-002   1.3755768477831554E-002   2.8923190019397582E-004
  -4.2624856445811488E-002   1.2881727027980905E-002   1.3841981846286766E-004
  -3.9886329277733834E-002   1.1975431022032579E-002   9.8606123289934899E-006
  -2.8036700315903607E-002   8.0186955009016181E-003   2.6245100036373148E-002
  -2.5697087943633984E-002   7.3064864725264633E-003   2.5672487232103691E-002
  -2.3357475571364306E-002   6.5343103653389689E-003   2.5043492118654809E-002
  -2.1017863199094683E-002   5.7021671793398426E-003   2.4358114696026223E-002
  -1.8678250826825005E-002   4.8100569145284044E-003   2.3616354964218322E-002
  -3.0995439381856560E-002   9.0078793811845248E-003   1.9776364353497111E-002
  -2.8693229427846342E-002   8.2637011292719387E-003   1.9188399136885637E-002
  -2.6391019473836153E-002   7.5157162489869478E-003   1.8582011392934833E-002
  -2.4088809519826018E-002   6.7639247403291913E-003   1.7957201121644450E-002
  -2.1786599565815801E-002   6.0083266032988636E-003   1.7313968323014850E-002
  -3.3956623897479193E-002   9.9970632614669874E-003   1.3247579221864647E-002
  -3.1653856579888451E-002   9.2209157860179969E-003   1.2700422043350229E-002
  -2.9351089262297639E-002   8.4971221326349544E-003   1.2172802119336690E-002
  -2.7048321944706841E-002   7.8256823013187690E-003   1.1664719449823738E-002
  -2.4745554627116029E-002   7.2065962920691007E-003   1.1176174034811359E-002
  -3.6920253862771694E-002   1.0986247141749783E-002   6.6587446414751450E-003
  -3.4578969399760184E-002   1.0178130442763320E-002   6.2085559514974617E-003
  -3.2237684936748723E-002   9.4785280162826141E-003   5.8158642978603028E-003
  -2.9896400473737275E-002   8.8874398623082877E-003   5.4806696805643103E-003
  -2.7555116010725758E-002   8.4048659808391712E-003   5.2029720996085854E-003
  -3.9886329277733834E-002   1.1975431022032579E-002   9.8606123289934899E-006
  -3.7468567887461668E-002   1.1135345099509419E-002  -2.8719913867270019E-004
  -3.5050806497189446E-002   1.0459933899931217E-002  -4.8880207149398780E-004
  -3.2633045106917280E-002   9.9491974232974872E-003  -5.9494818613405054E-004
  -3.0215283716645058E-002   9.6031356696097969E-003  -6.0563748259367944E-004
  -1.8678250826825005E-002   4.8100569145284044E-003   2.3616354964218322E-002
  -1.5654710567936797E-002   4.0778921225945175E-003   2.4399235006898445E-002
  -1.2631170309048506E-002   3.7255853552272122E-003   2.5657164304120683E-002
  -9.6076300501602707E-003   3.7531366124264470E-003   2.7390142855885313E-002
  -6.5840897912720076E-003   4.1605458941924578E-003   2.9598170662191947E-002
  -2.1786599565815801E-002   6.0083266032988636E-003   1.7313968323014850E-002
  -1.8557705240358477E-002   5.3423182043607631E-003   1.8257968919974110E-002
  -1.5328810914901181E-002   4.8592959099800215E-003   1.9137628395529654E-002
  -1.2099916589443802E-002   4.5592597201566942E-003   1.9952946749681330E-002
  -8.8710222639865610E-003   4.4422096348906148E-003   2.0703923982428596E-002
  -2.4745554627116029E-002   7.2065962920691007E-003   1.1176174034811359E-002
  -2.1850696611035857E-002   6.6067442861265924E-003   1.2084423266041089E-002
  -1.8955838594955601E-002   5.9930064647328030E-003   1.2388940999920786E-002
  -1.6060980578875388E-002   5.3653828278868235E-003   1.2089727236450201E-002
  -1.3166122562795174E-002   4.7238733755888829E-003   1.1186781975628945E-002
  -2.7555116010725758E-002   8.4048659808391712E-003   5.2029720996085854E-003
  -2.5533684679968909E-002   7.8711703678930739E-003   5.8785980450993397E-003
  -2.3512253349211972E-002   7.1267170194857649E-003   5.4111021172934676E-003
  -2.1490822018455077E-002   6.1715059356165676E-003   3.8004843161914999E-003
  -1.9469390687698186E-002   5.0055371162874285E-003   1.0467446417931209E-003
  -3.0215283716645058E-002   9.6031356696097969E-003  -6.0563748259367944E-004
  -2.9606669447157619E-002   9.1355964496590003E-003  -3.5950674285156747E-004
  -2.8998055177670179E-002   8.2604275742382827E-003  -1.7958882523514685E-003
  -2.8389440908182684E-002   6.9776290433468946E-003  -4.9147820110938059E-003
  -2.7780826638695300E-002   5.2872008569855300E-003  -9.7161880190794747E-003
  -6.5840897912720076E-003   4.1605458941924578E-003   2.9598170662191947E-002
  -6.0560516498584793E-003   6.1426580527734753E-003   3.4076299772706875E-002
  -5.5280135084450066E-003   1.0894317940418397E-002   3.9239241890250853E-002
  -4.9999753670314784E-003   1.8415525557127443E-002   4.5086997014823493E-002
  -4.4719372256180057E-003   2.8706280902900172E-002   5.1619565146424851E-002
  -8.8710222639865610E-003   4.4422096348906148E-003   2.0703923982428596E-002
  -7.5857121926609095E-003   5.6585714957734234E-003   2.5873036948134753E-002
  -6.3004021213353134E-003   9.3587711443949839E-003   3.1871880766635996E-002
  -5.0150920500099117E-003   1.5542808580756629E-002   3.8700455437932241E-002
  -3.7297819786841768E-003   2.4210683804857469E-002   4.6358760962024848E-002
  -1.3166122562795174E-002   4.7238733755888829E-003   1.1186781975628945E-002
  -1.0978622715790982E-002   5.1744849387728165E-003   1.6761168855201403E-002
  -8.7911228687867354E-003   7.8232243483715713E-003   2.3310204433335424E-002
  -6.6036230217823774E-003   1.2670091604385703E-002   3.0833888710031648E-002
  -4.4161231747782970E-003   1.9715086706814988E-002   3.9332221685289714E-002
  -1.9469390687698186E-002   5.0055371162874285E-003   1.0467446417931209E-003
  -1.6234783219248622E-002   4.6903983817727091E-003   6.7406954939074198E-003
  -1.3000175750799144E-002   6.2876775523488249E-003   1.3554212890350165E-002
  -9.7655682823495366E-003   9.7973746280148322E-003   2.1487296831121216E-002
  -6.5309608139001024E-003   1.5219489608772618E-002   3.0539947316221561E-002
  -2.7780826638695300E-002   5.2872008569855300E-003  -9.7161880190794747E-003
  -2.3354193703033932E-002   4.2063118247719355E-003  -4.1883831357473755E-003
  -1.8927560767372509E-002   4.7521307563245796E-003   2.6039061376793016E-003
  -1.4500927831711058E-002   6.9246576516444752E-003   1.0660679801201847E-002
  -1.0074294896049718E-002   1.0723892510729804E-002   1.9981937854818943E-002
 </DataArray>
 </PointData>
 </Piece>
 </UnstructuredGrid>
 </VTKFile>
