 <VTKFile type="UnstructuredGrid"  version="0.1"   >
 <UnstructuredGrid>
 <Piece  NumberOfPoints="            25 "  NumberOfCells="           16 ">
 <Points>
 <DataArray  type="Float64" NumberOfComponents="3"  format="ascii" >
   0.0000000000000000        0.0000000000000000        0.0000000000000000     
  0.25000000000000000        0.0000000000000000        0.0000000000000000     
  0.50000000000000000        0.0000000000000000        0.0000000000000000     
  0.75000000000000000        0.0000000000000000        0.0000000000000000     
   1.0000000000000000        0.0000000000000000        0.0000000000000000     
   0.0000000000000000       0.25000000000000000        0.0000000000000000     
  0.25000000000000000       0.25000000000000000        0.0000000000000000     
  0.50000000000000000       0.25000000000000000        0.0000000000000000     
  0.75000000000000000       0.25000000000000000        0.0000000000000000     
   1.0000000000000000       0.25000000000000000        0.0000000000000000     
   0.0000000000000000       0.50000000000000000        0.0000000000000000     
  0.25000000000000000       0.50000000000000000        0.0000000000000000     
  0.50000000000000000       0.50000000000000000        0.0000000000000000     
  0.75000000000000000       0.50000000000000000        0.0000000000000000     
   1.0000000000000000       0.50000000000000000        0.0000000000000000     
   0.0000000000000000       0.75000000000000000        0.0000000000000000     
  0.25000000000000000       0.75000000000000000        0.0000000000000000     
  0.50000000000000000       0.75000000000000000        0.0000000000000000     
  0.75000000000000000       0.75000000000000000        0.0000000000000000     
   1.0000000000000000       0.75000000000000000        0.0000000000000000     
   0.0000000000000000        1.0000000000000000        0.0000000000000000     
  0.25000000000000000        1.0000000000000000        0.0000000000000000     
  0.50000000000000000        1.0000000000000000        0.0000000000000000     
  0.75000000000000000        1.0000000000000000        0.0000000000000000     
   1.0000000000000000        1.0000000000000000        0.0000000000000000     
 </DataArray>
 </Points>
 <Cells>
 <DataArray  type="Int32"  Name="connectivity"  format="ascii">
           0           1           6           5
           1           2           7           6
           2           3           8           7
           3           4           9           8
           5           6          11          10
           6           7          12          11
           7           8          13          12
           8           9          14          13
          10          11          16          15
          11          12          17          16
          12          13          18          17
          13          14          19          18
          15          16          21          20
          16          17          22          21
          17          18          23          22
          18          19          24          23
 </DataArray>
 <DataArray  type="Int32"  Name="offsets"  format="ascii"> 
           4
           8
          12
          16
          20
          24
          28
          32
          36
          40
          44
          48
          52
          56
          60
          64
 </DataArray>
 <DataArray  type="UInt8"  Name="types"  format="ascii">
 9
 9
 9
 9
 9
 9
 9
 9
 9
 9
 9
 9
 9
 9
 9
 9
 </DataArray>
 </Cells> 
 <PointData>
 <DataArray  type="Float64" Name="disp" NumberOfComponents="3" format="ascii">
   0.0000000000000000        0.0000000000000000        0.0000000000000000     
   3.1990647671777027E-002   2.3549392486371730E-002   0.0000000000000000     
   5.8341452739339564E-002   5.7178161636891295E-002   0.0000000000000000     
   7.9052415202687604E-002  0.10088630745155867        0.0000000000000000     
   9.4123535061821154E-002  0.15467382993037390        0.0000000000000000     
   0.0000000000000000        0.0000000000000000        0.0000000000000000     
   1.5995323835863558E-002   1.9104108434891829E-002   0.0000000000000000     
   2.9170726369628572E-002   5.1049102762428411E-002   0.0000000000000000     
   3.9526207601295028E-002   9.5834982982609757E-002   0.0000000000000000     
   4.7061767530862941E-002  0.15346174909543581        0.0000000000000000     
   0.0000000000000000        0.0000000000000000        0.0000000000000000     
  -2.3921836733720170E-014   1.7622347084401347E-002   0.0000000000000000     
  -3.1032468261749102E-014   4.9006083137583860E-002   0.0000000000000000     
  -2.1340568201466681E-014   9.4151208159547542E-002   0.0000000000000000     
   5.1625370645069779E-015  0.15305772215029240        0.0000000000000000     
   0.0000000000000000        0.0000000000000000        0.0000000000000000     
  -1.5995323835885415E-002   1.9104108434900281E-002   0.0000000000000000     
  -2.9170726369639247E-002   5.1049102762357648E-002   0.0000000000000000     
  -3.9526207601261500E-002   9.5834982982372086E-002   0.0000000000000000     
  -4.7061767530752183E-002  0.15346174909494359        0.0000000000000000     
   0.0000000000000000        0.0000000000000000        0.0000000000000000     
  -3.1990647671720926E-002   2.3549392486388637E-002   0.0000000000000000     
  -5.8341452739196081E-002   5.7178161636749755E-002   0.0000000000000000     
  -7.9052415202425466E-002  0.10088630745108336        0.0000000000000000     
  -9.4123535061409080E-002  0.15467382992938944        0.0000000000000000     
 </DataArray>
 <DataArray  type="Float64" Name="stress" NumberOfComponents="3" format="ascii">
   9180809399.7057419        2754242819.9117227        1708588075.7813368     
   7224425340.4160175        744836705.65089893        1162500644.5402324     
   5559365331.6062441       -293489240.34341764        876713641.18678081     
   4185629373.2764244       -360735018.07122612        851227065.72098076     
   3103217465.4265547        543099372.46747136        1086040918.1428337     
   4590404699.8451433        1377121409.9535432        1170799891.2525649     
   3612212670.2027416        372418352.82437658        879621004.18280578     
   2779682665.7985811       -146744620.17731738        848742545.00064504     
   2092814686.6326630       -180367509.05153847        1078164513.7060831     
   1551608732.7049868        271549686.20171547        1567886910.2991190     
  -8.5252318025543262E-003  -2.5575695407662980E-003   991537163.07791662     
  -3.7578113697679127E-003  -1.1305059452673466E-004   785327790.73084092     
  -2.4592278762842193E-003  -9.2299336671821264E-003   839418846.27130985     
  -4.6286921182361546E-003  -2.9907669747346668E-002   1153810329.6993225     
  -1.0266421412630599E-002  -6.2147677114433690E-002   1728502241.0148804     
  -4590404699.8552637       -1377121409.9565792        1170799891.2573917     
  -3612212670.2034807       -372418352.82256973        879621004.18433714     
  -2779682665.7968779        146744620.16084313        848742544.99877310     
  -2092814686.6354518        180367508.99366283        1078164513.7006996     
  -1551608732.7192068       -271549686.32411611        1567886910.2901168     
  -9180809399.6950703       -2754242819.9085212        1708588075.7909904     
  -7224425340.3964281       -744836705.64299345        1162500644.5432947     
  -5559365331.5846729        293489240.33290410        876713641.18303585     
  -4185629373.2598085        360735018.01917267        851227065.71021390     
  -3103217465.4218321       -543099372.58419001        1086040918.1248283     
 </DataArray>
 <DataArray  type="Float64" Name="VM" NumberOfComponents="1" format="ascii">
   8680135713.9591713     
   7170795582.9338074     
   5910175391.5054293     
   4618797315.7038860     
   3431911236.5621142     
   4556210184.9756403     
   3763339055.2279630     
   3212034387.4530196     
   2877011935.7914491     
   3071595370.0757360     
   1717392744.0436592     
   1360227634.1416352     
   1453916090.5727575     
   1998458113.3370240     
   2993853702.4344378     
   4556210184.9874163     
   3763339055.2303982     
   3212034387.4421415     
   2877011935.7628345     
   3071595370.0484109     
   8680135713.9559555     
   7170795582.9197397     
   5910175391.4774694     
   4618797315.6545753     
   3431911236.5068245     
 </DataArray>
 <DataArray  type="Float64" Name="strain" NumberOfComponents="3" format="ascii">
  0.13924227589553709        0.0000000000000000        7.4038816617191264E-002
  0.11668290547867913       -2.3708181607898438E-002   5.0375027930076734E-002
   9.4123535061821154E-002  -3.2688313997088179E-002   3.7990924451427169E-002
   7.1564164644963194E-002  -2.6940397167569220E-002   3.6886506181242500E-002
   4.9004794228105220E-002  -6.4644311193415849E-003   4.7061773119522796E-002
   6.9621137947651346E-002   0.0000000000000000        5.0734661954277817E-002
   5.8341452739257144E-002  -1.1854090803940766E-002   3.8116910181254918E-002
   4.7061767530862941E-002  -1.6344156998614863E-002   3.6778843616694618E-002
   3.5782082322468739E-002  -1.3470198584022288E-002   4.6720462260596937E-002
   2.4502397114074537E-002  -3.2322155601630098E-003   6.7941766112961821E-002
  -1.2929934900540729E-013   0.0000000000000000        4.2966610400043057E-002
  -6.2064936523498204E-014   1.6904880273393985E-014   3.4030870931669774E-002
   5.1625370645069779E-015  -1.4153608840494769E-013   3.6374816671756759E-002
   7.2393480099464114E-014  -4.7531770186459710E-013   4.9998447620303976E-002
   1.3963136202832516E-013  -9.8446251151074193E-013   7.4901763777311489E-002
  -6.9621137947804834E-002   0.0000000000000000        5.0734661954486976E-002
  -5.8341452739278495E-002   1.1854090803974574E-002   3.8116910181321274E-002
  -4.7061767530752183E-002   1.6344156998331777E-002   3.6778843616613502E-002
  -3.5782082322225850E-002   1.3470198583071641E-002   4.6720462260363645E-002
  -2.4502397113699531E-002   3.2322155581940987E-003   6.7941766112571730E-002
 -0.13924227589537524        0.0000000000000000        7.4038816617609582E-002
 -0.11668290547839216        2.3708181607932248E-002   5.0375027930209440E-002
  -9.4123535061409080E-002   3.2688313996805107E-002   3.7990924451264889E-002
  -7.1564164644425998E-002   2.6940397166618585E-002   3.6886506180775935E-002
  -4.9004794227442916E-002   6.4644311173726599E-003   4.7061773118742559E-002
 </DataArray>
 </PointData>
 </Piece>
 <Piece  NumberOfPoints="            25 "  NumberOfCells="           16 ">
 <Points>
 <DataArray  type="Float64" NumberOfComponents="3"  format="ascii" >
  0.50000000000000000        0.0000000000000000        0.0000000000000000     
  0.75000000000000000        0.0000000000000000        0.0000000000000000     
   1.0000000000000000        0.0000000000000000        0.0000000000000000     
   1.2500000000000000        0.0000000000000000        0.0000000000000000     
   1.5000000000000000        0.0000000000000000        0.0000000000000000     
  0.50000000000000000       0.25000000000000000        0.0000000000000000     
  0.75000000000000000       0.25000000000000000        0.0000000000000000     
   1.0000000000000000       0.25000000000000000        0.0000000000000000     
   1.2500000000000000       0.25000000000000000        0.0000000000000000     
   1.5000000000000000       0.25000000000000000        0.0000000000000000     
  0.50000000000000000       0.50000000000000000        0.0000000000000000     
  0.75000000000000000       0.50000000000000000        0.0000000000000000     
   1.0000000000000000       0.50000000000000000        0.0000000000000000     
   1.2500000000000000       0.50000000000000000        0.0000000000000000     
   1.5000000000000000       0.50000000000000000        0.0000000000000000     
  0.50000000000000000       0.75000000000000000        0.0000000000000000     
  0.75000000000000000       0.75000000000000000        0.0000000000000000     
   1.0000000000000000       0.75000000000000000        0.0000000000000000     
   1.2500000000000000       0.75000000000000000        0.0000000000000000     
   1.5000000000000000       0.75000000000000000        0.0000000000000000     
  0.50000000000000000        1.0000000000000000        0.0000000000000000     
  0.75000000000000000        1.0000000000000000        0.0000000000000000     
   1.0000000000000000        1.0000000000000000        0.0000000000000000     
   1.2500000000000000        1.0000000000000000        0.0000000000000000     
   1.5000000000000000        1.0000000000000000        0.0000000000000000     
 </DataArray>
 </Points>
 <Cells>
 <DataArray  type="Int32"  Name="connectivity"  format="ascii">
           0           1           6           5
           1           2           7           6
           2           3           8           7
           3           4           9           8
           5           6          11          10
           6           7          12          11
           7           8          13          12
           8           9          14          13
          10          11          16          15
          11          12          17          16
          12          13          18          17
          13          14          19          18
          15          16          21          20
          16          17          22          21
          17          18          23          22
          18          19          24          23
 </DataArray>
 <DataArray  type="Int32"  Name="offsets"  format="ascii"> 
           4
           8
          12
          16
          20
          24
          28
          32
          36
          40
          44
          48
          52
          56
          60
          64
 </DataArray>
 <DataArray  type="UInt8"  Name="types"  format="ascii">
 9
 9
 9
 9
 9
 9
 9
 9
 9
 9
 9
 9
 9
 9
 9
 9
 </DataArray>
 </Cells> 
 <PointData>
 <DataArray  type="Float64" Name="disp" NumberOfComponents="3" format="ascii">
   5.8223420709442246E-002   5.5810519096403298E-002   0.0000000000000000     
   7.9115756342381896E-002  0.10162024413879778        0.0000000000000000     
   9.4005503031655779E-002  0.15330618738987767        0.0000000000000000     
  0.10289266077726390       0.21086834884964295        0.0000000000000000     
  0.10577722957920625       0.27430672851809362        0.0000000000000000     
   2.9111710354672641E-002   4.8524862993993945E-002   0.0000000000000000     
   3.9557878171140343E-002   9.7189600230926834E-002   0.0000000000000000     
   4.7002751515782558E-002  0.15093750932699740        0.0000000000000000     
   5.1446330388599255E-002  0.20976859028220562        0.0000000000000000     
   5.2888614789590456E-002  0.27368284309655150        0.0000000000000000     
   5.6465249143045071E-015   4.6096310960020169E-002   0.0000000000000000     
  -2.2806409538667083E-014   9.5712718928383969E-002   0.0000000000000000     
  -3.4776435203776046E-014  0.15014794997272896        0.0000000000000000     
  -3.0251083756038799E-014  0.20940200409305518        0.0000000000000000     
  -9.2391372330524746E-015  0.27347488128936265        0.0000000000000000     
  -2.9111710354558739E-002   4.8524862994481936E-002   0.0000000000000000     
  -3.9557878171107570E-002   9.7189600231169154E-002   0.0000000000000000     
  -4.7002751515796200E-002  0.15093750932707234        0.0000000000000000     
  -5.1446330388624631E-002  0.20976859028219169        0.0000000000000000     
  -5.2888614789592850E-002  0.27368284309652707        0.0000000000000000     
  -5.8223420709020507E-002   5.5810519097379274E-002   0.0000000000000000     
  -7.9115756342113944E-002  0.10162024413928236        0.0000000000000000     
  -9.4005503031501736E-002  0.15330618739002760        0.0000000000000000     
 -0.10289266077718387       0.21086834884961508        0.0000000000000000     
 -0.10577722957916036       0.27430672851804466        0.0000000000000000     
 </DataArray>
 <DataArray  type="Float64" Name="stress" NumberOfComponents="3" format="ascii">
   5533020043.1958847       -671503939.83174539        1270145130.7597716     
   4251107762.0957217       -142473721.89967346        848303628.50367141     
   2885533448.5147643        107683054.42974651        703504692.87889910     
   1436297102.4530127        78966389.156522274        835748323.88545740     
  -96601276.089534208       -228623717.71935666        1245034521.5233424     
   2766510021.6060634       -335751969.88415647        1570286857.1673017     
   2125553881.0530682       -71236860.933739066        1075241076.4891734     
   1442766724.2612262        53841527.220523119        857237862.44253373     
   718148551.23053777        39483194.578631282        916277215.02738261     
  -48300638.038998097       -114311858.85941646        1252359134.2437210     
   9.6268688991181638E-003   6.1446635325711256E-002   1670334099.3006914     
   4.2555702551593496E-003   3.0352163090577953E-002   1150886892.4828093     
   1.9843444653012670E-003   9.5919609251708168E-003   908482252.29657578     
   2.8157507232433672E-003  -8.2630788658330837E-004   943120178.74199152     
   6.7465264144481391E-003  -9.1369219882372291E-004   1254800671.8190522     
  -2766510021.5934248        335751970.00506592        1570286857.1599464     
  -2125553881.0507176        71236860.992592931        1075241076.4845829     
  -1442766724.2629614       -53841527.203049481        857237862.44102752     
  -718148551.23015678       -39483194.581862777        916277215.02927864     
   48300638.047695547        114311858.85614873        1252359134.2493379     
  -5533020043.2030916        671503939.94670033        1270145130.7450645     
  -4251107762.1118507        142473721.95298767        848303628.49449146     
  -2885533448.5336127       -107683054.41740680        703504692.87588620     
  -1436297102.4683766       -78966389.164470255        835748323.88924634     
   96601276.083853036        228623717.71177700        1245034521.5345752     
 </DataArray>
 <DataArray  type="Float64" Name="VM" NumberOfComponents="1" format="ascii">
   6294480046.6257153     
   4566918463.2356091     
   3084142089.1426940     
   2012757224.2639458     
   2165605722.9617071     
   4011554650.7262559     
   2853577035.1535964     
   2052160867.2925389     
   1734252942.8082473     
   2171425573.2959356     
   2893103525.6035957     
   1993394571.5452855     
   1573537418.7522767     
   1633532067.2245703     
   2173378516.9621592     
   4011554650.7601852     
   2853577035.1700158     
   2052160867.2975323     
   1734252942.8105037     
   2171425573.3054833     
   6294480046.6863194     
   4566918463.2722349     
   3084142089.1632795     
   2012757224.2768040     
   2165605722.9804959     
 </DataArray>
 <DataArray  type="Float64" Name="strain" NumberOfComponents="3" format="ascii">
   9.5574520419090134E-002  -3.8856832546508513E-002   5.5039622332923435E-002
   7.1564164644427067E-002  -2.3630100842139831E-002   3.6759823901825764E-002
   4.7553808869764007E-002  -1.2632949668744713E-002   3.0485203358085626E-002
   2.3543453095100936E-002  -5.8653790263230266E-003   3.6215760701703154E-002
  -4.6690267956212006E-004  -3.3273889148749403E-003   5.3951495932678173E-002
   4.7787260209521842E-002  -1.9428416272766258E-002   6.8045763810583068E-002
   3.5782082322219827E-002  -1.1815050420827658E-002   4.6593779981197514E-002
   2.3776904434917819E-002  -6.3164748342974114E-003   3.7146974039176460E-002
   1.1771726547615807E-002  -2.9326895131755008E-003   3.9705345984519913E-002
  -2.3345133968621923E-004  -1.6636944574619505E-003   5.4268895817227908E-002
  -1.4678536164325351E-013   9.7597624426626339E-013   7.2381144303029957E-002
  -8.0834644533567257E-014   4.8459153356716911E-013   4.9871765340921734E-002
  -1.4887396870832958E-014   1.4994429309300727E-013   3.9367564266184950E-002
   5.1060718153639328E-014  -2.7850551725938644E-014   4.0868541078819633E-002
   1.1701056790158759E-013  -4.8960835385969403E-014   5.4374695778825602E-002
  -4.7787260209915736E-002   1.9428416274718221E-002   6.8045763810264351E-002
  -3.5782082322474922E-002   1.1815050421796803E-002   4.6593779980998590E-002
  -2.3776904435034107E-002   6.3164748345973147E-003   3.7146974039111193E-002
  -1.1771726547593299E-002   2.9326895131197373E-003   3.9705345984602076E-002
   2.3345133984751555E-004   1.6636944573640011E-003   5.4268895817471310E-002
  -9.5574520419785036E-002   3.8856832548460465E-002   5.5039622332286126E-002
  -7.1564164644962444E-002   2.3630100843109049E-002   3.6759823901427964E-002
  -4.7553808870139852E-002   1.2632949669044619E-002   3.0485203357955067E-002
  -2.3543453095317260E-002   5.8653790262673785E-003   3.6215760701867342E-002
   4.6690267950533215E-004   3.3273889147770186E-003   5.3951495933164929E-002
 </DataArray>
 </PointData>
 </Piece>
 </UnstructuredGrid>
 </VTKFile>
