 <VTKFile type="UnstructuredGrid"  version="0.1"   >
 <UnstructuredGrid>
 <Piece  NumberOfPoints="           100 "  NumberOfCells="           64 ">
 <Points>
 <DataArray  type="Float64" NumberOfComponents="3"  format="ascii" >
   0.0000000000000000        0.0000000000000000        0.0000000000000000     
  0.12500000000000000        0.0000000000000000        0.0000000000000000     
  0.25000000000000000        0.0000000000000000        0.0000000000000000     
  0.37500000000000000        0.0000000000000000        0.0000000000000000     
  0.50000000000000000        0.0000000000000000        0.0000000000000000     
   0.0000000000000000       0.12500000000000000        0.0000000000000000     
  0.12500000000000000       0.12500000000000000        0.0000000000000000     
  0.25000000000000000       0.12500000000000000        0.0000000000000000     
  0.37500000000000000       0.12500000000000000        0.0000000000000000     
  0.50000000000000000       0.12500000000000000        0.0000000000000000     
   0.0000000000000000       0.25000000000000000        0.0000000000000000     
  0.12500000000000000       0.25000000000000000        0.0000000000000000     
  0.25000000000000000       0.25000000000000000        0.0000000000000000     
  0.37500000000000000       0.25000000000000000        0.0000000000000000     
  0.50000000000000000       0.25000000000000000        0.0000000000000000     
   0.0000000000000000       0.37500000000000000        0.0000000000000000     
  0.12500000000000000       0.37500000000000000        0.0000000000000000     
  0.25000000000000000       0.37500000000000000        0.0000000000000000     
  0.37500000000000000       0.37500000000000000        0.0000000000000000     
  0.50000000000000000       0.37500000000000000        0.0000000000000000     
   0.0000000000000000       0.50000000000000000        0.0000000000000000     
  0.12500000000000000       0.50000000000000000        0.0000000000000000     
  0.25000000000000000       0.50000000000000000        0.0000000000000000     
  0.37500000000000000       0.50000000000000000        0.0000000000000000     
  0.50000000000000000       0.50000000000000000        0.0000000000000000     
  0.50000000000000000        0.0000000000000000        0.0000000000000000     
  0.62500000000000000        0.0000000000000000        0.0000000000000000     
  0.75000000000000000        0.0000000000000000        0.0000000000000000     
  0.87500000000000000        0.0000000000000000        0.0000000000000000     
   1.0000000000000000        0.0000000000000000        0.0000000000000000     
  0.50000000000000000       0.12500000000000000        0.0000000000000000     
  0.62500000000000000       0.12500000000000000        0.0000000000000000     
  0.75000000000000000       0.12500000000000000        0.0000000000000000     
  0.87500000000000000       0.12500000000000000        0.0000000000000000     
   1.0000000000000000       0.12500000000000000        0.0000000000000000     
  0.50000000000000000       0.25000000000000000        0.0000000000000000     
  0.62500000000000000       0.25000000000000000        0.0000000000000000     
  0.75000000000000000       0.25000000000000000        0.0000000000000000     
  0.87500000000000000       0.25000000000000000        0.0000000000000000     
   1.0000000000000000       0.25000000000000000        0.0000000000000000     
  0.50000000000000000       0.37500000000000000        0.0000000000000000     
  0.62500000000000000       0.37500000000000000        0.0000000000000000     
  0.75000000000000000       0.37500000000000000        0.0000000000000000     
  0.87500000000000000       0.37500000000000000        0.0000000000000000     
   1.0000000000000000       0.37500000000000000        0.0000000000000000     
  0.50000000000000000       0.50000000000000000        0.0000000000000000     
  0.62500000000000000       0.50000000000000000        0.0000000000000000     
  0.75000000000000000       0.50000000000000000        0.0000000000000000     
  0.87500000000000000       0.50000000000000000        0.0000000000000000     
   1.0000000000000000       0.50000000000000000        0.0000000000000000     
   0.0000000000000000       0.50000000000000000        0.0000000000000000     
  0.12500000000000000       0.50000000000000000        0.0000000000000000     
  0.25000000000000000       0.50000000000000000        0.0000000000000000     
  0.37500000000000000       0.50000000000000000        0.0000000000000000     
  0.50000000000000000       0.50000000000000000        0.0000000000000000     
   0.0000000000000000       0.62500000000000000        0.0000000000000000     
  0.12500000000000000       0.62500000000000000        0.0000000000000000     
  0.25000000000000000       0.62500000000000000        0.0000000000000000     
  0.37500000000000000       0.62500000000000000        0.0000000000000000     
  0.50000000000000000       0.62500000000000000        0.0000000000000000     
   0.0000000000000000       0.75000000000000000        0.0000000000000000     
  0.12500000000000000       0.75000000000000000        0.0000000000000000     
  0.25000000000000000       0.75000000000000000        0.0000000000000000     
  0.37500000000000000       0.75000000000000000        0.0000000000000000     
  0.50000000000000000       0.75000000000000000        0.0000000000000000     
   0.0000000000000000       0.87500000000000000        0.0000000000000000     
  0.12500000000000000       0.87500000000000000        0.0000000000000000     
  0.25000000000000000       0.87500000000000000        0.0000000000000000     
  0.37500000000000000       0.87500000000000000        0.0000000000000000     
  0.50000000000000000       0.87500000000000000        0.0000000000000000     
   0.0000000000000000        1.0000000000000000        0.0000000000000000     
  0.12500000000000000        1.0000000000000000        0.0000000000000000     
  0.25000000000000000        1.0000000000000000        0.0000000000000000     
  0.37500000000000000        1.0000000000000000        0.0000000000000000     
  0.50000000000000000        1.0000000000000000        0.0000000000000000     
  0.50000000000000000       0.50000000000000000        0.0000000000000000     
  0.62500000000000000       0.50000000000000000        0.0000000000000000     
  0.75000000000000000       0.50000000000000000        0.0000000000000000     
  0.87500000000000000       0.50000000000000000        0.0000000000000000     
   1.0000000000000000       0.50000000000000000        0.0000000000000000     
  0.50000000000000000       0.62500000000000000        0.0000000000000000     
  0.62500000000000000       0.62500000000000000        0.0000000000000000     
  0.75000000000000000       0.62500000000000000        0.0000000000000000     
  0.87500000000000000       0.62500000000000000        0.0000000000000000     
   1.0000000000000000       0.62500000000000000        0.0000000000000000     
  0.50000000000000000       0.75000000000000000        0.0000000000000000     
  0.62500000000000000       0.75000000000000000        0.0000000000000000     
  0.75000000000000000       0.75000000000000000        0.0000000000000000     
  0.87500000000000000       0.75000000000000000        0.0000000000000000     
   1.0000000000000000       0.75000000000000000        0.0000000000000000     
  0.50000000000000000       0.87500000000000000        0.0000000000000000     
  0.62500000000000000       0.87500000000000000        0.0000000000000000     
  0.75000000000000000       0.87500000000000000        0.0000000000000000     
  0.87500000000000000       0.87500000000000000        0.0000000000000000     
   1.0000000000000000       0.87500000000000000        0.0000000000000000     
  0.50000000000000000        1.0000000000000000        0.0000000000000000     
  0.62500000000000000        1.0000000000000000        0.0000000000000000     
  0.75000000000000000        1.0000000000000000        0.0000000000000000     
  0.87500000000000000        1.0000000000000000        0.0000000000000000     
   1.0000000000000000        1.0000000000000000        0.0000000000000000     
 </DataArray>
 </Points>
 <Cells>
 <DataArray  type="Int32"  Name="connectivity"  format="ascii">
           0           1           6           5
           1           2           7           6
           2           3           8           7
           3           4           9           8
           5           6          11          10
           6           7          12          11
           7           8          13          12
           8           9          14          13
          10          11          16          15
          11          12          17          16
          12          13          18          17
          13          14          19          18
          15          16          21          20
          16          17          22          21
          17          18          23          22
          18          19          24          23
          25          26          31          30
          26          27          32          31
          27          28          33          32
          28          29          34          33
          30          31          36          35
          31          32          37          36
          32          33          38          37
          33          34          39          38
          35          36          41          40
          36          37          42          41
          37          38          43          42
          38          39          44          43
          40          41          46          45
          41          42          47          46
          42          43          48          47
          43          44          49          48
          50          51          56          55
          51          52          57          56
          52          53          58          57
          53          54          59          58
          55          56          61          60
          56          57          62          61
          57          58          63          62
          58          59          64          63
          60          61          66          65
          61          62          67          66
          62          63          68          67
          63          64          69          68
          65          66          71          70
          66          67          72          71
          67          68          73          72
          68          69          74          73
          75          76          81          80
          76          77          82          81
          77          78          83          82
          78          79          84          83
          80          81          86          85
          81          82          87          86
          82          83          88          87
          83          84          89          88
          85          86          91          90
          86          87          92          91
          87          88          93          92
          88          89          94          93
          90          91          96          95
          91          92          97          96
          92          93          98          97
          93          94          99          98
 </DataArray>
 <DataArray  type="Int32"  Name="offsets"  format="ascii"> 
           4
           8
          12
          16
          20
          24
          28
          32
          36
          40
          44
          48
          52
          56
          60
          64
          68
          72
          76
          80
          84
          88
          92
          96
         100
         104
         108
         112
         116
         120
         124
         128
         132
         136
         140
         144
         148
         152
         156
         160
         164
         168
         172
         176
         180
         184
         188
         192
         196
         200
         204
         208
         212
         216
         220
         224
         228
         232
         236
         240
         244
         248
         252
         256
 </DataArray>
 <DataArray  type="UInt8"  Name="types"  format="ascii">
 9
 9
 9
 9
 9
 9
 9
 9
 9
 9
 9
 9
 9
 9
 9
 9
 9
 9
 9
 9
 9
 9
 9
 9
 9
 9
 9
 9
 9
 9
 9
 9
 9
 9
 9
 9
 9
 9
 9
 9
 9
 9
 9
 9
 9
 9
 9
 9
 9
 9
 9
 9
 9
 9
 9
 9
 9
 9
 9
 9
 9
 9
 9
 9
 </DataArray>
 </Cells> 
 <PointData>
 <DataArray  type="Float64" Name="disp" NumberOfComponents="3" format="ascii">
   0.0000000000000000        0.0000000000000000        0.0000000000000000     
   1.9099543931168098E-002   1.1593395292288221E-002   0.0000000000000000     
   3.6219144734103426E-002   2.5758306404615090E-002   0.0000000000000000     
   5.1358802408805991E-002   4.2494733336980603E-002   0.0000000000000000     
   6.4518516955275787E-002   6.1802676089384771E-002   0.0000000000000000     
   0.0000000000000000        0.0000000000000000        0.0000000000000000     
   1.2696395203528256E-002   9.3257471244264853E-003   0.0000000000000000     
   2.4523704536994241E-002   2.2146219567098682E-002   0.0000000000000000     
   3.5481928000397955E-002   3.8461417328016598E-002   0.0000000000000000     
   4.5571065593739406E-002   5.8271340407180232E-002   0.0000000000000000     
   0.0000000000000000        0.0000000000000000        0.0000000000000000     
   7.3787549724530768E-003   7.7059984330972841E-003   0.0000000000000000     
   1.4588700348939488E-002   1.9566157540301631E-002   0.0000000000000000     
   2.1629836129459238E-002   3.5580477321613027E-002   0.0000000000000000     
   2.8502162314012324E-002   5.5748957777031490E-002   0.0000000000000000     
   0.0000000000000000        0.0000000000000000        0.0000000000000000     
   3.1466232379425596E-003   6.7341492183006233E-003   0.0000000000000000     
   6.4141321699391698E-003   1.8018120324223924E-002   0.0000000000000000     
   9.8025267959898285E-003   3.3851913317769905E-002   0.0000000000000000     
   1.3311807116094539E-002   5.4235528198938572E-002   0.0000000000000000     
   0.0000000000000000        0.0000000000000000        0.0000000000000000     
  -3.2942398808799567E-015   6.4101994800364994E-003   0.0000000000000000     
  -6.7177166607201855E-015   1.7502107918865573E-002   0.0000000000000000     
  -1.0270430339520686E-014   3.3275725316487217E-002   0.0000000000000000     
  -1.3951079874674477E-014   5.3731051672901438E-002   0.0000000000000000     
   6.4518516955275787E-002   6.1802676089384771E-002   0.0000000000000000     
   7.6007616727936655E-002   8.3833066420994612E-002   0.0000000000000000     
   8.6135430081212438E-002  0.10873683609097712        0.0000000000000000     
   9.4901957015103150E-002  0.13651398509933230        0.0000000000000000     
  0.10230719752960876       0.16716451344606018        0.0000000000000000     
   4.5571065593739406E-002   5.8271340407180232E-002   0.0000000000000000     
   5.4562601078829931E-002   8.1109268165590956E-002   0.0000000000000000     
   6.2228018217480890E-002  0.10650847996425016        0.0000000000000000     
   6.8567317009692264E-002  0.13446897580315781        0.0000000000000000     
   7.3580497455464078E-002  0.16499075568231397        0.0000000000000000     
   2.8502162314012324E-002   5.5748957777031490E-002   0.0000000000000000     
   3.4746326407802397E-002   7.9163697983154133E-002   0.0000000000000000     
   3.9902975916033104E-002  0.10491679701657805        0.0000000000000000     
   4.3972110838704434E-002  0.13300825487730325        0.0000000000000000     
   4.6953731175816409E-002  0.16343807156532972        0.0000000000000000     
   1.3311807116094539E-002   5.4235528198938572E-002   0.0000000000000000     
   1.6558792714854040E-002   7.7996355873684101E-002   0.0000000000000000     
   1.9160303176869082E-002  0.10396178724796076        0.0000000000000000     
   2.1116338502139665E-002  0.13213182232176851        0.0000000000000000     
   2.2426898690665786E-002  0.16250646109510739        0.0000000000000000     
  -1.3951079874674477E-014   5.3731051672901438E-002   0.0000000000000000     
  -1.5125921348779769E-014   7.7607241837180915E-002   0.0000000000000000     
  -1.1158283498569066E-014  0.10364345065839833        0.0000000000000000     
  -2.0518797164831293E-015  0.13183967813655370        0.0000000000000000     
   1.2191636589165000E-014  0.16219592427164703        0.0000000000000000     
   0.0000000000000000        0.0000000000000000        0.0000000000000000     
  -3.2942398808799567E-015   6.4101994800364994E-003   0.0000000000000000     
  -6.7177166607201855E-015   1.7502107918865573E-002   0.0000000000000000     
  -1.0270430339520686E-014   3.3275725316487217E-002   0.0000000000000000     
  -1.3951079874674477E-014   5.3731051672901438E-002   0.0000000000000000     
   0.0000000000000000        0.0000000000000000        0.0000000000000000     
  -3.1466232379480383E-003   6.7341492183041725E-003   0.0000000000000000     
  -6.4141321699501637E-003   1.8018120324225811E-002   0.0000000000000000     
  -9.8025267960063743E-003   3.3851913317764923E-002   0.0000000000000000     
  -1.3311807116116670E-002   5.4235528198921489E-002   0.0000000000000000     
   0.0000000000000000        0.0000000000000000        0.0000000000000000     
  -7.3787549724552235E-003   7.7059984331029046E-003   0.0000000000000000     
  -1.4588700348943153E-002   1.9566157540303893E-002   0.0000000000000000     
  -2.1629836129463800E-002   3.5580477321602952E-002   0.0000000000000000     
  -2.8502162314017150E-002   5.5748957777000091E-002   0.0000000000000000     
   0.0000000000000000        0.0000000000000000        0.0000000000000000     
  -1.2696395203524852E-002   9.3257471244326939E-003   0.0000000000000000     
  -2.4523704536985703E-002   2.2146219567099799E-002   0.0000000000000000     
  -3.5481928000382544E-002   3.8461417328001332E-002   0.0000000000000000     
  -4.5571065593715383E-002   5.8271340407137259E-002   0.0000000000000000     
   0.0000000000000000        0.0000000000000000        0.0000000000000000     
  -1.9099543931156919E-002   1.1593395292293539E-002   0.0000000000000000     
  -3.6219144734077786E-002   2.5758306404613549E-002   0.0000000000000000     
  -5.1358802408762616E-002   4.2494733336960036E-002   0.0000000000000000     
  -6.4518516955211394E-002   6.1802676089332986E-002   0.0000000000000000     
  -1.3951079874674477E-014   5.3731051672901438E-002   0.0000000000000000     
  -1.5125921348779769E-014   7.7607241837180915E-002   0.0000000000000000     
  -1.1158283498569066E-014  0.10364345065839833        0.0000000000000000     
  -2.0518797164831293E-015  0.13183967813655370        0.0000000000000000     
   1.2191636589165000E-014  0.16219592427164703        0.0000000000000000     
  -1.3311807116116670E-002   5.4235528198921489E-002   0.0000000000000000     
  -1.6558792714876938E-002   7.7996355873648116E-002   0.0000000000000000     
  -1.9160303176883060E-002  0.10396178724789734        0.0000000000000000     
  -2.1116338502135033E-002  0.13213182232166923        0.0000000000000000     
  -2.2426898690632857E-002  0.16250646109496372        0.0000000000000000     
  -2.8502162314017150E-002   5.5748957777000091E-002   0.0000000000000000     
  -3.4746326407803223E-002   7.9163697983089268E-002   0.0000000000000000     
  -3.9902975916022029E-002  0.10491679701646443        0.0000000000000000     
  -4.3972110838673584E-002  0.13300825487712556        0.0000000000000000     
  -4.6953731175757851E-002  0.16343807156507267        0.0000000000000000     
  -4.5571065593715383E-002   5.8271340407137259E-002   0.0000000000000000     
  -5.4562601078794001E-002   8.1109268165504414E-002   0.0000000000000000     
  -6.2228018217428085E-002  0.10650847996409958        0.0000000000000000     
  -6.8567317009617698E-002  0.13446897580292272        0.0000000000000000     
  -7.3580497455362812E-002  0.16499075568197391        0.0000000000000000     
  -6.4518516955211394E-002   6.1802676089332986E-002   0.0000000000000000     
  -7.6007616727849225E-002   8.3833066420893540E-002   0.0000000000000000     
  -8.6135430081101222E-002  0.10873683609080277        0.0000000000000000     
  -9.4901957014967384E-002  0.13651398509906071        0.0000000000000000     
 -0.10230719752944770       0.16716451344566735        0.0000000000000000     
 </DataArray>
 <DataArray  type="Float64" Name="stress" NumberOfComponents="3" format="ascii">
   10596667513.996210        3179000254.1988630        1902948439.8034887     
   9142202898.5740547        1498693874.6307740        1095369272.5634532     
   7854698619.4054270        374921949.24110889        530771228.43873054     
   6734154676.4903278       -192315521.97012901        209154307.42932105     
   5780571069.8287535       -203018539.00294518        130518509.53522377     
   6926209128.0313272        2077862738.4093981        1399086362.8252847     
   6160215950.5679893        915089538.96457219        962347440.77387655     
   5519443025.2946815        169717180.15317345        692790075.54703152     
   5003890352.2114000       -158254338.02479720        590414267.14475000     
   4613557931.3181467       -68825015.569342852        655220015.56703222     
   3936611747.0433798        1180983524.1130140        1039184879.2696162     
   3642519818.1367197        470772447.97080958        924589437.66608620     
   3431908057.3565893        38828598.917034864        901375986.59636986     
   3304776464.7029872       -114848023.04831004        969544526.06046772     
   3261125040.1759148        9742582.0747746229        1129095056.0583801     
   1627875371.0323696        488362611.30971092        823243989.13648331     
   1589114501.2802465        165742601.64948559        982095263.24008226     
   1592093715.5911522       -17743794.467308104        1156528961.5867460     
   1636813013.9650874       -62096577.040669799        1346545084.1764734     
   1723272396.4020534        32684253.929401636        1552143631.0092669     
  -1.7037653339439902E-003  -5.1112960018319701E-004   751263692.42588568     
  -1.4322620470582793E-003   5.9996650504855003E-004   1134864917.4958639     
  -1.6304608762019988E-003   1.4556236252979450E-004   1458249000.5181575     
  -2.2984304477983736E-003  -1.8748309910049448E-003   1721415941.4927666     
  -3.4355759995127835E-003  -5.4598381676568579E-003   1924365740.4196918     
   5780571069.8287535       -203018539.00294518        130518509.53522377     
   5208571187.0253420        68373456.001819372        222958866.95074284     
   4580129579.9772835        151626370.19108605        303113112.79299855     
   3895246248.6845737        46740203.564853430        370981247.06199199     
   3153921193.1472144       -246285043.87687457        426563269.75772417     
   4613557931.3181467       -68825015.569342852        655220015.56703222     
   4023597914.4763093        86430949.261180401        643924544.94790733     
   3391306604.4508004        100582603.47946668        657900320.52808094     
   2716684001.2416191       -26370052.914486527        697147342.30754828     
   1999730104.8487673       -294427019.92067635        761665610.28631508     
   3261125040.1759148        9742582.0747746229        1129095056.0583801     
   2760511625.7886739        81054537.678959370        1030525926.9757519     
   2231677349.2787409        58296952.874169588        994785401.86498225     
   1674622210.6461146       -58530172.339597702        1021873480.7260671     
   1089346209.8907967       -269426837.96233851        1111790163.5590112     
   1723272396.4020534        32684253.929401636        1552143631.0092669     
   1419312320.9624388        52244221.255159020        1382763013.0342777     
   1101241814.4611106        24769418.375203609        1313768356.8037050     
   769060876.89806759       -49740154.710468590        1345159662.3175502     
   422769508.27330923       -171284498.00185740        1476936929.5758102     
  -3.4355759995127835E-003  -5.4598381676568579E-003   1924365740.4196918     
  -2.3973725934836750E-003  -1.0223484147165873E-002   1700635803.1234844     
  -2.0933861329379155E-003  -1.7435040361995509E-002   1614849185.3442531     
  -2.5274525489903761E-003  -2.7104777900155176E-002   1667005887.0819964     
  -3.6966766644112355E-003  -3.9228510549828122E-002   1857105908.3367155     
  -1.7037653339439902E-003  -5.1112960018319701E-004   751263692.42588568     
  -1.4322620470582793E-003   5.9996650504855003E-004   1134864917.4958639     
  -1.6304608762019988E-003   1.4556236252979450E-004   1458249000.5181575     
  -2.2984304477983736E-003  -1.8748309910049448E-003   1721415941.4927666     
  -3.4355759995127835E-003  -5.4598381676568579E-003   1924365740.4196918     
  -1627875371.0352502       -488362611.31057507        823243989.13761973     
  -1589114501.2827013       -165742601.64887321        982095263.24066615     
  -1592093715.5938921        17743794.467028141        1156528961.5868590     
  -1636813013.9688230        62096577.037129760        1346545084.1761980     
  -1723272396.4074941       -32684253.938569665        1552143631.0086837     
  -3936611747.0446777       -1180983524.1134033        1039184879.2714827     
  -3642519818.1374764       -470772447.97039795        924589437.66711473     
  -3431908057.3572865       -38828598.917428970        901375986.59672427     
  -3304776464.7041078        114848023.04550624        969544526.06031108     
  -3261125040.1779389       -9742582.0815957785        1129095056.0578752     
  -6926209128.0299864       -2077862738.4089961        1399086362.8274741     
  -6160215950.5657616       -915089538.96397662        962347440.77520990     
  -5519443025.2918139       -169717180.15322495        692790075.54775381     
  -5003890352.2081509        158254338.02325368        590414267.14510584     
  -4613557931.3147659        68825015.565463781        655220015.56726623     
  -10596667513.991179       -3179000254.1973534        1902948439.8055942     
  -9142202898.5675507       -1498693874.6296051        1095369272.5649509     
  -7854698619.3974762       -374921949.24036312        530771228.43994761     
  -6734154676.4809532        192315521.97037554        209154307.43058282     
  -5780571069.8179798        203018539.00260711        130518509.53685747     
  -3.4355759995127835E-003  -5.4598381676568579E-003   1924365740.4196918     
  -2.3973725934836750E-003  -1.0223484147165873E-002   1700635803.1234844     
  -2.0933861329379155E-003  -1.7435040361995509E-002   1614849185.3442531     
  -2.5274525489903761E-003  -2.7104777900155176E-002   1667005887.0819964     
  -3.6966766644112355E-003  -3.9228510549828122E-002   1857105908.3367155     
  -1723272396.4074941       -32684253.938569665        1552143631.0086837     
  -1419312320.9654181       -52244221.271618128        1382763013.0327172     
  -1101241814.4628389       -24769418.402988255        1313768356.8009450     
  -769060876.89975607        49740154.667319268        1345159662.3133707     
  -422769508.27616805        171284497.93931079        1476936929.5699914     
  -3261125040.1779389       -9742582.0815957785        1129095056.0578752     
  -2760511625.7884803       -81054537.691029310        1030525926.9735949     
  -2231677349.2772789       -58296952.894651294        994785401.86073208     
  -1674622210.6443334        58530172.307540298        1021873480.7192854     
  -1089346209.8896446        269426837.91554683        1111790163.5492558     
  -4613557931.3147659        68825015.565463781        655220015.56726623     
  -4023597914.4715853       -86430949.268454790        643924544.94612074     
  -3391306604.4454165       -100582603.49242461        657900320.52361190     
  -2716684001.2362647        26370052.893555403        697147342.29974139     
  -1999730104.8441296        294427019.88947701        761665610.27450788     
  -5780571069.8179798        203018539.00260711        130518509.53685747     
  -5208571187.0147238       -68373456.003883123        222958866.95029187     
  -4580129579.9672461       -151626370.19629979        303113112.78958529     
  -3895246248.6755424       -46740203.574633360        370981247.05473369     
  -3153921193.1396151        246285043.86111534        426563269.74574530     
 </DataArray>
 <DataArray  type="Float64" Name="VM" NumberOfComponents="1" format="ascii">
   9978588807.6108170     
   8701959274.4195004     
   7728978732.2413054     
   6841940040.0378208     
   5889048034.9300299     
   6615927941.8127279     
   5993900069.0801725     
   5567421772.3083925     
   5186676919.5931320     
   4784884708.2504206     
   3934752362.8566723     
   3786736885.0306787     
   3752822990.8165717     
   3759565713.9730983     
   3798397899.6485162     
   2031421865.0007026     
   2276599405.8365679     
   2564372192.5835633     
   2867787353.3698368     
   3184628972.7235980     
   1301226885.1634319     
   1965643696.8302984     
   2525761358.9839830     
   2981579871.6244855     
   3333099234.7518077     
   5889048034.9300299     
   5189112900.6761522     
   4536710458.0019894     
   3925040718.1246910     
   3366081921.7865529     
   4784884708.2504206     
   4134363742.8187075     
   3531071989.2540293     
   2985087887.1177311     
   2532742751.1282291     
   3798397899.6485162     
   3254104076.2573624     
   2796869021.6075492     
   2457331375.2707105     
   2293686376.5900259     
   3184628972.7235980     
   2771123726.3627748     
   2522703277.1980357     
   2461817514.3059082     
   2612377151.4103689     
   3333099234.7518077     
   2945587616.1805773     
   2797000835.5774574     
   2887338892.9424448     
   3216601788.2755418     
   1301226885.1634319     
   1965643696.8302984     
   2525761358.9839830     
   2981579871.6244855     
   3333099234.7518077     
   2031421865.0039077     
   2276599405.8391166     
   2564372192.5853381     
   2867787353.3705349     
   3184628972.7232747     
   3934752362.8591771     
   3786736885.0322595     
   3752822990.8172846     
   3759565713.9726610     
   3798397899.6468902     
   6615927941.8130074     
   5993900069.0789108     
   5567421772.3058386     
   5186676919.5892773     
   4784884708.2453070     
   9978588807.6078014     
   8701959274.4142075     
   7728978732.2340117     
   6841940040.0287056     
   5889048034.9191999     
   3333099234.7518077     
   2945587616.1805773     
   2797000835.5774574     
   2887338892.9424448     
   3216601788.2755418     
   3184628972.7232747     
   2771123726.3580317     
   2522703277.1886787     
   2461817514.2919903     
   2612377151.3918943     
   3798397899.6468902     
   3254104076.2503324     
   2796869021.5941181     
   2457331375.2493281     
   2293686376.5586176     
   4784884708.2453070     
   4134363742.8099370     
   3531071989.2405839     
   2985087887.0976553     
   2532742751.0977015     
   5889048034.9191999     
   5189112900.6644974     
   4536710457.9888811     
   3925040718.1089878     
   3366081921.7660642     
 </DataArray>
 <DataArray  type="Float64" Name="strain" NumberOfComponents="3" format="ascii">
  0.16071612396227586        0.0000000000000000        8.2461099058151174E-002
  0.14487657893641370       -2.0732783249024039E-002   4.7466001811082972E-002
  0.12903703391055157       -3.3024793943008654E-002   2.3000086565678323E-002
  0.11319748888468945       -3.6876032081953787E-002   9.0633533219372456E-003
   9.7357943858827289E-002  -3.2286497665859525E-002   5.6558020798596967E-003
  0.10504750510847513        0.0000000000000000        6.0627075722429008E-002
   9.8094818147976964E-002  -1.5549587436763743E-002   4.1701722433534649E-002
   9.1142131187478811E-002  -2.4768595457253843E-002   3.0020903273704699E-002
   8.4189444226980659E-002  -2.7657024061470289E-002   2.5584618242939165E-002
   7.7236757266482492E-002  -2.4214873249413113E-002   2.8392867341238064E-002
   5.9705278163491263E-002   0.0000000000000000        4.5031344768350037E-002
   5.8354801395757952E-002  -1.0366391624503441E-002   4.0065542298863735E-002
   5.7004324628024648E-002  -1.6512396971499033E-002   3.9059626085842694E-002
   5.5653847860291344E-002  -1.8438016040986775E-002   4.2013596129286936E-002
   5.4303371092558034E-002  -1.6143248832966663E-002   4.8927452429196473E-002
   2.4689443127324275E-002   0.0000000000000000        3.5673906195914276E-002
   2.5656528679756679E-002  -5.1831958122431389E-003   4.2557461407070230E-002
   2.6623614232189077E-002  -8.2561984857442289E-003   5.0116255002092325E-002
   2.7590699784621475E-002  -9.2190080205032682E-003   5.8350286980980513E-002
   2.8557785337053880E-002  -8.0716244165202396E-003   6.7259557343734899E-002
  -2.5840440898150518E-014   0.0000000000000000        3.2554760005121711E-002
  -2.6870866642880742E-014   1.7160751986100564E-014   4.9177479758154105E-002
  -2.7902159749348954E-014   1.0578343756506570E-014   6.3190790022453494E-002
  -2.8933019174948171E-014  -1.9755030944423879E-014   7.4594690798019891E-002
  -2.9960409153595435E-014  -7.3819422796717049E-014   8.3389182084853311E-002
   9.7357943858827289E-002  -3.2286497665859525E-002   5.6558020798596967E-003
   8.6467652503746606E-002  -2.4903298335096389E-002   9.6615509011988565E-003
   7.5577361148665950E-002  -2.0373541730034979E-002   1.3134901554363271E-002
   6.4687069793585295E-002  -1.8697227850675312E-002   1.6075854039352987E-002
   5.3796778438504611E-002  -1.9874356697017315E-002   1.8484408356168047E-002
   7.7236757266482492E-002  -2.4214873249413113E-002   2.8392867341238064E-002
   6.6627810494965925E-002  -1.8677473751361872E-002   2.7903396947742649E-002
   5.6018863723449344E-002  -1.5280156297596225E-002   2.8509013889550176E-002
   4.5409916951932749E-002  -1.4022920888116203E-002   3.0209718166660425E-002
   3.4800970180416169E-002  -1.4905767522921776E-002   3.3005509779073655E-002
   5.4303371092558034E-002  -1.6143248832966663E-002   4.8927452429196473E-002
   4.5603254408083105E-002  -1.2451649167627381E-002   4.4656123502282583E-002
   3.6903137723608169E-002  -1.0186770865157544E-002   4.3107367414149229E-002
   2.8203021039133233E-002  -9.3486139255572025E-003   4.4281184164796240E-002
   1.9502904354658304E-002  -9.9371783488262921E-003   4.8177573754223824E-002
   2.8557785337053880E-002  -8.0716244165202396E-003   6.7259557343734899E-002
   2.3393984243098184E-002  -6.2258245838928772E-003   5.9919730564818696E-002
   1.8230183149142494E-002  -5.0933854327188267E-003   5.6929962128160552E-002
   1.3066382055186804E-002  -4.6743069629981478E-003   5.8290252033760509E-002
   7.9025809612311079E-003  -4.9685891747308364E-003   6.4000600281618442E-002
  -2.9960409153595435E-014  -7.3819422796717049E-014   8.3389182084853311E-002
   1.1161210844434777E-014  -1.5840453948534616E-013   7.3694218135350986E-002
   5.2285432927678954E-014  -2.8011707536856889E-013   6.9976798031584297E-002
   9.3399680350936265E-014  -4.3910903559096770E-013   7.2236921773553175E-002
   1.3453127500895334E-013  -6.3532512584174583E-013   8.0474589361257676E-002
  -2.5840440898150518E-014   0.0000000000000000        3.2554760005121711E-002
  -2.6870866642880742E-014   1.7160751986100564E-014   4.9177479758154105E-002
  -2.7902159749348954E-014   1.0578343756506570E-014   6.3190790022453494E-002
  -2.8933019174948171E-014  -1.9755030944423879E-014   7.4594690798019891E-002
  -2.9960409153595435E-014  -7.3819422796717049E-014   8.3389182084853311E-002
  -2.4689443127367962E-002   0.0000000000000000        3.5673906195963521E-002
  -2.5656528679800655E-002   5.1831958122656192E-003   4.2557461407095536E-002
  -2.6623614232233341E-002   8.2561984857532616E-003   5.0116255002097224E-002
  -2.7590699784666033E-002   9.2190080204629446E-003   5.8350286980968578E-002
  -2.8557785337098723E-002   8.0716244163946439E-003   6.7259557343709628E-002
  -5.9705278163510948E-002   0.0000000000000000        4.5031344768430917E-002
  -5.8354801395772614E-002   1.0366391624514080E-002   4.0065542298908303E-002
  -5.7004324628034300E-002   1.6512396971495952E-002   3.9059626085858050E-002
  -5.5653847860295994E-002   1.8438016040945641E-002   4.2013596129280149E-002
  -5.4303371092557666E-002   1.6143248832863097E-002   4.8927452429174595E-002
 -0.10504750510845480        0.0000000000000000        6.0627075722523883E-002
  -9.8094818147942811E-002   1.5549587436762533E-002   4.1701722433592429E-002
  -9.1142131187430767E-002   2.4768595457238651E-002   3.0020903273736001E-002
  -8.4189444226918778E-002   2.7657024061428316E-002   2.5584618242954587E-002
  -7.7236757266406761E-002   2.4214873249331560E-002   2.8392867341248205E-002
 -0.16071612396219953        0.0000000000000000        8.2461099058242421E-002
 -0.14487657893631115        2.0732783249010997E-002   4.7466001811147879E-002
 -0.12903703391042279        3.3024793942981329E-002   2.3000086565731062E-002
 -0.11319748888453443        3.6876032081911023E-002   9.0633533219919224E-003
  -9.7357943858646045E-002   3.2286497665800024E-002   5.6558020799304907E-003
  -2.9960409153595435E-014  -7.3819422796717049E-014   8.3389182084853311E-002
   1.1161210844434777E-014  -1.5840453948534616E-013   7.3694218135350986E-002
   5.2285432927678954E-014  -2.8011707536856889E-013   6.9976798031584297E-002
   9.3399680350936265E-014  -4.3910903559096770E-013   7.2236921773553175E-002
   1.3453127500895334E-013  -6.3532512584174583E-013   8.0474589361257676E-002
  -2.8557785337098723E-002   8.0716244163946439E-003   6.7259557343709628E-002
  -2.3393984243065546E-002   6.2258245836334563E-003   5.9919730564751077E-002
  -1.8230183149032374E-002   5.0933854322643907E-003   5.6929962128040953E-002
  -1.3066382054999198E-002   4.6743069622874351E-003   5.8290252033579397E-002
  -7.9025809609660214E-003   4.9685891737026866E-003   6.4000600281366296E-002
  -5.4303371092557666E-002   1.6143248832863097E-002   4.8927452429174595E-002
  -4.5603254408019531E-002   1.2451649167425248E-002   4.4656123502189116E-002
  -3.6903137723481388E-002   1.0186770864808872E-002   4.3107367413965057E-002
  -2.8203021038943260E-002   9.3486139250140068E-003   4.4281184164502364E-002
  -1.9502904354405146E-002   9.9371783480406706E-003   4.8177573753801092E-002
  -7.7236757266406761E-002   2.4214873249331560E-002   2.8392867341248205E-002
  -6.6627810494850809E-002   1.8677473751217012E-002   2.7903396947665235E-002
  -5.6018863723294822E-002   1.5280156297353338E-002   2.8509013889356515E-002
  -4.5409916951738856E-002   1.4022920887740580E-002   3.0209718166322130E-002
  -3.4800970180182876E-002   1.4905767522378599E-002   3.3005509778562009E-002
  -9.7357943858646045E-002   3.2286497665800024E-002   5.6558020799304907E-003
  -8.6467652503559311E-002   2.4903298335008900E-002   9.6615509011793149E-003
  -7.5577361148472605E-002   2.0373541729897901E-002   1.3134901554215362E-002
  -6.4687069793385871E-002   1.8697227850467155E-002   1.6075854039038460E-002
  -5.3796778438299164E-002   1.9874356696716666E-002   1.8484408355648962E-002
 </DataArray>
 </PointData>
 </Piece>
 <Piece  NumberOfPoints="           100 "  NumberOfCells="           64 ">
 <Points>
 <DataArray  type="Float64" NumberOfComponents="3"  format="ascii" >
  0.50000000000000000        0.0000000000000000        0.0000000000000000     
  0.62500000000000000        0.0000000000000000        0.0000000000000000     
  0.75000000000000000        0.0000000000000000        0.0000000000000000     
  0.87500000000000000        0.0000000000000000        0.0000000000000000     
   1.0000000000000000        0.0000000000000000        0.0000000000000000     
  0.50000000000000000       0.12500000000000000        0.0000000000000000     
  0.62500000000000000       0.12500000000000000        0.0000000000000000     
  0.75000000000000000       0.12500000000000000        0.0000000000000000     
  0.87500000000000000       0.12500000000000000        0.0000000000000000     
   1.0000000000000000       0.12500000000000000        0.0000000000000000     
  0.50000000000000000       0.25000000000000000        0.0000000000000000     
  0.62500000000000000       0.25000000000000000        0.0000000000000000     
  0.75000000000000000       0.25000000000000000        0.0000000000000000     
  0.87500000000000000       0.25000000000000000        0.0000000000000000     
   1.0000000000000000       0.25000000000000000        0.0000000000000000     
  0.50000000000000000       0.37500000000000000        0.0000000000000000     
  0.62500000000000000       0.37500000000000000        0.0000000000000000     
  0.75000000000000000       0.37500000000000000        0.0000000000000000     
  0.87500000000000000       0.37500000000000000        0.0000000000000000     
   1.0000000000000000       0.37500000000000000        0.0000000000000000     
  0.50000000000000000       0.50000000000000000        0.0000000000000000     
  0.62500000000000000       0.50000000000000000        0.0000000000000000     
  0.75000000000000000       0.50000000000000000        0.0000000000000000     
  0.87500000000000000       0.50000000000000000        0.0000000000000000     
   1.0000000000000000       0.50000000000000000        0.0000000000000000     
   1.0000000000000000        0.0000000000000000        0.0000000000000000     
   1.1250000000000000        0.0000000000000000        0.0000000000000000     
   1.2500000000000000        0.0000000000000000        0.0000000000000000     
   1.3750000000000000        0.0000000000000000        0.0000000000000000     
   1.5000000000000000        0.0000000000000000        0.0000000000000000     
   1.0000000000000000       0.12500000000000000        0.0000000000000000     
   1.1250000000000000       0.12500000000000000        0.0000000000000000     
   1.2500000000000000       0.12500000000000000        0.0000000000000000     
   1.3750000000000000       0.12500000000000000        0.0000000000000000     
   1.5000000000000000       0.12500000000000000        0.0000000000000000     
   1.0000000000000000       0.25000000000000000        0.0000000000000000     
   1.1250000000000000       0.25000000000000000        0.0000000000000000     
   1.2500000000000000       0.25000000000000000        0.0000000000000000     
   1.3750000000000000       0.25000000000000000        0.0000000000000000     
   1.5000000000000000       0.25000000000000000        0.0000000000000000     
   1.0000000000000000       0.37500000000000000        0.0000000000000000     
   1.1250000000000000       0.37500000000000000        0.0000000000000000     
   1.2500000000000000       0.37500000000000000        0.0000000000000000     
   1.3750000000000000       0.37500000000000000        0.0000000000000000     
   1.5000000000000000       0.37500000000000000        0.0000000000000000     
   1.0000000000000000       0.50000000000000000        0.0000000000000000     
   1.1250000000000000       0.50000000000000000        0.0000000000000000     
   1.2500000000000000       0.50000000000000000        0.0000000000000000     
   1.3750000000000000       0.50000000000000000        0.0000000000000000     
   1.5000000000000000       0.50000000000000000        0.0000000000000000     
  0.50000000000000000       0.50000000000000000        0.0000000000000000     
  0.62500000000000000       0.50000000000000000        0.0000000000000000     
  0.75000000000000000       0.50000000000000000        0.0000000000000000     
  0.87500000000000000       0.50000000000000000        0.0000000000000000     
   1.0000000000000000       0.50000000000000000        0.0000000000000000     
  0.50000000000000000       0.62500000000000000        0.0000000000000000     
  0.62500000000000000       0.62500000000000000        0.0000000000000000     
  0.75000000000000000       0.62500000000000000        0.0000000000000000     
  0.87500000000000000       0.62500000000000000        0.0000000000000000     
   1.0000000000000000       0.62500000000000000        0.0000000000000000     
  0.50000000000000000       0.75000000000000000        0.0000000000000000     
  0.62500000000000000       0.75000000000000000        0.0000000000000000     
  0.75000000000000000       0.75000000000000000        0.0000000000000000     
  0.87500000000000000       0.75000000000000000        0.0000000000000000     
   1.0000000000000000       0.75000000000000000        0.0000000000000000     
  0.50000000000000000       0.87500000000000000        0.0000000000000000     
  0.62500000000000000       0.87500000000000000        0.0000000000000000     
  0.75000000000000000       0.87500000000000000        0.0000000000000000     
  0.87500000000000000       0.87500000000000000        0.0000000000000000     
   1.0000000000000000       0.87500000000000000        0.0000000000000000     
  0.50000000000000000        1.0000000000000000        0.0000000000000000     
  0.62500000000000000        1.0000000000000000        0.0000000000000000     
  0.75000000000000000        1.0000000000000000        0.0000000000000000     
  0.87500000000000000        1.0000000000000000        0.0000000000000000     
   1.0000000000000000        1.0000000000000000        0.0000000000000000     
   1.0000000000000000       0.50000000000000000        0.0000000000000000     
   1.1250000000000000       0.50000000000000000        0.0000000000000000     
   1.2500000000000000       0.50000000000000000        0.0000000000000000     
   1.3750000000000000       0.50000000000000000        0.0000000000000000     
   1.5000000000000000       0.50000000000000000        0.0000000000000000     
   1.0000000000000000       0.62500000000000000        0.0000000000000000     
   1.1250000000000000       0.62500000000000000        0.0000000000000000     
   1.2500000000000000       0.62500000000000000        0.0000000000000000     
   1.3750000000000000       0.62500000000000000        0.0000000000000000     
   1.5000000000000000       0.62500000000000000        0.0000000000000000     
   1.0000000000000000       0.75000000000000000        0.0000000000000000     
   1.1250000000000000       0.75000000000000000        0.0000000000000000     
   1.2500000000000000       0.75000000000000000        0.0000000000000000     
   1.3750000000000000       0.75000000000000000        0.0000000000000000     
   1.5000000000000000       0.75000000000000000        0.0000000000000000     
   1.0000000000000000       0.87500000000000000        0.0000000000000000     
   1.1250000000000000       0.87500000000000000        0.0000000000000000     
   1.2500000000000000       0.87500000000000000        0.0000000000000000     
   1.3750000000000000       0.87500000000000000        0.0000000000000000     
   1.5000000000000000       0.87500000000000000        0.0000000000000000     
   1.0000000000000000        1.0000000000000000        0.0000000000000000     
   1.1250000000000000        1.0000000000000000        0.0000000000000000     
   1.2500000000000000        1.0000000000000000        0.0000000000000000     
   1.3750000000000000        1.0000000000000000        0.0000000000000000     
   1.5000000000000000        1.0000000000000000        0.0000000000000000     
 </DataArray>
 </Points>
 <Cells>
 <DataArray  type="Int32"  Name="connectivity"  format="ascii">
           0           1           6           5
           1           2           7           6
           2           3           8           7
           3           4           9           8
           5           6          11          10
           6           7          12          11
           7           8          13          12
           8           9          14          13
          10          11          16          15
          11          12          17          16
          12          13          18          17
          13          14          19          18
          15          16          21          20
          16          17          22          21
          17          18          23          22
          18          19          24          23
          25          26          31          30
          26          27          32          31
          27          28          33          32
          28          29          34          33
          30          31          36          35
          31          32          37          36
          32          33          38          37
          33          34          39          38
          35          36          41          40
          36          37          42          41
          37          38          43          42
          38          39          44          43
          40          41          46          45
          41          42          47          46
          42          43          48          47
          43          44          49          48
          50          51          56          55
          51          52          57          56
          52          53          58          57
          53          54          59          58
          55          56          61          60
          56          57          62          61
          57          58          63          62
          58          59          64          63
          60          61          66          65
          61          62          67          66
          62          63          68          67
          63          64          69          68
          65          66          71          70
          66          67          72          71
          67          68          73          72
          68          69          74          73
          75          76          81          80
          76          77          82          81
          77          78          83          82
          78          79          84          83
          80          81          86          85
          81          82          87          86
          82          83          88          87
          83          84          89          88
          85          86          91          90
          86          87          92          91
          87          88          93          92
          88          89          94          93
          90          91          96          95
          91          92          97          96
          92          93          98          97
          93          94          99          98
 </DataArray>
 <DataArray  type="Int32"  Name="offsets"  format="ascii"> 
           4
           8
          12
          16
          20
          24
          28
          32
          36
          40
          44
          48
          52
          56
          60
          64
          68
          72
          76
          80
          84
          88
          92
          96
         100
         104
         108
         112
         116
         120
         124
         128
         132
         136
         140
         144
         148
         152
         156
         160
         164
         168
         172
         176
         180
         184
         188
         192
         196
         200
         204
         208
         212
         216
         220
         224
         228
         232
         236
         240
         244
         248
         252
         256
 </DataArray>
 <DataArray  type="UInt8"  Name="types"  format="ascii">
 9
 9
 9
 9
 9
 9
 9
 9
 9
 9
 9
 9
 9
 9
 9
 9
 9
 9
 9
 9
 9
 9
 9
 9
 9
 9
 9
 9
 9
 9
 9
 9
 9
 9
 9
 9
 9
 9
 9
 9
 9
 9
 9
 9
 9
 9
 9
 9
 9
 9
 9
 9
 9
 9
 9
 9
 9
 9
 9
 9
 9
 9
 9
 9
 </DataArray>
 </Cells> 
 <PointData>
 <DataArray  type="Float64" Name="disp" NumberOfComponents="3" format="ascii">
   6.5380076607833487E-002   6.0505709173269043E-002   0.0000000000000000     
   7.6732867659036919E-002   8.3987928142107260E-002   0.0000000000000000     
   8.6628145004819940E-002  0.10937564069116593        0.0000000000000000     
   9.5065908645182551E-002  0.13666884682044503        0.0000000000000000     
  0.10204615858012477       0.16586754652994457        0.0000000000000000     
   4.5726568675461286E-002   5.7682519812848096E-002   0.0000000000000000     
   5.4553386384307442E-002   8.1179575102042448E-002   0.0000000000000000     
   6.2161716077138343E-002  0.10679849607762944        0.0000000000000000     
   6.8551557753954009E-002  0.13453928273960908        0.0000000000000000     
   7.3722911414754427E-002  0.16440193508798137        0.0000000000000000     
   2.8278719930033547E-002   5.5665955983998872E-002   0.0000000000000000     
   3.4371414682891087E-002   7.9173608644869137E-002   0.0000000000000000     
   3.9568215600439278E-002  0.10495767849654214        0.0000000000000000     
   4.3869122682678112E-002  0.13301816553901785        0.0000000000000000     
   4.7274135929607580E-002  0.16335506977229633        0.0000000000000000     
   1.3036530371550271E-002   5.4456017686721363E-002   0.0000000000000000     
   1.6186952554787873E-002   7.7970028770587368E-002   0.0000000000000000     
   1.8847643574722735E-002  0.10385318794790407        0.0000000000000000     
   2.1018603431354858E-002  0.13210549521867143        0.0000000000000000     
   2.2699832124684245E-002  0.16272695058288952        0.0000000000000000     
   1.1454379111874857E-014   5.4052704921015590E-002   0.0000000000000000     
  -2.2100377083944522E-015   7.7568835479197129E-002   0.0000000000000000     
  -1.1272666827766287E-014  0.10348502443171520        0.0000000000000000     
  -1.5731014581243929E-014  0.13180127177856979        0.0000000000000000     
  -1.5596898772507473E-014  0.16251757751976093        0.0000000000000000     
  0.10204615858012477       0.16586754652994457        0.0000000000000000     
  0.10761665653573971       0.19682185225250848        0.0000000000000000     
  0.11182516423812050       0.22938187642098062        0.0000000000000000     
  0.11467168168726717       0.26354761903536106        0.0000000000000000     
  0.11615620888317971       0.29931908009564967        0.0000000000000000     
   7.3722911414754427E-002  0.16440193508798137        0.0000000000000000     
   7.7759223607901495E-002  0.19589753414766223        0.0000000000000000     
   8.0743940881757112E-002  0.22853716094356780        0.0000000000000000     
   8.2677063236321263E-002  0.26232081547569785        0.0000000000000000     
   8.3558590671593963E-002  0.29724849774405260        0.0000000000000000     
   4.7274135929607580E-002  0.16335506977229633        0.0000000000000000     
   4.9870636542663278E-002  0.19523730692991600        0.0000000000000000     
   5.1746005723280759E-002  0.22793379274541534        0.0000000000000000     
   5.2900243471460016E-002  0.26144452721879435        0.0000000000000000     
   5.3333349787201070E-002  0.29576951035005300        0.0000000000000000     
   2.2699832124684245E-002  0.16272695058288952        0.0000000000000000     
   2.3950895340025053E-002  0.19484117059926970        0.0000000000000000     
   2.4831358762691460E-002  0.22757177182652330        0.0000000000000000     
   2.5341222392683452E-002  0.26091875426465033        0.0000000000000000     
   2.5480486230001029E-002  0.29488211791365093        0.0000000000000000     
  -1.5596898772507473E-014  0.16251757751976093        0.0000000000000000     
  -1.3178694246995803E-014  0.19470912515572331        0.0000000000000000     
  -1.0793449467527694E-014  0.22745109818689169        0.0000000000000000     
  -8.4563432645179404E-015  0.26074349661326601        0.0000000000000000     
  -6.1513294458137580E-015  0.29458632043484634        0.0000000000000000     
   1.1454379111874857E-014   5.4052704921015590E-002   0.0000000000000000     
  -2.2100377083944522E-015   7.7568835479197129E-002   0.0000000000000000     
  -1.1272666827766287E-014  0.10348502443171520        0.0000000000000000     
  -1.5731014581243929E-014  0.13180127177856979        0.0000000000000000     
  -1.5596898772507473E-014  0.16251757751976093        0.0000000000000000     
  -1.3036530371518537E-002   5.4456017686866261E-002   0.0000000000000000     
  -1.6186952554783415E-002   7.7970028770687816E-002   0.0000000000000000     
  -1.8847643574736814E-002  0.10385318794796873        0.0000000000000000     
  -2.1018603431378700E-002  0.13210549521870907        0.0000000000000000     
  -2.2699832124709107E-002  0.16272695058290879        0.0000000000000000     
  -2.8278719929975337E-002   5.5665955984258109E-002   0.0000000000000000     
  -3.4371414682860015E-002   7.9173608645048812E-002   0.0000000000000000     
  -3.9568215600427933E-002  0.10495767849665792        0.0000000000000000     
  -4.3869122682679076E-002  0.13301816553908541        0.0000000000000000     
  -4.7274135929613444E-002  0.16335506977233127        0.0000000000000000     
  -4.5726568675358945E-002   5.7682519813191162E-002   0.0000000000000000     
  -5.4553386384232010E-002   8.1179575102280174E-002   0.0000000000000000     
  -6.2161716077084650E-002  0.10679849607778272        0.0000000000000000     
  -6.8551557753916845E-002  0.13453928273969884        0.0000000000000000     
  -7.3722911414728629E-002  0.16440193508802850        0.0000000000000000     
  -6.5380076607669368E-002   6.0505709173665385E-002   0.0000000000000000     
  -7.6732867658899390E-002   8.3987928142381874E-002   0.0000000000000000     
  -8.6628145004706961E-002  0.10937564069134317        0.0000000000000000     
  -9.5065908645092026E-002  0.13666884682054936        0.0000000000000000     
 -0.10204615858005463       0.16586754653000035        0.0000000000000000     
  -1.5596898772507473E-014  0.16251757751976093        0.0000000000000000     
  -1.3178694246995803E-014  0.19470912515572331        0.0000000000000000     
  -1.0793449467527694E-014  0.22745109818689169        0.0000000000000000     
  -8.4563432645179404E-015  0.26074349661326601        0.0000000000000000     
  -6.1513294458137580E-015  0.29458632043484634        0.0000000000000000     
  -2.2699832124709107E-002  0.16272695058290879        0.0000000000000000     
  -2.3950895340046442E-002  0.19484117059927658        0.0000000000000000     
  -2.4831358762709151E-002  0.22757177182652111        0.0000000000000000     
  -2.5341222392697253E-002  0.26091875426464239        0.0000000000000000     
  -2.5480486230010715E-002  0.29488211791364050        0.0000000000000000     
  -4.7274135929613444E-002  0.16335506977233127        0.0000000000000000     
  -4.9870636542669766E-002  0.19523730692992905        0.0000000000000000     
  -5.1746005723286789E-002  0.22793379274541217        0.0000000000000000     
  -5.2900243471464506E-002  0.26144452721878064        0.0000000000000000     
  -5.3333349787202902E-002  0.29576951035003451        0.0000000000000000     
  -7.3722911414728629E-002  0.16440193508802850        0.0000000000000000     
  -7.7759223607883163E-002  0.19589753414768082        0.0000000000000000     
  -8.0743940881743706E-002  0.22853716094356491        0.0000000000000000     
  -8.2677063236310203E-002  0.26232081547568070        0.0000000000000000     
  -8.3558590671582694E-002  0.29724849774402845        0.0000000000000000     
 -0.10204615858005463       0.16586754653000035        0.0000000000000000     
 -0.10761665653568661       0.19682185225253179        0.0000000000000000     
 -0.11182516423807985       0.22938187642097926        0.0000000000000000     
 -0.11467168168723438       0.26354761903534279        0.0000000000000000     
 -0.11615620888315015       0.29931908009562236        0.0000000000000000     
 </DataArray>
 <DataArray  type="Float64" Name="stress" NumberOfComponents="3" format="ascii">
   5862117239.2360058        209914151.19153380        327347935.91696662     
   5096001915.9771709       -11781664.331928730        232011636.47305813     
   4369016995.5926962       -103042803.60752249        173089142.03003344     
   3681162478.0825887       -63869266.635226250        150580452.58789799     
   3032438363.4468412        105738946.58493280        164485568.14664695     
   4594337796.1124821        216760573.40890360        717312758.23348820     
   3953631178.6828008        30652674.267687321        623494457.41250920     
   3342272363.4090800       -57629217.686983824        581517990.75562823     
   2760261350.2913232       -48085102.455122232        591383358.26284170     
   2207598139.3295274        59285019.963281751        653090559.93415606     
   3194725108.5326819        184057022.28939033        1112201522.4947813     
   2723507280.2556148        46761064.527468801        1008488186.1252664     
   2271854653.4161072       -25317555.109257102        972044713.08305717     
   1839767228.0141602       -32178836.620780706        1002871103.3681568     
   1427245004.0497727        26177219.992893338        1100967356.9805660     
   1663279176.4966042        111803497.83299297        1512014228.7008514     
   1405630220.6956110        36543506.447398126        1386992822.6113296     
   1157763865.6137760       -6107815.8743369579        1344669309.0123258     
   919680111.25109923       -16150469.132210255        1385043687.9038422     
   691378957.60758054        6415546.6737779081        1508115959.2858770     
   4.2515441716634572E-003   3.9713882365827360E-002   1916750876.8516948     
   2.7908993797328488E-003   2.7484287739460548E-002   1759008366.8706992     
   2.0873412888254730E-003   1.7778315449837843E-002   1699391778.5434330     
   2.1394058685791856E-003   1.0590738451056901E-002   1737901111.8698962     
   2.9500211797182730E-003   5.9309700008368183E-003   1874536366.8500886     
   3032438363.4468412        105738946.58493280        164485568.14664695     
   2411917590.0548639        216520773.78628600        168980139.02396539     
   1707901102.7608719        48983554.647597134        228926018.97587889     
   920388901.56486726       -396872710.83114403        344323208.00238806     
   49380986.466839552       -1121048022.6499500        515171706.10349679     
   2207598139.3295274        59285019.963281751        653090559.93415606     
   1726329460.2791054        137607960.66153967        589772848.84707689     
   1182438995.8022466        7191616.6050075293        585611336.60269558     
   575926745.89894974       -331964012.20631355        640606023.20101452     
  -93207289.430783123       -879858925.77243578        754756908.64203763     
   1427245004.0497727        26177219.992893338        1100967356.9805660     
   1095813818.6783462        75216893.989283264        994190280.48392749     
   722634776.35606146       -14902955.183853537        950274292.59809232     
   307707877.08291608       -244182327.52652639        969219393.32306063     
  -148966879.14108735       -612621223.03872597        1051025582.6588385     
   691378957.60758054        6415546.6737779081        1508115959.2858770     
   520370665.25259244        29347573.769538373        1382232433.9345217     
   328488444.42232203       -17300160.718975797        1322914886.9620733     
   115732295.11676866       -133527656.79176247        1330163318.3685350     
  -117897782.66406341       -319334914.44881785        1403977728.1539073     
   2.9500211797182730E-003   5.9309700008368183E-003   1874536366.8500886     
   1.8375868592336296E-003   2.2853056443565053E-003   1753899309.1988568     
   1.0226252079569300E-003  -3.6808925870693803E-004   1703533119.6946380     
   5.0327187472388232E-004  -2.0361231016248742E-003   1723437798.3374319     
   2.8182584471253970E-004  -2.7132142686416326E-003   1813613345.1272395     
   4.2515441716634572E-003   3.9713882365827360E-002   1916750876.8516948     
   2.7908993797328488E-003   2.7484287739460548E-002   1759008366.8706992     
   2.0873412888254730E-003   1.7778315449837843E-002   1699391778.5434330     
   2.1394058685791856E-003   1.0590738451056901E-002   1737901111.8698962     
   2.9500211797182730E-003   5.9309700008368183E-003   1874536366.8500886     
  -1663279176.4927921       -111803497.76963079        1512014228.6950984     
  -1405630220.6934762       -36543506.403634250        1386992822.6072001     
  -1157763865.6120789        6107815.9026293159        1344669309.0096557     
  -919680111.24860013        16150469.149167955        1385043687.9024644     
  -691378957.60304034       -6415546.6640250683        1508115959.2856281     
  -3194725108.5332770       -184057022.24200690        1112201522.4851635     
  -2723507280.2571139       -46761064.494964004        1008488186.1185727     
  -2271854653.4175439        25317555.130095720        972044713.07896161     
  -1839767228.0145679        32178836.633178353        1002871103.3663285     
  -1427245004.0481889       -26177219.985726953        1100967356.9806747     
  -4594337796.1172037       -216760573.37741566        717312758.22188783     
  -3953631178.6881199       -30652674.246505737        623494457.40481758     
  -3342272363.4143090        57629217.700172186        581517990.75135219     
  -2760261350.2957673        48085102.462613225        591383358.26148927     
  -2207598139.3324962       -59285019.959175587        653090559.93523026     
  -5862117239.2445688       -209914151.17585731        327347935.90527278     
  -5096001915.9864988        11781664.341742754        232011636.46593532     
  -4369016995.6023750        103042803.61285186        173089142.02682543     
  -3681162478.0921931        63869266.637488604        150580452.58794570     
  -3032438363.4559622       -105738946.58437181        164485568.14929256     
   2.9500211797182730E-003   5.9309700008368183E-003   1874536366.8500886     
   1.8375868592336296E-003   2.2853056443565053E-003   1753899309.1988568     
   1.0226252079569300E-003  -3.6808925870693803E-004   1703533119.6946380     
   5.0327187472388232E-004  -2.0361231016248742E-003   1723437798.3374319     
   2.8182584471253970E-004  -2.7132142686416326E-003   1813613345.1272395     
  -691378957.60304034       -6415546.6640250683        1508115959.2856281     
  -520370665.24967027       -29347573.765523434        1382232433.9343765     
  -328488444.42056972        17300160.718745634        1322914886.9621408     
  -115732295.11573675        133527656.78879222        1330163318.3689220     
   117897782.66483027        319334914.44461143        1403977728.1547194     
  -1427245004.0481889       -26177219.985726953        1100967356.9806747     
  -1095813818.6774709       -75216893.986226857        994190280.48407769     
  -722634776.35558522        14902955.183832586        950274292.59850025     
  -307707877.08253163        244182327.52445331        969219393.32394052     
   148966879.14168939        612621223.03562915        1051025582.6604056     
  -2207598139.3324962       -59285019.959175587        653090559.93523026     
  -1726329460.2815604       -137607960.65981257        589772848.84796047     
  -1182438995.8040235       -7191616.6051098704        585611336.60371602     
  -575926745.89988279        331964012.20494461        640606023.20249498     
   93207289.430865020        879858925.77034199        754756908.64429843     
  -3032438363.4559622       -105738946.58437181        164485568.14929256     
  -2411917590.0619450       -216520773.78629196        168980139.02602866     
  -1707901102.7658846       -48983554.648074150        228926018.97779059     
  -920388901.56778872        396872710.83026946        344323208.00458121     
  -49380986.467649937        1121048022.6487477        515171706.10640019     
 </DataArray>
 <DataArray  type="Float64" Name="VM" NumberOfComponents="1" format="ascii">
   5787867580.2411242     
   5117704750.9252672     
   4431591434.3104773     
   3722656717.8842373     
   2994558869.2126288     
   4658612069.6218443     
   4083771018.3199711     
   3518694039.0231166     
   2967033059.8280468     
   2454731878.8469572     
   3655558862.3290758     
   3216126500.5827589     
   2837973770.6559911     
   2542092022.2848544     
   2374181881.2776632     
   3074345181.4445472     
   2774348997.1684608     
   2602293706.3774900     
   2572151562.8242283     
   2701268533.1614389     
   3319909904.1593318     
   3046691862.3588066     
   2943432902.4020638     
   3010133024.2891035     
   3246792228.0199251     
   2994558869.2126288     
   2329733956.0437617     
   1729996492.7508874     
   1313611941.1060326     
   1452842478.8860347     
   2454731878.8469572     
   1950663661.3003335     
   1555163002.0352802     
   1365359625.2385907     
   1552354352.5691497     
   2374181881.2776632     
   2022197996.2264884     
   1800626614.6197910     
   1745739003.8319201     
   1902682303.6221464     
   2701268533.1614389     
   2447054310.2099786     
   2316073887.2066145     
   2314018241.5104136     
   2447792103.0714645     
   3246792228.0199251     
   3037842714.8923759     
   2950605915.6874266     
   2985081830.4050765     
   3141270459.0453281     
   3319909904.1593318     
   3046691862.3588066     
   2943432902.4020638     
   3010133024.2891035     
   3246792228.0199251     
   3074345181.4489012     
   2774348997.1717100     
   2602293706.3789544     
   2572151562.8242393     
   2701268533.1610904     
   3655558862.3391213     
   3216126500.5910110     
   2837973770.6614661     
   2542092022.2876310     
   2374181881.2789459     
   4658612069.6350937     
   4083771018.3316722     
   3518694039.0324855     
   2967033059.8350143     
   2454731878.8521957     
   5787867580.2550278     
   5117704750.9385061     
   4431591434.3225069     
   3722656717.8949804     
   2994558869.2224045     
   3246792228.0199251     
   3037842714.8923759     
   2950605915.6874266     
   2985081830.4050765     
   3141270459.0453281     
   2701268533.1610904     
   2447054310.2095075     
   2316073887.2064571     
   2314018241.5107536     
   2447792103.0724010     
   2374181881.2789459     
   2022197996.2269664     
   1800626614.6202395     
   1745739003.8328183     
   1902682303.6238177     
   2454731878.8521957     
   1950663661.3038635     
   1555163002.0377417     
   1365359625.2405598     
   1552354352.5713053     
   2994558869.2224045     
   2329733956.0512099     
   1729996492.7563019     
   1313611941.1096749     
   1452842478.8885155     
 </DataArray>
 <DataArray  type="Float64" Name="strain" NumberOfComponents="3" format="ascii">
   9.6652383231309091E-002  -2.5812017009654464E-002   1.4185077223068554E-002
   8.4992273587945838E-002  -2.5676370652084668E-002   1.0053837580499186E-002
   7.3332163944582557E-002  -2.3562465038088856E-002   7.5005294879681161E-003
   6.1672054301219276E-002  -1.9470300167666713E-002   6.5251529454755791E-003
   5.0011944657856022E-002  -1.3399876040818659E-002   7.1277079530213672E-003
   7.5488493734830187E-002  -1.9359012757080685E-002   3.1083552856784491E-002
   6.5740589606708241E-002  -1.9257277988952548E-002   2.7018093154542067E-002
   5.5992685478586254E-002  -1.7671848778495133E-002   2.5199112932743892E-002
   4.6244781350464330E-002  -1.4602725125708652E-002   2.5626612191389807E-002
   3.6496877222342378E-002  -1.0049907030592942E-002   2.8300590930480096E-002
   5.2325133364097748E-002  -1.2906008504506905E-002   4.8195399308107192E-002
   4.5157982681622903E-002  -1.2838185325820262E-002   4.3701154732094877E-002
   3.7990831999148073E-002  -1.1781232518901487E-002   4.2121937566932478E-002
   3.0823681316673242E-002  -9.7351500837504785E-003   4.3457747812620129E-002
   2.3656530634198411E-002  -6.6999380203673076E-003   4.7708585469157863E-002
   2.7162302119111775E-002  -6.4530042519331393E-003   6.5520616577036894E-002
   2.3244452812689859E-002  -6.4190926626880862E-003   6.0103022313157617E-002
   1.9326603506267952E-002  -5.8906162593078300E-003   5.8269003390534119E-002
   1.5408754199846037E-002  -4.8675750417923333E-003   6.0018559809166497E-002
   1.1490904893424119E-002  -3.3499690101416041E-003   6.5351691569054668E-002
  -1.2771034230141254E-013   6.4064031857213877E-013   8.3059204663573444E-002
  -9.0906449035088599E-014   4.4411696542567825E-013   7.6223695897730301E-002
  -5.4102555768764660E-014   2.8586855105316999E-013   7.3640310403548764E-002
  -1.7296927778964744E-014   1.6581527817471908E-013   7.5309048181028834E-002
   1.9512169657787126E-014   8.4099394115355608E-014   8.1229909230170511E-002
   5.0011944657856022E-002  -1.3399876040818659E-002   7.1277079530213672E-003
   3.9116022631982966E-002  -8.4509083871695534E-003   7.3224726910385007E-003
   2.8220100606109882E-002  -7.7231129363444090E-003   9.9201274889547525E-003
   1.7324178580236840E-002  -1.1216489688343403E-002   1.4920672346770150E-002
   6.4282565543637427E-003  -1.8931038643166698E-002   2.2324107264484860E-002
   3.6496877222342378E-002  -1.0049907030592942E-002   2.8300590930480096E-002
   2.8084117868010725E-002  -6.3381812903698653E-003   2.5556823450039998E-002
   1.9671358513679071E-002  -5.7923347022611066E-003   2.5376491252783476E-002
   1.1258599159347397E-002  -8.4123672662666411E-003   2.7759594338710628E-002
   2.8458398050157929E-003  -1.4198278982386681E-002   3.2706132707821634E-002
   2.3656530634198411E-002  -6.6999380203673076E-003   4.7708585469157863E-002
   1.7887479174692689E-002  -4.2254541935703438E-003   4.3081578820970190E-002
   1.2118427715186959E-002  -3.8615564681778666E-003   4.1178552679250670E-002
   6.3493762556812335E-003  -5.6082448441900200E-003   4.1999507043999296E-002
   5.8032479617550758E-004  -9.4655193216066635E-003   4.5544441915216338E-002
   1.1490904893424119E-002  -3.3499690101416041E-003   6.5351691569054668E-002
   8.5261065520288483E-003  -2.1127270967706557E-003   5.9896738803829272E-002
   5.5613082106335792E-003  -1.9307782340945399E-003   5.7326311768356508E-002
   2.5965098692382902E-003  -2.8041224221132177E-003   5.7640410462636522E-002
  -3.6828847215696764E-004  -4.7327596608266465E-003   6.0839034886669321E-002
   1.9512169657787126E-014   8.4099394115355608E-014   8.1229909230170511E-002
   1.9199919432111301E-014   2.8900493109773606E-014   7.6002303398617133E-002
   1.8884199759483522E-014  -1.1247947018233617E-014   7.3819768520100984E-002
   1.8568480086855743E-014  -3.6451744400700647E-014   7.4682304594622051E-002
   1.8263168755083825E-014  -4.6629367034256575E-014   7.8589911622180375E-002
  -1.2771034230141254E-013   6.4064031857213877E-013   8.3059204663573444E-002
  -9.0906449035088599E-014   4.4411696542567825E-013   7.6223695897730301E-002
  -5.4102555768764660E-014   2.8586855105316999E-013   7.3640310403548764E-002
  -1.7296927778964744E-014   1.6581527817471908E-013   7.5309048181028834E-002
   1.9512169657787126E-014   8.4099394115355608E-014   8.1229909230170511E-002
  -2.7162302119365052E-002   6.4530042529701154E-003   6.5520616576787594E-002
  -2.3244452812873097E-002   6.4190926634068099E-003   6.0103022312978670E-002
  -1.9326603506381129E-002   5.8906162597708832E-003   5.8269003390418420E-002
  -1.5408754199889175E-002   4.8675750420624662E-003   6.0018559809106788E-002
  -1.1490904893397214E-002   3.3499690102814506E-003   6.5351691569043885E-002
  -5.2325133364344585E-002   1.2906008505299604E-002   4.8195399307690415E-002
  -4.5157982681810413E-002   1.2838185326369503E-002   4.3701154731804817E-002
  -3.7990831999276213E-002   1.1781232519255981E-002   4.2121937566755002E-002
  -3.0823681316742024E-002   9.7351500839591449E-003   4.3457747812540901E-002
  -2.3656530634207848E-002   6.6999380204788295E-003   4.7708585469162575E-002
  -7.5488493735066317E-002   1.9359012757629093E-002   3.1083552856281806E-002
  -6.5740589606902794E-002   1.9257277989332168E-002   2.7018093154208760E-002
  -5.5992685478739340E-002   1.7671848778741079E-002   2.5199112932558596E-002
  -4.6244781350575859E-002   1.4602725125855726E-002   2.5626612191331204E-002
  -3.6496877222412391E-002   1.0049907030676222E-002   2.8300590930526642E-002
  -9.6652383231530192E-002   2.5812017009958554E-002   1.4185077222561820E-002
  -8.4992273588150369E-002   2.5676370652294875E-002   1.0053837580190531E-002
  -7.3332163944770518E-002   2.3562465038226073E-002   7.5005294878291023E-003
  -6.1672054301390666E-002   1.9470300167752447E-002   6.5251529454776469E-003
  -5.0011944658010843E-002   1.3399876040873615E-002   7.1277079531360116E-003
   1.9512169657787126E-014   8.4099394115355608E-014   8.1229909230170511E-002
   1.9199919432111301E-014   2.8900493109773606E-014   7.6002303398617133E-002
   1.8884199759483522E-014  -1.1247947018233617E-014   7.3819768520100984E-002
   1.8568480086855743E-014  -3.6451744400700647E-014   7.4682304594622051E-002
   1.8263168755083825E-014  -4.6629367034256575E-014   7.8589911622180375E-002
  -1.1490904893397214E-002   3.3499690102814506E-003   6.5351691569043885E-002
  -8.5261065520002219E-003   2.1127270968229611E-003   5.9896738803822985E-002
  -5.5613082106032233E-003   1.9307782340819424E-003   5.7326311768359436E-002
  -2.5965098692062403E-003   2.8041224220585539E-003   5.7640410462653287E-002
   3.6828847219078087E-004   4.7327596607527056E-003   6.0839034886704502E-002
  -2.3656530634207848E-002   6.6999380204788295E-003   4.7708585469162575E-002
  -1.7887479174693383E-002   4.2254541936169072E-003   4.3081578820976699E-002
  -1.2118427715178917E-002   3.8615564681751362E-003   4.1178552679268343E-002
  -6.3493762556644604E-003   5.6082448441535466E-003   4.1999507044037425E-002
  -5.8032479614998980E-004   9.4655193215520406E-003   4.5544441915284242E-002
  -3.6496877222412391E-002   1.0049907030676222E-002   2.8300590930526642E-002
  -2.8084117868060275E-002   6.3381812904109245E-003   2.5556823450078286E-002
  -1.9671358513708177E-002   5.7923347022682866E-003   2.5376491252827694E-002
  -1.1258599159356102E-002   8.4123672662484907E-003   2.7759594338774785E-002
  -2.8458398050039595E-003   1.4198278982351376E-002   3.2706132707919597E-002
  -5.0011944658010843E-002   1.3399876040873615E-002   7.1277079531360116E-003
  -3.9116022632100955E-002   8.4509083872048585E-003   7.3224726911279084E-003
  -2.8220100606191040E-002   7.7231129363615203E-003   9.9201274890375925E-003
  -1.7324178580281159E-002   1.1216489688343434E-002   1.4920672346865185E-002
  -6.4282565543712367E-003   1.8931038643150710E-002   2.2324107264610676E-002
 </DataArray>
 </PointData>
 </Piece>
 </UnstructuredGrid>
 </VTKFile>
