 <VTKFile type="UnstructuredGrid"  version="0.1"   >
 <UnstructuredGrid>
 <Piece  NumberOfPoints="          1600 "  NumberOfCells="         1024 ">
 <Points>
 <DataArray  type="Float64" NumberOfComponents="3"  format="ascii" >
   0.0000000000000000        0.0000000000000000        0.0000000000000000     
   3.1250000000000000E-002   0.0000000000000000        0.0000000000000000     
   6.2500000000000000E-002   0.0000000000000000        0.0000000000000000     
   9.3750000000000000E-002   0.0000000000000000        0.0000000000000000     
  0.12500000000000000        0.0000000000000000        0.0000000000000000     
   0.0000000000000000        3.1250000000000000E-002   0.0000000000000000     
   3.1250000000000000E-002   3.1250000000000000E-002   0.0000000000000000     
   6.2500000000000000E-002   3.1250000000000000E-002   0.0000000000000000     
   9.3750000000000000E-002   3.1250000000000000E-002   0.0000000000000000     
  0.12500000000000000        3.1250000000000000E-002   0.0000000000000000     
   0.0000000000000000        6.2500000000000000E-002   0.0000000000000000     
   3.1250000000000000E-002   6.2500000000000000E-002   0.0000000000000000     
   6.2500000000000000E-002   6.2500000000000000E-002   0.0000000000000000     
   9.3750000000000000E-002   6.2500000000000000E-002   0.0000000000000000     
  0.12500000000000000        6.2500000000000000E-002   0.0000000000000000     
   0.0000000000000000        9.3750000000000000E-002   0.0000000000000000     
   3.1250000000000000E-002   9.3750000000000000E-002   0.0000000000000000     
   6.2500000000000000E-002   9.3750000000000000E-002   0.0000000000000000     
   9.3750000000000000E-002   9.3750000000000000E-002   0.0000000000000000     
  0.12500000000000000        9.3750000000000000E-002   0.0000000000000000     
   0.0000000000000000       0.12500000000000000        0.0000000000000000     
   3.1250000000000000E-002  0.12500000000000000        0.0000000000000000     
   6.2500000000000000E-002  0.12500000000000000        0.0000000000000000     
   9.3750000000000000E-002  0.12500000000000000        0.0000000000000000     
  0.12500000000000000       0.12500000000000000        0.0000000000000000     
  0.12500000000000000        0.0000000000000000        0.0000000000000000     
  0.15625000000000000        0.0000000000000000        0.0000000000000000     
  0.18750000000000000        0.0000000000000000        0.0000000000000000     
  0.21875000000000000        0.0000000000000000        0.0000000000000000     
  0.25000000000000000        0.0000000000000000        0.0000000000000000     
  0.12500000000000000        3.1250000000000000E-002   0.0000000000000000     
  0.15625000000000000        3.1250000000000000E-002   0.0000000000000000     
  0.18750000000000000        3.1250000000000000E-002   0.0000000000000000     
  0.21875000000000000        3.1250000000000000E-002   0.0000000000000000     
  0.25000000000000000        3.1250000000000000E-002   0.0000000000000000     
  0.12500000000000000        6.2500000000000000E-002   0.0000000000000000     
  0.15625000000000000        6.2500000000000000E-002   0.0000000000000000     
  0.18750000000000000        6.2500000000000000E-002   0.0000000000000000     
  0.21875000000000000        6.2500000000000000E-002   0.0000000000000000     
  0.25000000000000000        6.2500000000000000E-002   0.0000000000000000     
  0.12500000000000000        9.3750000000000000E-002   0.0000000000000000     
  0.15625000000000000        9.3750000000000000E-002   0.0000000000000000     
  0.18750000000000000        9.3750000000000000E-002   0.0000000000000000     
  0.21875000000000000        9.3750000000000000E-002   0.0000000000000000     
  0.25000000000000000        9.3750000000000000E-002   0.0000000000000000     
  0.12500000000000000       0.12500000000000000        0.0000000000000000     
  0.15625000000000000       0.12500000000000000        0.0000000000000000     
  0.18750000000000000       0.12500000000000000        0.0000000000000000     
  0.21875000000000000       0.12500000000000000        0.0000000000000000     
  0.25000000000000000       0.12500000000000000        0.0000000000000000     
  0.25000000000000000        0.0000000000000000        0.0000000000000000     
  0.28125000000000000        0.0000000000000000        0.0000000000000000     
  0.31250000000000000        0.0000000000000000        0.0000000000000000     
  0.34375000000000000        0.0000000000000000        0.0000000000000000     
  0.37500000000000000        0.0000000000000000        0.0000000000000000     
  0.25000000000000000        3.1250000000000000E-002   0.0000000000000000     
  0.28125000000000000        3.1250000000000000E-002   0.0000000000000000     
  0.31250000000000000        3.1250000000000000E-002   0.0000000000000000     
  0.34375000000000000        3.1250000000000000E-002   0.0000000000000000     
  0.37500000000000000        3.1250000000000000E-002   0.0000000000000000     
  0.25000000000000000        6.2500000000000000E-002   0.0000000000000000     
  0.28125000000000000        6.2500000000000000E-002   0.0000000000000000     
  0.31250000000000000        6.2500000000000000E-002   0.0000000000000000     
  0.34375000000000000        6.2500000000000000E-002   0.0000000000000000     
  0.37500000000000000        6.2500000000000000E-002   0.0000000000000000     
  0.25000000000000000        9.3750000000000000E-002   0.0000000000000000     
  0.28125000000000000        9.3750000000000000E-002   0.0000000000000000     
  0.31250000000000000        9.3750000000000000E-002   0.0000000000000000     
  0.34375000000000000        9.3750000000000000E-002   0.0000000000000000     
  0.37500000000000000        9.3750000000000000E-002   0.0000000000000000     
  0.25000000000000000       0.12500000000000000        0.0000000000000000     
  0.28125000000000000       0.12500000000000000        0.0000000000000000     
  0.31250000000000000       0.12500000000000000        0.0000000000000000     
  0.34375000000000000       0.12500000000000000        0.0000000000000000     
  0.37500000000000000       0.12500000000000000        0.0000000000000000     
  0.37500000000000000        0.0000000000000000        0.0000000000000000     
  0.40625000000000000        0.0000000000000000        0.0000000000000000     
  0.43750000000000000        0.0000000000000000        0.0000000000000000     
  0.46875000000000000        0.0000000000000000        0.0000000000000000     
  0.50000000000000000        0.0000000000000000        0.0000000000000000     
  0.37500000000000000        3.1250000000000000E-002   0.0000000000000000     
  0.40625000000000000        3.1250000000000000E-002   0.0000000000000000     
  0.43750000000000000        3.1250000000000000E-002   0.0000000000000000     
  0.46875000000000000        3.1250000000000000E-002   0.0000000000000000     
  0.50000000000000000        3.1250000000000000E-002   0.0000000000000000     
  0.37500000000000000        6.2500000000000000E-002   0.0000000000000000     
  0.40625000000000000        6.2500000000000000E-002   0.0000000000000000     
  0.43750000000000000        6.2500000000000000E-002   0.0000000000000000     
  0.46875000000000000        6.2500000000000000E-002   0.0000000000000000     
  0.50000000000000000        6.2500000000000000E-002   0.0000000000000000     
  0.37500000000000000        9.3750000000000000E-002   0.0000000000000000     
  0.40625000000000000        9.3750000000000000E-002   0.0000000000000000     
  0.43750000000000000        9.3750000000000000E-002   0.0000000000000000     
  0.46875000000000000        9.3750000000000000E-002   0.0000000000000000     
  0.50000000000000000        9.3750000000000000E-002   0.0000000000000000     
  0.37500000000000000       0.12500000000000000        0.0000000000000000     
  0.40625000000000000       0.12500000000000000        0.0000000000000000     
  0.43750000000000000       0.12500000000000000        0.0000000000000000     
  0.46875000000000000       0.12500000000000000        0.0000000000000000     
  0.50000000000000000       0.12500000000000000        0.0000000000000000     
  0.50000000000000000        0.0000000000000000        0.0000000000000000     
  0.53125000000000000        0.0000000000000000        0.0000000000000000     
  0.56250000000000000        0.0000000000000000        0.0000000000000000     
  0.59375000000000000        0.0000000000000000        0.0000000000000000     
  0.62500000000000000        0.0000000000000000        0.0000000000000000     
  0.50000000000000000        3.1250000000000000E-002   0.0000000000000000     
  0.53125000000000000        3.1250000000000000E-002   0.0000000000000000     
  0.56250000000000000        3.1250000000000000E-002   0.0000000000000000     
  0.59375000000000000        3.1250000000000000E-002   0.0000000000000000     
  0.62500000000000000        3.1250000000000000E-002   0.0000000000000000     
  0.50000000000000000        6.2500000000000000E-002   0.0000000000000000     
  0.53125000000000000        6.2500000000000000E-002   0.0000000000000000     
  0.56250000000000000        6.2500000000000000E-002   0.0000000000000000     
  0.59375000000000000        6.2500000000000000E-002   0.0000000000000000     
  0.62500000000000000        6.2500000000000000E-002   0.0000000000000000     
  0.50000000000000000        9.3750000000000000E-002   0.0000000000000000     
  0.53125000000000000        9.3750000000000000E-002   0.0000000000000000     
  0.56250000000000000        9.3750000000000000E-002   0.0000000000000000     
  0.59375000000000000        9.3750000000000000E-002   0.0000000000000000     
  0.62500000000000000        9.3750000000000000E-002   0.0000000000000000     
  0.50000000000000000       0.12500000000000000        0.0000000000000000     
  0.53125000000000000       0.12500000000000000        0.0000000000000000     
  0.56250000000000000       0.12500000000000000        0.0000000000000000     
  0.59375000000000000       0.12500000000000000        0.0000000000000000     
  0.62500000000000000       0.12500000000000000        0.0000000000000000     
  0.62500000000000000        0.0000000000000000        0.0000000000000000     
  0.65625000000000000        0.0000000000000000        0.0000000000000000     
  0.68750000000000000        0.0000000000000000        0.0000000000000000     
  0.71875000000000000        0.0000000000000000        0.0000000000000000     
  0.75000000000000000        0.0000000000000000        0.0000000000000000     
  0.62500000000000000        3.1250000000000000E-002   0.0000000000000000     
  0.65625000000000000        3.1250000000000000E-002   0.0000000000000000     
  0.68750000000000000        3.1250000000000000E-002   0.0000000000000000     
  0.71875000000000000        3.1250000000000000E-002   0.0000000000000000     
  0.75000000000000000        3.1250000000000000E-002   0.0000000000000000     
  0.62500000000000000        6.2500000000000000E-002   0.0000000000000000     
  0.65625000000000000        6.2500000000000000E-002   0.0000000000000000     
  0.68750000000000000        6.2500000000000000E-002   0.0000000000000000     
  0.71875000000000000        6.2500000000000000E-002   0.0000000000000000     
  0.75000000000000000        6.2500000000000000E-002   0.0000000000000000     
  0.62500000000000000        9.3750000000000000E-002   0.0000000000000000     
  0.65625000000000000        9.3750000000000000E-002   0.0000000000000000     
  0.68750000000000000        9.3750000000000000E-002   0.0000000000000000     
  0.71875000000000000        9.3750000000000000E-002   0.0000000000000000     
  0.75000000000000000        9.3750000000000000E-002   0.0000000000000000     
  0.62500000000000000       0.12500000000000000        0.0000000000000000     
  0.65625000000000000       0.12500000000000000        0.0000000000000000     
  0.68750000000000000       0.12500000000000000        0.0000000000000000     
  0.71875000000000000       0.12500000000000000        0.0000000000000000     
  0.75000000000000000       0.12500000000000000        0.0000000000000000     
  0.75000000000000000        0.0000000000000000        0.0000000000000000     
  0.78125000000000000        0.0000000000000000        0.0000000000000000     
  0.81250000000000000        0.0000000000000000        0.0000000000000000     
  0.84375000000000000        0.0000000000000000        0.0000000000000000     
  0.87500000000000000        0.0000000000000000        0.0000000000000000     
  0.75000000000000000        3.1250000000000000E-002   0.0000000000000000     
  0.78125000000000000        3.1250000000000000E-002   0.0000000000000000     
  0.81250000000000000        3.1250000000000000E-002   0.0000000000000000     
  0.84375000000000000        3.1250000000000000E-002   0.0000000000000000     
  0.87500000000000000        3.1250000000000000E-002   0.0000000000000000     
  0.75000000000000000        6.2500000000000000E-002   0.0000000000000000     
  0.78125000000000000        6.2500000000000000E-002   0.0000000000000000     
  0.81250000000000000        6.2500000000000000E-002   0.0000000000000000     
  0.84375000000000000        6.2500000000000000E-002   0.0000000000000000     
  0.87500000000000000        6.2500000000000000E-002   0.0000000000000000     
  0.75000000000000000        9.3750000000000000E-002   0.0000000000000000     
  0.78125000000000000        9.3750000000000000E-002   0.0000000000000000     
  0.81250000000000000        9.3750000000000000E-002   0.0000000000000000     
  0.84375000000000000        9.3750000000000000E-002   0.0000000000000000     
  0.87500000000000000        9.3750000000000000E-002   0.0000000000000000     
  0.75000000000000000       0.12500000000000000        0.0000000000000000     
  0.78125000000000000       0.12500000000000000        0.0000000000000000     
  0.81250000000000000       0.12500000000000000        0.0000000000000000     
  0.84375000000000000       0.12500000000000000        0.0000000000000000     
  0.87500000000000000       0.12500000000000000        0.0000000000000000     
  0.87500000000000000        0.0000000000000000        0.0000000000000000     
  0.90625000000000000        0.0000000000000000        0.0000000000000000     
  0.93750000000000000        0.0000000000000000        0.0000000000000000     
  0.96875000000000000        0.0000000000000000        0.0000000000000000     
   1.0000000000000000        0.0000000000000000        0.0000000000000000     
  0.87500000000000000        3.1250000000000000E-002   0.0000000000000000     
  0.90625000000000000        3.1250000000000000E-002   0.0000000000000000     
  0.93750000000000000        3.1250000000000000E-002   0.0000000000000000     
  0.96875000000000000        3.1250000000000000E-002   0.0000000000000000     
   1.0000000000000000        3.1250000000000000E-002   0.0000000000000000     
  0.87500000000000000        6.2500000000000000E-002   0.0000000000000000     
  0.90625000000000000        6.2500000000000000E-002   0.0000000000000000     
  0.93750000000000000        6.2500000000000000E-002   0.0000000000000000     
  0.96875000000000000        6.2500000000000000E-002   0.0000000000000000     
   1.0000000000000000        6.2500000000000000E-002   0.0000000000000000     
  0.87500000000000000        9.3750000000000000E-002   0.0000000000000000     
  0.90625000000000000        9.3750000000000000E-002   0.0000000000000000     
  0.93750000000000000        9.3750000000000000E-002   0.0000000000000000     
  0.96875000000000000        9.3750000000000000E-002   0.0000000000000000     
   1.0000000000000000        9.3750000000000000E-002   0.0000000000000000     
  0.87500000000000000       0.12500000000000000        0.0000000000000000     
  0.90625000000000000       0.12500000000000000        0.0000000000000000     
  0.93750000000000000       0.12500000000000000        0.0000000000000000     
  0.96875000000000000       0.12500000000000000        0.0000000000000000     
   1.0000000000000000       0.12500000000000000        0.0000000000000000     
   0.0000000000000000       0.12500000000000000        0.0000000000000000     
   3.1250000000000000E-002  0.12500000000000000        0.0000000000000000     
   6.2500000000000000E-002  0.12500000000000000        0.0000000000000000     
   9.3750000000000000E-002  0.12500000000000000        0.0000000000000000     
  0.12500000000000000       0.12500000000000000        0.0000000000000000     
   0.0000000000000000       0.15625000000000000        0.0000000000000000     
   3.1250000000000000E-002  0.15625000000000000        0.0000000000000000     
   6.2500000000000000E-002  0.15625000000000000        0.0000000000000000     
   9.3750000000000000E-002  0.15625000000000000        0.0000000000000000     
  0.12500000000000000       0.15625000000000000        0.0000000000000000     
   0.0000000000000000       0.18750000000000000        0.0000000000000000     
   3.1250000000000000E-002  0.18750000000000000        0.0000000000000000     
   6.2500000000000000E-002  0.18750000000000000        0.0000000000000000     
   9.3750000000000000E-002  0.18750000000000000        0.0000000000000000     
  0.12500000000000000       0.18750000000000000        0.0000000000000000     
   0.0000000000000000       0.21875000000000000        0.0000000000000000     
   3.1250000000000000E-002  0.21875000000000000        0.0000000000000000     
   6.2500000000000000E-002  0.21875000000000000        0.0000000000000000     
   9.3750000000000000E-002  0.21875000000000000        0.0000000000000000     
  0.12500000000000000       0.21875000000000000        0.0000000000000000     
   0.0000000000000000       0.25000000000000000        0.0000000000000000     
   3.1250000000000000E-002  0.25000000000000000        0.0000000000000000     
   6.2500000000000000E-002  0.25000000000000000        0.0000000000000000     
   9.3750000000000000E-002  0.25000000000000000        0.0000000000000000     
  0.12500000000000000       0.25000000000000000        0.0000000000000000     
  0.12500000000000000       0.12500000000000000        0.0000000000000000     
  0.15625000000000000       0.12500000000000000        0.0000000000000000     
  0.18750000000000000       0.12500000000000000        0.0000000000000000     
  0.21875000000000000       0.12500000000000000        0.0000000000000000     
  0.25000000000000000       0.12500000000000000        0.0000000000000000     
  0.12500000000000000       0.15625000000000000        0.0000000000000000     
  0.15625000000000000       0.15625000000000000        0.0000000000000000     
  0.18750000000000000       0.15625000000000000        0.0000000000000000     
  0.21875000000000000       0.15625000000000000        0.0000000000000000     
  0.25000000000000000       0.15625000000000000        0.0000000000000000     
  0.12500000000000000       0.18750000000000000        0.0000000000000000     
  0.15625000000000000       0.18750000000000000        0.0000000000000000     
  0.18750000000000000       0.18750000000000000        0.0000000000000000     
  0.21875000000000000       0.18750000000000000        0.0000000000000000     
  0.25000000000000000       0.18750000000000000        0.0000000000000000     
  0.12500000000000000       0.21875000000000000        0.0000000000000000     
  0.15625000000000000       0.21875000000000000        0.0000000000000000     
  0.18750000000000000       0.21875000000000000        0.0000000000000000     
  0.21875000000000000       0.21875000000000000        0.0000000000000000     
  0.25000000000000000       0.21875000000000000        0.0000000000000000     
  0.12500000000000000       0.25000000000000000        0.0000000000000000     
  0.15625000000000000       0.25000000000000000        0.0000000000000000     
  0.18750000000000000       0.25000000000000000        0.0000000000000000     
  0.21875000000000000       0.25000000000000000        0.0000000000000000     
  0.25000000000000000       0.25000000000000000        0.0000000000000000     
  0.25000000000000000       0.12500000000000000        0.0000000000000000     
  0.28125000000000000       0.12500000000000000        0.0000000000000000     
  0.31250000000000000       0.12500000000000000        0.0000000000000000     
  0.34375000000000000       0.12500000000000000        0.0000000000000000     
  0.37500000000000000       0.12500000000000000        0.0000000000000000     
  0.25000000000000000       0.15625000000000000        0.0000000000000000     
  0.28125000000000000       0.15625000000000000        0.0000000000000000     
  0.31250000000000000       0.15625000000000000        0.0000000000000000     
  0.34375000000000000       0.15625000000000000        0.0000000000000000     
  0.37500000000000000       0.15625000000000000        0.0000000000000000     
  0.25000000000000000       0.18750000000000000        0.0000000000000000     
  0.28125000000000000       0.18750000000000000        0.0000000000000000     
  0.31250000000000000       0.18750000000000000        0.0000000000000000     
  0.34375000000000000       0.18750000000000000        0.0000000000000000     
  0.37500000000000000       0.18750000000000000        0.0000000000000000     
  0.25000000000000000       0.21875000000000000        0.0000000000000000     
  0.28125000000000000       0.21875000000000000        0.0000000000000000     
  0.31250000000000000       0.21875000000000000        0.0000000000000000     
  0.34375000000000000       0.21875000000000000        0.0000000000000000     
  0.37500000000000000       0.21875000000000000        0.0000000000000000     
  0.25000000000000000       0.25000000000000000        0.0000000000000000     
  0.28125000000000000       0.25000000000000000        0.0000000000000000     
  0.31250000000000000       0.25000000000000000        0.0000000000000000     
  0.34375000000000000       0.25000000000000000        0.0000000000000000     
  0.37500000000000000       0.25000000000000000        0.0000000000000000     
  0.37500000000000000       0.12500000000000000        0.0000000000000000     
  0.40625000000000000       0.12500000000000000        0.0000000000000000     
  0.43750000000000000       0.12500000000000000        0.0000000000000000     
  0.46875000000000000       0.12500000000000000        0.0000000000000000     
  0.50000000000000000       0.12500000000000000        0.0000000000000000     
  0.37500000000000000       0.15625000000000000        0.0000000000000000     
  0.40625000000000000       0.15625000000000000        0.0000000000000000     
  0.43750000000000000       0.15625000000000000        0.0000000000000000     
  0.46875000000000000       0.15625000000000000        0.0000000000000000     
  0.50000000000000000       0.15625000000000000        0.0000000000000000     
  0.37500000000000000       0.18750000000000000        0.0000000000000000     
  0.40625000000000000       0.18750000000000000        0.0000000000000000     
  0.43750000000000000       0.18750000000000000        0.0000000000000000     
  0.46875000000000000       0.18750000000000000        0.0000000000000000     
  0.50000000000000000       0.18750000000000000        0.0000000000000000     
  0.37500000000000000       0.21875000000000000        0.0000000000000000     
  0.40625000000000000       0.21875000000000000        0.0000000000000000     
  0.43750000000000000       0.21875000000000000        0.0000000000000000     
  0.46875000000000000       0.21875000000000000        0.0000000000000000     
  0.50000000000000000       0.21875000000000000        0.0000000000000000     
  0.37500000000000000       0.25000000000000000        0.0000000000000000     
  0.40625000000000000       0.25000000000000000        0.0000000000000000     
  0.43750000000000000       0.25000000000000000        0.0000000000000000     
  0.46875000000000000       0.25000000000000000        0.0000000000000000     
  0.50000000000000000       0.25000000000000000        0.0000000000000000     
  0.50000000000000000       0.12500000000000000        0.0000000000000000     
  0.53125000000000000       0.12500000000000000        0.0000000000000000     
  0.56250000000000000       0.12500000000000000        0.0000000000000000     
  0.59375000000000000       0.12500000000000000        0.0000000000000000     
  0.62500000000000000       0.12500000000000000        0.0000000000000000     
  0.50000000000000000       0.15625000000000000        0.0000000000000000     
  0.53125000000000000       0.15625000000000000        0.0000000000000000     
  0.56250000000000000       0.15625000000000000        0.0000000000000000     
  0.59375000000000000       0.15625000000000000        0.0000000000000000     
  0.62500000000000000       0.15625000000000000        0.0000000000000000     
  0.50000000000000000       0.18750000000000000        0.0000000000000000     
  0.53125000000000000       0.18750000000000000        0.0000000000000000     
  0.56250000000000000       0.18750000000000000        0.0000000000000000     
  0.59375000000000000       0.18750000000000000        0.0000000000000000     
  0.62500000000000000       0.18750000000000000        0.0000000000000000     
  0.50000000000000000       0.21875000000000000        0.0000000000000000     
  0.53125000000000000       0.21875000000000000        0.0000000000000000     
  0.56250000000000000       0.21875000000000000        0.0000000000000000     
  0.59375000000000000       0.21875000000000000        0.0000000000000000     
  0.62500000000000000       0.21875000000000000        0.0000000000000000     
  0.50000000000000000       0.25000000000000000        0.0000000000000000     
  0.53125000000000000       0.25000000000000000        0.0000000000000000     
  0.56250000000000000       0.25000000000000000        0.0000000000000000     
  0.59375000000000000       0.25000000000000000        0.0000000000000000     
  0.62500000000000000       0.25000000000000000        0.0000000000000000     
  0.62500000000000000       0.12500000000000000        0.0000000000000000     
  0.65625000000000000       0.12500000000000000        0.0000000000000000     
  0.68750000000000000       0.12500000000000000        0.0000000000000000     
  0.71875000000000000       0.12500000000000000        0.0000000000000000     
  0.75000000000000000       0.12500000000000000        0.0000000000000000     
  0.62500000000000000       0.15625000000000000        0.0000000000000000     
  0.65625000000000000       0.15625000000000000        0.0000000000000000     
  0.68750000000000000       0.15625000000000000        0.0000000000000000     
  0.71875000000000000       0.15625000000000000        0.0000000000000000     
  0.75000000000000000       0.15625000000000000        0.0000000000000000     
  0.62500000000000000       0.18750000000000000        0.0000000000000000     
  0.65625000000000000       0.18750000000000000        0.0000000000000000     
  0.68750000000000000       0.18750000000000000        0.0000000000000000     
  0.71875000000000000       0.18750000000000000        0.0000000000000000     
  0.75000000000000000       0.18750000000000000        0.0000000000000000     
  0.62500000000000000       0.21875000000000000        0.0000000000000000     
  0.65625000000000000       0.21875000000000000        0.0000000000000000     
  0.68750000000000000       0.21875000000000000        0.0000000000000000     
  0.71875000000000000       0.21875000000000000        0.0000000000000000     
  0.75000000000000000       0.21875000000000000        0.0000000000000000     
  0.62500000000000000       0.25000000000000000        0.0000000000000000     
  0.65625000000000000       0.25000000000000000        0.0000000000000000     
  0.68750000000000000       0.25000000000000000        0.0000000000000000     
  0.71875000000000000       0.25000000000000000        0.0000000000000000     
  0.75000000000000000       0.25000000000000000        0.0000000000000000     
  0.75000000000000000       0.12500000000000000        0.0000000000000000     
  0.78125000000000000       0.12500000000000000        0.0000000000000000     
  0.81250000000000000       0.12500000000000000        0.0000000000000000     
  0.84375000000000000       0.12500000000000000        0.0000000000000000     
  0.87500000000000000       0.12500000000000000        0.0000000000000000     
  0.75000000000000000       0.15625000000000000        0.0000000000000000     
  0.78125000000000000       0.15625000000000000        0.0000000000000000     
  0.81250000000000000       0.15625000000000000        0.0000000000000000     
  0.84375000000000000       0.15625000000000000        0.0000000000000000     
  0.87500000000000000       0.15625000000000000        0.0000000000000000     
  0.75000000000000000       0.18750000000000000        0.0000000000000000     
  0.78125000000000000       0.18750000000000000        0.0000000000000000     
  0.81250000000000000       0.18750000000000000        0.0000000000000000     
  0.84375000000000000       0.18750000000000000        0.0000000000000000     
  0.87500000000000000       0.18750000000000000        0.0000000000000000     
  0.75000000000000000       0.21875000000000000        0.0000000000000000     
  0.78125000000000000       0.21875000000000000        0.0000000000000000     
  0.81250000000000000       0.21875000000000000        0.0000000000000000     
  0.84375000000000000       0.21875000000000000        0.0000000000000000     
  0.87500000000000000       0.21875000000000000        0.0000000000000000     
  0.75000000000000000       0.25000000000000000        0.0000000000000000     
  0.78125000000000000       0.25000000000000000        0.0000000000000000     
  0.81250000000000000       0.25000000000000000        0.0000000000000000     
  0.84375000000000000       0.25000000000000000        0.0000000000000000     
  0.87500000000000000       0.25000000000000000        0.0000000000000000     
  0.87500000000000000       0.12500000000000000        0.0000000000000000     
  0.90625000000000000       0.12500000000000000        0.0000000000000000     
  0.93750000000000000       0.12500000000000000        0.0000000000000000     
  0.96875000000000000       0.12500000000000000        0.0000000000000000     
   1.0000000000000000       0.12500000000000000        0.0000000000000000     
  0.87500000000000000       0.15625000000000000        0.0000000000000000     
  0.90625000000000000       0.15625000000000000        0.0000000000000000     
  0.93750000000000000       0.15625000000000000        0.0000000000000000     
  0.96875000000000000       0.15625000000000000        0.0000000000000000     
   1.0000000000000000       0.15625000000000000        0.0000000000000000     
  0.87500000000000000       0.18750000000000000        0.0000000000000000     
  0.90625000000000000       0.18750000000000000        0.0000000000000000     
  0.93750000000000000       0.18750000000000000        0.0000000000000000     
  0.96875000000000000       0.18750000000000000        0.0000000000000000     
   1.0000000000000000       0.18750000000000000        0.0000000000000000     
  0.87500000000000000       0.21875000000000000        0.0000000000000000     
  0.90625000000000000       0.21875000000000000        0.0000000000000000     
  0.93750000000000000       0.21875000000000000        0.0000000000000000     
  0.96875000000000000       0.21875000000000000        0.0000000000000000     
   1.0000000000000000       0.21875000000000000        0.0000000000000000     
  0.87500000000000000       0.25000000000000000        0.0000000000000000     
  0.90625000000000000       0.25000000000000000        0.0000000000000000     
  0.93750000000000000       0.25000000000000000        0.0000000000000000     
  0.96875000000000000       0.25000000000000000        0.0000000000000000     
   1.0000000000000000       0.25000000000000000        0.0000000000000000     
   0.0000000000000000       0.25000000000000000        0.0000000000000000     
   3.1250000000000000E-002  0.25000000000000000        0.0000000000000000     
   6.2500000000000000E-002  0.25000000000000000        0.0000000000000000     
   9.3750000000000000E-002  0.25000000000000000        0.0000000000000000     
  0.12500000000000000       0.25000000000000000        0.0000000000000000     
   0.0000000000000000       0.28125000000000000        0.0000000000000000     
   3.1250000000000000E-002  0.28125000000000000        0.0000000000000000     
   6.2500000000000000E-002  0.28125000000000000        0.0000000000000000     
   9.3750000000000000E-002  0.28125000000000000        0.0000000000000000     
  0.12500000000000000       0.28125000000000000        0.0000000000000000     
   0.0000000000000000       0.31250000000000000        0.0000000000000000     
   3.1250000000000000E-002  0.31250000000000000        0.0000000000000000     
   6.2500000000000000E-002  0.31250000000000000        0.0000000000000000     
   9.3750000000000000E-002  0.31250000000000000        0.0000000000000000     
  0.12500000000000000       0.31250000000000000        0.0000000000000000     
   0.0000000000000000       0.34375000000000000        0.0000000000000000     
   3.1250000000000000E-002  0.34375000000000000        0.0000000000000000     
   6.2500000000000000E-002  0.34375000000000000        0.0000000000000000     
   9.3750000000000000E-002  0.34375000000000000        0.0000000000000000     
  0.12500000000000000       0.34375000000000000        0.0000000000000000     
   0.0000000000000000       0.37500000000000000        0.0000000000000000     
   3.1250000000000000E-002  0.37500000000000000        0.0000000000000000     
   6.2500000000000000E-002  0.37500000000000000        0.0000000000000000     
   9.3750000000000000E-002  0.37500000000000000        0.0000000000000000     
  0.12500000000000000       0.37500000000000000        0.0000000000000000     
  0.12500000000000000       0.25000000000000000        0.0000000000000000     
  0.15625000000000000       0.25000000000000000        0.0000000000000000     
  0.18750000000000000       0.25000000000000000        0.0000000000000000     
  0.21875000000000000       0.25000000000000000        0.0000000000000000     
  0.25000000000000000       0.25000000000000000        0.0000000000000000     
  0.12500000000000000       0.28125000000000000        0.0000000000000000     
  0.15625000000000000       0.28125000000000000        0.0000000000000000     
  0.18750000000000000       0.28125000000000000        0.0000000000000000     
  0.21875000000000000       0.28125000000000000        0.0000000000000000     
  0.25000000000000000       0.28125000000000000        0.0000000000000000     
  0.12500000000000000       0.31250000000000000        0.0000000000000000     
  0.15625000000000000       0.31250000000000000        0.0000000000000000     
  0.18750000000000000       0.31250000000000000        0.0000000000000000     
  0.21875000000000000       0.31250000000000000        0.0000000000000000     
  0.25000000000000000       0.31250000000000000        0.0000000000000000     
  0.12500000000000000       0.34375000000000000        0.0000000000000000     
  0.15625000000000000       0.34375000000000000        0.0000000000000000     
  0.18750000000000000       0.34375000000000000        0.0000000000000000     
  0.21875000000000000       0.34375000000000000        0.0000000000000000     
  0.25000000000000000       0.34375000000000000        0.0000000000000000     
  0.12500000000000000       0.37500000000000000        0.0000000000000000     
  0.15625000000000000       0.37500000000000000        0.0000000000000000     
  0.18750000000000000       0.37500000000000000        0.0000000000000000     
  0.21875000000000000       0.37500000000000000        0.0000000000000000     
  0.25000000000000000       0.37500000000000000        0.0000000000000000     
  0.25000000000000000       0.25000000000000000        0.0000000000000000     
  0.28125000000000000       0.25000000000000000        0.0000000000000000     
  0.31250000000000000       0.25000000000000000        0.0000000000000000     
  0.34375000000000000       0.25000000000000000        0.0000000000000000     
  0.37500000000000000       0.25000000000000000        0.0000000000000000     
  0.25000000000000000       0.28125000000000000        0.0000000000000000     
  0.28125000000000000       0.28125000000000000        0.0000000000000000     
  0.31250000000000000       0.28125000000000000        0.0000000000000000     
  0.34375000000000000       0.28125000000000000        0.0000000000000000     
  0.37500000000000000       0.28125000000000000        0.0000000000000000     
  0.25000000000000000       0.31250000000000000        0.0000000000000000     
  0.28125000000000000       0.31250000000000000        0.0000000000000000     
  0.31250000000000000       0.31250000000000000        0.0000000000000000     
  0.34375000000000000       0.31250000000000000        0.0000000000000000     
  0.37500000000000000       0.31250000000000000        0.0000000000000000     
  0.25000000000000000       0.34375000000000000        0.0000000000000000     
  0.28125000000000000       0.34375000000000000        0.0000000000000000     
  0.31250000000000000       0.34375000000000000        0.0000000000000000     
  0.34375000000000000       0.34375000000000000        0.0000000000000000     
  0.37500000000000000       0.34375000000000000        0.0000000000000000     
  0.25000000000000000       0.37500000000000000        0.0000000000000000     
  0.28125000000000000       0.37500000000000000        0.0000000000000000     
  0.31250000000000000       0.37500000000000000        0.0000000000000000     
  0.34375000000000000       0.37500000000000000        0.0000000000000000     
  0.37500000000000000       0.37500000000000000        0.0000000000000000     
  0.37500000000000000       0.25000000000000000        0.0000000000000000     
  0.40625000000000000       0.25000000000000000        0.0000000000000000     
  0.43750000000000000       0.25000000000000000        0.0000000000000000     
  0.46875000000000000       0.25000000000000000        0.0000000000000000     
  0.50000000000000000       0.25000000000000000        0.0000000000000000     
  0.37500000000000000       0.28125000000000000        0.0000000000000000     
  0.40625000000000000       0.28125000000000000        0.0000000000000000     
  0.43750000000000000       0.28125000000000000        0.0000000000000000     
  0.46875000000000000       0.28125000000000000        0.0000000000000000     
  0.50000000000000000       0.28125000000000000        0.0000000000000000     
  0.37500000000000000       0.31250000000000000        0.0000000000000000     
  0.40625000000000000       0.31250000000000000        0.0000000000000000     
  0.43750000000000000       0.31250000000000000        0.0000000000000000     
  0.46875000000000000       0.31250000000000000        0.0000000000000000     
  0.50000000000000000       0.31250000000000000        0.0000000000000000     
  0.37500000000000000       0.34375000000000000        0.0000000000000000     
  0.40625000000000000       0.34375000000000000        0.0000000000000000     
  0.43750000000000000       0.34375000000000000        0.0000000000000000     
  0.46875000000000000       0.34375000000000000        0.0000000000000000     
  0.50000000000000000       0.34375000000000000        0.0000000000000000     
  0.37500000000000000       0.37500000000000000        0.0000000000000000     
  0.40625000000000000       0.37500000000000000        0.0000000000000000     
  0.43750000000000000       0.37500000000000000        0.0000000000000000     
  0.46875000000000000       0.37500000000000000        0.0000000000000000     
  0.50000000000000000       0.37500000000000000        0.0000000000000000     
  0.50000000000000000       0.25000000000000000        0.0000000000000000     
  0.53125000000000000       0.25000000000000000        0.0000000000000000     
  0.56250000000000000       0.25000000000000000        0.0000000000000000     
  0.59375000000000000       0.25000000000000000        0.0000000000000000     
  0.62500000000000000       0.25000000000000000        0.0000000000000000     
  0.50000000000000000       0.28125000000000000        0.0000000000000000     
  0.53125000000000000       0.28125000000000000        0.0000000000000000     
  0.56250000000000000       0.28125000000000000        0.0000000000000000     
  0.59375000000000000       0.28125000000000000        0.0000000000000000     
  0.62500000000000000       0.28125000000000000        0.0000000000000000     
  0.50000000000000000       0.31250000000000000        0.0000000000000000     
  0.53125000000000000       0.31250000000000000        0.0000000000000000     
  0.56250000000000000       0.31250000000000000        0.0000000000000000     
  0.59375000000000000       0.31250000000000000        0.0000000000000000     
  0.62500000000000000       0.31250000000000000        0.0000000000000000     
  0.50000000000000000       0.34375000000000000        0.0000000000000000     
  0.53125000000000000       0.34375000000000000        0.0000000000000000     
  0.56250000000000000       0.34375000000000000        0.0000000000000000     
  0.59375000000000000       0.34375000000000000        0.0000000000000000     
  0.62500000000000000       0.34375000000000000        0.0000000000000000     
  0.50000000000000000       0.37500000000000000        0.0000000000000000     
  0.53125000000000000       0.37500000000000000        0.0000000000000000     
  0.56250000000000000       0.37500000000000000        0.0000000000000000     
  0.59375000000000000       0.37500000000000000        0.0000000000000000     
  0.62500000000000000       0.37500000000000000        0.0000000000000000     
  0.62500000000000000       0.25000000000000000        0.0000000000000000     
  0.65625000000000000       0.25000000000000000        0.0000000000000000     
  0.68750000000000000       0.25000000000000000        0.0000000000000000     
  0.71875000000000000       0.25000000000000000        0.0000000000000000     
  0.75000000000000000       0.25000000000000000        0.0000000000000000     
  0.62500000000000000       0.28125000000000000        0.0000000000000000     
  0.65625000000000000       0.28125000000000000        0.0000000000000000     
  0.68750000000000000       0.28125000000000000        0.0000000000000000     
  0.71875000000000000       0.28125000000000000        0.0000000000000000     
  0.75000000000000000       0.28125000000000000        0.0000000000000000     
  0.62500000000000000       0.31250000000000000        0.0000000000000000     
  0.65625000000000000       0.31250000000000000        0.0000000000000000     
  0.68750000000000000       0.31250000000000000        0.0000000000000000     
  0.71875000000000000       0.31250000000000000        0.0000000000000000     
  0.75000000000000000       0.31250000000000000        0.0000000000000000     
  0.62500000000000000       0.34375000000000000        0.0000000000000000     
  0.65625000000000000       0.34375000000000000        0.0000000000000000     
  0.68750000000000000       0.34375000000000000        0.0000000000000000     
  0.71875000000000000       0.34375000000000000        0.0000000000000000     
  0.75000000000000000       0.34375000000000000        0.0000000000000000     
  0.62500000000000000       0.37500000000000000        0.0000000000000000     
  0.65625000000000000       0.37500000000000000        0.0000000000000000     
  0.68750000000000000       0.37500000000000000        0.0000000000000000     
  0.71875000000000000       0.37500000000000000        0.0000000000000000     
  0.75000000000000000       0.37500000000000000        0.0000000000000000     
  0.75000000000000000       0.25000000000000000        0.0000000000000000     
  0.78125000000000000       0.25000000000000000        0.0000000000000000     
  0.81250000000000000       0.25000000000000000        0.0000000000000000     
  0.84375000000000000       0.25000000000000000        0.0000000000000000     
  0.87500000000000000       0.25000000000000000        0.0000000000000000     
  0.75000000000000000       0.28125000000000000        0.0000000000000000     
  0.78125000000000000       0.28125000000000000        0.0000000000000000     
  0.81250000000000000       0.28125000000000000        0.0000000000000000     
  0.84375000000000000       0.28125000000000000        0.0000000000000000     
  0.87500000000000000       0.28125000000000000        0.0000000000000000     
  0.75000000000000000       0.31250000000000000        0.0000000000000000     
  0.78125000000000000       0.31250000000000000        0.0000000000000000     
  0.81250000000000000       0.31250000000000000        0.0000000000000000     
  0.84375000000000000       0.31250000000000000        0.0000000000000000     
  0.87500000000000000       0.31250000000000000        0.0000000000000000     
  0.75000000000000000       0.34375000000000000        0.0000000000000000     
  0.78125000000000000       0.34375000000000000        0.0000000000000000     
  0.81250000000000000       0.34375000000000000        0.0000000000000000     
  0.84375000000000000       0.34375000000000000        0.0000000000000000     
  0.87500000000000000       0.34375000000000000        0.0000000000000000     
  0.75000000000000000       0.37500000000000000        0.0000000000000000     
  0.78125000000000000       0.37500000000000000        0.0000000000000000     
  0.81250000000000000       0.37500000000000000        0.0000000000000000     
  0.84375000000000000       0.37500000000000000        0.0000000000000000     
  0.87500000000000000       0.37500000000000000        0.0000000000000000     
  0.87500000000000000       0.25000000000000000        0.0000000000000000     
  0.90625000000000000       0.25000000000000000        0.0000000000000000     
  0.93750000000000000       0.25000000000000000        0.0000000000000000     
  0.96875000000000000       0.25000000000000000        0.0000000000000000     
   1.0000000000000000       0.25000000000000000        0.0000000000000000     
  0.87500000000000000       0.28125000000000000        0.0000000000000000     
  0.90625000000000000       0.28125000000000000        0.0000000000000000     
  0.93750000000000000       0.28125000000000000        0.0000000000000000     
  0.96875000000000000       0.28125000000000000        0.0000000000000000     
   1.0000000000000000       0.28125000000000000        0.0000000000000000     
  0.87500000000000000       0.31250000000000000        0.0000000000000000     
  0.90625000000000000       0.31250000000000000        0.0000000000000000     
  0.93750000000000000       0.31250000000000000        0.0000000000000000     
  0.96875000000000000       0.31250000000000000        0.0000000000000000     
   1.0000000000000000       0.31250000000000000        0.0000000000000000     
  0.87500000000000000       0.34375000000000000        0.0000000000000000     
  0.90625000000000000       0.34375000000000000        0.0000000000000000     
  0.93750000000000000       0.34375000000000000        0.0000000000000000     
  0.96875000000000000       0.34375000000000000        0.0000000000000000     
   1.0000000000000000       0.34375000000000000        0.0000000000000000     
  0.87500000000000000       0.37500000000000000        0.0000000000000000     
  0.90625000000000000       0.37500000000000000        0.0000000000000000     
  0.93750000000000000       0.37500000000000000        0.0000000000000000     
  0.96875000000000000       0.37500000000000000        0.0000000000000000     
   1.0000000000000000       0.37500000000000000        0.0000000000000000     
   0.0000000000000000       0.37500000000000000        0.0000000000000000     
   3.1250000000000000E-002  0.37500000000000000        0.0000000000000000     
   6.2500000000000000E-002  0.37500000000000000        0.0000000000000000     
   9.3750000000000000E-002  0.37500000000000000        0.0000000000000000     
  0.12500000000000000       0.37500000000000000        0.0000000000000000     
   0.0000000000000000       0.40625000000000000        0.0000000000000000     
   3.1250000000000000E-002  0.40625000000000000        0.0000000000000000     
   6.2500000000000000E-002  0.40625000000000000        0.0000000000000000     
   9.3750000000000000E-002  0.40625000000000000        0.0000000000000000     
  0.12500000000000000       0.40625000000000000        0.0000000000000000     
   0.0000000000000000       0.43750000000000000        0.0000000000000000     
   3.1250000000000000E-002  0.43750000000000000        0.0000000000000000     
   6.2500000000000000E-002  0.43750000000000000        0.0000000000000000     
   9.3750000000000000E-002  0.43750000000000000        0.0000000000000000     
  0.12500000000000000       0.43750000000000000        0.0000000000000000     
   0.0000000000000000       0.46875000000000000        0.0000000000000000     
   3.1250000000000000E-002  0.46875000000000000        0.0000000000000000     
   6.2500000000000000E-002  0.46875000000000000        0.0000000000000000     
   9.3750000000000000E-002  0.46875000000000000        0.0000000000000000     
  0.12500000000000000       0.46875000000000000        0.0000000000000000     
   0.0000000000000000       0.50000000000000000        0.0000000000000000     
   3.1250000000000000E-002  0.50000000000000000        0.0000000000000000     
   6.2500000000000000E-002  0.50000000000000000        0.0000000000000000     
   9.3750000000000000E-002  0.50000000000000000        0.0000000000000000     
  0.12500000000000000       0.50000000000000000        0.0000000000000000     
  0.12500000000000000       0.37500000000000000        0.0000000000000000     
  0.15625000000000000       0.37500000000000000        0.0000000000000000     
  0.18750000000000000       0.37500000000000000        0.0000000000000000     
  0.21875000000000000       0.37500000000000000        0.0000000000000000     
  0.25000000000000000       0.37500000000000000        0.0000000000000000     
  0.12500000000000000       0.40625000000000000        0.0000000000000000     
  0.15625000000000000       0.40625000000000000        0.0000000000000000     
  0.18750000000000000       0.40625000000000000        0.0000000000000000     
  0.21875000000000000       0.40625000000000000        0.0000000000000000     
  0.25000000000000000       0.40625000000000000        0.0000000000000000     
  0.12500000000000000       0.43750000000000000        0.0000000000000000     
  0.15625000000000000       0.43750000000000000        0.0000000000000000     
  0.18750000000000000       0.43750000000000000        0.0000000000000000     
  0.21875000000000000       0.43750000000000000        0.0000000000000000     
  0.25000000000000000       0.43750000000000000        0.0000000000000000     
  0.12500000000000000       0.46875000000000000        0.0000000000000000     
  0.15625000000000000       0.46875000000000000        0.0000000000000000     
  0.18750000000000000       0.46875000000000000        0.0000000000000000     
  0.21875000000000000       0.46875000000000000        0.0000000000000000     
  0.25000000000000000       0.46875000000000000        0.0000000000000000     
  0.12500000000000000       0.50000000000000000        0.0000000000000000     
  0.15625000000000000       0.50000000000000000        0.0000000000000000     
  0.18750000000000000       0.50000000000000000        0.0000000000000000     
  0.21875000000000000       0.50000000000000000        0.0000000000000000     
  0.25000000000000000       0.50000000000000000        0.0000000000000000     
  0.25000000000000000       0.37500000000000000        0.0000000000000000     
  0.28125000000000000       0.37500000000000000        0.0000000000000000     
  0.31250000000000000       0.37500000000000000        0.0000000000000000     
  0.34375000000000000       0.37500000000000000        0.0000000000000000     
  0.37500000000000000       0.37500000000000000        0.0000000000000000     
  0.25000000000000000       0.40625000000000000        0.0000000000000000     
  0.28125000000000000       0.40625000000000000        0.0000000000000000     
  0.31250000000000000       0.40625000000000000        0.0000000000000000     
  0.34375000000000000       0.40625000000000000        0.0000000000000000     
  0.37500000000000000       0.40625000000000000        0.0000000000000000     
  0.25000000000000000       0.43750000000000000        0.0000000000000000     
  0.28125000000000000       0.43750000000000000        0.0000000000000000     
  0.31250000000000000       0.43750000000000000        0.0000000000000000     
  0.34375000000000000       0.43750000000000000        0.0000000000000000     
  0.37500000000000000       0.43750000000000000        0.0000000000000000     
  0.25000000000000000       0.46875000000000000        0.0000000000000000     
  0.28125000000000000       0.46875000000000000        0.0000000000000000     
  0.31250000000000000       0.46875000000000000        0.0000000000000000     
  0.34375000000000000       0.46875000000000000        0.0000000000000000     
  0.37500000000000000       0.46875000000000000        0.0000000000000000     
  0.25000000000000000       0.50000000000000000        0.0000000000000000     
  0.28125000000000000       0.50000000000000000        0.0000000000000000     
  0.31250000000000000       0.50000000000000000        0.0000000000000000     
  0.34375000000000000       0.50000000000000000        0.0000000000000000     
  0.37500000000000000       0.50000000000000000        0.0000000000000000     
  0.37500000000000000       0.37500000000000000        0.0000000000000000     
  0.40625000000000000       0.37500000000000000        0.0000000000000000     
  0.43750000000000000       0.37500000000000000        0.0000000000000000     
  0.46875000000000000       0.37500000000000000        0.0000000000000000     
  0.50000000000000000       0.37500000000000000        0.0000000000000000     
  0.37500000000000000       0.40625000000000000        0.0000000000000000     
  0.40625000000000000       0.40625000000000000        0.0000000000000000     
  0.43750000000000000       0.40625000000000000        0.0000000000000000     
  0.46875000000000000       0.40625000000000000        0.0000000000000000     
  0.50000000000000000       0.40625000000000000        0.0000000000000000     
  0.37500000000000000       0.43750000000000000        0.0000000000000000     
  0.40625000000000000       0.43750000000000000        0.0000000000000000     
  0.43750000000000000       0.43750000000000000        0.0000000000000000     
  0.46875000000000000       0.43750000000000000        0.0000000000000000     
  0.50000000000000000       0.43750000000000000        0.0000000000000000     
  0.37500000000000000       0.46875000000000000        0.0000000000000000     
  0.40625000000000000       0.46875000000000000        0.0000000000000000     
  0.43750000000000000       0.46875000000000000        0.0000000000000000     
  0.46875000000000000       0.46875000000000000        0.0000000000000000     
  0.50000000000000000       0.46875000000000000        0.0000000000000000     
  0.37500000000000000       0.50000000000000000        0.0000000000000000     
  0.40625000000000000       0.50000000000000000        0.0000000000000000     
  0.43750000000000000       0.50000000000000000        0.0000000000000000     
  0.46875000000000000       0.50000000000000000        0.0000000000000000     
  0.50000000000000000       0.50000000000000000        0.0000000000000000     
  0.50000000000000000       0.37500000000000000        0.0000000000000000     
  0.53125000000000000       0.37500000000000000        0.0000000000000000     
  0.56250000000000000       0.37500000000000000        0.0000000000000000     
  0.59375000000000000       0.37500000000000000        0.0000000000000000     
  0.62500000000000000       0.37500000000000000        0.0000000000000000     
  0.50000000000000000       0.40625000000000000        0.0000000000000000     
  0.53125000000000000       0.40625000000000000        0.0000000000000000     
  0.56250000000000000       0.40625000000000000        0.0000000000000000     
  0.59375000000000000       0.40625000000000000        0.0000000000000000     
  0.62500000000000000       0.40625000000000000        0.0000000000000000     
  0.50000000000000000       0.43750000000000000        0.0000000000000000     
  0.53125000000000000       0.43750000000000000        0.0000000000000000     
  0.56250000000000000       0.43750000000000000        0.0000000000000000     
  0.59375000000000000       0.43750000000000000        0.0000000000000000     
  0.62500000000000000       0.43750000000000000        0.0000000000000000     
  0.50000000000000000       0.46875000000000000        0.0000000000000000     
  0.53125000000000000       0.46875000000000000        0.0000000000000000     
  0.56250000000000000       0.46875000000000000        0.0000000000000000     
  0.59375000000000000       0.46875000000000000        0.0000000000000000     
  0.62500000000000000       0.46875000000000000        0.0000000000000000     
  0.50000000000000000       0.50000000000000000        0.0000000000000000     
  0.53125000000000000       0.50000000000000000        0.0000000000000000     
  0.56250000000000000       0.50000000000000000        0.0000000000000000     
  0.59375000000000000       0.50000000000000000        0.0000000000000000     
  0.62500000000000000       0.50000000000000000        0.0000000000000000     
  0.62500000000000000       0.37500000000000000        0.0000000000000000     
  0.65625000000000000       0.37500000000000000        0.0000000000000000     
  0.68750000000000000       0.37500000000000000        0.0000000000000000     
  0.71875000000000000       0.37500000000000000        0.0000000000000000     
  0.75000000000000000       0.37500000000000000        0.0000000000000000     
  0.62500000000000000       0.40625000000000000        0.0000000000000000     
  0.65625000000000000       0.40625000000000000        0.0000000000000000     
  0.68750000000000000       0.40625000000000000        0.0000000000000000     
  0.71875000000000000       0.40625000000000000        0.0000000000000000     
  0.75000000000000000       0.40625000000000000        0.0000000000000000     
  0.62500000000000000       0.43750000000000000        0.0000000000000000     
  0.65625000000000000       0.43750000000000000        0.0000000000000000     
  0.68750000000000000       0.43750000000000000        0.0000000000000000     
  0.71875000000000000       0.43750000000000000        0.0000000000000000     
  0.75000000000000000       0.43750000000000000        0.0000000000000000     
  0.62500000000000000       0.46875000000000000        0.0000000000000000     
  0.65625000000000000       0.46875000000000000        0.0000000000000000     
  0.68750000000000000       0.46875000000000000        0.0000000000000000     
  0.71875000000000000       0.46875000000000000        0.0000000000000000     
  0.75000000000000000       0.46875000000000000        0.0000000000000000     
  0.62500000000000000       0.50000000000000000        0.0000000000000000     
  0.65625000000000000       0.50000000000000000        0.0000000000000000     
  0.68750000000000000       0.50000000000000000        0.0000000000000000     
  0.71875000000000000       0.50000000000000000        0.0000000000000000     
  0.75000000000000000       0.50000000000000000        0.0000000000000000     
  0.75000000000000000       0.37500000000000000        0.0000000000000000     
  0.78125000000000000       0.37500000000000000        0.0000000000000000     
  0.81250000000000000       0.37500000000000000        0.0000000000000000     
  0.84375000000000000       0.37500000000000000        0.0000000000000000     
  0.87500000000000000       0.37500000000000000        0.0000000000000000     
  0.75000000000000000       0.40625000000000000        0.0000000000000000     
  0.78125000000000000       0.40625000000000000        0.0000000000000000     
  0.81250000000000000       0.40625000000000000        0.0000000000000000     
  0.84375000000000000       0.40625000000000000        0.0000000000000000     
  0.87500000000000000       0.40625000000000000        0.0000000000000000     
  0.75000000000000000       0.43750000000000000        0.0000000000000000     
  0.78125000000000000       0.43750000000000000        0.0000000000000000     
  0.81250000000000000       0.43750000000000000        0.0000000000000000     
  0.84375000000000000       0.43750000000000000        0.0000000000000000     
  0.87500000000000000       0.43750000000000000        0.0000000000000000     
  0.75000000000000000       0.46875000000000000        0.0000000000000000     
  0.78125000000000000       0.46875000000000000        0.0000000000000000     
  0.81250000000000000       0.46875000000000000        0.0000000000000000     
  0.84375000000000000       0.46875000000000000        0.0000000000000000     
  0.87500000000000000       0.46875000000000000        0.0000000000000000     
  0.75000000000000000       0.50000000000000000        0.0000000000000000     
  0.78125000000000000       0.50000000000000000        0.0000000000000000     
  0.81250000000000000       0.50000000000000000        0.0000000000000000     
  0.84375000000000000       0.50000000000000000        0.0000000000000000     
  0.87500000000000000       0.50000000000000000        0.0000000000000000     
  0.87500000000000000       0.37500000000000000        0.0000000000000000     
  0.90625000000000000       0.37500000000000000        0.0000000000000000     
  0.93750000000000000       0.37500000000000000        0.0000000000000000     
  0.96875000000000000       0.37500000000000000        0.0000000000000000     
   1.0000000000000000       0.37500000000000000        0.0000000000000000     
  0.87500000000000000       0.40625000000000000        0.0000000000000000     
  0.90625000000000000       0.40625000000000000        0.0000000000000000     
  0.93750000000000000       0.40625000000000000        0.0000000000000000     
  0.96875000000000000       0.40625000000000000        0.0000000000000000     
   1.0000000000000000       0.40625000000000000        0.0000000000000000     
  0.87500000000000000       0.43750000000000000        0.0000000000000000     
  0.90625000000000000       0.43750000000000000        0.0000000000000000     
  0.93750000000000000       0.43750000000000000        0.0000000000000000     
  0.96875000000000000       0.43750000000000000        0.0000000000000000     
   1.0000000000000000       0.43750000000000000        0.0000000000000000     
  0.87500000000000000       0.46875000000000000        0.0000000000000000     
  0.90625000000000000       0.46875000000000000        0.0000000000000000     
  0.93750000000000000       0.46875000000000000        0.0000000000000000     
  0.96875000000000000       0.46875000000000000        0.0000000000000000     
   1.0000000000000000       0.46875000000000000        0.0000000000000000     
  0.87500000000000000       0.50000000000000000        0.0000000000000000     
  0.90625000000000000       0.50000000000000000        0.0000000000000000     
  0.93750000000000000       0.50000000000000000        0.0000000000000000     
  0.96875000000000000       0.50000000000000000        0.0000000000000000     
   1.0000000000000000       0.50000000000000000        0.0000000000000000     
   0.0000000000000000       0.50000000000000000        0.0000000000000000     
   3.1250000000000000E-002  0.50000000000000000        0.0000000000000000     
   6.2500000000000000E-002  0.50000000000000000        0.0000000000000000     
   9.3750000000000000E-002  0.50000000000000000        0.0000000000000000     
  0.12500000000000000       0.50000000000000000        0.0000000000000000     
   0.0000000000000000       0.53125000000000000        0.0000000000000000     
   3.1250000000000000E-002  0.53125000000000000        0.0000000000000000     
   6.2500000000000000E-002  0.53125000000000000        0.0000000000000000     
   9.3750000000000000E-002  0.53125000000000000        0.0000000000000000     
  0.12500000000000000       0.53125000000000000        0.0000000000000000     
   0.0000000000000000       0.56250000000000000        0.0000000000000000     
   3.1250000000000000E-002  0.56250000000000000        0.0000000000000000     
   6.2500000000000000E-002  0.56250000000000000        0.0000000000000000     
   9.3750000000000000E-002  0.56250000000000000        0.0000000000000000     
  0.12500000000000000       0.56250000000000000        0.0000000000000000     
   0.0000000000000000       0.59375000000000000        0.0000000000000000     
   3.1250000000000000E-002  0.59375000000000000        0.0000000000000000     
   6.2500000000000000E-002  0.59375000000000000        0.0000000000000000     
   9.3750000000000000E-002  0.59375000000000000        0.0000000000000000     
  0.12500000000000000       0.59375000000000000        0.0000000000000000     
   0.0000000000000000       0.62500000000000000        0.0000000000000000     
   3.1250000000000000E-002  0.62500000000000000        0.0000000000000000     
   6.2500000000000000E-002  0.62500000000000000        0.0000000000000000     
   9.3750000000000000E-002  0.62500000000000000        0.0000000000000000     
  0.12500000000000000       0.62500000000000000        0.0000000000000000     
  0.12500000000000000       0.50000000000000000        0.0000000000000000     
  0.15625000000000000       0.50000000000000000        0.0000000000000000     
  0.18750000000000000       0.50000000000000000        0.0000000000000000     
  0.21875000000000000       0.50000000000000000        0.0000000000000000     
  0.25000000000000000       0.50000000000000000        0.0000000000000000     
  0.12500000000000000       0.53125000000000000        0.0000000000000000     
  0.15625000000000000       0.53125000000000000        0.0000000000000000     
  0.18750000000000000       0.53125000000000000        0.0000000000000000     
  0.21875000000000000       0.53125000000000000        0.0000000000000000     
  0.25000000000000000       0.53125000000000000        0.0000000000000000     
  0.12500000000000000       0.56250000000000000        0.0000000000000000     
  0.15625000000000000       0.56250000000000000        0.0000000000000000     
  0.18750000000000000       0.56250000000000000        0.0000000000000000     
  0.21875000000000000       0.56250000000000000        0.0000000000000000     
  0.25000000000000000       0.56250000000000000        0.0000000000000000     
  0.12500000000000000       0.59375000000000000        0.0000000000000000     
  0.15625000000000000       0.59375000000000000        0.0000000000000000     
  0.18750000000000000       0.59375000000000000        0.0000000000000000     
  0.21875000000000000       0.59375000000000000        0.0000000000000000     
  0.25000000000000000       0.59375000000000000        0.0000000000000000     
  0.12500000000000000       0.62500000000000000        0.0000000000000000     
  0.15625000000000000       0.62500000000000000        0.0000000000000000     
  0.18750000000000000       0.62500000000000000        0.0000000000000000     
  0.21875000000000000       0.62500000000000000        0.0000000000000000     
  0.25000000000000000       0.62500000000000000        0.0000000000000000     
  0.25000000000000000       0.50000000000000000        0.0000000000000000     
  0.28125000000000000       0.50000000000000000        0.0000000000000000     
  0.31250000000000000       0.50000000000000000        0.0000000000000000     
  0.34375000000000000       0.50000000000000000        0.0000000000000000     
  0.37500000000000000       0.50000000000000000        0.0000000000000000     
  0.25000000000000000       0.53125000000000000        0.0000000000000000     
  0.28125000000000000       0.53125000000000000        0.0000000000000000     
  0.31250000000000000       0.53125000000000000        0.0000000000000000     
  0.34375000000000000       0.53125000000000000        0.0000000000000000     
  0.37500000000000000       0.53125000000000000        0.0000000000000000     
  0.25000000000000000       0.56250000000000000        0.0000000000000000     
  0.28125000000000000       0.56250000000000000        0.0000000000000000     
  0.31250000000000000       0.56250000000000000        0.0000000000000000     
  0.34375000000000000       0.56250000000000000        0.0000000000000000     
  0.37500000000000000       0.56250000000000000        0.0000000000000000     
  0.25000000000000000       0.59375000000000000        0.0000000000000000     
  0.28125000000000000       0.59375000000000000        0.0000000000000000     
  0.31250000000000000       0.59375000000000000        0.0000000000000000     
  0.34375000000000000       0.59375000000000000        0.0000000000000000     
  0.37500000000000000       0.59375000000000000        0.0000000000000000     
  0.25000000000000000       0.62500000000000000        0.0000000000000000     
  0.28125000000000000       0.62500000000000000        0.0000000000000000     
  0.31250000000000000       0.62500000000000000        0.0000000000000000     
  0.34375000000000000       0.62500000000000000        0.0000000000000000     
  0.37500000000000000       0.62500000000000000        0.0000000000000000     
  0.37500000000000000       0.50000000000000000        0.0000000000000000     
  0.40625000000000000       0.50000000000000000        0.0000000000000000     
  0.43750000000000000       0.50000000000000000        0.0000000000000000     
  0.46875000000000000       0.50000000000000000        0.0000000000000000     
  0.50000000000000000       0.50000000000000000        0.0000000000000000     
  0.37500000000000000       0.53125000000000000        0.0000000000000000     
  0.40625000000000000       0.53125000000000000        0.0000000000000000     
  0.43750000000000000       0.53125000000000000        0.0000000000000000     
  0.46875000000000000       0.53125000000000000        0.0000000000000000     
  0.50000000000000000       0.53125000000000000        0.0000000000000000     
  0.37500000000000000       0.56250000000000000        0.0000000000000000     
  0.40625000000000000       0.56250000000000000        0.0000000000000000     
  0.43750000000000000       0.56250000000000000        0.0000000000000000     
  0.46875000000000000       0.56250000000000000        0.0000000000000000     
  0.50000000000000000       0.56250000000000000        0.0000000000000000     
  0.37500000000000000       0.59375000000000000        0.0000000000000000     
  0.40625000000000000       0.59375000000000000        0.0000000000000000     
  0.43750000000000000       0.59375000000000000        0.0000000000000000     
  0.46875000000000000       0.59375000000000000        0.0000000000000000     
  0.50000000000000000       0.59375000000000000        0.0000000000000000     
  0.37500000000000000       0.62500000000000000        0.0000000000000000     
  0.40625000000000000       0.62500000000000000        0.0000000000000000     
  0.43750000000000000       0.62500000000000000        0.0000000000000000     
  0.46875000000000000       0.62500000000000000        0.0000000000000000     
  0.50000000000000000       0.62500000000000000        0.0000000000000000     
  0.50000000000000000       0.50000000000000000        0.0000000000000000     
  0.53125000000000000       0.50000000000000000        0.0000000000000000     
  0.56250000000000000       0.50000000000000000        0.0000000000000000     
  0.59375000000000000       0.50000000000000000        0.0000000000000000     
  0.62500000000000000       0.50000000000000000        0.0000000000000000     
  0.50000000000000000       0.53125000000000000        0.0000000000000000     
  0.53125000000000000       0.53125000000000000        0.0000000000000000     
  0.56250000000000000       0.53125000000000000        0.0000000000000000     
  0.59375000000000000       0.53125000000000000        0.0000000000000000     
  0.62500000000000000       0.53125000000000000        0.0000000000000000     
  0.50000000000000000       0.56250000000000000        0.0000000000000000     
  0.53125000000000000       0.56250000000000000        0.0000000000000000     
  0.56250000000000000       0.56250000000000000        0.0000000000000000     
  0.59375000000000000       0.56250000000000000        0.0000000000000000     
  0.62500000000000000       0.56250000000000000        0.0000000000000000     
  0.50000000000000000       0.59375000000000000        0.0000000000000000     
  0.53125000000000000       0.59375000000000000        0.0000000000000000     
  0.56250000000000000       0.59375000000000000        0.0000000000000000     
  0.59375000000000000       0.59375000000000000        0.0000000000000000     
  0.62500000000000000       0.59375000000000000        0.0000000000000000     
  0.50000000000000000       0.62500000000000000        0.0000000000000000     
  0.53125000000000000       0.62500000000000000        0.0000000000000000     
  0.56250000000000000       0.62500000000000000        0.0000000000000000     
  0.59375000000000000       0.62500000000000000        0.0000000000000000     
  0.62500000000000000       0.62500000000000000        0.0000000000000000     
  0.62500000000000000       0.50000000000000000        0.0000000000000000     
  0.65625000000000000       0.50000000000000000        0.0000000000000000     
  0.68750000000000000       0.50000000000000000        0.0000000000000000     
  0.71875000000000000       0.50000000000000000        0.0000000000000000     
  0.75000000000000000       0.50000000000000000        0.0000000000000000     
  0.62500000000000000       0.53125000000000000        0.0000000000000000     
  0.65625000000000000       0.53125000000000000        0.0000000000000000     
  0.68750000000000000       0.53125000000000000        0.0000000000000000     
  0.71875000000000000       0.53125000000000000        0.0000000000000000     
  0.75000000000000000       0.53125000000000000        0.0000000000000000     
  0.62500000000000000       0.56250000000000000        0.0000000000000000     
  0.65625000000000000       0.56250000000000000        0.0000000000000000     
  0.68750000000000000       0.56250000000000000        0.0000000000000000     
  0.71875000000000000       0.56250000000000000        0.0000000000000000     
  0.75000000000000000       0.56250000000000000        0.0000000000000000     
  0.62500000000000000       0.59375000000000000        0.0000000000000000     
  0.65625000000000000       0.59375000000000000        0.0000000000000000     
  0.68750000000000000       0.59375000000000000        0.0000000000000000     
  0.71875000000000000       0.59375000000000000        0.0000000000000000     
  0.75000000000000000       0.59375000000000000        0.0000000000000000     
  0.62500000000000000       0.62500000000000000        0.0000000000000000     
  0.65625000000000000       0.62500000000000000        0.0000000000000000     
  0.68750000000000000       0.62500000000000000        0.0000000000000000     
  0.71875000000000000       0.62500000000000000        0.0000000000000000     
  0.75000000000000000       0.62500000000000000        0.0000000000000000     
  0.75000000000000000       0.50000000000000000        0.0000000000000000     
  0.78125000000000000       0.50000000000000000        0.0000000000000000     
  0.81250000000000000       0.50000000000000000        0.0000000000000000     
  0.84375000000000000       0.50000000000000000        0.0000000000000000     
  0.87500000000000000       0.50000000000000000        0.0000000000000000     
  0.75000000000000000       0.53125000000000000        0.0000000000000000     
  0.78125000000000000       0.53125000000000000        0.0000000000000000     
  0.81250000000000000       0.53125000000000000        0.0000000000000000     
  0.84375000000000000       0.53125000000000000        0.0000000000000000     
  0.87500000000000000       0.53125000000000000        0.0000000000000000     
  0.75000000000000000       0.56250000000000000        0.0000000000000000     
  0.78125000000000000       0.56250000000000000        0.0000000000000000     
  0.81250000000000000       0.56250000000000000        0.0000000000000000     
  0.84375000000000000       0.56250000000000000        0.0000000000000000     
  0.87500000000000000       0.56250000000000000        0.0000000000000000     
  0.75000000000000000       0.59375000000000000        0.0000000000000000     
  0.78125000000000000       0.59375000000000000        0.0000000000000000     
  0.81250000000000000       0.59375000000000000        0.0000000000000000     
  0.84375000000000000       0.59375000000000000        0.0000000000000000     
  0.87500000000000000       0.59375000000000000        0.0000000000000000     
  0.75000000000000000       0.62500000000000000        0.0000000000000000     
  0.78125000000000000       0.62500000000000000        0.0000000000000000     
  0.81250000000000000       0.62500000000000000        0.0000000000000000     
  0.84375000000000000       0.62500000000000000        0.0000000000000000     
  0.87500000000000000       0.62500000000000000        0.0000000000000000     
  0.87500000000000000       0.50000000000000000        0.0000000000000000     
  0.90625000000000000       0.50000000000000000        0.0000000000000000     
  0.93750000000000000       0.50000000000000000        0.0000000000000000     
  0.96875000000000000       0.50000000000000000        0.0000000000000000     
   1.0000000000000000       0.50000000000000000        0.0000000000000000     
  0.87500000000000000       0.53125000000000000        0.0000000000000000     
  0.90625000000000000       0.53125000000000000        0.0000000000000000     
  0.93750000000000000       0.53125000000000000        0.0000000000000000     
  0.96875000000000000       0.53125000000000000        0.0000000000000000     
   1.0000000000000000       0.53125000000000000        0.0000000000000000     
  0.87500000000000000       0.56250000000000000        0.0000000000000000     
  0.90625000000000000       0.56250000000000000        0.0000000000000000     
  0.93750000000000000       0.56250000000000000        0.0000000000000000     
  0.96875000000000000       0.56250000000000000        0.0000000000000000     
   1.0000000000000000       0.56250000000000000        0.0000000000000000     
  0.87500000000000000       0.59375000000000000        0.0000000000000000     
  0.90625000000000000       0.59375000000000000        0.0000000000000000     
  0.93750000000000000       0.59375000000000000        0.0000000000000000     
  0.96875000000000000       0.59375000000000000        0.0000000000000000     
   1.0000000000000000       0.59375000000000000        0.0000000000000000     
  0.87500000000000000       0.62500000000000000        0.0000000000000000     
  0.90625000000000000       0.62500000000000000        0.0000000000000000     
  0.93750000000000000       0.62500000000000000        0.0000000000000000     
  0.96875000000000000       0.62500000000000000        0.0000000000000000     
   1.0000000000000000       0.62500000000000000        0.0000000000000000     
   0.0000000000000000       0.62500000000000000        0.0000000000000000     
   3.1250000000000000E-002  0.62500000000000000        0.0000000000000000     
   6.2500000000000000E-002  0.62500000000000000        0.0000000000000000     
   9.3750000000000000E-002  0.62500000000000000        0.0000000000000000     
  0.12500000000000000       0.62500000000000000        0.0000000000000000     
   0.0000000000000000       0.65625000000000000        0.0000000000000000     
   3.1250000000000000E-002  0.65625000000000000        0.0000000000000000     
   6.2500000000000000E-002  0.65625000000000000        0.0000000000000000     
   9.3750000000000000E-002  0.65625000000000000        0.0000000000000000     
  0.12500000000000000       0.65625000000000000        0.0000000000000000     
   0.0000000000000000       0.68750000000000000        0.0000000000000000     
   3.1250000000000000E-002  0.68750000000000000        0.0000000000000000     
   6.2500000000000000E-002  0.68750000000000000        0.0000000000000000     
   9.3750000000000000E-002  0.68750000000000000        0.0000000000000000     
  0.12500000000000000       0.68750000000000000        0.0000000000000000     
   0.0000000000000000       0.71875000000000000        0.0000000000000000     
   3.1250000000000000E-002  0.71875000000000000        0.0000000000000000     
   6.2500000000000000E-002  0.71875000000000000        0.0000000000000000     
   9.3750000000000000E-002  0.71875000000000000        0.0000000000000000     
  0.12500000000000000       0.71875000000000000        0.0000000000000000     
   0.0000000000000000       0.75000000000000000        0.0000000000000000     
   3.1250000000000000E-002  0.75000000000000000        0.0000000000000000     
   6.2500000000000000E-002  0.75000000000000000        0.0000000000000000     
   9.3750000000000000E-002  0.75000000000000000        0.0000000000000000     
  0.12500000000000000       0.75000000000000000        0.0000000000000000     
  0.12500000000000000       0.62500000000000000        0.0000000000000000     
  0.15625000000000000       0.62500000000000000        0.0000000000000000     
  0.18750000000000000       0.62500000000000000        0.0000000000000000     
  0.21875000000000000       0.62500000000000000        0.0000000000000000     
  0.25000000000000000       0.62500000000000000        0.0000000000000000     
  0.12500000000000000       0.65625000000000000        0.0000000000000000     
  0.15625000000000000       0.65625000000000000        0.0000000000000000     
  0.18750000000000000       0.65625000000000000        0.0000000000000000     
  0.21875000000000000       0.65625000000000000        0.0000000000000000     
  0.25000000000000000       0.65625000000000000        0.0000000000000000     
  0.12500000000000000       0.68750000000000000        0.0000000000000000     
  0.15625000000000000       0.68750000000000000        0.0000000000000000     
  0.18750000000000000       0.68750000000000000        0.0000000000000000     
  0.21875000000000000       0.68750000000000000        0.0000000000000000     
  0.25000000000000000       0.68750000000000000        0.0000000000000000     
  0.12500000000000000       0.71875000000000000        0.0000000000000000     
  0.15625000000000000       0.71875000000000000        0.0000000000000000     
  0.18750000000000000       0.71875000000000000        0.0000000000000000     
  0.21875000000000000       0.71875000000000000        0.0000000000000000     
  0.25000000000000000       0.71875000000000000        0.0000000000000000     
  0.12500000000000000       0.75000000000000000        0.0000000000000000     
  0.15625000000000000       0.75000000000000000        0.0000000000000000     
  0.18750000000000000       0.75000000000000000        0.0000000000000000     
  0.21875000000000000       0.75000000000000000        0.0000000000000000     
  0.25000000000000000       0.75000000000000000        0.0000000000000000     
  0.25000000000000000       0.62500000000000000        0.0000000000000000     
  0.28125000000000000       0.62500000000000000        0.0000000000000000     
  0.31250000000000000       0.62500000000000000        0.0000000000000000     
  0.34375000000000000       0.62500000000000000        0.0000000000000000     
  0.37500000000000000       0.62500000000000000        0.0000000000000000     
  0.25000000000000000       0.65625000000000000        0.0000000000000000     
  0.28125000000000000       0.65625000000000000        0.0000000000000000     
  0.31250000000000000       0.65625000000000000        0.0000000000000000     
  0.34375000000000000       0.65625000000000000        0.0000000000000000     
  0.37500000000000000       0.65625000000000000        0.0000000000000000     
  0.25000000000000000       0.68750000000000000        0.0000000000000000     
  0.28125000000000000       0.68750000000000000        0.0000000000000000     
  0.31250000000000000       0.68750000000000000        0.0000000000000000     
  0.34375000000000000       0.68750000000000000        0.0000000000000000     
  0.37500000000000000       0.68750000000000000        0.0000000000000000     
  0.25000000000000000       0.71875000000000000        0.0000000000000000     
  0.28125000000000000       0.71875000000000000        0.0000000000000000     
  0.31250000000000000       0.71875000000000000        0.0000000000000000     
  0.34375000000000000       0.71875000000000000        0.0000000000000000     
  0.37500000000000000       0.71875000000000000        0.0000000000000000     
  0.25000000000000000       0.75000000000000000        0.0000000000000000     
  0.28125000000000000       0.75000000000000000        0.0000000000000000     
  0.31250000000000000       0.75000000000000000        0.0000000000000000     
  0.34375000000000000       0.75000000000000000        0.0000000000000000     
  0.37500000000000000       0.75000000000000000        0.0000000000000000     
  0.37500000000000000       0.62500000000000000        0.0000000000000000     
  0.40625000000000000       0.62500000000000000        0.0000000000000000     
  0.43750000000000000       0.62500000000000000        0.0000000000000000     
  0.46875000000000000       0.62500000000000000        0.0000000000000000     
  0.50000000000000000       0.62500000000000000        0.0000000000000000     
  0.37500000000000000       0.65625000000000000        0.0000000000000000     
  0.40625000000000000       0.65625000000000000        0.0000000000000000     
  0.43750000000000000       0.65625000000000000        0.0000000000000000     
  0.46875000000000000       0.65625000000000000        0.0000000000000000     
  0.50000000000000000       0.65625000000000000        0.0000000000000000     
  0.37500000000000000       0.68750000000000000        0.0000000000000000     
  0.40625000000000000       0.68750000000000000        0.0000000000000000     
  0.43750000000000000       0.68750000000000000        0.0000000000000000     
  0.46875000000000000       0.68750000000000000        0.0000000000000000     
  0.50000000000000000       0.68750000000000000        0.0000000000000000     
  0.37500000000000000       0.71875000000000000        0.0000000000000000     
  0.40625000000000000       0.71875000000000000        0.0000000000000000     
  0.43750000000000000       0.71875000000000000        0.0000000000000000     
  0.46875000000000000       0.71875000000000000        0.0000000000000000     
  0.50000000000000000       0.71875000000000000        0.0000000000000000     
  0.37500000000000000       0.75000000000000000        0.0000000000000000     
  0.40625000000000000       0.75000000000000000        0.0000000000000000     
  0.43750000000000000       0.75000000000000000        0.0000000000000000     
  0.46875000000000000       0.75000000000000000        0.0000000000000000     
  0.50000000000000000       0.75000000000000000        0.0000000000000000     
  0.50000000000000000       0.62500000000000000        0.0000000000000000     
  0.53125000000000000       0.62500000000000000        0.0000000000000000     
  0.56250000000000000       0.62500000000000000        0.0000000000000000     
  0.59375000000000000       0.62500000000000000        0.0000000000000000     
  0.62500000000000000       0.62500000000000000        0.0000000000000000     
  0.50000000000000000       0.65625000000000000        0.0000000000000000     
  0.53125000000000000       0.65625000000000000        0.0000000000000000     
  0.56250000000000000       0.65625000000000000        0.0000000000000000     
  0.59375000000000000       0.65625000000000000        0.0000000000000000     
  0.62500000000000000       0.65625000000000000        0.0000000000000000     
  0.50000000000000000       0.68750000000000000        0.0000000000000000     
  0.53125000000000000       0.68750000000000000        0.0000000000000000     
  0.56250000000000000       0.68750000000000000        0.0000000000000000     
  0.59375000000000000       0.68750000000000000        0.0000000000000000     
  0.62500000000000000       0.68750000000000000        0.0000000000000000     
  0.50000000000000000       0.71875000000000000        0.0000000000000000     
  0.53125000000000000       0.71875000000000000        0.0000000000000000     
  0.56250000000000000       0.71875000000000000        0.0000000000000000     
  0.59375000000000000       0.71875000000000000        0.0000000000000000     
  0.62500000000000000       0.71875000000000000        0.0000000000000000     
  0.50000000000000000       0.75000000000000000        0.0000000000000000     
  0.53125000000000000       0.75000000000000000        0.0000000000000000     
  0.56250000000000000       0.75000000000000000        0.0000000000000000     
  0.59375000000000000       0.75000000000000000        0.0000000000000000     
  0.62500000000000000       0.75000000000000000        0.0000000000000000     
  0.62500000000000000       0.62500000000000000        0.0000000000000000     
  0.65625000000000000       0.62500000000000000        0.0000000000000000     
  0.68750000000000000       0.62500000000000000        0.0000000000000000     
  0.71875000000000000       0.62500000000000000        0.0000000000000000     
  0.75000000000000000       0.62500000000000000        0.0000000000000000     
  0.62500000000000000       0.65625000000000000        0.0000000000000000     
  0.65625000000000000       0.65625000000000000        0.0000000000000000     
  0.68750000000000000       0.65625000000000000        0.0000000000000000     
  0.71875000000000000       0.65625000000000000        0.0000000000000000     
  0.75000000000000000       0.65625000000000000        0.0000000000000000     
  0.62500000000000000       0.68750000000000000        0.0000000000000000     
  0.65625000000000000       0.68750000000000000        0.0000000000000000     
  0.68750000000000000       0.68750000000000000        0.0000000000000000     
  0.71875000000000000       0.68750000000000000        0.0000000000000000     
  0.75000000000000000       0.68750000000000000        0.0000000000000000     
  0.62500000000000000       0.71875000000000000        0.0000000000000000     
  0.65625000000000000       0.71875000000000000        0.0000000000000000     
  0.68750000000000000       0.71875000000000000        0.0000000000000000     
  0.71875000000000000       0.71875000000000000        0.0000000000000000     
  0.75000000000000000       0.71875000000000000        0.0000000000000000     
  0.62500000000000000       0.75000000000000000        0.0000000000000000     
  0.65625000000000000       0.75000000000000000        0.0000000000000000     
  0.68750000000000000       0.75000000000000000        0.0000000000000000     
  0.71875000000000000       0.75000000000000000        0.0000000000000000     
  0.75000000000000000       0.75000000000000000        0.0000000000000000     
  0.75000000000000000       0.62500000000000000        0.0000000000000000     
  0.78125000000000000       0.62500000000000000        0.0000000000000000     
  0.81250000000000000       0.62500000000000000        0.0000000000000000     
  0.84375000000000000       0.62500000000000000        0.0000000000000000     
  0.87500000000000000       0.62500000000000000        0.0000000000000000     
  0.75000000000000000       0.65625000000000000        0.0000000000000000     
  0.78125000000000000       0.65625000000000000        0.0000000000000000     
  0.81250000000000000       0.65625000000000000        0.0000000000000000     
  0.84375000000000000       0.65625000000000000        0.0000000000000000     
  0.87500000000000000       0.65625000000000000        0.0000000000000000     
  0.75000000000000000       0.68750000000000000        0.0000000000000000     
  0.78125000000000000       0.68750000000000000        0.0000000000000000     
  0.81250000000000000       0.68750000000000000        0.0000000000000000     
  0.84375000000000000       0.68750000000000000        0.0000000000000000     
  0.87500000000000000       0.68750000000000000        0.0000000000000000     
  0.75000000000000000       0.71875000000000000        0.0000000000000000     
  0.78125000000000000       0.71875000000000000        0.0000000000000000     
  0.81250000000000000       0.71875000000000000        0.0000000000000000     
  0.84375000000000000       0.71875000000000000        0.0000000000000000     
  0.87500000000000000       0.71875000000000000        0.0000000000000000     
  0.75000000000000000       0.75000000000000000        0.0000000000000000     
  0.78125000000000000       0.75000000000000000        0.0000000000000000     
  0.81250000000000000       0.75000000000000000        0.0000000000000000     
  0.84375000000000000       0.75000000000000000        0.0000000000000000     
  0.87500000000000000       0.75000000000000000        0.0000000000000000     
  0.87500000000000000       0.62500000000000000        0.0000000000000000     
  0.90625000000000000       0.62500000000000000        0.0000000000000000     
  0.93750000000000000       0.62500000000000000        0.0000000000000000     
  0.96875000000000000       0.62500000000000000        0.0000000000000000     
   1.0000000000000000       0.62500000000000000        0.0000000000000000     
  0.87500000000000000       0.65625000000000000        0.0000000000000000     
  0.90625000000000000       0.65625000000000000        0.0000000000000000     
  0.93750000000000000       0.65625000000000000        0.0000000000000000     
  0.96875000000000000       0.65625000000000000        0.0000000000000000     
   1.0000000000000000       0.65625000000000000        0.0000000000000000     
  0.87500000000000000       0.68750000000000000        0.0000000000000000     
  0.90625000000000000       0.68750000000000000        0.0000000000000000     
  0.93750000000000000       0.68750000000000000        0.0000000000000000     
  0.96875000000000000       0.68750000000000000        0.0000000000000000     
   1.0000000000000000       0.68750000000000000        0.0000000000000000     
  0.87500000000000000       0.71875000000000000        0.0000000000000000     
  0.90625000000000000       0.71875000000000000        0.0000000000000000     
  0.93750000000000000       0.71875000000000000        0.0000000000000000     
  0.96875000000000000       0.71875000000000000        0.0000000000000000     
   1.0000000000000000       0.71875000000000000        0.0000000000000000     
  0.87500000000000000       0.75000000000000000        0.0000000000000000     
  0.90625000000000000       0.75000000000000000        0.0000000000000000     
  0.93750000000000000       0.75000000000000000        0.0000000000000000     
  0.96875000000000000       0.75000000000000000        0.0000000000000000     
   1.0000000000000000       0.75000000000000000        0.0000000000000000     
   0.0000000000000000       0.75000000000000000        0.0000000000000000     
   3.1250000000000000E-002  0.75000000000000000        0.0000000000000000     
   6.2500000000000000E-002  0.75000000000000000        0.0000000000000000     
   9.3750000000000000E-002  0.75000000000000000        0.0000000000000000     
  0.12500000000000000       0.75000000000000000        0.0000000000000000     
   0.0000000000000000       0.78125000000000000        0.0000000000000000     
   3.1250000000000000E-002  0.78125000000000000        0.0000000000000000     
   6.2500000000000000E-002  0.78125000000000000        0.0000000000000000     
   9.3750000000000000E-002  0.78125000000000000        0.0000000000000000     
  0.12500000000000000       0.78125000000000000        0.0000000000000000     
   0.0000000000000000       0.81250000000000000        0.0000000000000000     
   3.1250000000000000E-002  0.81250000000000000        0.0000000000000000     
   6.2500000000000000E-002  0.81250000000000000        0.0000000000000000     
   9.3750000000000000E-002  0.81250000000000000        0.0000000000000000     
  0.12500000000000000       0.81250000000000000        0.0000000000000000     
   0.0000000000000000       0.84375000000000000        0.0000000000000000     
   3.1250000000000000E-002  0.84375000000000000        0.0000000000000000     
   6.2500000000000000E-002  0.84375000000000000        0.0000000000000000     
   9.3750000000000000E-002  0.84375000000000000        0.0000000000000000     
  0.12500000000000000       0.84375000000000000        0.0000000000000000     
   0.0000000000000000       0.87500000000000000        0.0000000000000000     
   3.1250000000000000E-002  0.87500000000000000        0.0000000000000000     
   6.2500000000000000E-002  0.87500000000000000        0.0000000000000000     
   9.3750000000000000E-002  0.87500000000000000        0.0000000000000000     
  0.12500000000000000       0.87500000000000000        0.0000000000000000     
  0.12500000000000000       0.75000000000000000        0.0000000000000000     
  0.15625000000000000       0.75000000000000000        0.0000000000000000     
  0.18750000000000000       0.75000000000000000        0.0000000000000000     
  0.21875000000000000       0.75000000000000000        0.0000000000000000     
  0.25000000000000000       0.75000000000000000        0.0000000000000000     
  0.12500000000000000       0.78125000000000000        0.0000000000000000     
  0.15625000000000000       0.78125000000000000        0.0000000000000000     
  0.18750000000000000       0.78125000000000000        0.0000000000000000     
  0.21875000000000000       0.78125000000000000        0.0000000000000000     
  0.25000000000000000       0.78125000000000000        0.0000000000000000     
  0.12500000000000000       0.81250000000000000        0.0000000000000000     
  0.15625000000000000       0.81250000000000000        0.0000000000000000     
  0.18750000000000000       0.81250000000000000        0.0000000000000000     
  0.21875000000000000       0.81250000000000000        0.0000000000000000     
  0.25000000000000000       0.81250000000000000        0.0000000000000000     
  0.12500000000000000       0.84375000000000000        0.0000000000000000     
  0.15625000000000000       0.84375000000000000        0.0000000000000000     
  0.18750000000000000       0.84375000000000000        0.0000000000000000     
  0.21875000000000000       0.84375000000000000        0.0000000000000000     
  0.25000000000000000       0.84375000000000000        0.0000000000000000     
  0.12500000000000000       0.87500000000000000        0.0000000000000000     
  0.15625000000000000       0.87500000000000000        0.0000000000000000     
  0.18750000000000000       0.87500000000000000        0.0000000000000000     
  0.21875000000000000       0.87500000000000000        0.0000000000000000     
  0.25000000000000000       0.87500000000000000        0.0000000000000000     
  0.25000000000000000       0.75000000000000000        0.0000000000000000     
  0.28125000000000000       0.75000000000000000        0.0000000000000000     
  0.31250000000000000       0.75000000000000000        0.0000000000000000     
  0.34375000000000000       0.75000000000000000        0.0000000000000000     
  0.37500000000000000       0.75000000000000000        0.0000000000000000     
  0.25000000000000000       0.78125000000000000        0.0000000000000000     
  0.28125000000000000       0.78125000000000000        0.0000000000000000     
  0.31250000000000000       0.78125000000000000        0.0000000000000000     
  0.34375000000000000       0.78125000000000000        0.0000000000000000     
  0.37500000000000000       0.78125000000000000        0.0000000000000000     
  0.25000000000000000       0.81250000000000000        0.0000000000000000     
  0.28125000000000000       0.81250000000000000        0.0000000000000000     
  0.31250000000000000       0.81250000000000000        0.0000000000000000     
  0.34375000000000000       0.81250000000000000        0.0000000000000000     
  0.37500000000000000       0.81250000000000000        0.0000000000000000     
  0.25000000000000000       0.84375000000000000        0.0000000000000000     
  0.28125000000000000       0.84375000000000000        0.0000000000000000     
  0.31250000000000000       0.84375000000000000        0.0000000000000000     
  0.34375000000000000       0.84375000000000000        0.0000000000000000     
  0.37500000000000000       0.84375000000000000        0.0000000000000000     
  0.25000000000000000       0.87500000000000000        0.0000000000000000     
  0.28125000000000000       0.87500000000000000        0.0000000000000000     
  0.31250000000000000       0.87500000000000000        0.0000000000000000     
  0.34375000000000000       0.87500000000000000        0.0000000000000000     
  0.37500000000000000       0.87500000000000000        0.0000000000000000     
  0.37500000000000000       0.75000000000000000        0.0000000000000000     
  0.40625000000000000       0.75000000000000000        0.0000000000000000     
  0.43750000000000000       0.75000000000000000        0.0000000000000000     
  0.46875000000000000       0.75000000000000000        0.0000000000000000     
  0.50000000000000000       0.75000000000000000        0.0000000000000000     
  0.37500000000000000       0.78125000000000000        0.0000000000000000     
  0.40625000000000000       0.78125000000000000        0.0000000000000000     
  0.43750000000000000       0.78125000000000000        0.0000000000000000     
  0.46875000000000000       0.78125000000000000        0.0000000000000000     
  0.50000000000000000       0.78125000000000000        0.0000000000000000     
  0.37500000000000000       0.81250000000000000        0.0000000000000000     
  0.40625000000000000       0.81250000000000000        0.0000000000000000     
  0.43750000000000000       0.81250000000000000        0.0000000000000000     
  0.46875000000000000       0.81250000000000000        0.0000000000000000     
  0.50000000000000000       0.81250000000000000        0.0000000000000000     
  0.37500000000000000       0.84375000000000000        0.0000000000000000     
  0.40625000000000000       0.84375000000000000        0.0000000000000000     
  0.43750000000000000       0.84375000000000000        0.0000000000000000     
  0.46875000000000000       0.84375000000000000        0.0000000000000000     
  0.50000000000000000       0.84375000000000000        0.0000000000000000     
  0.37500000000000000       0.87500000000000000        0.0000000000000000     
  0.40625000000000000       0.87500000000000000        0.0000000000000000     
  0.43750000000000000       0.87500000000000000        0.0000000000000000     
  0.46875000000000000       0.87500000000000000        0.0000000000000000     
  0.50000000000000000       0.87500000000000000        0.0000000000000000     
  0.50000000000000000       0.75000000000000000        0.0000000000000000     
  0.53125000000000000       0.75000000000000000        0.0000000000000000     
  0.56250000000000000       0.75000000000000000        0.0000000000000000     
  0.59375000000000000       0.75000000000000000        0.0000000000000000     
  0.62500000000000000       0.75000000000000000        0.0000000000000000     
  0.50000000000000000       0.78125000000000000        0.0000000000000000     
  0.53125000000000000       0.78125000000000000        0.0000000000000000     
  0.56250000000000000       0.78125000000000000        0.0000000000000000     
  0.59375000000000000       0.78125000000000000        0.0000000000000000     
  0.62500000000000000       0.78125000000000000        0.0000000000000000     
  0.50000000000000000       0.81250000000000000        0.0000000000000000     
  0.53125000000000000       0.81250000000000000        0.0000000000000000     
  0.56250000000000000       0.81250000000000000        0.0000000000000000     
  0.59375000000000000       0.81250000000000000        0.0000000000000000     
  0.62500000000000000       0.81250000000000000        0.0000000000000000     
  0.50000000000000000       0.84375000000000000        0.0000000000000000     
  0.53125000000000000       0.84375000000000000        0.0000000000000000     
  0.56250000000000000       0.84375000000000000        0.0000000000000000     
  0.59375000000000000       0.84375000000000000        0.0000000000000000     
  0.62500000000000000       0.84375000000000000        0.0000000000000000     
  0.50000000000000000       0.87500000000000000        0.0000000000000000     
  0.53125000000000000       0.87500000000000000        0.0000000000000000     
  0.56250000000000000       0.87500000000000000        0.0000000000000000     
  0.59375000000000000       0.87500000000000000        0.0000000000000000     
  0.62500000000000000       0.87500000000000000        0.0000000000000000     
  0.62500000000000000       0.75000000000000000        0.0000000000000000     
  0.65625000000000000       0.75000000000000000        0.0000000000000000     
  0.68750000000000000       0.75000000000000000        0.0000000000000000     
  0.71875000000000000       0.75000000000000000        0.0000000000000000     
  0.75000000000000000       0.75000000000000000        0.0000000000000000     
  0.62500000000000000       0.78125000000000000        0.0000000000000000     
  0.65625000000000000       0.78125000000000000        0.0000000000000000     
  0.68750000000000000       0.78125000000000000        0.0000000000000000     
  0.71875000000000000       0.78125000000000000        0.0000000000000000     
  0.75000000000000000       0.78125000000000000        0.0000000000000000     
  0.62500000000000000       0.81250000000000000        0.0000000000000000     
  0.65625000000000000       0.81250000000000000        0.0000000000000000     
  0.68750000000000000       0.81250000000000000        0.0000000000000000     
  0.71875000000000000       0.81250000000000000        0.0000000000000000     
  0.75000000000000000       0.81250000000000000        0.0000000000000000     
  0.62500000000000000       0.84375000000000000        0.0000000000000000     
  0.65625000000000000       0.84375000000000000        0.0000000000000000     
  0.68750000000000000       0.84375000000000000        0.0000000000000000     
  0.71875000000000000       0.84375000000000000        0.0000000000000000     
  0.75000000000000000       0.84375000000000000        0.0000000000000000     
  0.62500000000000000       0.87500000000000000        0.0000000000000000     
  0.65625000000000000       0.87500000000000000        0.0000000000000000     
  0.68750000000000000       0.87500000000000000        0.0000000000000000     
  0.71875000000000000       0.87500000000000000        0.0000000000000000     
  0.75000000000000000       0.87500000000000000        0.0000000000000000     
  0.75000000000000000       0.75000000000000000        0.0000000000000000     
  0.78125000000000000       0.75000000000000000        0.0000000000000000     
  0.81250000000000000       0.75000000000000000        0.0000000000000000     
  0.84375000000000000       0.75000000000000000        0.0000000000000000     
  0.87500000000000000       0.75000000000000000        0.0000000000000000     
  0.75000000000000000       0.78125000000000000        0.0000000000000000     
  0.78125000000000000       0.78125000000000000        0.0000000000000000     
  0.81250000000000000       0.78125000000000000        0.0000000000000000     
  0.84375000000000000       0.78125000000000000        0.0000000000000000     
  0.87500000000000000       0.78125000000000000        0.0000000000000000     
  0.75000000000000000       0.81250000000000000        0.0000000000000000     
  0.78125000000000000       0.81250000000000000        0.0000000000000000     
  0.81250000000000000       0.81250000000000000        0.0000000000000000     
  0.84375000000000000       0.81250000000000000        0.0000000000000000     
  0.87500000000000000       0.81250000000000000        0.0000000000000000     
  0.75000000000000000       0.84375000000000000        0.0000000000000000     
  0.78125000000000000       0.84375000000000000        0.0000000000000000     
  0.81250000000000000       0.84375000000000000        0.0000000000000000     
  0.84375000000000000       0.84375000000000000        0.0000000000000000     
  0.87500000000000000       0.84375000000000000        0.0000000000000000     
  0.75000000000000000       0.87500000000000000        0.0000000000000000     
  0.78125000000000000       0.87500000000000000        0.0000000000000000     
  0.81250000000000000       0.87500000000000000        0.0000000000000000     
  0.84375000000000000       0.87500000000000000        0.0000000000000000     
  0.87500000000000000       0.87500000000000000        0.0000000000000000     
  0.87500000000000000       0.75000000000000000        0.0000000000000000     
  0.90625000000000000       0.75000000000000000        0.0000000000000000     
  0.93750000000000000       0.75000000000000000        0.0000000000000000     
  0.96875000000000000       0.75000000000000000        0.0000000000000000     
   1.0000000000000000       0.75000000000000000        0.0000000000000000     
  0.87500000000000000       0.78125000000000000        0.0000000000000000     
  0.90625000000000000       0.78125000000000000        0.0000000000000000     
  0.93750000000000000       0.78125000000000000        0.0000000000000000     
  0.96875000000000000       0.78125000000000000        0.0000000000000000     
   1.0000000000000000       0.78125000000000000        0.0000000000000000     
  0.87500000000000000       0.81250000000000000        0.0000000000000000     
  0.90625000000000000       0.81250000000000000        0.0000000000000000     
  0.93750000000000000       0.81250000000000000        0.0000000000000000     
  0.96875000000000000       0.81250000000000000        0.0000000000000000     
   1.0000000000000000       0.81250000000000000        0.0000000000000000     
  0.87500000000000000       0.84375000000000000        0.0000000000000000     
  0.90625000000000000       0.84375000000000000        0.0000000000000000     
  0.93750000000000000       0.84375000000000000        0.0000000000000000     
  0.96875000000000000       0.84375000000000000        0.0000000000000000     
   1.0000000000000000       0.84375000000000000        0.0000000000000000     
  0.87500000000000000       0.87500000000000000        0.0000000000000000     
  0.90625000000000000       0.87500000000000000        0.0000000000000000     
  0.93750000000000000       0.87500000000000000        0.0000000000000000     
  0.96875000000000000       0.87500000000000000        0.0000000000000000     
   1.0000000000000000       0.87500000000000000        0.0000000000000000     
   0.0000000000000000       0.87500000000000000        0.0000000000000000     
   3.1250000000000000E-002  0.87500000000000000        0.0000000000000000     
   6.2500000000000000E-002  0.87500000000000000        0.0000000000000000     
   9.3750000000000000E-002  0.87500000000000000        0.0000000000000000     
  0.12500000000000000       0.87500000000000000        0.0000000000000000     
   0.0000000000000000       0.90625000000000000        0.0000000000000000     
   3.1250000000000000E-002  0.90625000000000000        0.0000000000000000     
   6.2500000000000000E-002  0.90625000000000000        0.0000000000000000     
   9.3750000000000000E-002  0.90625000000000000        0.0000000000000000     
  0.12500000000000000       0.90625000000000000        0.0000000000000000     
   0.0000000000000000       0.93750000000000000        0.0000000000000000     
   3.1250000000000000E-002  0.93750000000000000        0.0000000000000000     
   6.2500000000000000E-002  0.93750000000000000        0.0000000000000000     
   9.3750000000000000E-002  0.93750000000000000        0.0000000000000000     
  0.12500000000000000       0.93750000000000000        0.0000000000000000     
   0.0000000000000000       0.96875000000000000        0.0000000000000000     
   3.1250000000000000E-002  0.96875000000000000        0.0000000000000000     
   6.2500000000000000E-002  0.96875000000000000        0.0000000000000000     
   9.3750000000000000E-002  0.96875000000000000        0.0000000000000000     
  0.12500000000000000       0.96875000000000000        0.0000000000000000     
   0.0000000000000000        1.0000000000000000        0.0000000000000000     
   3.1250000000000000E-002   1.0000000000000000        0.0000000000000000     
   6.2500000000000000E-002   1.0000000000000000        0.0000000000000000     
   9.3750000000000000E-002   1.0000000000000000        0.0000000000000000     
  0.12500000000000000        1.0000000000000000        0.0000000000000000     
  0.12500000000000000       0.87500000000000000        0.0000000000000000     
  0.15625000000000000       0.87500000000000000        0.0000000000000000     
  0.18750000000000000       0.87500000000000000        0.0000000000000000     
  0.21875000000000000       0.87500000000000000        0.0000000000000000     
  0.25000000000000000       0.87500000000000000        0.0000000000000000     
  0.12500000000000000       0.90625000000000000        0.0000000000000000     
  0.15625000000000000       0.90625000000000000        0.0000000000000000     
  0.18750000000000000       0.90625000000000000        0.0000000000000000     
  0.21875000000000000       0.90625000000000000        0.0000000000000000     
  0.25000000000000000       0.90625000000000000        0.0000000000000000     
  0.12500000000000000       0.93750000000000000        0.0000000000000000     
  0.15625000000000000       0.93750000000000000        0.0000000000000000     
  0.18750000000000000       0.93750000000000000        0.0000000000000000     
  0.21875000000000000       0.93750000000000000        0.0000000000000000     
  0.25000000000000000       0.93750000000000000        0.0000000000000000     
  0.12500000000000000       0.96875000000000000        0.0000000000000000     
  0.15625000000000000       0.96875000000000000        0.0000000000000000     
  0.18750000000000000       0.96875000000000000        0.0000000000000000     
  0.21875000000000000       0.96875000000000000        0.0000000000000000     
  0.25000000000000000       0.96875000000000000        0.0000000000000000     
  0.12500000000000000        1.0000000000000000        0.0000000000000000     
  0.15625000000000000        1.0000000000000000        0.0000000000000000     
  0.18750000000000000        1.0000000000000000        0.0000000000000000     
  0.21875000000000000        1.0000000000000000        0.0000000000000000     
  0.25000000000000000        1.0000000000000000        0.0000000000000000     
  0.25000000000000000       0.87500000000000000        0.0000000000000000     
  0.28125000000000000       0.87500000000000000        0.0000000000000000     
  0.31250000000000000       0.87500000000000000        0.0000000000000000     
  0.34375000000000000       0.87500000000000000        0.0000000000000000     
  0.37500000000000000       0.87500000000000000        0.0000000000000000     
  0.25000000000000000       0.90625000000000000        0.0000000000000000     
  0.28125000000000000       0.90625000000000000        0.0000000000000000     
  0.31250000000000000       0.90625000000000000        0.0000000000000000     
  0.34375000000000000       0.90625000000000000        0.0000000000000000     
  0.37500000000000000       0.90625000000000000        0.0000000000000000     
  0.25000000000000000       0.93750000000000000        0.0000000000000000     
  0.28125000000000000       0.93750000000000000        0.0000000000000000     
  0.31250000000000000       0.93750000000000000        0.0000000000000000     
  0.34375000000000000       0.93750000000000000        0.0000000000000000     
  0.37500000000000000       0.93750000000000000        0.0000000000000000     
  0.25000000000000000       0.96875000000000000        0.0000000000000000     
  0.28125000000000000       0.96875000000000000        0.0000000000000000     
  0.31250000000000000       0.96875000000000000        0.0000000000000000     
  0.34375000000000000       0.96875000000000000        0.0000000000000000     
  0.37500000000000000       0.96875000000000000        0.0000000000000000     
  0.25000000000000000        1.0000000000000000        0.0000000000000000     
  0.28125000000000000        1.0000000000000000        0.0000000000000000     
  0.31250000000000000        1.0000000000000000        0.0000000000000000     
  0.34375000000000000        1.0000000000000000        0.0000000000000000     
  0.37500000000000000        1.0000000000000000        0.0000000000000000     
  0.37500000000000000       0.87500000000000000        0.0000000000000000     
  0.40625000000000000       0.87500000000000000        0.0000000000000000     
  0.43750000000000000       0.87500000000000000        0.0000000000000000     
  0.46875000000000000       0.87500000000000000        0.0000000000000000     
  0.50000000000000000       0.87500000000000000        0.0000000000000000     
  0.37500000000000000       0.90625000000000000        0.0000000000000000     
  0.40625000000000000       0.90625000000000000        0.0000000000000000     
  0.43750000000000000       0.90625000000000000        0.0000000000000000     
  0.46875000000000000       0.90625000000000000        0.0000000000000000     
  0.50000000000000000       0.90625000000000000        0.0000000000000000     
  0.37500000000000000       0.93750000000000000        0.0000000000000000     
  0.40625000000000000       0.93750000000000000        0.0000000000000000     
  0.43750000000000000       0.93750000000000000        0.0000000000000000     
  0.46875000000000000       0.93750000000000000        0.0000000000000000     
  0.50000000000000000       0.93750000000000000        0.0000000000000000     
  0.37500000000000000       0.96875000000000000        0.0000000000000000     
  0.40625000000000000       0.96875000000000000        0.0000000000000000     
  0.43750000000000000       0.96875000000000000        0.0000000000000000     
  0.46875000000000000       0.96875000000000000        0.0000000000000000     
  0.50000000000000000       0.96875000000000000        0.0000000000000000     
  0.37500000000000000        1.0000000000000000        0.0000000000000000     
  0.40625000000000000        1.0000000000000000        0.0000000000000000     
  0.43750000000000000        1.0000000000000000        0.0000000000000000     
  0.46875000000000000        1.0000000000000000        0.0000000000000000     
  0.50000000000000000        1.0000000000000000        0.0000000000000000     
  0.50000000000000000       0.87500000000000000        0.0000000000000000     
  0.53125000000000000       0.87500000000000000        0.0000000000000000     
  0.56250000000000000       0.87500000000000000        0.0000000000000000     
  0.59375000000000000       0.87500000000000000        0.0000000000000000     
  0.62500000000000000       0.87500000000000000        0.0000000000000000     
  0.50000000000000000       0.90625000000000000        0.0000000000000000     
  0.53125000000000000       0.90625000000000000        0.0000000000000000     
  0.56250000000000000       0.90625000000000000        0.0000000000000000     
  0.59375000000000000       0.90625000000000000        0.0000000000000000     
  0.62500000000000000       0.90625000000000000        0.0000000000000000     
  0.50000000000000000       0.93750000000000000        0.0000000000000000     
  0.53125000000000000       0.93750000000000000        0.0000000000000000     
  0.56250000000000000       0.93750000000000000        0.0000000000000000     
  0.59375000000000000       0.93750000000000000        0.0000000000000000     
  0.62500000000000000       0.93750000000000000        0.0000000000000000     
  0.50000000000000000       0.96875000000000000        0.0000000000000000     
  0.53125000000000000       0.96875000000000000        0.0000000000000000     
  0.56250000000000000       0.96875000000000000        0.0000000000000000     
  0.59375000000000000       0.96875000000000000        0.0000000000000000     
  0.62500000000000000       0.96875000000000000        0.0000000000000000     
  0.50000000000000000        1.0000000000000000        0.0000000000000000     
  0.53125000000000000        1.0000000000000000        0.0000000000000000     
  0.56250000000000000        1.0000000000000000        0.0000000000000000     
  0.59375000000000000        1.0000000000000000        0.0000000000000000     
  0.62500000000000000        1.0000000000000000        0.0000000000000000     
  0.62500000000000000       0.87500000000000000        0.0000000000000000     
  0.65625000000000000       0.87500000000000000        0.0000000000000000     
  0.68750000000000000       0.87500000000000000        0.0000000000000000     
  0.71875000000000000       0.87500000000000000        0.0000000000000000     
  0.75000000000000000       0.87500000000000000        0.0000000000000000     
  0.62500000000000000       0.90625000000000000        0.0000000000000000     
  0.65625000000000000       0.90625000000000000        0.0000000000000000     
  0.68750000000000000       0.90625000000000000        0.0000000000000000     
  0.71875000000000000       0.90625000000000000        0.0000000000000000     
  0.75000000000000000       0.90625000000000000        0.0000000000000000     
  0.62500000000000000       0.93750000000000000        0.0000000000000000     
  0.65625000000000000       0.93750000000000000        0.0000000000000000     
  0.68750000000000000       0.93750000000000000        0.0000000000000000     
  0.71875000000000000       0.93750000000000000        0.0000000000000000     
  0.75000000000000000       0.93750000000000000        0.0000000000000000     
  0.62500000000000000       0.96875000000000000        0.0000000000000000     
  0.65625000000000000       0.96875000000000000        0.0000000000000000     
  0.68750000000000000       0.96875000000000000        0.0000000000000000     
  0.71875000000000000       0.96875000000000000        0.0000000000000000     
  0.75000000000000000       0.96875000000000000        0.0000000000000000     
  0.62500000000000000        1.0000000000000000        0.0000000000000000     
  0.65625000000000000        1.0000000000000000        0.0000000000000000     
  0.68750000000000000        1.0000000000000000        0.0000000000000000     
  0.71875000000000000        1.0000000000000000        0.0000000000000000     
  0.75000000000000000        1.0000000000000000        0.0000000000000000     
  0.75000000000000000       0.87500000000000000        0.0000000000000000     
  0.78125000000000000       0.87500000000000000        0.0000000000000000     
  0.81250000000000000       0.87500000000000000        0.0000000000000000     
  0.84375000000000000       0.87500000000000000        0.0000000000000000     
  0.87500000000000000       0.87500000000000000        0.0000000000000000     
  0.75000000000000000       0.90625000000000000        0.0000000000000000     
  0.78125000000000000       0.90625000000000000        0.0000000000000000     
  0.81250000000000000       0.90625000000000000        0.0000000000000000     
  0.84375000000000000       0.90625000000000000        0.0000000000000000     
  0.87500000000000000       0.90625000000000000        0.0000000000000000     
  0.75000000000000000       0.93750000000000000        0.0000000000000000     
  0.78125000000000000       0.93750000000000000        0.0000000000000000     
  0.81250000000000000       0.93750000000000000        0.0000000000000000     
  0.84375000000000000       0.93750000000000000        0.0000000000000000     
  0.87500000000000000       0.93750000000000000        0.0000000000000000     
  0.75000000000000000       0.96875000000000000        0.0000000000000000     
  0.78125000000000000       0.96875000000000000        0.0000000000000000     
  0.81250000000000000       0.96875000000000000        0.0000000000000000     
  0.84375000000000000       0.96875000000000000        0.0000000000000000     
  0.87500000000000000       0.96875000000000000        0.0000000000000000     
  0.75000000000000000        1.0000000000000000        0.0000000000000000     
  0.78125000000000000        1.0000000000000000        0.0000000000000000     
  0.81250000000000000        1.0000000000000000        0.0000000000000000     
  0.84375000000000000        1.0000000000000000        0.0000000000000000     
  0.87500000000000000        1.0000000000000000        0.0000000000000000     
  0.87500000000000000       0.87500000000000000        0.0000000000000000     
  0.90625000000000000       0.87500000000000000        0.0000000000000000     
  0.93750000000000000       0.87500000000000000        0.0000000000000000     
  0.96875000000000000       0.87500000000000000        0.0000000000000000     
   1.0000000000000000       0.87500000000000000        0.0000000000000000     
  0.87500000000000000       0.90625000000000000        0.0000000000000000     
  0.90625000000000000       0.90625000000000000        0.0000000000000000     
  0.93750000000000000       0.90625000000000000        0.0000000000000000     
  0.96875000000000000       0.90625000000000000        0.0000000000000000     
   1.0000000000000000       0.90625000000000000        0.0000000000000000     
  0.87500000000000000       0.93750000000000000        0.0000000000000000     
  0.90625000000000000       0.93750000000000000        0.0000000000000000     
  0.93750000000000000       0.93750000000000000        0.0000000000000000     
  0.96875000000000000       0.93750000000000000        0.0000000000000000     
   1.0000000000000000       0.93750000000000000        0.0000000000000000     
  0.87500000000000000       0.96875000000000000        0.0000000000000000     
  0.90625000000000000       0.96875000000000000        0.0000000000000000     
  0.93750000000000000       0.96875000000000000        0.0000000000000000     
  0.96875000000000000       0.96875000000000000        0.0000000000000000     
   1.0000000000000000       0.96875000000000000        0.0000000000000000     
  0.87500000000000000        1.0000000000000000        0.0000000000000000     
  0.90625000000000000        1.0000000000000000        0.0000000000000000     
  0.93750000000000000        1.0000000000000000        0.0000000000000000     
  0.96875000000000000        1.0000000000000000        0.0000000000000000     
   1.0000000000000000        1.0000000000000000        0.0000000000000000     
 </DataArray>
 </Points>
 <Cells>
 <DataArray  type="Int32"  Name="connectivity"  format="ascii">
           0           1           6           5
           1           2           7           6
           2           3           8           7
           3           4           9           8
           5           6          11          10
           6           7          12          11
           7           8          13          12
           8           9          14          13
          10          11          16          15
          11          12          17          16
          12          13          18          17
          13          14          19          18
          15          16          21          20
          16          17          22          21
          17          18          23          22
          18          19          24          23
          25          26          31          30
          26          27          32          31
          27          28          33          32
          28          29          34          33
          30          31          36          35
          31          32          37          36
          32          33          38          37
          33          34          39          38
          35          36          41          40
          36          37          42          41
          37          38          43          42
          38          39          44          43
          40          41          46          45
          41          42          47          46
          42          43          48          47
          43          44          49          48
          50          51          56          55
          51          52          57          56
          52          53          58          57
          53          54          59          58
          55          56          61          60
          56          57          62          61
          57          58          63          62
          58          59          64          63
          60          61          66          65
          61          62          67          66
          62          63          68          67
          63          64          69          68
          65          66          71          70
          66          67          72          71
          67          68          73          72
          68          69          74          73
          75          76          81          80
          76          77          82          81
          77          78          83          82
          78          79          84          83
          80          81          86          85
          81          82          87          86
          82          83          88          87
          83          84          89          88
          85          86          91          90
          86          87          92          91
          87          88          93          92
          88          89          94          93
          90          91          96          95
          91          92          97          96
          92          93          98          97
          93          94          99          98
         100         101         106         105
         101         102         107         106
         102         103         108         107
         103         104         109         108
         105         106         111         110
         106         107         112         111
         107         108         113         112
         108         109         114         113
         110         111         116         115
         111         112         117         116
         112         113         118         117
         113         114         119         118
         115         116         121         120
         116         117         122         121
         117         118         123         122
         118         119         124         123
         125         126         131         130
         126         127         132         131
         127         128         133         132
         128         129         134         133
         130         131         136         135
         131         132         137         136
         132         133         138         137
         133         134         139         138
         135         136         141         140
         136         137         142         141
         137         138         143         142
         138         139         144         143
         140         141         146         145
         141         142         147         146
         142         143         148         147
         143         144         149         148
         150         151         156         155
         151         152         157         156
         152         153         158         157
         153         154         159         158
         155         156         161         160
         156         157         162         161
         157         158         163         162
         158         159         164         163
         160         161         166         165
         161         162         167         166
         162         163         168         167
         163         164         169         168
         165         166         171         170
         166         167         172         171
         167         168         173         172
         168         169         174         173
         175         176         181         180
         176         177         182         181
         177         178         183         182
         178         179         184         183
         180         181         186         185
         181         182         187         186
         182         183         188         187
         183         184         189         188
         185         186         191         190
         186         187         192         191
         187         188         193         192
         188         189         194         193
         190         191         196         195
         191         192         197         196
         192         193         198         197
         193         194         199         198
         200         201         206         205
         201         202         207         206
         202         203         208         207
         203         204         209         208
         205         206         211         210
         206         207         212         211
         207         208         213         212
         208         209         214         213
         210         211         216         215
         211         212         217         216
         212         213         218         217
         213         214         219         218
         215         216         221         220
         216         217         222         221
         217         218         223         222
         218         219         224         223
         225         226         231         230
         226         227         232         231
         227         228         233         232
         228         229         234         233
         230         231         236         235
         231         232         237         236
         232         233         238         237
         233         234         239         238
         235         236         241         240
         236         237         242         241
         237         238         243         242
         238         239         244         243
         240         241         246         245
         241         242         247         246
         242         243         248         247
         243         244         249         248
         250         251         256         255
         251         252         257         256
         252         253         258         257
         253         254         259         258
         255         256         261         260
         256         257         262         261
         257         258         263         262
         258         259         264         263
         260         261         266         265
         261         262         267         266
         262         263         268         267
         263         264         269         268
         265         266         271         270
         266         267         272         271
         267         268         273         272
         268         269         274         273
         275         276         281         280
         276         277         282         281
         277         278         283         282
         278         279         284         283
         280         281         286         285
         281         282         287         286
         282         283         288         287
         283         284         289         288
         285         286         291         290
         286         287         292         291
         287         288         293         292
         288         289         294         293
         290         291         296         295
         291         292         297         296
         292         293         298         297
         293         294         299         298
         300         301         306         305
         301         302         307         306
         302         303         308         307
         303         304         309         308
         305         306         311         310
         306         307         312         311
         307         308         313         312
         308         309         314         313
         310         311         316         315
         311         312         317         316
         312         313         318         317
         313         314         319         318
         315         316         321         320
         316         317         322         321
         317         318         323         322
         318         319         324         323
         325         326         331         330
         326         327         332         331
         327         328         333         332
         328         329         334         333
         330         331         336         335
         331         332         337         336
         332         333         338         337
         333         334         339         338
         335         336         341         340
         336         337         342         341
         337         338         343         342
         338         339         344         343
         340         341         346         345
         341         342         347         346
         342         343         348         347
         343         344         349         348
         350         351         356         355
         351         352         357         356
         352         353         358         357
         353         354         359         358
         355         356         361         360
         356         357         362         361
         357         358         363         362
         358         359         364         363
         360         361         366         365
         361         362         367         366
         362         363         368         367
         363         364         369         368
         365         366         371         370
         366         367         372         371
         367         368         373         372
         368         369         374         373
         375         376         381         380
         376         377         382         381
         377         378         383         382
         378         379         384         383
         380         381         386         385
         381         382         387         386
         382         383         388         387
         383         384         389         388
         385         386         391         390
         386         387         392         391
         387         388         393         392
         388         389         394         393
         390         391         396         395
         391         392         397         396
         392         393         398         397
         393         394         399         398
         400         401         406         405
         401         402         407         406
         402         403         408         407
         403         404         409         408
         405         406         411         410
         406         407         412         411
         407         408         413         412
         408         409         414         413
         410         411         416         415
         411         412         417         416
         412         413         418         417
         413         414         419         418
         415         416         421         420
         416         417         422         421
         417         418         423         422
         418         419         424         423
         425         426         431         430
         426         427         432         431
         427         428         433         432
         428         429         434         433
         430         431         436         435
         431         432         437         436
         432         433         438         437
         433         434         439         438
         435         436         441         440
         436         437         442         441
         437         438         443         442
         438         439         444         443
         440         441         446         445
         441         442         447         446
         442         443         448         447
         443         444         449         448
         450         451         456         455
         451         452         457         456
         452         453         458         457
         453         454         459         458
         455         456         461         460
         456         457         462         461
         457         458         463         462
         458         459         464         463
         460         461         466         465
         461         462         467         466
         462         463         468         467
         463         464         469         468
         465         466         471         470
         466         467         472         471
         467         468         473         472
         468         469         474         473
         475         476         481         480
         476         477         482         481
         477         478         483         482
         478         479         484         483
         480         481         486         485
         481         482         487         486
         482         483         488         487
         483         484         489         488
         485         486         491         490
         486         487         492         491
         487         488         493         492
         488         489         494         493
         490         491         496         495
         491         492         497         496
         492         493         498         497
         493         494         499         498
         500         501         506         505
         501         502         507         506
         502         503         508         507
         503         504         509         508
         505         506         511         510
         506         507         512         511
         507         508         513         512
         508         509         514         513
         510         511         516         515
         511         512         517         516
         512         513         518         517
         513         514         519         518
         515         516         521         520
         516         517         522         521
         517         518         523         522
         518         519         524         523
         525         526         531         530
         526         527         532         531
         527         528         533         532
         528         529         534         533
         530         531         536         535
         531         532         537         536
         532         533         538         537
         533         534         539         538
         535         536         541         540
         536         537         542         541
         537         538         543         542
         538         539         544         543
         540         541         546         545
         541         542         547         546
         542         543         548         547
         543         544         549         548
         550         551         556         555
         551         552         557         556
         552         553         558         557
         553         554         559         558
         555         556         561         560
         556         557         562         561
         557         558         563         562
         558         559         564         563
         560         561         566         565
         561         562         567         566
         562         563         568         567
         563         564         569         568
         565         566         571         570
         566         567         572         571
         567         568         573         572
         568         569         574         573
         575         576         581         580
         576         577         582         581
         577         578         583         582
         578         579         584         583
         580         581         586         585
         581         582         587         586
         582         583         588         587
         583         584         589         588
         585         586         591         590
         586         587         592         591
         587         588         593         592
         588         589         594         593
         590         591         596         595
         591         592         597         596
         592         593         598         597
         593         594         599         598
         600         601         606         605
         601         602         607         606
         602         603         608         607
         603         604         609         608
         605         606         611         610
         606         607         612         611
         607         608         613         612
         608         609         614         613
         610         611         616         615
         611         612         617         616
         612         613         618         617
         613         614         619         618
         615         616         621         620
         616         617         622         621
         617         618         623         622
         618         619         624         623
         625         626         631         630
         626         627         632         631
         627         628         633         632
         628         629         634         633
         630         631         636         635
         631         632         637         636
         632         633         638         637
         633         634         639         638
         635         636         641         640
         636         637         642         641
         637         638         643         642
         638         639         644         643
         640         641         646         645
         641         642         647         646
         642         643         648         647
         643         644         649         648
         650         651         656         655
         651         652         657         656
         652         653         658         657
         653         654         659         658
         655         656         661         660
         656         657         662         661
         657         658         663         662
         658         659         664         663
         660         661         666         665
         661         662         667         666
         662         663         668         667
         663         664         669         668
         665         666         671         670
         666         667         672         671
         667         668         673         672
         668         669         674         673
         675         676         681         680
         676         677         682         681
         677         678         683         682
         678         679         684         683
         680         681         686         685
         681         682         687         686
         682         683         688         687
         683         684         689         688
         685         686         691         690
         686         687         692         691
         687         688         693         692
         688         689         694         693
         690         691         696         695
         691         692         697         696
         692         693         698         697
         693         694         699         698
         700         701         706         705
         701         702         707         706
         702         703         708         707
         703         704         709         708
         705         706         711         710
         706         707         712         711
         707         708         713         712
         708         709         714         713
         710         711         716         715
         711         712         717         716
         712         713         718         717
         713         714         719         718
         715         716         721         720
         716         717         722         721
         717         718         723         722
         718         719         724         723
         725         726         731         730
         726         727         732         731
         727         728         733         732
         728         729         734         733
         730         731         736         735
         731         732         737         736
         732         733         738         737
         733         734         739         738
         735         736         741         740
         736         737         742         741
         737         738         743         742
         738         739         744         743
         740         741         746         745
         741         742         747         746
         742         743         748         747
         743         744         749         748
         750         751         756         755
         751         752         757         756
         752         753         758         757
         753         754         759         758
         755         756         761         760
         756         757         762         761
         757         758         763         762
         758         759         764         763
         760         761         766         765
         761         762         767         766
         762         763         768         767
         763         764         769         768
         765         766         771         770
         766         767         772         771
         767         768         773         772
         768         769         774         773
         775         776         781         780
         776         777         782         781
         777         778         783         782
         778         779         784         783
         780         781         786         785
         781         782         787         786
         782         783         788         787
         783         784         789         788
         785         786         791         790
         786         787         792         791
         787         788         793         792
         788         789         794         793
         790         791         796         795
         791         792         797         796
         792         793         798         797
         793         794         799         798
         800         801         806         805
         801         802         807         806
         802         803         808         807
         803         804         809         808
         805         806         811         810
         806         807         812         811
         807         808         813         812
         808         809         814         813
         810         811         816         815
         811         812         817         816
         812         813         818         817
         813         814         819         818
         815         816         821         820
         816         817         822         821
         817         818         823         822
         818         819         824         823
         825         826         831         830
         826         827         832         831
         827         828         833         832
         828         829         834         833
         830         831         836         835
         831         832         837         836
         832         833         838         837
         833         834         839         838
         835         836         841         840
         836         837         842         841
         837         838         843         842
         838         839         844         843
         840         841         846         845
         841         842         847         846
         842         843         848         847
         843         844         849         848
         850         851         856         855
         851         852         857         856
         852         853         858         857
         853         854         859         858
         855         856         861         860
         856         857         862         861
         857         858         863         862
         858         859         864         863
         860         861         866         865
         861         862         867         866
         862         863         868         867
         863         864         869         868
         865         866         871         870
         866         867         872         871
         867         868         873         872
         868         869         874         873
         875         876         881         880
         876         877         882         881
         877         878         883         882
         878         879         884         883
         880         881         886         885
         881         882         887         886
         882         883         888         887
         883         884         889         888
         885         886         891         890
         886         887         892         891
         887         888         893         892
         888         889         894         893
         890         891         896         895
         891         892         897         896
         892         893         898         897
         893         894         899         898
         900         901         906         905
         901         902         907         906
         902         903         908         907
         903         904         909         908
         905         906         911         910
         906         907         912         911
         907         908         913         912
         908         909         914         913
         910         911         916         915
         911         912         917         916
         912         913         918         917
         913         914         919         918
         915         916         921         920
         916         917         922         921
         917         918         923         922
         918         919         924         923
         925         926         931         930
         926         927         932         931
         927         928         933         932
         928         929         934         933
         930         931         936         935
         931         932         937         936
         932         933         938         937
         933         934         939         938
         935         936         941         940
         936         937         942         941
         937         938         943         942
         938         939         944         943
         940         941         946         945
         941         942         947         946
         942         943         948         947
         943         944         949         948
         950         951         956         955
         951         952         957         956
         952         953         958         957
         953         954         959         958
         955         956         961         960
         956         957         962         961
         957         958         963         962
         958         959         964         963
         960         961         966         965
         961         962         967         966
         962         963         968         967
         963         964         969         968
         965         966         971         970
         966         967         972         971
         967         968         973         972
         968         969         974         973
         975         976         981         980
         976         977         982         981
         977         978         983         982
         978         979         984         983
         980         981         986         985
         981         982         987         986
         982         983         988         987
         983         984         989         988
         985         986         991         990
         986         987         992         991
         987         988         993         992
         988         989         994         993
         990         991         996         995
         991         992         997         996
         992         993         998         997
         993         994         999         998
        1000        1001        1006        1005
        1001        1002        1007        1006
        1002        1003        1008        1007
        1003        1004        1009        1008
        1005        1006        1011        1010
        1006        1007        1012        1011
        1007        1008        1013        1012
        1008        1009        1014        1013
        1010        1011        1016        1015
        1011        1012        1017        1016
        1012        1013        1018        1017
        1013        1014        1019        1018
        1015        1016        1021        1020
        1016        1017        1022        1021
        1017        1018        1023        1022
        1018        1019        1024        1023
        1025        1026        1031        1030
        1026        1027        1032        1031
        1027        1028        1033        1032
        1028        1029        1034        1033
        1030        1031        1036        1035
        1031        1032        1037        1036
        1032        1033        1038        1037
        1033        1034        1039        1038
        1035        1036        1041        1040
        1036        1037        1042        1041
        1037        1038        1043        1042
        1038        1039        1044        1043
        1040        1041        1046        1045
        1041        1042        1047        1046
        1042        1043        1048        1047
        1043        1044        1049        1048
        1050        1051        1056        1055
        1051        1052        1057        1056
        1052        1053        1058        1057
        1053        1054        1059        1058
        1055        1056        1061        1060
        1056        1057        1062        1061
        1057        1058        1063        1062
        1058        1059        1064        1063
        1060        1061        1066        1065
        1061        1062        1067        1066
        1062        1063        1068        1067
        1063        1064        1069        1068
        1065        1066        1071        1070
        1066        1067        1072        1071
        1067        1068        1073        1072
        1068        1069        1074        1073
        1075        1076        1081        1080
        1076        1077        1082        1081
        1077        1078        1083        1082
        1078        1079        1084        1083
        1080        1081        1086        1085
        1081        1082        1087        1086
        1082        1083        1088        1087
        1083        1084        1089        1088
        1085        1086        1091        1090
        1086        1087        1092        1091
        1087        1088        1093        1092
        1088        1089        1094        1093
        1090        1091        1096        1095
        1091        1092        1097        1096
        1092        1093        1098        1097
        1093        1094        1099        1098
        1100        1101        1106        1105
        1101        1102        1107        1106
        1102        1103        1108        1107
        1103        1104        1109        1108
        1105        1106        1111        1110
        1106        1107        1112        1111
        1107        1108        1113        1112
        1108        1109        1114        1113
        1110        1111        1116        1115
        1111        1112        1117        1116
        1112        1113        1118        1117
        1113        1114        1119        1118
        1115        1116        1121        1120
        1116        1117        1122        1121
        1117        1118        1123        1122
        1118        1119        1124        1123
        1125        1126        1131        1130
        1126        1127        1132        1131
        1127        1128        1133        1132
        1128        1129        1134        1133
        1130        1131        1136        1135
        1131        1132        1137        1136
        1132        1133        1138        1137
        1133        1134        1139        1138
        1135        1136        1141        1140
        1136        1137        1142        1141
        1137        1138        1143        1142
        1138        1139        1144        1143
        1140        1141        1146        1145
        1141        1142        1147        1146
        1142        1143        1148        1147
        1143        1144        1149        1148
        1150        1151        1156        1155
        1151        1152        1157        1156
        1152        1153        1158        1157
        1153        1154        1159        1158
        1155        1156        1161        1160
        1156        1157        1162        1161
        1157        1158        1163        1162
        1158        1159        1164        1163
        1160        1161        1166        1165
        1161        1162        1167        1166
        1162        1163        1168        1167
        1163        1164        1169        1168
        1165        1166        1171        1170
        1166        1167        1172        1171
        1167        1168        1173        1172
        1168        1169        1174        1173
        1175        1176        1181        1180
        1176        1177        1182        1181
        1177        1178        1183        1182
        1178        1179        1184        1183
        1180        1181        1186        1185
        1181        1182        1187        1186
        1182        1183        1188        1187
        1183        1184        1189        1188
        1185        1186        1191        1190
        1186        1187        1192        1191
        1187        1188        1193        1192
        1188        1189        1194        1193
        1190        1191        1196        1195
        1191        1192        1197        1196
        1192        1193        1198        1197
        1193        1194        1199        1198
        1200        1201        1206        1205
        1201        1202        1207        1206
        1202        1203        1208        1207
        1203        1204        1209        1208
        1205        1206        1211        1210
        1206        1207        1212        1211
        1207        1208        1213        1212
        1208        1209        1214        1213
        1210        1211        1216        1215
        1211        1212        1217        1216
        1212        1213        1218        1217
        1213        1214        1219        1218
        1215        1216        1221        1220
        1216        1217        1222        1221
        1217        1218        1223        1222
        1218        1219        1224        1223
        1225        1226        1231        1230
        1226        1227        1232        1231
        1227        1228        1233        1232
        1228        1229        1234        1233
        1230        1231        1236        1235
        1231        1232        1237        1236
        1232        1233        1238        1237
        1233        1234        1239        1238
        1235        1236        1241        1240
        1236        1237        1242        1241
        1237        1238        1243        1242
        1238        1239        1244        1243
        1240        1241        1246        1245
        1241        1242        1247        1246
        1242        1243        1248        1247
        1243        1244        1249        1248
        1250        1251        1256        1255
        1251        1252        1257        1256
        1252        1253        1258        1257
        1253        1254        1259        1258
        1255        1256        1261        1260
        1256        1257        1262        1261
        1257        1258        1263        1262
        1258        1259        1264        1263
        1260        1261        1266        1265
        1261        1262        1267        1266
        1262        1263        1268        1267
        1263        1264        1269        1268
        1265        1266        1271        1270
        1266        1267        1272        1271
        1267        1268        1273        1272
        1268        1269        1274        1273
        1275        1276        1281        1280
        1276        1277        1282        1281
        1277        1278        1283        1282
        1278        1279        1284        1283
        1280        1281        1286        1285
        1281        1282        1287        1286
        1282        1283        1288        1287
        1283        1284        1289        1288
        1285        1286        1291        1290
        1286        1287        1292        1291
        1287        1288        1293        1292
        1288        1289        1294        1293
        1290        1291        1296        1295
        1291        1292        1297        1296
        1292        1293        1298        1297
        1293        1294        1299        1298
        1300        1301        1306        1305
        1301        1302        1307        1306
        1302        1303        1308        1307
        1303        1304        1309        1308
        1305        1306        1311        1310
        1306        1307        1312        1311
        1307        1308        1313        1312
        1308        1309        1314        1313
        1310        1311        1316        1315
        1311        1312        1317        1316
        1312        1313        1318        1317
        1313        1314        1319        1318
        1315        1316        1321        1320
        1316        1317        1322        1321
        1317        1318        1323        1322
        1318        1319        1324        1323
        1325        1326        1331        1330
        1326        1327        1332        1331
        1327        1328        1333        1332
        1328        1329        1334        1333
        1330        1331        1336        1335
        1331        1332        1337        1336
        1332        1333        1338        1337
        1333        1334        1339        1338
        1335        1336        1341        1340
        1336        1337        1342        1341
        1337        1338        1343        1342
        1338        1339        1344        1343
        1340        1341        1346        1345
        1341        1342        1347        1346
        1342        1343        1348        1347
        1343        1344        1349        1348
        1350        1351        1356        1355
        1351        1352        1357        1356
        1352        1353        1358        1357
        1353        1354        1359        1358
        1355        1356        1361        1360
        1356        1357        1362        1361
        1357        1358        1363        1362
        1358        1359        1364        1363
        1360        1361        1366        1365
        1361        1362        1367        1366
        1362        1363        1368        1367
        1363        1364        1369        1368
        1365        1366        1371        1370
        1366        1367        1372        1371
        1367        1368        1373        1372
        1368        1369        1374        1373
        1375        1376        1381        1380
        1376        1377        1382        1381
        1377        1378        1383        1382
        1378        1379        1384        1383
        1380        1381        1386        1385
        1381        1382        1387        1386
        1382        1383        1388        1387
        1383        1384        1389        1388
        1385        1386        1391        1390
        1386        1387        1392        1391
        1387        1388        1393        1392
        1388        1389        1394        1393
        1390        1391        1396        1395
        1391        1392        1397        1396
        1392        1393        1398        1397
        1393        1394        1399        1398
        1400        1401        1406        1405
        1401        1402        1407        1406
        1402        1403        1408        1407
        1403        1404        1409        1408
        1405        1406        1411        1410
        1406        1407        1412        1411
        1407        1408        1413        1412
        1408        1409        1414        1413
        1410        1411        1416        1415
        1411        1412        1417        1416
        1412        1413        1418        1417
        1413        1414        1419        1418
        1415        1416        1421        1420
        1416        1417        1422        1421
        1417        1418        1423        1422
        1418        1419        1424        1423
        1425        1426        1431        1430
        1426        1427        1432        1431
        1427        1428        1433        1432
        1428        1429        1434        1433
        1430        1431        1436        1435
        1431        1432        1437        1436
        1432        1433        1438        1437
        1433        1434        1439        1438
        1435        1436        1441        1440
        1436        1437        1442        1441
        1437        1438        1443        1442
        1438        1439        1444        1443
        1440        1441        1446        1445
        1441        1442        1447        1446
        1442        1443        1448        1447
        1443        1444        1449        1448
        1450        1451        1456        1455
        1451        1452        1457        1456
        1452        1453        1458        1457
        1453        1454        1459        1458
        1455        1456        1461        1460
        1456        1457        1462        1461
        1457        1458        1463        1462
        1458        1459        1464        1463
        1460        1461        1466        1465
        1461        1462        1467        1466
        1462        1463        1468        1467
        1463        1464        1469        1468
        1465        1466        1471        1470
        1466        1467        1472        1471
        1467        1468        1473        1472
        1468        1469        1474        1473
        1475        1476        1481        1480
        1476        1477        1482        1481
        1477        1478        1483        1482
        1478        1479        1484        1483
        1480        1481        1486        1485
        1481        1482        1487        1486
        1482        1483        1488        1487
        1483        1484        1489        1488
        1485        1486        1491        1490
        1486        1487        1492        1491
        1487        1488        1493        1492
        1488        1489        1494        1493
        1490        1491        1496        1495
        1491        1492        1497        1496
        1492        1493        1498        1497
        1493        1494        1499        1498
        1500        1501        1506        1505
        1501        1502        1507        1506
        1502        1503        1508        1507
        1503        1504        1509        1508
        1505        1506        1511        1510
        1506        1507        1512        1511
        1507        1508        1513        1512
        1508        1509        1514        1513
        1510        1511        1516        1515
        1511        1512        1517        1516
        1512        1513        1518        1517
        1513        1514        1519        1518
        1515        1516        1521        1520
        1516        1517        1522        1521
        1517        1518        1523        1522
        1518        1519        1524        1523
        1525        1526        1531        1530
        1526        1527        1532        1531
        1527        1528        1533        1532
        1528        1529        1534        1533
        1530        1531        1536        1535
        1531        1532        1537        1536
        1532        1533        1538        1537
        1533        1534        1539        1538
        1535        1536        1541        1540
        1536        1537        1542        1541
        1537        1538        1543        1542
        1538        1539        1544        1543
        1540        1541        1546        1545
        1541        1542        1547        1546
        1542        1543        1548        1547
        1543        1544        1549        1548
        1550        1551        1556        1555
        1551        1552        1557        1556
        1552        1553        1558        1557
        1553        1554        1559        1558
        1555        1556        1561        1560
        1556        1557        1562        1561
        1557        1558        1563        1562
        1558        1559        1564        1563
        1560        1561        1566        1565
        1561        1562        1567        1566
        1562        1563        1568        1567
        1563        1564        1569        1568
        1565        1566        1571        1570
        1566        1567        1572        1571
        1567        1568        1573        1572
        1568        1569        1574        1573
        1575        1576        1581        1580
        1576        1577        1582        1581
        1577        1578        1583        1582
        1578        1579        1584        1583
        1580        1581        1586        1585
        1581        1582        1587        1586
        1582        1583        1588        1587
        1583        1584        1589        1588
        1585        1586        1591        1590
        1586        1587        1592        1591
        1587        1588        1593        1592
        1588        1589        1594        1593
        1590        1591        1596        1595
        1591        1592        1597        1596
        1592        1593        1598        1597
        1593        1594        1599        1598
 </DataArray>
 <DataArray  type="Int32"  Name="offsets"  format="ascii"> 
           4
           8
          12
          16
          20
          24
          28
          32
          36
          40
          44
          48
          52
          56
          60
          64
          68
          72
          76
          80
          84
          88
          92
          96
         100
         104
         108
         112
         116
         120
         124
         128
         132
         136
         140
         144
         148
         152
         156
         160
         164
         168
         172
         176
         180
         184
         188
         192
         196
         200
         204
         208
         212
         216
         220
         224
         228
         232
         236
         240
         244
         248
         252
         256
         260
         264
         268
         272
         276
         280
         284
         288
         292
         296
         300
         304
         308
         312
         316
         320
         324
         328
         332
         336
         340
         344
         348
         352
         356
         360
         364
         368
         372
         376
         380
         384
         388
         392
         396
         400
         404
         408
         412
         416
         420
         424
         428
         432
         436
         440
         444
         448
         452
         456
         460
         464
         468
         472
         476
         480
         484
         488
         492
         496
         500
         504
         508
         512
         516
         520
         524
         528
         532
         536
         540
         544
         548
         552
         556
         560
         564
         568
         572
         576
         580
         584
         588
         592
         596
         600
         604
         608
         612
         616
         620
         624
         628
         632
         636
         640
         644
         648
         652
         656
         660
         664
         668
         672
         676
         680
         684
         688
         692
         696
         700
         704
         708
         712
         716
         720
         724
         728
         732
         736
         740
         744
         748
         752
         756
         760
         764
         768
         772
         776
         780
         784
         788
         792
         796
         800
         804
         808
         812
         816
         820
         824
         828
         832
         836
         840
         844
         848
         852
         856
         860
         864
         868
         872
         876
         880
         884
         888
         892
         896
         900
         904
         908
         912
         916
         920
         924
         928
         932
         936
         940
         944
         948
         952
         956
         960
         964
         968
         972
         976
         980
         984
         988
         992
         996
        1000
        1004
        1008
        1012
        1016
        1020
        1024
        1028
        1032
        1036
        1040
        1044
        1048
        1052
        1056
        1060
        1064
        1068
        1072
        1076
        1080
        1084
        1088
        1092
        1096
        1100
        1104
        1108
        1112
        1116
        1120
        1124
        1128
        1132
        1136
        1140
        1144
        1148
        1152
        1156
        1160
        1164
        1168
        1172
        1176
        1180
        1184
        1188
        1192
        1196
        1200
        1204
        1208
        1212
        1216
        1220
        1224
        1228
        1232
        1236
        1240
        1244
        1248
        1252
        1256
        1260
        1264
        1268
        1272
        1276
        1280
        1284
        1288
        1292
        1296
        1300
        1304
        1308
        1312
        1316
        1320
        1324
        1328
        1332
        1336
        1340
        1344
        1348
        1352
        1356
        1360
        1364
        1368
        1372
        1376
        1380
        1384
        1388
        1392
        1396
        1400
        1404
        1408
        1412
        1416
        1420
        1424
        1428
        1432
        1436
        1440
        1444
        1448
        1452
        1456
        1460
        1464
        1468
        1472
        1476
        1480
        1484
        1488
        1492
        1496
        1500
        1504
        1508
        1512
        1516
        1520
        1524
        1528
        1532
        1536
        1540
        1544
        1548
        1552
        1556
        1560
        1564
        1568
        1572
        1576
        1580
        1584
        1588
        1592
        1596
        1600
        1604
        1608
        1612
        1616
        1620
        1624
        1628
        1632
        1636
        1640
        1644
        1648
        1652
        1656
        1660
        1664
        1668
        1672
        1676
        1680
        1684
        1688
        1692
        1696
        1700
        1704
        1708
        1712
        1716
        1720
        1724
        1728
        1732
        1736
        1740
        1744
        1748
        1752
        1756
        1760
        1764
        1768
        1772
        1776
        1780
        1784
        1788
        1792
        1796
        1800
        1804
        1808
        1812
        1816
        1820
        1824
        1828
        1832
        1836
        1840
        1844
        1848
        1852
        1856
        1860
        1864
        1868
        1872
        1876
        1880
        1884
        1888
        1892
        1896
        1900
        1904
        1908
        1912
        1916
        1920
        1924
        1928
        1932
        1936
        1940
        1944
        1948
        1952
        1956
        1960
        1964
        1968
        1972
        1976
        1980
        1984
        1988
        1992
        1996
        2000
        2004
        2008
        2012
        2016
        2020
        2024
        2028
        2032
        2036
        2040
        2044
        2048
        2052
        2056
        2060
        2064
        2068
        2072
        2076
        2080
        2084
        2088
        2092
        2096
        2100
        2104
        2108
        2112
        2116
        2120
        2124
        2128
        2132
        2136
        2140
        2144
        2148
        2152
        2156
        2160
        2164
        2168
        2172
        2176
        2180
        2184
        2188
        2192
        2196
        2200
        2204
        2208
        2212
        2216
        2220
        2224
        2228
        2232
        2236
        2240
        2244
        2248
        2252
        2256
        2260
        2264
        2268
        2272
        2276
        2280
        2284
        2288
        2292
        2296
        2300
        2304
        2308
        2312
        2316
        2320
        2324
        2328
        2332
        2336
        2340
        2344
        2348
        2352
        2356
        2360
        2364
        2368
        2372
        2376
        2380
        2384
        2388
        2392
        2396
        2400
        2404
        2408
        2412
        2416
        2420
        2424
        2428
        2432
        2436
        2440
        2444
        2448
        2452
        2456
        2460
        2464
        2468
        2472
        2476
        2480
        2484
        2488
        2492
        2496
        2500
        2504
        2508
        2512
        2516
        2520
        2524
        2528
        2532
        2536
        2540
        2544
        2548
        2552
        2556
        2560
        2564
        2568
        2572
        2576
        2580
        2584
        2588
        2592
        2596
        2600
        2604
        2608
        2612
        2616
        2620
        2624
        2628
        2632
        2636
        2640
        2644
        2648
        2652
        2656
        2660
        2664
        2668
        2672
        2676
        2680
        2684
        2688
        2692
        2696
        2700
        2704
        2708
        2712
        2716
        2720
        2724
        2728
        2732
        2736
        2740
        2744
        2748
        2752
        2756
        2760
        2764
        2768
        2772
        2776
        2780
        2784
        2788
        2792
        2796
        2800
        2804
        2808
        2812
        2816
        2820
        2824
        2828
        2832
        2836
        2840
        2844
        2848
        2852
        2856
        2860
        2864
        2868
        2872
        2876
        2880
        2884
        2888
        2892
        2896
        2900
        2904
        2908
        2912
        2916
        2920
        2924
        2928
        2932
        2936
        2940
        2944
        2948
        2952
        2956
        2960
        2964
        2968
        2972
        2976
        2980
        2984
        2988
        2992
        2996
        3000
        3004
        3008
        3012
        3016
        3020
        3024
        3028
        3032
        3036
        3040
        3044
        3048
        3052
        3056
        3060
        3064
        3068
        3072
        3076
        3080
        3084
        3088
        3092
        3096
        3100
        3104
        3108
        3112
        3116
        3120
        3124
        3128
        3132
        3136
        3140
        3144
        3148
        3152
        3156
        3160
        3164
        3168
        3172
        3176
        3180
        3184
        3188
        3192
        3196
        3200
        3204
        3208
        3212
        3216
        3220
        3224
        3228
        3232
        3236
        3240
        3244
        3248
        3252
        3256
        3260
        3264
        3268
        3272
        3276
        3280
        3284
        3288
        3292
        3296
        3300
        3304
        3308
        3312
        3316
        3320
        3324
        3328
        3332
        3336
        3340
        3344
        3348
        3352
        3356
        3360
        3364
        3368
        3372
        3376
        3380
        3384
        3388
        3392
        3396
        3400
        3404
        3408
        3412
        3416
        3420
        3424
        3428
        3432
        3436
        3440
        3444
        3448
        3452
        3456
        3460
        3464
        3468
        3472
        3476
        3480
        3484
        3488
        3492
        3496
        3500
        3504
        3508
        3512
        3516
        3520
        3524
        3528
        3532
        3536
        3540
        3544
        3548
        3552
        3556
        3560
        3564
        3568
        3572
        3576
        3580
        3584
        3588
        3592
        3596
        3600
        3604
        3608
        3612
        3616
        3620
        3624
        3628
        3632
        3636
        3640
        3644
        3648
        3652
        3656
        3660
        3664
        3668
        3672
        3676
        3680
        3684
        3688
        3692
        3696
        3700
        3704
        3708
        3712
        3716
        3720
        3724
        3728
        3732
        3736
        3740
        3744
        3748
        3752
        3756
        3760
        3764
        3768
        3772
        3776
        3780
        3784
        3788
        3792
        3796
        3800
        3804
        3808
        3812
        3816
        3820
        3824
        3828
        3832
        3836
        3840
        3844
        3848
        3852
        3856
        3860
        3864
        3868
        3872
        3876
        3880
        3884
        3888
        3892
        3896
        3900
        3904
        3908
        3912
        3916
        3920
        3924
        3928
        3932
        3936
        3940
        3944
        3948
        3952
        3956
        3960
        3964
        3968
        3972
        3976
        3980
        3984
        3988
        3992
        3996
        4000
        4004
        4008
        4012
        4016
        4020
        4024
        4028
        4032
        4036
        4040
        4044
        4048
        4052
        4056
        4060
        4064
        4068
        4072
        4076
        4080
        4084
        4088
        4092
        4096
 </DataArray>
 <DataArray  type="UInt8"  Name="types"  format="ascii">
 9
 9
 9
 9
 9
 9
 9
 9
 9
 9
 9
 9
 9
 9
 9
 9
 9
 9
 9
 9
 9
 9
 9
 9
 9
 9
 9
 9
 9
 9
 9
 9
 9
 9
 9
 9
 9
 9
 9
 9
 9
 9
 9
 9
 9
 9
 9
 9
 9
 9
 9
 9
 9
 9
 9
 9
 9
 9
 9
 9
 9
 9
 9
 9
 9
 9
 9
 9
 9
 9
 9
 9
 9
 9
 9
 9
 9
 9
 9
 9
 9
 9
 9
 9
 9
 9
 9
 9
 9
 9
 9
 9
 9
 9
 9
 9
 9
 9
 9
 9
 9
 9
 9
 9
 9
 9
 9
 9
 9
 9
 9
 9
 9
 9
 9
 9
 9
 9
 9
 9
 9
 9
 9
 9
 9
 9
 9
 9
 9
 9
 9
 9
 9
 9
 9
 9
 9
 9
 9
 9
 9
 9
 9
 9
 9
 9
 9
 9
 9
 9
 9
 9
 9
 9
 9
 9
 9
 9
 9
 9
 9
 9
 9
 9
 9
 9
 9
 9
 9
 9
 9
 9
 9
 9
 9
 9
 9
 9
 9
 9
 9
 9
 9
 9
 9
 9
 9
 9
 9
 9
 9
 9
 9
 9
 9
 9
 9
 9
 9
 9
 9
 9
 9
 9
 9
 9
 9
 9
 9
 9
 9
 9
 9
 9
 9
 9
 9
 9
 9
 9
 9
 9
 9
 9
 9
 9
 9
 9
 9
 9
 9
 9
 9
 9
 9
 9
 9
 9
 9
 9
 9
 9
 9
 9
 9
 9
 9
 9
 9
 9
 9
 9
 9
 9
 9
 9
 9
 9
 9
 9
 9
 9
 9
 9
 9
 9
 9
 9
 9
 9
 9
 9
 9
 9
 9
 9
 9
 9
 9
 9
 9
 9
 9
 9
 9
 9
 9
 9
 9
 9
 9
 9
 9
 9
 9
 9
 9
 9
 9
 9
 9
 9
 9
 9
 9
 9
 9
 9
 9
 9
 9
 9
 9
 9
 9
 9
 9
 9
 9
 9
 9
 9
 9
 9
 9
 9
 9
 9
 9
 9
 9
 9
 9
 9
 9
 9
 9
 9
 9
 9
 9
 9
 9
 9
 9
 9
 9
 9
 9
 9
 9
 9
 9
 9
 9
 9
 9
 9
 9
 9
 9
 9
 9
 9
 9
 9
 9
 9
 9
 9
 9
 9
 9
 9
 9
 9
 9
 9
 9
 9
 9
 9
 9
 9
 9
 9
 9
 9
 9
 9
 9
 9
 9
 9
 9
 9
 9
 9
 9
 9
 9
 9
 9
 9
 9
 9
 9
 9
 9
 9
 9
 9
 9
 9
 9
 9
 9
 9
 9
 9
 9
 9
 9
 9
 9
 9
 9
 9
 9
 9
 9
 9
 9
 9
 9
 9
 9
 9
 9
 9
 9
 9
 9
 9
 9
 9
 9
 9
 9
 9
 9
 9
 9
 9
 9
 9
 9
 9
 9
 9
 9
 9
 9
 9
 9
 9
 9
 9
 9
 9
 9
 9
 9
 9
 9
 9
 9
 9
 9
 9
 9
 9
 9
 9
 9
 9
 9
 9
 9
 9
 9
 9
 9
 9
 9
 9
 9
 9
 9
 9
 9
 9
 9
 9
 9
 9
 9
 9
 9
 9
 9
 9
 9
 9
 9
 9
 9
 9
 9
 9
 9
 9
 9
 9
 9
 9
 9
 9
 9
 9
 9
 9
 9
 9
 9
 9
 9
 9
 9
 9
 9
 9
 9
 9
 9
 9
 9
 9
 9
 9
 9
 9
 9
 9
 9
 9
 9
 9
 9
 9
 9
 9
 9
 9
 9
 9
 9
 9
 9
 9
 9
 9
 9
 9
 9
 9
 9
 9
 9
 9
 9
 9
 9
 9
 9
 9
 9
 9
 9
 9
 9
 9
 9
 9
 9
 9
 9
 9
 9
 9
 9
 9
 9
 9
 9
 9
 9
 9
 9
 9
 9
 9
 9
 9
 9
 9
 9
 9
 9
 9
 9
 9
 9
 9
 9
 9
 9
 9
 9
 9
 9
 9
 9
 9
 9
 9
 9
 9
 9
 9
 9
 9
 9
 9
 9
 9
 9
 9
 9
 9
 9
 9
 9
 9
 9
 9
 9
 9
 9
 9
 9
 9
 9
 9
 9
 9
 9
 9
 9
 9
 9
 9
 9
 9
 9
 9
 9
 9
 9
 9
 9
 9
 9
 9
 9
 9
 9
 9
 9
 9
 9
 9
 9
 9
 9
 9
 9
 9
 9
 9
 9
 9
 9
 9
 9
 9
 9
 9
 9
 9
 9
 9
 9
 9
 9
 9
 9
 9
 9
 9
 9
 9
 9
 9
 9
 9
 9
 9
 9
 9
 9
 9
 9
 9
 9
 9
 9
 9
 9
 9
 9
 9
 9
 9
 9
 9
 9
 9
 9
 9
 9
 9
 9
 9
 9
 9
 9
 9
 9
 9
 9
 9
 9
 9
 9
 9
 9
 9
 9
 9
 9
 9
 9
 9
 9
 9
 9
 9
 9
 9
 9
 9
 9
 9
 9
 9
 9
 9
 9
 9
 9
 9
 9
 9
 9
 9
 9
 9
 9
 9
 9
 9
 9
 9
 9
 9
 9
 9
 9
 9
 9
 9
 9
 9
 9
 9
 9
 9
 9
 9
 9
 9
 9
 9
 9
 9
 9
 9
 9
 9
 9
 9
 9
 9
 9
 9
 9
 9
 9
 9
 9
 9
 9
 9
 9
 9
 9
 9
 9
 9
 9
 9
 9
 9
 9
 9
 9
 9
 9
 9
 9
 9
 9
 9
 9
 9
 9
 9
 9
 9
 9
 9
 9
 9
 9
 9
 9
 9
 9
 9
 9
 9
 9
 9
 9
 9
 9
 9
 9
 9
 9
 9
 9
 9
 9
 9
 9
 9
 9
 9
 9
 9
 9
 9
 9
 9
 9
 9
 9
 9
 9
 9
 9
 9
 9
 9
 9
 9
 9
 9
 9
 9
 9
 9
 9
 9
 9
 9
 9
 9
 9
 9
 9
 9
 9
 9
 9
 9
 9
 9
 9
 9
 9
 9
 9
 9
 9
 9
 9
 9
 9
 9
 9
 9
 9
 9
 9
 9
 9
 9
 9
 9
 9
 9
 9
 9
 9
 9
 9
 9
 9
 9
 9
 9
 9
 9
 9
 9
 9
 9
 9
 9
 9
 9
 9
 9
 9
 9
 9
 9
 9
 9
 9
 9
 9
 9
 9
 9
 9
 9
 9
 9
 9
 9
 9
 9
 9
 9
 9
 9
 9
 9
 9
 9
 9
 9
 9
 9
 9
 9
 9
 9
 9
 9
 </DataArray>
 </Cells> 
 <PointData>
 <DataArray  type="Float64" Name="disp" NumberOfComponents="3" format="ascii">
   0.0000000000000000        0.0000000000000000        0.0000000000000000     
   6.0959930374916748E-003   3.7904763120975918E-003   0.0000000000000000     
   1.1666019721278958E-002   7.3239325228137836E-003   0.0000000000000000     
   1.6710080051361847E-002   1.0600368632148574E-002   0.0000000000000000     
   2.1228174027740347E-002   1.3619784640101966E-002   0.0000000000000000     
   0.0000000000000000        0.0000000000000000        0.0000000000000000     
   4.8911678515511127E-003   3.0221921977218137E-003   0.0000000000000000     
   9.5736303551015207E-003   6.0606317307999149E-003   0.0000000000000000     
   1.4047387510651224E-002   9.1153185992343053E-003   0.0000000000000000     
   1.8312439318200219E-002   1.2186252803024981E-002   0.0000000000000000     
   0.0000000000000000        0.0000000000000000        0.0000000000000000     
   3.9535740283445364E-003   2.4251664462297045E-003   0.0000000000000000     
   7.9106073552510474E-003   5.0629970417697314E-003   0.0000000000000000     
   1.1871099980719533E-002   7.9134917866200815E-003   0.0000000000000000     
   1.5835051904749993E-002   1.0976650680780752E-002   0.0000000000000000     
   0.0000000000000000        0.0000000000000000        0.0000000000000000     
   3.2832115678719451E-003   1.9993990576212652E-003   0.0000000000000000     
   6.6769507217275380E-003   4.3310284557232332E-003   0.0000000000000000     
   1.0181217461566781E-002   6.9948881943059042E-003   0.0000000000000000     
   1.3796011787389669E-002   9.9909782733692779E-003   0.0000000000000000     
   0.0000000000000000        0.0000000000000000        0.0000000000000000     
   2.8800804701333395E-003   1.7448900318964948E-003   0.0000000000000000     
   5.8726604545309945E-003   3.8647259726604195E-003   0.0000000000000000     
   8.9777399531929640E-003   6.3595078222917741E-003   0.0000000000000000     
   1.2195318966119251E-002   9.2292355807905568E-003   0.0000000000000000     
   2.1228174027740347E-002   1.3619784640101966E-002   0.0000000000000000     
   2.5433207377515994E-002   1.6612799500263550E-002   0.0000000000000000     
   2.9538085827790328E-002   1.9810032166222923E-002   0.0000000000000000     
   3.3542809378563354E-002   2.3211482637980084E-002   0.0000000000000000     
   3.7447378029835068E-002   2.6817150915535028E-002   0.0000000000000000     
   1.8312439318200219E-002   1.2186252803024981E-002   0.0000000000000000     
   2.2407036854577969E-002   1.5341787238522486E-002   0.0000000000000000     
   2.6369431196613939E-002   1.8650274802077361E-002   0.0000000000000000     
   3.0199622344308126E-002   2.2111715493689597E-002   0.0000000000000000     
   3.3897610297660537E-002   2.5726109313359204E-002   0.0000000000000000     
   1.5835051904749993E-002   1.0976650680780752E-002   0.0000000000000000     
   1.9730727482190444E-002   1.4211290457257716E-002   0.0000000000000000     
   2.3486391067888902E-002   1.7576227849056957E-002   0.0000000000000000     
   2.7102042661845363E-002   2.1071462856178461E-002   0.0000000000000000     
   3.0577682264059835E-002   2.4696995478622231E-002   0.0000000000000000     
   1.3796011787389669E-002   9.9909782733692779E-003   0.0000000000000000     
   1.7404279260353411E-002   1.3221309156469250E-002   0.0000000000000000     
   2.0888965441615209E-002   1.6587891307161713E-002   0.0000000000000000     
   2.4250070331175055E-002   2.0090724725446676E-002   0.0000000000000000     
   2.7487593929032952E-002   2.3729809411324139E-002   0.0000000000000000     
   1.2195318966119251E-002   9.2292355807905568E-003   0.0000000000000000     
   1.5427692189066877E-002   1.2371843336157077E-002   0.0000000000000000     
   1.8577154317792857E-002   1.5685265176391641E-002   0.0000000000000000     
   2.1643705352297208E-002   1.9169501101494246E-002   0.0000000000000000     
   2.4627345292579910E-002   2.2824551111464895E-002   0.0000000000000000     
   3.7447378029835068E-002   2.6817150915535028E-002   0.0000000000000000     
   4.1255928355087790E-002   3.0622287832324381E-002   0.0000000000000000     
   4.4972596927803851E-002   3.4622144221784765E-002   0.0000000000000000     
   4.8597383747983246E-002   3.8816720083916158E-002   0.0000000000000000     
   5.2130288815625966E-002   4.3206015418718588E-002   0.0000000000000000     
   3.3897610297660537E-002   2.5726109313359204E-002   0.0000000000000000     
   3.7486333020712671E-002   2.9522273835542751E-002   0.0000000000000000     
   4.0988728477506065E-002   3.3529026634696812E-002   0.0000000000000000     
   4.4404796668040723E-002   3.7746367710821405E-002   0.0000000000000000     
   4.7734537592316634E-002   4.2174297063916517E-002   0.0000000000000000     
   3.0577682264059835E-002   2.4696995478622231E-002   0.0000000000000000     
   3.3942511956561394E-002   2.8497411876088237E-002   0.0000000000000000     
   3.7225733821379128E-002   3.2517298208276410E-002   0.0000000000000000     
   4.0427347858513034E-002   3.6756654475186779E-002   0.0000000000000000     
   4.3547354067963132E-002   4.1215480676819329E-002   0.0000000000000000     
   2.7487593929032952E-002   2.3729809411324139E-002   0.0000000000000000     
   3.0624465162633931E-002   2.7547701953960842E-002   0.0000000000000000     
   3.3683612959423001E-002   3.1586958942523558E-002   0.0000000000000000     
   3.6665037319400177E-002   3.5847580377012286E-002   0.0000000000000000     
   3.9568738242565432E-002   4.0329566257427014E-002   0.0000000000000000     
   2.4627345292579910E-002   2.2824551111464895E-002   0.0000000000000000     
   2.7532192638930301E-002   2.6673144069160565E-002   0.0000000000000000     
   3.0362365891637714E-002   3.0738008837438241E-002   0.0000000000000000     
   3.3117865050702133E-002   3.5019145416297921E-002   0.0000000000000000     
   3.5798690116123577E-002   3.9516553805739603E-002   0.0000000000000000     
   5.2130288815625966E-002   4.3206015418718588E-002   0.0000000000000000     
   5.5569270783334720E-002   4.7795143830813097E-002   0.0000000000000000     
   5.8912288303712187E-002   5.2589218924820734E-002   0.0000000000000000     
   6.2159341376758367E-002   5.7588240700741519E-002   0.0000000000000000     
   6.5310430002473274E-002   6.2792209158575446E-002   0.0000000000000000     
   4.7734537592316634E-002   4.2174297063916517E-002   0.0000000000000000     
   5.0974531222117106E-002   4.6806338444941850E-002   0.0000000000000000     
   5.4121357529225422E-002   5.1636015604857137E-002   0.0000000000000000     
   5.7175016513641604E-002   5.6663328543662364E-002   0.0000000000000000     
   6.0135508175365643E-002   6.1888277261357552E-002   0.0000000000000000     
   4.3547354067963132E-002   4.1215480676819329E-002   0.0000000000000000     
   4.6582234869416116E-002   4.5880978664717027E-002   0.0000000000000000     
   4.9528472682558763E-002   5.0740350290422835E-002   0.0000000000000000     
   5.2386067507390999E-002   5.5793595553936787E-002   0.0000000000000000     
   5.5155019343912898E-002   6.1040714455258868E-002   0.0000000000000000     
   3.9568738242565432E-002   4.0329566257427014E-002   0.0000000000000000     
   4.2392381725231777E-002   4.5019064490138601E-002   0.0000000000000000     
   4.5133633763712155E-002   4.9902222981517863E-002   0.0000000000000000     
   4.7792494358006588E-002   5.4979041731564780E-002   0.0000000000000000     
   5.0368963508115046E-002   6.0249520740279401E-002   0.0000000000000000     
   3.5798690116123577E-002   3.9516553805739603E-002   0.0000000000000000     
   3.8404971789564077E-002   4.4220595921206592E-002   0.0000000000000000     
   4.0936840772685654E-002   4.9121633678142179E-002   0.0000000000000000     
   4.3394297065488321E-002   5.4219667076546366E-002   0.0000000000000000     
   4.5777340667972080E-002   5.9514696116419144E-002   0.0000000000000000     
   6.5310430002473274E-002   6.2792209158575446E-002   0.0000000000000000     
   6.8366675315982436E-002   6.8187247666164838E-002   0.0000000000000000     
   7.1329198452411452E-002   7.3759479591352081E-002   0.0000000000000000     
   7.4197999411760293E-002   7.9508904934137134E-002   0.0000000000000000     
   7.6973078194028960E-002   8.5435523694520038E-002   0.0000000000000000     
   6.0135508175365643E-002   6.1888277261357552E-002   0.0000000000000000     
   6.3005099776550860E-002   6.7302290527049349E-002   0.0000000000000000     
   6.5786058579350562E-002   7.2896797109844480E-002   0.0000000000000000     
   6.8478384583764762E-002   7.8671797009742930E-002   0.0000000000000000     
   7.1082077789793474E-002   8.4627290226744700E-002   0.0000000000000000     
   5.5155019343912898E-002   6.1040714455258868E-002   0.0000000000000000     
   5.7837833725792979E-002   6.6475924838640815E-002   0.0000000000000000     
   6.0437016186699825E-002   7.2093444548334398E-002   0.0000000000000000     
   6.2952566726633422E-002   7.7893273584339631E-002   0.0000000000000000     
   6.5384485345593768E-002   8.3875411946656458E-002   0.0000000000000000     
   5.0368963508115046E-002   6.0249520740279401E-002   0.0000000000000000     
   5.2864877163708836E-002   6.5708150600939236E-002   0.0000000000000000     
   5.5282071274459235E-002   7.1349421906821850E-002   0.0000000000000000     
   5.7620545840366244E-002   7.7173334657927237E-002   0.0000000000000000     
   5.9880300861429883E-002   8.3179888854255382E-002   0.0000000000000000     
   4.5777340667972080E-002   5.9514696116419144E-002   0.0000000000000000     
   4.8086230090298415E-002   6.4998967813944597E-002   0.0000000000000000     
   5.0321223842628798E-002   7.0664729185306807E-002   0.0000000000000000     
   5.2482321924963243E-002   7.6511980230505761E-002   0.0000000000000000     
   5.4569524337301750E-002   8.2540720949541443E-002   0.0000000000000000     
   7.6973078194028960E-002   8.5435523694520038E-002   0.0000000000000000     
   7.9653091986584240E-002   9.1530403404027100E-002   0.0000000000000000     
   8.2236697976792894E-002   9.7784611594184695E-002   0.0000000000000000     
   8.4723896164654949E-002  0.10419814826499278        0.0000000000000000     
   8.7114686550170378E-002  0.11077101341645137        0.0000000000000000     
   7.1082077789793474E-002   8.4627290226744700E-002   0.0000000000000000     
   7.3596237222507646E-002   9.0751735535760464E-002   0.0000000000000000     
   7.6019961906978240E-002   9.7033591711700923E-002   0.0000000000000000     
   7.8353251843205268E-002  0.10347285875456613        0.0000000000000000     
   8.0596107031188732E-002  0.11006953666435600        0.0000000000000000     
   6.5384485345593768E-002   8.3875411946656458E-002   0.0000000000000000     
   6.7732328959043228E-002   9.0026886978064630E-002   0.0000000000000000     
   6.9995654482444145E-002   9.6334726021343728E-002   0.0000000000000000     
   7.2174461915796503E-002  0.10279892907649381        0.0000000000000000     
   7.4268751259100318E-002  0.10941949614351489        0.0000000000000000     
   5.9880300861429883E-002   8.3179888854255382E-002   0.0000000000000000     
   6.2061367196191021E-002   8.9355857730939597E-002   0.0000000000000000     
   6.4163775703190609E-002   9.5688014523113082E-002   0.0000000000000000     
   6.6187526382428669E-002  0.10217635923077589        0.0000000000000000     
   6.8132619233905137E-002  0.10882089185392796        0.0000000000000000     
   5.4569524337301750E-002   8.2540720949541443E-002   0.0000000000000000     
   5.6583351933950990E-002   8.8738647794385367E-002   0.0000000000000000     
   5.8524325569217647E-002   9.5093457217009000E-002   0.0000000000000000     
   6.0392445243101715E-002  0.10160514921741232        0.0000000000000000     
   6.2187710955603208E-002  0.10827372379559531        0.0000000000000000     
   8.7114686550170378E-002  0.11077101341645137        0.0000000000000000     
   8.9409547580455495E-002  0.11749000306508592        0.0000000000000000     
   9.1608957702626545E-002  0.12434191322742182        0.0000000000000000     
   9.3712916916683570E-002  0.13132674390345905        0.0000000000000000     
   9.5721425222626541E-002  0.13844449509319764        0.0000000000000000     
   8.0596107031188732E-002  0.11006953666435600        0.0000000000000000     
   8.2748599034575959E-002  0.11681189497779065        0.0000000000000000     
   8.4810799417014318E-002  0.12368820323159008        0.0000000000000000     
   8.6782708178503754E-002  0.13069846142575431        0.0000000000000000     
   8.8664325319044335E-002  0.13784266956028332        0.0000000000000000     
   7.4268751259100318E-002  0.10941949614351489        0.0000000000000000     
   7.6278309086014101E-002  0.11618548240021960        0.0000000000000000     
   7.8202921970196376E-002  0.12308594302442075        0.0000000000000000     
   8.0042589911647130E-002  0.13012087801611830        0.0000000000000000     
   8.1797312910366349E-002  0.13729028737531224        0.0000000000000000     
   6.8132619233905137E-002  0.10882089185392796        0.0000000000000000     
   6.9998677734769893E-002  0.11561076533237281        0.0000000000000000     
   7.1785325362172719E-002  0.12253513260591382        0.0000000000000000     
   7.3492562116113644E-002  0.12959399367455096        0.0000000000000000     
   7.5120387996592639E-002  0.13678734853828434        0.0000000000000000     
   6.2187710955603208E-002  0.10827372379559531        0.0000000000000000     
   6.3909704980843349E-002  0.11508774377425025        0.0000000000000000     
   6.5558009592943389E-002  0.12203577197606927        0.0000000000000000     
   6.7132624791903336E-002  0.12911780840105241        0.0000000000000000     
   6.8633550577723162E-002  0.13633385304919970        0.0000000000000000     
   9.5721425222626541E-002  0.13844449509319764        0.0000000000000000     
   9.7640190429659046E-002  0.14570614258807568        0.0000000000000000     
   9.9474920346984630E-002  0.15312266217953127        0.0000000000000000     
  0.10122561497460333       0.16069405386756441        0.0000000000000000     
  0.10289227431251513       0.16842031765217513        0.0000000000000000     
   8.8664325319044335E-002  0.13784266956028332        0.0000000000000000     
   9.0459082225797627E-002  0.14511473255173435        0.0000000000000000     
   9.2170410285925250E-002  0.15250855531666452        0.0000000000000000     
   9.3798309499427218E-002  0.16002413785507394        0.0000000000000000     
   9.5342779866303559E-002  0.16766148016696250        0.0000000000000000     
   8.1797312910366349E-002  0.13729028737531224        0.0000000000000000     
   8.3468705346588429E-002  0.14457734920194520        0.0000000000000000     
   8.5058381600547725E-002  0.15196524159595998        0.0000000000000000     
   8.6566341672244210E-002  0.15945396455735650        0.0000000000000000     
   8.7992585561677911E-002  0.16704351808613477        0.0000000000000000     
   7.5120387996592639E-002  0.13678734853828434        0.0000000000000000     
   7.6669059792031508E-002  0.14409399253870844        0.0000000000000000     
   7.8138834290852041E-002  0.15149272101741768        0.0000000000000000     
   7.9529711493054281E-002  0.15898353397441226        0.0000000000000000     
   8.0841691398638144E-002  0.16656643140969196        0.0000000000000000     
   6.8633550577723162E-002  0.13633385304919970        0.0000000000000000     
   7.0060145562126822E-002  0.14366466256202384        0.0000000000000000     
   7.1411768356838240E-002  0.15109099358103761        0.0000000000000000     
   7.2688418961857390E-002  0.15861284610624102        0.0000000000000000     
   7.3890097377184313E-002  0.16623022013763403        0.0000000000000000     
   0.0000000000000000        0.0000000000000000        0.0000000000000000     
   2.8800804701333395E-003   1.7448900318964948E-003   0.0000000000000000     
   5.8726604545309945E-003   3.8647259726604195E-003   0.0000000000000000     
   8.9777399531929640E-003   6.3595078222917741E-003   0.0000000000000000     
   1.2195318966119251E-002   9.2292355807905568E-003   0.0000000000000000     
   0.0000000000000000        0.0000000000000000        0.0000000000000000     
   2.6103362516631547E-003   1.5889772575055272E-003   0.0000000000000000     
   5.2897511893325918E-003   3.5567758414529085E-003   0.0000000000000000     
   8.0382448130083134E-003   5.9033957518421429E-003   0.0000000000000000     
   1.0855817122690316E-002   8.6288369886732327E-003   0.0000000000000000     
   0.0000000000000000        0.0000000000000000        0.0000000000000000     
   2.3401344289958274E-003   1.4589986228984951E-003   0.0000000000000000     
   4.7202375618035112E-003   3.2998643109723174E-003   0.0000000000000000     
   7.1403093984230524E-003   5.5225970642214656E-003   0.0000000000000000     
   9.6003499388544519E-003   8.1271968826459422E-003   0.0000000000000000     
   0.0000000000000000        0.0000000000000000        0.0000000000000000     
   2.0694750021313562E-003   1.3549541280753988E-003   0.0000000000000000     
   4.1641195719437519E-003   3.0939913812186460E-003   0.0000000000000000     
   6.2839337094371854E-003   5.2171117594297422E-003   0.0000000000000000     
   8.4289174146116586E-003   7.7243152627086862E-003   0.0000000000000000     
   0.0000000000000000        0.0000000000000000        0.0000000000000000     
   1.7983579710697426E-003   1.2768437730362380E-003   0.0000000000000000     
   3.6213972197533129E-003   2.9391570521918953E-003   0.0000000000000000     
   5.4691177460507098E-003   4.9869398374669709E-003   0.0000000000000000     
   7.3415195499619348E-003   7.4201921288614657E-003   0.0000000000000000     
   1.2195318966119251E-002   9.2292355807905568E-003   0.0000000000000000     
   1.5427692189066877E-002   1.2371843336157077E-002   0.0000000000000000     
   1.8577154317792857E-002   1.5685265176391641E-002   0.0000000000000000     
   2.1643705352297208E-002   1.9169501101494246E-002   0.0000000000000000     
   2.4627345292579910E-002   2.2824551111464895E-002   0.0000000000000000     
   1.0855817122690316E-002   8.6288369886732327E-003   0.0000000000000000     
   1.3689154344791048E-002   1.1650853845622798E-002   0.0000000000000000     
   1.6484942705722965E-002   1.4887200616367469E-002   0.0000000000000000     
   1.9243182205486053E-002   1.8337877300907246E-002   0.0000000000000000     
   2.1963872844080322E-002   2.2002883899242130E-002   0.0000000000000000     
   9.6003499388544519E-003   8.1271968826459422E-003   0.0000000000000000     
   1.2076853803986159E-002   1.1046301534168015E-002   0.0000000000000000     
   1.4546315614706621E-002   1.4212548786709956E-002   0.0000000000000000     
   1.7008735371015844E-002   1.7625938640271763E-002   0.0000000000000000     
   1.9464113072913819E-002   2.1286471094853439E-002   0.0000000000000000     
   8.4289174146116586E-003   7.7243152627086862E-003   0.0000000000000000     
   1.0590790566652197E-002   1.0558186401792723E-002   0.0000000000000000     
   1.2761273044743837E-002   1.3661309687419092E-002   0.0000000000000000     
   1.4940364848886572E-002   1.7033685119587801E-002   0.0000000000000000     
   1.7128065979080398E-002   2.0675312698298844E-002   0.0000000000000000     
   7.3415195499619348E-003   7.4201921288614657E-003   0.0000000000000000     
   9.2309646327891712E-003   1.0186508448496924E-002   0.0000000000000000     
   1.1129814995834608E-002   1.3233483318494884E-002   0.0000000000000000     
   1.3038070639098238E-002   1.6561116738855346E-002   0.0000000000000000     
   1.4955731562580069E-002   2.0169408709578316E-002   0.0000000000000000     
   2.4627345292579910E-002   2.2824551111464895E-002   0.0000000000000000     
   2.7532192638930301E-002   2.6673144069160565E-002   0.0000000000000000     
   3.0362365891637714E-002   3.0738008837438241E-002   0.0000000000000000     
   3.3117865050702133E-002   3.5019145416297921E-002   0.0000000000000000     
   3.5798690116123577E-002   3.9516553805739603E-002   0.0000000000000000     
   2.1963872844080322E-002   2.2002883899242130E-002   0.0000000000000000     
   2.4630481357804958E-002   2.5880193400321043E-002   0.0000000000000000     
   2.7226474482959152E-002   2.9967778793092925E-002   0.0000000000000000     
   2.9751852219542900E-002   3.4265640077557773E-002   0.0000000000000000     
   3.2206614567556205E-002   3.8773777253715593E-002   0.0000000000000000     
   1.9464113072913819E-002   2.1286471094853439E-002   0.0000000000000000     
   2.1884118291612346E-002   2.5175305126075905E-002   0.0000000000000000     
   2.4240420598323216E-002   2.9273599709560071E-002   0.0000000000000000     
   2.6533019993046431E-002   3.3581354845305930E-002   0.0000000000000000     
   2.8761916475781985E-002   3.8098570533313510E-002   0.0000000000000000     
   1.7128065979080398E-002   2.0675312698298844E-002   0.0000000000000000     
   1.9293103440352469E-002   2.4558479246425149E-002   0.0000000000000000     
   2.1404204237729908E-002   2.8655471586839665E-002   0.0000000000000000     
   2.3461368371212727E-002   3.2966289719542401E-002   0.0000000000000000     
   2.5464595840800918E-002   3.7490933644533334E-002   0.0000000000000000     
   1.4955731562580069E-002   2.0169408709578316E-002   0.0000000000000000     
   1.6857436804025325E-002   2.4029715761368781E-002   0.0000000000000000     
   1.8717825401179236E-002   2.8113394424931725E-002   0.0000000000000000     
   2.0536897354041791E-002   3.2420444700267156E-002   0.0000000000000000     
   2.2314652662613003E-002   3.6950866587375078E-002   0.0000000000000000     
   3.5798690116123577E-002   3.9516553805739603E-002   0.0000000000000000     
   3.8404971789564077E-002   4.4220595921206592E-002   0.0000000000000000     
   4.0936840772685654E-002   4.9121633678142179E-002   0.0000000000000000     
   4.3394297065488321E-002   5.4219667076546366E-002   0.0000000000000000     
   4.5777340667972080E-002   5.9514696116419144E-002   0.0000000000000000     
   3.2206614567556205E-002   3.8773777253715593E-002   0.0000000000000000     
   3.4593055491013949E-002   4.3487764543653322E-002   0.0000000000000000     
   3.6913468953931015E-002   4.8403176169457912E-002   0.0000000000000000     
   3.9167854956307403E-002   5.3520012131129356E-002   0.0000000000000000     
   4.1356213498143106E-002   5.8838272428667682E-002   0.0000000000000000     
   2.8761916475781985E-002   3.8098570533313510E-002   0.0000000000000000     
   3.0929683258182357E-002   4.2822761943211128E-002   0.0000000000000000     
   3.3038893551900018E-002   4.7751444244627184E-002   0.0000000000000000     
   3.5089547356934966E-002   5.2884617437561662E-002   0.0000000000000000     
   3.7081644673287215E-002   5.8222281522014571E-002   0.0000000000000000     
   2.5464595840800918E-002   3.7490933644533334E-002   0.0000000000000000     
   2.7414855091069293E-002   4.2225588119880003E-002   0.0000000000000000     
   2.9313114566592663E-002   4.7166437903649987E-002   0.0000000000000000     
   3.1159374267371035E-002   5.2313482995843250E-002   0.0000000000000000     
   3.2953634193404399E-002   5.7666723396459819E-002   0.0000000000000000     
   2.2314652662613003E-002   3.6950866587375078E-002   0.0000000000000000     
   2.4048570989674761E-002   4.1696243073659975E-002   0.0000000000000000     
   2.5736131998008959E-002   4.6648157146526335E-002   0.0000000000000000     
   2.7377335687615599E-002   5.1806608805974153E-002   0.0000000000000000     
   2.8972182058494673E-002   5.7171598052003440E-002   0.0000000000000000     
   4.5777340667972080E-002   5.9514696116419144E-002   0.0000000000000000     
   4.8086230090298415E-002   6.4998967813944597E-002   0.0000000000000000     
   5.0321223842628798E-002   7.0664729185306807E-002   0.0000000000000000     
   5.2482321924963243E-002   7.6511980230505761E-002   0.0000000000000000     
   5.4569524337301750E-002   8.2540720949541443E-002   0.0000000000000000     
   4.1356213498143106E-002   5.8838272428667682E-002   0.0000000000000000     
   4.3477150264974777E-002   6.4347264654721251E-002   0.0000000000000000     
   4.5529270942339085E-002   7.0036296401938494E-002   0.0000000000000000     
   4.7512575530236002E-002   7.5905367670319412E-002   0.0000000000000000     
   4.9427064028665549E-002   8.1954478459864005E-002   0.0000000000000000     
   3.7081644673287215E-002   5.8222281522014571E-002   0.0000000000000000     
   3.9012895447151016E-002   6.3751929300333521E-002   0.0000000000000000     
   4.0881009624720646E-002   6.9461053574866136E-002   0.0000000000000000     
   4.2685987205996118E-002   7.5349654345612416E-002   0.0000000000000000     
   4.4427828190977424E-002   8.1417731612572389E-002   0.0000000000000000     
   3.2953634193404399E-002   5.7666723396459819E-002   0.0000000000000000     
   3.4693465636827105E-002   6.3212961750781407E-002   0.0000000000000000     
   3.6376439889773501E-002   6.8939000704089717E-002   0.0000000000000000     
   3.8002556952243582E-002   7.4844840256384798E-002   0.0000000000000000     
   3.9571816824237362E-002   8.0930480407666608E-002   0.0000000000000000     
   2.8972182058494673E-002   5.7171598052003440E-002   0.0000000000000000     
   3.0518860834003063E-002   6.2730362006064924E-002   0.0000000000000000     
   3.2015561737497637E-002   6.8470137789609267E-002   0.0000000000000000     
   3.3462284768978404E-002   7.4390925402636532E-002   0.0000000000000000     
   3.4859029928445355E-002   8.0492724845146663E-002   0.0000000000000000     
   5.4569524337301750E-002   8.2540720949541443E-002   0.0000000000000000     
   5.6583351933950990E-002   8.8738647794385367E-002   0.0000000000000000     
   5.8524325569217647E-002   9.5093457217009000E-002   0.0000000000000000     
   6.0392445243101715E-002  0.10160514921741232        0.0000000000000000     
   6.2187710955603208E-002  0.10827372379559531        0.0000000000000000     
   4.9427064028665549E-002   8.1954478459864005E-002   0.0000000000000000     
   5.1273593533125439E-002   8.8172529588575396E-002   0.0000000000000000     
   5.3053021139113345E-002   9.4548421874456751E-002   0.0000000000000000     
   5.4765346846629273E-002  0.10108215531750804        0.0000000000000000     
   5.6410570655673259E-002  0.10777372991772928        0.0000000000000000     
   4.4427828190977424E-002   8.1417731612572389E-002   0.0000000000000000     
   4.6107402354516637E-002   8.7654775533683102E-002   0.0000000000000000     
   4.7725579471465794E-002   9.4050276266881616E-002   0.0000000000000000     
   4.9282359541824923E-002  0.10060423381216803        0.0000000000000000     
   5.0777742565594010E-002  0.10731664816954224        0.0000000000000000     
   3.9571816824237362E-002   8.0930480407666608E-002   0.0000000000000000     
   4.1084778398124577E-002   8.7185385629708470E-002   0.0000000000000000     
   4.2542000566275003E-002   9.3599020394283694E-002   0.0000000000000000     
   4.3943483328688637E-002  0.10017138470139228        0.0000000000000000     
   4.5289226685365482E-002  0.10690247855103419        0.0000000000000000     
   3.4859029928445355E-002   8.0492724845146663E-002   0.0000000000000000     
   3.6205721663949288E-002   8.6764359876651528E-002   0.0000000000000000     
   3.7502284423540984E-002   9.3194654256662873E-002   0.0000000000000000     
   3.8748718207220437E-002   9.9783607985180753E-002   0.0000000000000000     
   3.9945023014987653E-002  0.10653122106220517        0.0000000000000000     
   6.2187710955603208E-002  0.10827372379559531        0.0000000000000000     
   6.3909704980843349E-002  0.11508774377425025        0.0000000000000000     
   6.5558009592943389E-002  0.12203577197606927        0.0000000000000000     
   6.7132624791903336E-002  0.12911780840105241        0.0000000000000000     
   6.8633550577723162E-002  0.13633385304919970        0.0000000000000000     
   5.6410570655673259E-002  0.10777372991772928        0.0000000000000000     
   5.7988318256255660E-002  0.11461094900643459        0.0000000000000000     
   5.9498215338386888E-002  0.12158161591493806        0.0000000000000000     
   6.0940261902066972E-002  0.12868573064323974        0.0000000000000000     
   6.2314457947295884E-002  0.13592329319133956        0.0000000000000000     
   5.0777742565594010E-002  0.10731664816954224        0.0000000000000000     
   5.2211444993027968E-002  0.11417491230950855        0.0000000000000000     
   5.3583183274381767E-002  0.12116641920257114        0.0000000000000000     
   5.4892957409655350E-002  0.12829116884873001        0.0000000000000000     
   5.6140767398848747E-002  0.13554916124798519        0.0000000000000000     
   4.5289226685365482E-002  0.10690247855103419        0.0000000000000000     
   4.6579085191160323E-002  0.11377963368347208        0.0000000000000000     
   4.7812913400927970E-002  0.12079018183896843        0.0000000000000000     
   4.8990711314668450E-002  0.12793412301752330        0.0000000000000000     
   5.0112478932381736E-002  0.13521145721913660        0.0000000000000000     
   3.9945023014987653E-002  0.10653122106220517        0.0000000000000000     
   4.1091238850652682E-002  0.11342511312832521        0.0000000000000000     
   4.2187405718025553E-002  0.12045290382412999        0.0000000000000000     
   4.3233523617106286E-002  0.12761459314961954        0.0000000000000000     
   4.4229592547894853E-002  0.13491018110479380        0.0000000000000000     
   6.8633550577723162E-002  0.13633385304919970        0.0000000000000000     
   7.0060145562126822E-002  0.14366466256202384        0.0000000000000000     
   7.1411768356838240E-002  0.15109099358103761        0.0000000000000000     
   7.2688418961857390E-002  0.15861284610624102        0.0000000000000000     
   7.3890097377184313E-002  0.16623022013763403        0.0000000000000000     
   6.2314457947295884E-002  0.13592329319133956        0.0000000000000000     
   6.3619625333002042E-002  0.14327945888906626        0.0000000000000000     
   6.4854585918113855E-002  0.15073938306624859        0.0000000000000000     
   6.6019339702631324E-002  0.15830306572288655        0.0000000000000000     
   6.7113886686554422E-002  0.16597050685898007        0.0000000000000000     
   5.6140767398848747E-002  0.13554916124798519        0.0000000000000000     
   5.7325161780784839E-002  0.14292848113701043        0.0000000000000000     
   5.8444689094286496E-002  0.15041721325247953        0.0000000000000000     
   5.9499349339353726E-002  0.15801535759439239        0.0000000000000000     
   6.0489142515986548E-002  0.16572291416274917        0.0000000000000000     
   5.0112478932381736E-002  0.13521145721913660        0.0000000000000000     
   5.1176754905475186E-002  0.14261172930585636        0.0000000000000000     
   5.2182077885356150E-002  0.15012448413973037        0.0000000000000000     
   5.3128447872024642E-002  0.15774972172075868        0.0000000000000000     
   5.4015864865480663E-002  0.16548744204894136        0.0000000000000000     
   4.4229592547894853E-002  0.13491018110479380        0.0000000000000000     
   4.5174404707073096E-002  0.14232920339560398        0.0000000000000000     
   4.6066752291322836E-002  0.14986119572800116        0.0000000000000000     
   4.6906635300644060E-002  0.15750615810198537        0.0000000000000000     
   4.7694053735036782E-002  0.16526409051755653        0.0000000000000000     
   0.0000000000000000        0.0000000000000000        0.0000000000000000     
   1.7983579710697426E-003   1.2768437730362380E-003   0.0000000000000000     
   3.6213972197533129E-003   2.9391570521918953E-003   0.0000000000000000     
   5.4691177460507098E-003   4.9869398374669709E-003   0.0000000000000000     
   7.3415195499619348E-003   7.4201921288614657E-003   0.0000000000000000     
   0.0000000000000000        0.0000000000000000        0.0000000000000000     
   1.5350560857664288E-003   1.2175569170099093E-003   0.0000000000000000     
   3.0994243135522475E-003   2.8208546579365406E-003   0.0000000000000000     
   4.6931046833574557E-003   4.8098932227798943E-003   0.0000000000000000     
   6.3160971951820542E-003   7.1846726115399702E-003   0.0000000000000000     
   0.0000000000000000        0.0000000000000000        0.0000000000000000     
   1.2878420961768586E-003   1.1699829192253078E-003   0.0000000000000000     
   2.6055546616606095E-003   2.7245775324970588E-003   0.0000000000000000     
   3.9531376964512532E-003   4.6637838398152524E-003   0.0000000000000000     
   5.3305912005487894E-003   6.9876018411798883E-003   0.0000000000000000     
   0.0000000000000000        0.0000000000000000        0.0000000000000000     
   1.0567160023010312E-003   1.1341217796824346E-003   0.0000000000000000     
   2.1397882640783986E-003   2.6503256758734499E-003   0.0000000000000000     
   3.2492167853321015E-003   4.5486116885730442E-003   0.0000000000000000     
   4.3850015660621411E-003   6.8289798177812210E-003   0.0000000000000000     
   0.0000000000000000        0.0000000000000000        0.0000000000000000     
   8.4167780413894758E-004   1.1099734983812891E-003   0.0000000000000000     
   1.7021251208056143E-003   2.5980990880657131E-003   0.0000000000000000     
   2.5813419500000006E-003   4.4643767690532715E-003   0.0000000000000000     
   3.4793282917221060E-003   6.7088065413439648E-003   0.0000000000000000     
   7.3415195499619348E-003   7.4201921288614657E-003   0.0000000000000000     
   9.2309646327891712E-003   1.0186508448496924E-002   0.0000000000000000     
   1.1129814995834608E-002   1.3233483318494884E-002   0.0000000000000000     
   1.3038070639098238E-002   1.6561116738855346E-002   0.0000000000000000     
   1.4955731562580069E-002   2.0169408709578316E-002   0.0000000000000000     
   6.3160971951820542E-003   7.1846726115399702E-003   0.0000000000000000     
   7.9557388724180132E-003   9.8956358341999416E-003   0.0000000000000000     
   9.5993667384573038E-003   1.2893225900742976E-002   0.0000000000000000     
   1.1246980793299926E-002   1.6177442811169084E-002   0.0000000000000000     
   1.2898581036945880E-002   1.9748286565478255E-002   0.0000000000000000     
   5.3305912005487894E-003   6.9876018411798883E-003   0.0000000000000000     
   6.7234761555596571E-003   9.6499367188211012E-003   0.0000000000000000     
   8.1173535430902957E-003   1.2604693654969029E-002   0.0000000000000000     
   9.5122233631407069E-003   1.5851872649623670E-002   0.0000000000000000     
   1.0908085615710885E-002   1.9391473702785020E-002   0.0000000000000000     
   4.3850015660621411E-003   6.8289798177812210E-003   0.0000000000000000     
   5.5341764822141037E-003   9.4494111023604079E-003   0.0000000000000000     
   6.6837754097335833E-003   1.2367886581173035E-002   0.0000000000000000     
   7.8337983486205763E-003   1.5584406254219110E-002   0.0000000000000000     
   8.9842452988750862E-003   1.9098970121498623E-002   0.0000000000000000     
   3.4793282917221060E-003   6.7088065413439648E-003   0.0000000000000000     
   4.3878398523813540E-003   9.2940589848178531E-003   0.0000000000000000     
   5.2986323383871648E-003   1.2182804679354998E-002   0.0000000000000000     
   6.2117057497395418E-003   1.5375043624955400E-002   0.0000000000000000     
   7.1270600864384841E-003   1.8870775821619053E-002   0.0000000000000000     
   1.4955731562580069E-002   2.0169408709578316E-002   0.0000000000000000     
   1.6857436804025325E-002   2.4029715761368781E-002   0.0000000000000000     
   1.8717825401179236E-002   2.8113394424931725E-002   0.0000000000000000     
   2.0536897354041791E-002   3.2420444700267156E-002   0.0000000000000000     
   2.2314652662613003E-002   3.6950866587375078E-002   0.0000000000000000     
   1.2898581036945880E-002   1.9748286565478255E-002   0.0000000000000000     
   1.4537728885316447E-002   2.3579565481930756E-002   0.0000000000000000     
   1.6147985754332905E-002   2.7645087878786858E-002   0.0000000000000000     
   1.7729351643995261E-002   3.1944853756046561E-002   0.0000000000000000     
   1.9281826554303497E-002   3.6478863113709847E-002   0.0000000000000000     
   1.0908085615710885E-002   1.9391473702785020E-002   0.0000000000000000     
   1.2294590186911357E-002   2.3198579219135037E-002   0.0000000000000000     
   1.3661386962852644E-002   2.7248271603355662E-002   0.0000000000000000     
   1.5008475943534745E-002   3.1540550855446901E-002   0.0000000000000000     
   1.6335857128957659E-002   3.6075416975408753E-002   0.0000000000000000     
   8.9842452988750862E-003   1.9098970121498623E-002   0.0000000000000000     
   1.0128020708810061E-002   2.2886756972981627E-002   0.0000000000000000     
   1.1258029026738451E-002   2.6922945598638153E-002   0.0000000000000000     
   1.2374270252660260E-002   3.1207535998468209E-002   0.0000000000000000     
   1.3476744386575482E-002   3.5740528172471787E-002   0.0000000000000000     
   7.1270600864384841E-003   1.8870775821619053E-002   0.0000000000000000     
   8.0380204510125553E-003   2.2644098743470509E-002   0.0000000000000000     
   8.9379119459903275E-003   2.6669109864634312E-002   0.0000000000000000     
   9.8267345713717990E-003   3.0945809185110452E-002   0.0000000000000000     
   1.0704488327156970E-002   3.5474196704898944E-002   0.0000000000000000     
   2.2314652662613003E-002   3.6950866587375078E-002   0.0000000000000000     
   2.4048570989674761E-002   4.1696243073659975E-002   0.0000000000000000     
   2.5736131998008959E-002   4.6648157146526335E-002   0.0000000000000000     
   2.7377335687615599E-002   5.1806608805974153E-002   0.0000000000000000     
   2.8972182058494673E-002   5.7171598052003440E-002   0.0000000000000000     
   1.9281826554303497E-002   3.6478863113709847E-002   0.0000000000000000     
   2.0799370030358942E-002   4.1233286602868367E-002   0.0000000000000000     
   2.2275941617262880E-002   4.6194294874613732E-002   0.0000000000000000     
   2.3711541315015319E-002   5.1361887928945950E-002   0.0000000000000000     
   2.5106169123616261E-002   5.6736065765864985E-002   0.0000000000000000     
   1.6335857128957659E-002   3.6075416975408753E-002   0.0000000000000000     
   1.7635791289482009E-002   4.0835278505822581E-002   0.0000000000000000     
   1.8900539195468413E-002   4.5802543989269730E-002   0.0000000000000000     
   2.0130100846916875E-002   5.0977213425750220E-002   0.0000000000000000     
   2.1324476243827387E-002   5.6359286815264038E-002   0.0000000000000000     
   1.3476744386575482E-002   3.5740528172471787E-002   0.0000000000000000     
   1.4557834767043965E-002   4.0502218782522595E-002   0.0000000000000000     
   1.5609924732625558E-002   4.5472904490494327E-002   0.0000000000000000     
   1.6633014283320254E-002   5.0652585296386998E-002   0.0000000000000000     
   1.7627103419128053E-002   5.6041261200200587E-002   0.0000000000000000     
   1.0704488327156970E-002   3.5474196704898944E-002   0.0000000000000000     
   1.1565500463044815E-002   4.0234107432968430E-002   0.0000000000000000     
   1.2404098228734313E-002   4.5205376378287525E-002   0.0000000000000000     
   1.3220281624225467E-002   5.0388003540856270E-002   0.0000000000000000     
   1.4014050649518269E-002   5.5781988920674618E-002   0.0000000000000000     
   2.8972182058494673E-002   5.7171598052003440E-002   0.0000000000000000     
   3.0518860834003063E-002   6.2730362006064924E-002   0.0000000000000000     
   3.2015561737497637E-002   6.8470137789609267E-002   0.0000000000000000     
   3.3462284768978404E-002   7.4390925402636532E-002   0.0000000000000000     
   3.4859029928445355E-002   8.0492724845146663E-002   0.0000000000000000     
   2.5106169123616261E-002   5.6736065765864985E-002   0.0000000000000000     
   2.6458821794931173E-002   6.2304782714136767E-002   0.0000000000000000     
   2.7768496080825548E-002   6.8055993102527162E-002   0.0000000000000000     
   2.9035191981299380E-002   7.3989696931036131E-002   0.0000000000000000     
   3.0258909496352675E-002   8.0105894199663755E-002   0.0000000000000000     
   2.1324476243827387E-002   5.6359286815264038E-002   0.0000000000000000     
   2.2483089275863739E-002   6.1936876522949713E-002   0.0000000000000000     
   2.3605363832689720E-002   6.7698094913945780E-002   0.0000000000000000     
   2.4691299914305326E-002   7.3642941988252206E-002   0.0000000000000000     
   2.5740897520710564E-002   7.9771417745869017E-002   0.0000000000000000     
   1.7627103419128053E-002   5.6041261200200587E-002   0.0000000000000000     
   1.8591663276800761E-002   6.1626643432503743E-002   0.0000000000000000     
   1.9526164993090150E-002   6.7396443223865107E-002   0.0000000000000000     
   2.0430608567996236E-002   7.3350660574284701E-002   0.0000000000000000     
   2.1304994001519015E-002   7.9489295483762476E-002   0.0000000000000000     
   1.4014050649518269E-002   5.5781988920674618E-002   0.0000000000000000     
   1.4784543797742229E-002   6.1374083442798849E-002   0.0000000000000000     
   1.5530899562026844E-002   6.7151038032285185E-002   0.0000000000000000     
   1.6253117942372115E-002   7.3112852689133617E-002   0.0000000000000000     
   1.6951198938778046E-002   7.9259527413344147E-002   0.0000000000000000     
   3.4859029928445355E-002   8.0492724845146663E-002   0.0000000000000000     
   3.6205721663949288E-002   8.6764359876651528E-002   0.0000000000000000     
   3.7502284423540984E-002   9.3194654256662873E-002   0.0000000000000000     
   3.8748718207220437E-002   9.9783607985180753E-002   0.0000000000000000     
   3.9945023014987653E-002  0.10653122106220517        0.0000000000000000     
   3.0258909496352675E-002   8.0105894199663755E-002   0.0000000000000000     
   3.1438929042242214E-002   8.6392586958544820E-002   0.0000000000000000     
   3.2574531035224778E-002   9.2837777257814308E-002   0.0000000000000000     
   3.3665715475300381E-002   9.9441465097472148E-002   0.0000000000000000     
   3.4712482362469016E-002  0.10620365047751835        0.0000000000000000     
   2.5740897520710564E-002   7.9771417745869017E-002   0.0000000000000000     
   2.6753097423254813E-002   8.6070955559421014E-002   0.0000000000000000     
   2.7726840393287468E-002   9.2528988801533013E-002   0.0000000000000000     
   2.8662126430808527E-002   9.9145517472205028E-002   0.0000000000000000     
   2.9558955535817999E-002  0.10592054157143702        0.0000000000000000     
   2.1304994001519015E-002   7.9489295483762476E-002   0.0000000000000000     
   2.2148226806987088E-002   8.5799465679280082E-002   0.0000000000000000     
   2.2959212497729042E-002   9.2268288887819058E-002   0.0000000000000000     
   2.3737951073744892E-002   9.8895765109379419E-002   0.0000000000000000     
   2.4484442535034623E-002  0.10568189434396116        0.0000000000000000     
   1.6951198938778046E-002   7.9259527413344147E-002   0.0000000000000000     
   1.7624317193439040E-002   8.5578117318121996E-002   0.0000000000000000     
   1.8271647348549511E-002   9.2055677516672388E-002   0.0000000000000000     
   1.8893189404109459E-002   9.8692208008995322E-002   0.0000000000000000     
   1.9488943360118884E-002  0.10548770879509078        0.0000000000000000     
   3.9945023014987653E-002  0.10653122106220517        0.0000000000000000     
   4.1091238850652682E-002  0.11342511312832521        0.0000000000000000     
   4.2187405718025553E-002  0.12045290382412999        0.0000000000000000     
   4.3233523617106286E-002  0.12761459314961954        0.0000000000000000     
   4.4229592547894853E-002  0.13491018110479380        0.0000000000000000     
   3.4712482362469016E-002  0.10620365047751835        0.0000000000000000     
   3.5714998171138615E-002  0.11311234404611016        0.0000000000000000     
   3.6673429375717152E-002  0.12015555645140479        0.0000000000000000     
   3.7587775976204607E-002  0.12733328769340224        0.0000000000000000     
   3.8458037972600979E-002  0.13464553777210247        0.0000000000000000     
   2.9558955535817999E-002  0.10592054157143702        0.0000000000000000     
   3.0417455352251696E-002  0.11284231983886922        0.0000000000000000     
   3.1237753524045422E-002  0.11989911101414182        0.0000000000000000     
   3.2019850051199179E-002  0.12709091509725479        0.0000000000000000     
   3.2763744933712979E-002  0.13441773208820817        0.0000000000000000     
   2.4484442535034623E-002  0.10568189434396116        0.0000000000000000     
   2.5198610393991898E-002  0.11261504050660234        0.0000000000000000     
   2.5880378163010358E-002  0.11968356751234108        0.0000000000000000     
   2.6529745842090009E-002  0.12688747536117728        0.0000000000000000     
   2.7146713431230842E-002  0.13422676405311101        0.0000000000000000     
   1.9488943360118884E-002  0.10548770879509078        0.0000000000000000     
   2.0058463296359238E-002  0.11243050604930958        0.0000000000000000     
   2.0601303292611974E-002  0.11950892594600256        0.0000000000000000     
   2.1117463348877086E-002  0.12672296848516965        0.0000000000000000     
   2.1606943465154582E-002  0.13407263366681091        0.0000000000000000     
   4.4229592547894853E-002  0.13491018110479380        0.0000000000000000     
   4.5174404707073096E-002  0.14232920339560398        0.0000000000000000     
   4.6066752291322836E-002  0.14986119572800116        0.0000000000000000     
   4.6906635300644060E-002  0.15750615810198537        0.0000000000000000     
   4.7694053735036782E-002  0.16526409051755653        0.0000000000000000     
   3.8458037972600979E-002  0.13464553777210247        0.0000000000000000     
   3.9283281538222817E-002  0.14208118925626417        0.0000000000000000     
   4.0062572846386667E-002  0.14962912471464609        0.0000000000000000     
   4.0795911897092509E-002  0.15728934414724810        0.0000000000000000     
   4.1483298690340377E-002  0.16506184755407033        0.0000000000000000     
   3.2763744933712979E-002  0.13441773208820817        0.0000000000000000     
   3.3468555751568582E-002  0.14186797273784774        0.0000000000000000     
   3.4133400084747766E-002  0.14943004779701929        0.0000000000000000     
   3.4758277933250550E-002  0.15710395726572274        0.0000000000000000     
   3.5343189297076902E-002  0.16488970114395818        0.0000000000000000     
   2.7146713431230842E-002  0.13422676405311101        0.0000000000000000     
   2.7730227347110385E-002  0.14168955384035467        0.0000000000000000     
   2.8279234006406154E-002  0.14926396497512076        0.0000000000000000     
   2.8793733409118141E-002  0.15694999745740926        0.0000000000000000     
   2.9273725555246360E-002  0.16474765128722013        0.0000000000000000     
   2.1606943465154582E-002  0.13407263366681091        0.0000000000000000     
   2.2068296324848226E-002  0.14154593256378498        0.0000000000000000     
   2.2500074611361807E-002  0.14913087624895055        0.0000000000000000     
   2.2902278324695317E-002  0.15682746472230763        0.0000000000000000     
   2.3274907464848754E-002  0.16463569798385619        0.0000000000000000     
   0.0000000000000000        0.0000000000000000        0.0000000000000000     
   8.4167780413894758E-004   1.1099734983812891E-003   0.0000000000000000     
   1.7021251208056143E-003   2.5980990880657131E-003   0.0000000000000000     
   2.5813419500000006E-003   4.4643767690532715E-003   0.0000000000000000     
   3.4793282917221060E-003   6.7088065413439648E-003   0.0000000000000000     
   0.0000000000000000        0.0000000000000000        0.0000000000000000     
   6.3382725365107519E-004   1.0939681277236251E-003   0.0000000000000000     
   1.2780336636661418E-003   2.5620368788410080E-003   0.0000000000000000     
   1.9326192300451995E-003   4.4042062533521482E-003   0.0000000000000000     
   2.5975839527882486E-003   6.6204762512570466E-003   0.0000000000000000     
   0.0000000000000000        0.0000000000000000        0.0000000000000000     
   4.2426410279788239E-004   1.0825357201111967E-003   0.0000000000000000     
   8.5298232448386487E-004   2.5362781579664939E-003   0.0000000000000000     
   1.2861546650579474E-003   4.3612273135658908E-003   0.0000000000000000     
   1.7237811245201303E-003   6.5573831869093872E-003   0.0000000000000000     
   0.0000000000000000        0.0000000000000000        0.0000000000000000     
   2.1298835157936919E-004   1.0756762755440036E-003   0.0000000000000000     
   4.2697110325878390E-004   2.5208229254421698E-003   0.0000000000000000     
   6.4194825503824425E-004   4.3354399496944983E-003   0.0000000000000000     
   8.5791980691775002E-004   6.5195273483009885E-003   0.0000000000000000     
   0.0000000000000000        0.0000000000000000        0.0000000000000000     
  -4.4645006008064980E-015   1.0733897940220461E-003   0.0000000000000000     
  -9.1012809268209427E-015   2.5156711812680367E-003   0.0000000000000000     
  -1.3910151242663149E-014   4.3268441617379709E-003   0.0000000000000000     
  -1.8891463914039175E-014   6.5069087354318478E-003   0.0000000000000000     
   3.4793282917221060E-003   6.7088065413439648E-003   0.0000000000000000     
   4.3878398523813540E-003   9.2940589848178531E-003   0.0000000000000000     
   5.2986323383871648E-003   1.2182804679354998E-002   0.0000000000000000     
   6.2117057497395418E-003   1.5375043624955400E-002   0.0000000000000000     
   7.1270600864384841E-003   1.8870775821619053E-002   0.0000000000000000     
   2.5975839527882486E-003   6.6204762512570466E-003   0.0000000000000000     
   3.2699585305487693E-003   9.1778892877447948E-003   0.0000000000000000     
   3.9467736619802386E-003   1.2043487778004481E-002   0.0000000000000000     
   4.6280293470826600E-003   1.5217271722036109E-002   0.0000000000000000     
   5.3137255858560321E-003   1.8699241119839675E-002   0.0000000000000000     
   1.7237811245201303E-003   6.5573831869093872E-003   0.0000000000000000     
   2.1660247812037145E-003   9.0949109326925771E-003   0.0000000000000000     
   2.6130487134420023E-003   1.1943975705611046E-002   0.0000000000000000     
   3.0648529212349931E-003   1.5104577505664801E-002   0.0000000000000000     
   3.5214374045826873E-003   1.8576716332853838E-002   0.0000000000000000     
   8.5791980691775002E-004   6.5195273483009885E-003   0.0000000000000000     
   1.0760386043461904E-003   9.0451239196612035E-003   0.0000000000000000     
   1.2974574927724536E-003   1.1884268462174696E-002   0.0000000000000000     
   1.5221764721965404E-003   1.5036960975841479E-002   0.0000000000000000     
   1.7501955426184508E-003   1.8503201460661537E-002   0.0000000000000000     
  -1.8891463914039175E-014   6.5069087354318478E-003   0.0000000000000000     
  -2.3803645144392094E-014   9.0285282486506687E-003   0.0000000000000000     
  -2.8405609028142598E-014   1.1864366047695434E-002   0.0000000000000000     
  -3.2697247145073438E-014   1.5014422132566136E-002   0.0000000000000000     
  -3.6678667915401864E-014   1.8478696503262785E-002   0.0000000000000000     
   7.1270600864384841E-003   1.8870775821619053E-002   0.0000000000000000     
   8.0380204510125553E-003   2.2644098743470509E-002   0.0000000000000000     
   8.9379119459903275E-003   2.6669109864634312E-002   0.0000000000000000     
   9.8267345713717990E-003   3.0945809185110452E-002   0.0000000000000000     
   1.0704488327156970E-002   3.5474196704898944E-002   0.0000000000000000     
   5.3137255858560321E-003   1.8699241119839675E-002   0.0000000000000000     
   5.9968574370875992E-003   2.2462032049928839E-002   0.0000000000000000     
   6.6704199595646078E-003   2.6478280590817263E-002   0.0000000000000000     
   7.3344131532870607E-003   3.0747986742504937E-002   0.0000000000000000     
   7.9888370182549535E-003   3.5271150504991869E-002   0.0000000000000000     
   3.5214374045826873E-003   1.8576716332853838E-002   0.0000000000000000     
   3.9767996906039452E-003   2.2331984411683742E-002   0.0000000000000000     
   4.4249373064176286E-003   2.6341973966660100E-002   0.0000000000000000     
   4.8658502520237358E-003   3.0606684997782921E-002   0.0000000000000000     
   5.2995385274222703E-003   3.5126117505052193E-002   0.0000000000000000     
   1.7501955426184508E-003   1.8503201460661537E-002   0.0000000000000000     
   1.9778472115615960E-003   2.2253955828735218E-002   0.0000000000000000     
   2.2014639865493893E-003   2.6260189992162838E-002   0.0000000000000000     
   2.4210458675818307E-003   3.0521903950944406E-002   0.0000000000000000     
   2.6365928546589197E-003   3.5039097705079923E-002   0.0000000000000000     
  -3.6678667915401864E-014   1.8478696503262785E-002   0.0000000000000000     
  -3.9449671827840316E-014   2.2227946301083264E-002   0.0000000000000000     
  -4.0110140686264173E-014   2.6232928667325468E-002   0.0000000000000000     
  -3.8659579823432239E-014   3.0493643601989393E-002   0.0000000000000000     
  -3.5097575887266252E-014   3.5010091105075039E-002   0.0000000000000000     
   1.0704488327156970E-002   3.5474196704898944E-002   0.0000000000000000     
   1.1565500463044815E-002   4.0234107432968430E-002   0.0000000000000000     
   1.2404098228734313E-002   4.5205376378287525E-002   0.0000000000000000     
   1.3220281624225467E-002   5.0388003540856270E-002   0.0000000000000000     
   1.4014050649518269E-002   5.5781988920674618E-002   0.0000000000000000     
   7.9888370182549535E-003   3.5271150504991869E-002   0.0000000000000000     
   8.6305142880181568E-003   4.0027924915618650E-002   0.0000000000000000     
   9.2562676961265352E-003   4.4998463011725873E-002   0.0000000000000000     
   9.8660972425800922E-003   5.0182764793313524E-002   0.0000000000000000     
   1.0460002927378828E-002   5.5580830260381624E-002   0.0000000000000000     
   5.2995385274222703E-003   3.5126117505052193E-002   0.0000000000000000     
   5.7246021524975958E-003   3.9880651688931880E-002   0.0000000000000000     
   6.1396411471340813E-003   4.4850667749885907E-002   0.0000000000000000     
   6.5446555113317269E-003   5.0036165687914309E-002   0.0000000000000000     
   6.9396452450905324E-003   5.5437145503017059E-002   0.0000000000000000     
   2.6365928546589197E-003   3.5039097705079923E-002   0.0000000000000000     
   2.8477640564831333E-003   3.9792287752908086E-002   0.0000000000000000     
   3.0542185817569495E-003   4.4761990592767656E-002   0.0000000000000000     
   3.2559564304803653E-003   4.9948206224658585E-002   0.0000000000000000     
   3.4529776026533841E-003   5.5350934648580909E-002   0.0000000000000000     
  -3.5097575887266252E-014   3.5010091105075039E-002   0.0000000000000000     
  -2.5229818234606682E-014   3.9762833107547302E-002   0.0000000000000000     
  -4.8603157089266436E-015   4.4732431540371084E-002   0.0000000000000000     
   2.6010972347355332E-014   4.9918886403546379E-002   0.0000000000000000     
   6.7384032381712089E-014   5.5322197697073194E-002   0.0000000000000000     
   1.4014050649518269E-002   5.5781988920674618E-002   0.0000000000000000     
   1.4784543797742229E-002   6.1374083442798849E-002   0.0000000000000000     
   1.5530899562026844E-002   6.7151038032285185E-002   0.0000000000000000     
   1.6253117942372115E-002   7.3112852689133617E-002   0.0000000000000000     
   1.6951198938778046E-002   7.9259527413344147E-002   0.0000000000000000     
   1.0460002927378828E-002   5.5580830260381624E-002   0.0000000000000000     
   1.1036785146098042E-002   6.1178325433376299E-002   0.0000000000000000     
   1.1595244294313040E-002   6.6960916332743689E-002   0.0000000000000000     
   1.2135380372023821E-002   7.2928602958483774E-002   0.0000000000000000     
   1.2657193379230384E-002   7.9081385310596594E-002   0.0000000000000000     
   6.9396452450905324E-003   5.5437145503017059E-002   0.0000000000000000     
   7.3234416292780862E-003   6.1038498283777338E-002   0.0000000000000000     
   7.6948759447619816E-003   6.6825115118778325E-002   0.0000000000000000     
   8.0539481915422144E-003   7.2796996008020032E-002   0.0000000000000000     
   8.4006583696187853E-003   7.8954140951502425E-002   0.0000000000000000     
   3.4529776026533841E-003   5.5350934648580909E-002   0.0000000000000000     
   3.6445132472823654E-003   6.0954601994001961E-002   0.0000000000000000     
   3.8297945133736692E-003   6.6743634390389106E-002   0.0000000000000000     
   4.0088214009272958E-003   7.2718031837742322E-002   0.0000000000000000     
   4.1815939099432457E-003   7.8877794336061610E-002   0.0000000000000000     
   6.7384032381712089E-014   5.5322197697073194E-002   0.0000000000000000     
   1.1087528464792662E-013   6.0926636564050181E-002   0.0000000000000000     
   1.4810277570304065E-013   6.6716474147576019E-002   0.0000000000000000     
   1.7906528581961012E-013   7.2691710447650687E-002   0.0000000000000000     
   2.0376365525431872E-013   7.8852345464274193E-002   0.0000000000000000     
   1.6951198938778046E-002   7.9259527413344147E-002   0.0000000000000000     
   1.7624317193439040E-002   8.5578117318121996E-002   0.0000000000000000     
   1.8271647348549511E-002   9.2055677516672388E-002   0.0000000000000000     
   1.8893189404109459E-002   9.8692208008995322E-002   0.0000000000000000     
   1.9488943360118884E-002  0.10548770879509078        0.0000000000000000     
   1.2657193379230384E-002   7.9081385310596594E-002   0.0000000000000000     
   1.3160225534721112E-002   8.5406374416674008E-002   0.0000000000000000     
   1.3644019057284379E-002   9.1890681304307886E-002   0.0000000000000000     
   1.4108573946920186E-002   9.8534305973498229E-002   0.0000000000000000     
   1.4553890203628531E-002  0.10533724842424505        0.0000000000000000     
   8.4006583696187853E-003   7.8954140951502425E-002   0.0000000000000000     
   8.7348087829437499E-003   8.5283700915663299E-002   0.0000000000000000     
   9.0562017354691611E-003   9.1772826866940355E-002   0.0000000000000000     
   9.3648372271950171E-003   9.8421518805333646E-002   0.0000000000000000     
   9.6607152581213180E-003  0.10522977673084313        0.0000000000000000     
   4.1815939099432457E-003   7.8877794336061610E-002   0.0000000000000000     
   4.3480669381069544E-003   8.5210096815089842E-002   0.0000000000000000     
   4.5081953831038572E-003   9.1702114204569835E-002   0.0000000000000000     
   4.6619792449339535E-003   9.8353846504501560E-002   0.0000000000000000     
   4.8094185235972456E-003  0.10516529371488503        0.0000000000000000     
   2.0376365525431872E-013   7.8852345464274193E-002   0.0000000000000000     
   2.1072336583993767E-013   8.5185562114953678E-002   0.0000000000000000     
   1.8846751416445873E-013   9.1678543317196270E-002   0.0000000000000000     
   1.3699799758168374E-013   9.8331289071001970E-002   0.0000000000000000     
   5.6313460838897100E-014  0.10514379937637078        0.0000000000000000     
   1.9488943360118884E-002  0.10548770879509078        0.0000000000000000     
   2.0058463296359238E-002  0.11243050604930958        0.0000000000000000     
   2.0601303292611974E-002  0.11950892594600256        0.0000000000000000     
   2.1117463348877086E-002  0.12672296848516965        0.0000000000000000     
   2.1606943465154582E-002  0.13407263366681091        0.0000000000000000     
   1.4553890203628531E-002  0.10533724842424505        0.0000000000000000     
   1.4979210714843974E-002  0.11228773928200923        0.0000000000000000     
   1.5383778368001070E-002  0.11937400917225163        0.0000000000000000     
   1.5767593163099815E-002  0.12659605809497226        0.0000000000000000     
   1.6130655100140216E-002  0.13395388605017114        0.0000000000000000     
   9.6607152581213180E-003  0.10522977673084313        0.0000000000000000     
   9.9430493049363650E-003  0.11218576301971959        0.0000000000000000     
   1.0211052844328454E-002  0.11927764004821370        0.0000000000000000     
   1.0464725876297589E-002  0.12650540781632552        0.0000000000000000     
   1.0704068400843767E-002  0.13386906632405499        0.0000000000000000     
   4.8094185235972456E-003  0.10516529371488503        0.0000000000000000     
   4.9499790666364127E-003  0.11212457726244067        0.0000000000000000     
   5.0831267215941328E-003  0.11921981857388875        0.0000000000000000     
   5.2088614884704095E-003  0.12645101764922934        0.0000000000000000     
   5.3271833672652426E-003  0.13381817448846239        0.0000000000000000     
   5.6313460838897100E-014  0.10514379937637078        0.0000000000000000     
  -5.5884550459461835E-014  0.11210418201017246        0.0000000000000000     
  -2.0189611701221244E-013  0.11920054474927680        0.0000000000000000     
  -3.8172142855473490E-013  0.12643288759368376        0.0000000000000000     
  -5.9535969904045416E-013  0.13380121054339339        0.0000000000000000     
   2.1606943465154582E-002  0.13407263366681091        0.0000000000000000     
   2.2068296324848226E-002  0.14154593256378498        0.0000000000000000     
   2.2500074611361807E-002  0.14913087624895055        0.0000000000000000     
   2.2902278324695317E-002  0.15682746472230763        0.0000000000000000     
   2.3274907464848754E-002  0.16463569798385619        0.0000000000000000     
   1.6130655100140216E-002  0.13395388605017114        0.0000000000000000     
   1.6471228556120696E-002  0.14143548790595076        0.0000000000000000     
   1.6787577908039690E-002  0.14902885853041348        0.0000000000000000     
   1.7079703155897203E-002  0.15673399792355944        0.0000000000000000     
   1.7347604299693224E-002  0.16455090608538850        0.0000000000000000     
   1.0704068400843767E-002  0.13386906632405499        0.0000000000000000     
   1.0927489912266363E-002  0.14135659886466398        0.0000000000000000     
   1.1133399904864753E-002  0.14895598873141436        0.0000000000000000     
   1.1321798378638934E-002  0.15666723592430612        0.0000000000000000     
   1.1492685333588907E-002  0.16449034044333921        0.0000000000000000     
   5.3271833672652426E-003  0.13381817448846239        0.0000000000000000     
   5.4370803932852364E-003  0.14130926543992475        0.0000000000000000     
   5.5375406018369922E-003  0.14891226685195322        0.0000000000000000     
   5.6285639929205137E-003  0.15662717872454776        0.0000000000000000     
   5.7101505665357998E-003  0.16445400105770838        0.0000000000000000     
  -5.9535969904045416E-013  0.13380121054339339        0.0000000000000000     
  -8.2269022323722130E-013  0.14129348763173302        0.0000000000000000     
  -1.0435889348861527E-012  0.14889769289203000        0.0000000000000000     
  -1.2580578126562131E-012  0.15661382632428431        0.0000000000000000     
  -1.4660946068278946E-012  0.16444188792849596        0.0000000000000000     
   0.0000000000000000        0.0000000000000000        0.0000000000000000     
  -4.4645006008064980E-015   1.0733897940220461E-003   0.0000000000000000     
  -9.1012809268209427E-015   2.5156711812680367E-003   0.0000000000000000     
  -1.3910151242663149E-014   4.3268441617379709E-003   0.0000000000000000     
  -1.8891463914039175E-014   6.5069087354318478E-003   0.0000000000000000     
   0.0000000000000000        0.0000000000000000        0.0000000000000000     
  -2.1298835158817877E-004   1.0756762755453045E-003   0.0000000000000000     
  -4.2697110327677515E-004   2.5208229254441179E-003   0.0000000000000000     
  -6.4194825506578928E-004   4.3354399496964395E-003   0.0000000000000000     
  -8.5791980695522081E-004   6.5195273483022705E-003   0.0000000000000000     
   0.0000000000000000        0.0000000000000000        0.0000000000000000     
  -4.2426410280633380E-004   1.0825357201137593E-003   0.0000000000000000     
  -8.5298232450122262E-004   2.5362781579704378E-003   0.0000000000000000     
  -1.2861546650846662E-003   4.3612273135700359E-003   0.0000000000000000     
  -1.7237811245566651E-003   6.5573831869125540E-003   0.0000000000000000     
   0.0000000000000000        0.0000000000000000        0.0000000000000000     
  -6.3382725365892958E-004   1.0939681277274099E-003   0.0000000000000000     
  -1.2780336636824432E-003   2.5620368788469967E-003   0.0000000000000000     
  -1.9326192300705412E-003   4.4042062533587601E-003   0.0000000000000000     
  -2.5975839528232232E-003   6.6204762512627000E-003   0.0000000000000000     
   0.0000000000000000        0.0000000000000000        0.0000000000000000     
  -8.4167780414596627E-004   1.1099734983862572E-003   0.0000000000000000     
  -1.7021251208204377E-003   2.5980990880737943E-003   0.0000000000000000     
  -2.5813419500234146E-003   4.4643767690626113E-003   0.0000000000000000     
  -3.4793282917548966E-003   6.7088065413527078E-003   0.0000000000000000     
  -1.8891463914039175E-014   6.5069087354318478E-003   0.0000000000000000     
  -2.3803645144392094E-014   9.0285282486506687E-003   0.0000000000000000     
  -2.8405609028142598E-014   1.1864366047695434E-002   0.0000000000000000     
  -3.2697247145073438E-014   1.5014422132566136E-002   0.0000000000000000     
  -3.6678667915401864E-014   1.8478696503262785E-002   0.0000000000000000     
  -8.5791980695522081E-004   6.5195273483022705E-003   0.0000000000000000     
  -1.0760386043934837E-003   9.0451239196614464E-003   0.0000000000000000     
  -1.2974574928289908E-003   1.1884268462173806E-002   0.0000000000000000     
  -1.5221764722617420E-003   1.5036960975839352E-002   0.0000000000000000     
  -1.7501955426917383E-003   1.8503201460658081E-002   0.0000000000000000     
  -1.7237811245566651E-003   6.5573831869125540E-003   0.0000000000000000     
  -2.1660247812500663E-003   9.0949109326939961E-003   0.0000000000000000     
  -2.6130487134977168E-003   1.1943975705610375E-002   0.0000000000000000     
  -3.0648529212996167E-003   1.5104577505661691E-002   0.0000000000000000     
  -3.5214374046557673E-003   1.8576716332847940E-002   0.0000000000000000     
  -2.5975839528232232E-003   6.6204762512627000E-003   0.0000000000000000     
  -3.2699585305935503E-003   9.1778892877483250E-003   0.0000000000000000     
  -3.9467736620345832E-003   1.2043487778005142E-002   0.0000000000000000     
  -4.6280293471463209E-003   1.5217271722033151E-002   0.0000000000000000     
  -5.3137255859287639E-003   1.8699241119832354E-002   0.0000000000000000     
  -3.4793282917548966E-003   6.7088065413527078E-003   0.0000000000000000     
  -4.3878398524239371E-003   9.2940589848244243E-003   0.0000000000000000     
  -5.2986323384395899E-003   1.2182804679358101E-002   0.0000000000000000     
  -6.2117057498018539E-003   1.5375043624953738E-002   0.0000000000000000     
  -7.1270600865107302E-003   1.8870775821611337E-002   0.0000000000000000     
  -3.6678667915401864E-014   1.8478696503262785E-002   0.0000000000000000     
  -3.9449671827840316E-014   2.2227946301083264E-002   0.0000000000000000     
  -4.0110140686264173E-014   2.6232928667325468E-002   0.0000000000000000     
  -3.8659579823432239E-014   3.0493643601989393E-002   0.0000000000000000     
  -3.5097575887266252E-014   3.5010091105075039E-002   0.0000000000000000     
  -1.7501955426917383E-003   1.8503201460658081E-002   0.0000000000000000     
  -1.9778472116407310E-003   2.2253955828728626E-002   0.0000000000000000     
  -2.2014639866304738E-003   2.6260189992149626E-002   0.0000000000000000     
  -2.4210458676609649E-003   3.0521903950921078E-002   0.0000000000000000     
  -2.6365928547322057E-003   3.5039097705042974E-002   0.0000000000000000     
  -3.5214374046557673E-003   1.8576716332847940E-002   0.0000000000000000     
  -3.9767996906837893E-003   2.2331984411672050E-002   0.0000000000000000     
  -4.4249373065013064E-003   2.6341973966636959E-002   0.0000000000000000     
  -4.8658502521083192E-003   3.0606684997742654E-002   0.0000000000000000     
  -5.2995385275048266E-003   3.5126117504989153E-002   0.0000000000000000     
  -5.3137255859287639E-003   1.8699241119832354E-002   0.0000000000000000     
  -5.9968574371686238E-003   2.2462032049913531E-002   0.0000000000000000     
  -6.6704199596526077E-003   2.6478280590787457E-002   0.0000000000000000     
  -7.3344131533807210E-003   3.0747986742454134E-002   0.0000000000000000     
  -7.9888370183529601E-003   3.5271150504913570E-002   0.0000000000000000     
  -7.1270600865107302E-003   1.8870775821611337E-002   0.0000000000000000     
  -8.0380204510952340E-003   2.2644098743453071E-002   0.0000000000000000     
  -8.9379119460843807E-003   2.6669109864601130E-002   0.0000000000000000     
  -9.8267345714781722E-003   3.0945809185055514E-002   0.0000000000000000     
  -1.0704488327276607E-002   3.5474196704816219E-002   0.0000000000000000     
  -3.5097575887266252E-014   3.5010091105075039E-002   0.0000000000000000     
  -2.5229818234606682E-014   3.9762833107547302E-002   0.0000000000000000     
  -4.8603157089266436E-015   4.4732431540371084E-002   0.0000000000000000     
   2.6010972347355332E-014   4.9918886403546379E-002   0.0000000000000000     
   6.7384032381712089E-014   5.5322197697073194E-002   0.0000000000000000     
  -2.6365928547322057E-003   3.5039097705042974E-002   0.0000000000000000     
  -2.8477640565388708E-003   3.9792287752857015E-002   0.0000000000000000     
  -3.0542185817756355E-003   4.4761990592704901E-002   0.0000000000000000     
  -3.2559564304425002E-003   4.9948206224586608E-002   0.0000000000000000     
  -3.4529776025394639E-003   5.5350934648502152E-002   0.0000000000000000     
  -5.2995385275048266E-003   3.5126117504989153E-002   0.0000000000000000     
  -5.7246021525691627E-003   3.9880651688844755E-002   0.0000000000000000     
  -6.1396411471796638E-003   4.4850667749777778E-002   0.0000000000000000     
  -6.5446555113363274E-003   5.0036165687788209E-002   0.0000000000000000     
  -6.9396452450391543E-003   5.5437145502876060E-002   0.0000000000000000     
  -7.9888370183529601E-003   3.5271150504913570E-002   0.0000000000000000     
  -8.6305142881161097E-003   4.0027924915510507E-002   0.0000000000000000     
  -9.2562676962169421E-003   4.4998463011589711E-002   0.0000000000000000     
  -9.8660972426554711E-003   5.0182764793151168E-002   0.0000000000000000     
  -1.0460002927431686E-002   5.5580830260194905E-002   0.0000000000000000     
  -1.0704488327276607E-002   3.5474196704816219E-002   0.0000000000000000     
  -1.1565500463179702E-002   4.0234107432854264E-002   0.0000000000000000     
  -1.2404098228887477E-002   4.5205376378140691E-002   0.0000000000000000     
  -1.3220281624399930E-002   5.0388003540675512E-002   0.0000000000000000     
  -1.4014050649717063E-002   5.5781988920458679E-002   0.0000000000000000     
   6.7384032381712089E-014   5.5322197697073194E-002   0.0000000000000000     
   1.1087528464792662E-013   6.0926636564050181E-002   0.0000000000000000     
   1.4810277570304065E-013   6.6716474147576019E-002   0.0000000000000000     
   1.7906528581961012E-013   7.2691710447650687E-002   0.0000000000000000     
   2.0376365525431872E-013   7.8852345464274193E-002   0.0000000000000000     
  -3.4529776025394639E-003   5.5350934648502152E-002   0.0000000000000000     
  -3.6445132470876145E-003   6.0954601993928187E-002   0.0000000000000000     
  -3.8297945131080370E-003   6.6743634390341339E-002   0.0000000000000000     
  -4.0088214006007324E-003   7.2718031837741670E-002   0.0000000000000000     
  -4.1815939095656987E-003   7.8877794336129112E-002   0.0000000000000000     
  -6.9396452450391543E-003   5.5437145502876060E-002   0.0000000000000000     
  -7.3234416291643369E-003   6.1038498283642176E-002   0.0000000000000000     
  -7.6948759445880704E-003   6.6825115118687439E-002   0.0000000000000000     
  -8.0539481913103547E-003   7.2796996008011830E-002   0.0000000000000000     
  -8.4006583693311855E-003   7.8954140951615376E-002   0.0000000000000000     
  -1.0460002927431686E-002   5.5580830260194905E-002   0.0000000000000000     
  -1.1036785146119296E-002   6.1178325433192175E-002   0.0000000000000000     
  -1.1595244294292002E-002   6.6960916332614279E-002   0.0000000000000000     
  -1.2135380371949802E-002   7.2928602958461194E-002   0.0000000000000000     
  -1.2657193379092694E-002   7.9081385310732957E-002   0.0000000000000000     
  -1.4014050649717063E-002   5.5781988920458679E-002   0.0000000000000000     
  -1.4784543797952486E-002   6.1374083442578158E-002   0.0000000000000000     
  -1.5530899562219825E-002   6.7151038032121843E-002   0.0000000000000000     
  -1.6253117942519071E-002   7.3112852689089763E-002   0.0000000000000000     
  -1.6951198938850224E-002   7.9259527413481870E-002   0.0000000000000000     
   2.0376365525431872E-013   7.8852345464274193E-002   0.0000000000000000     
   2.1072336583993767E-013   8.5185562114953678E-002   0.0000000000000000     
   1.8846751416445873E-013   9.1678543317196270E-002   0.0000000000000000     
   1.3699799758168374E-013   9.8331289071001970E-002   0.0000000000000000     
   5.6313460838897100E-014  0.10514379937637078        0.0000000000000000     
  -4.1815939095656987E-003   7.8877794336129112E-002   0.0000000000000000     
  -4.3480669377099629E-003   8.5210096815235226E-002   0.0000000000000000     
  -4.5081953827405419E-003   9.1702114204791560E-002   0.0000000000000000     
  -4.6619792446574403E-003   9.8353846504798115E-002   0.0000000000000000     
  -4.8094185234606544E-003  0.10516529371525486        0.0000000000000000     
  -8.4006583693311855E-003   7.8954140951615376E-002   0.0000000000000000     
  -8.7348087826201164E-003   8.5283700915914959E-002   0.0000000000000000     
  -9.0562017351467003E-003   9.1772826867327587E-002   0.0000000000000000     
  -9.3648372269109440E-003   9.8421518805853203E-002   0.0000000000000000     
  -9.6607152579128372E-003  0.10522977673149185        0.0000000000000000     
  -1.2657193379092694E-002   7.9081385310732957E-002   0.0000000000000000     
  -1.3160225534519747E-002   8.5406374416992878E-002   0.0000000000000000     
  -1.3644019057030018E-002   9.1890681304804281E-002   0.0000000000000000     
  -1.4108573946623517E-002   9.8534305974167263E-002   0.0000000000000000     
  -1.4553890203300231E-002  0.10533724842508173        0.0000000000000000     
  -1.6951198938850224E-002   7.9259527413481870E-002   0.0000000000000000     
  -1.7624317193408845E-002   8.5578117318468955E-002   0.0000000000000000     
  -1.8271647348390485E-002   9.2055677517221740E-002   0.0000000000000000     
  -1.8893189403795151E-002   9.8692208009740282E-002   0.0000000000000000     
  -1.9488943359622837E-002  0.10548770879602451        0.0000000000000000     
   5.6313460838897100E-014  0.10514379937637078        0.0000000000000000     
  -5.5884550459461835E-014  0.11210418201017246        0.0000000000000000     
  -2.0189611701221244E-013  0.11920054474927680        0.0000000000000000     
  -3.8172142855473490E-013  0.12643288759368376        0.0000000000000000     
  -5.9535969904045416E-013  0.13380121054339339        0.0000000000000000     
  -4.8094185234606544E-003  0.10516529371525486        0.0000000000000000     
  -4.9499790666965703E-003  0.11212457726286294        0.0000000000000000     
  -5.0831267219115673E-003  0.11921981857432354        0.0000000000000000     
  -5.2088614891056487E-003  0.12645101764963659        0.0000000000000000     
  -5.3271833682788094E-003  0.13381817448880207        0.0000000000000000     
  -9.6607152579128372E-003  0.10522977673149185        0.0000000000000000     
  -9.9430493048416908E-003  0.11218576302046011        0.0000000000000000     
  -1.0211052844386817E-002  0.11927764004897468        0.0000000000000000     
  -1.0464725876548210E-002  0.12650540781703545        0.0000000000000000     
  -1.0704068401325874E-002  0.13386906632464254        0.0000000000000000     
  -1.4553890203300231E-002  0.10533724842508173        0.0000000000000000     
  -1.4979210714491245E-002  0.11228773928296397        0.0000000000000000     
  -1.5383778367627639E-002  0.11937400917323022        0.0000000000000000     
  -1.5767593162709408E-002  0.12659605809588048        0.0000000000000000     
  -1.6130655099736557E-002  0.13395388605091474        0.0000000000000000     
  -1.9488943359622837E-002  0.10548770879602451        0.0000000000000000     
  -2.0058463295645236E-002  0.11243050605037448        0.0000000000000000     
  -2.0601303291634038E-002  0.11950892594709017        0.0000000000000000     
  -2.1117463347589242E-002  0.12672296848617159        0.0000000000000000     
  -2.1606943463510848E-002  0.13407263366761873        0.0000000000000000     
  -5.9535969904045416E-013  0.13380121054339339        0.0000000000000000     
  -8.2269022323722130E-013  0.14129348763173302        0.0000000000000000     
  -1.0435889348861527E-012  0.14889769289203000        0.0000000000000000     
  -1.2580578126562131E-012  0.15661382632428431        0.0000000000000000     
  -1.4660946068278946E-012  0.16444188792849596        0.0000000000000000     
  -5.3271833682788094E-003  0.13381817448880207        0.0000000000000000     
  -5.4370803946996700E-003  0.14130926544007086        0.0000000000000000     
  -5.5375406036368442E-003  0.14891226685169373        0.0000000000000000     
  -5.6285639950903318E-003  0.15662717872367068        0.0000000000000000     
  -5.7101505690601304E-003  0.16445400105600172        0.0000000000000000     
  -1.0704068401325874E-002  0.13386906632464254        0.0000000000000000     
  -1.0927489912987962E-002  0.14135659886492036        0.0000000000000000     
  -1.1133399905802621E-002  0.14895598873099342        0.0000000000000000     
  -1.1321798379769855E-002  0.15666723592286175        0.0000000000000000     
  -1.1492685334889664E-002  0.16449034044052532        0.0000000000000000     
  -1.6130655099736557E-002  0.13395388605091474        0.0000000000000000     
  -1.6471228555687566E-002  0.14143548790628149        0.0000000000000000     
  -1.6787577907540926E-002  0.14902885852992903        0.0000000000000000     
  -1.7079703155296635E-002  0.15673399792185755        0.0000000000000000     
  -1.7347604298954687E-002  0.16455090608206688        0.0000000000000000     
  -2.1606943463510848E-002  0.13407263366761873        0.0000000000000000     
  -2.2068296322798477E-002  0.14154593256415421        0.0000000000000000     
  -2.2500074608851749E-002  0.14913087624850066        0.0000000000000000     
  -2.2902278321670664E-002  0.15682746472065798        0.0000000000000000     
  -2.3274907461255212E-002  0.16463569798062627        0.0000000000000000     
   0.0000000000000000        0.0000000000000000        0.0000000000000000     
  -8.4167780414596627E-004   1.1099734983862572E-003   0.0000000000000000     
  -1.7021251208204377E-003   2.5980990880737943E-003   0.0000000000000000     
  -2.5813419500234146E-003   4.4643767690626113E-003   0.0000000000000000     
  -3.4793282917548966E-003   6.7088065413527078E-003   0.0000000000000000     
   0.0000000000000000        0.0000000000000000        0.0000000000000000     
  -1.0567160023069856E-003   1.1341217796885061E-003   0.0000000000000000     
  -2.1397882640912455E-003   2.6503256758835525E-003   0.0000000000000000     
  -3.2492167853527794E-003   4.5486116885851404E-003   0.0000000000000000     
  -4.3850015660915863E-003   6.8289798177932669E-003   0.0000000000000000     
   0.0000000000000000        0.0000000000000000        0.0000000000000000     
  -1.2878420961815304E-003   1.1699829192323625E-003   0.0000000000000000     
  -2.6055546616709068E-003   2.7245775325089950E-003   0.0000000000000000     
  -3.9531376964681286E-003   4.6637838398298952E-003   0.0000000000000000     
  -5.3305912005731960E-003   6.9876018411950671E-003   0.0000000000000000     
   0.0000000000000000        0.0000000000000000        0.0000000000000000     
  -1.5350560857696001E-003   1.2175569170178268E-003   0.0000000000000000     
  -3.0994243135594214E-003   2.8208546579501195E-003   0.0000000000000000     
  -4.6931046833694635E-003   4.8098932227968790E-003   0.0000000000000000     
  -6.3160971951997267E-003   7.1846726115581041E-003   0.0000000000000000     
   0.0000000000000000        0.0000000000000000        0.0000000000000000     
  -1.7983579710711948E-003   1.2768437730448980E-003   0.0000000000000000     
  -3.6213972197567893E-003   2.9391570522069284E-003   0.0000000000000000     
  -5.4691177460567831E-003   4.9869398374860893E-003   0.0000000000000000     
  -7.3415195499711757E-003   7.4201921288823839E-003   0.0000000000000000     
  -3.4793282917548966E-003   6.7088065413527078E-003   0.0000000000000000     
  -4.3878398524239371E-003   9.2940589848244243E-003   0.0000000000000000     
  -5.2986323384395899E-003   1.2182804679358101E-002   0.0000000000000000     
  -6.2117057498018539E-003   1.5375043624953738E-002   0.0000000000000000     
  -7.1270600865107302E-003   1.8870775821611337E-002   0.0000000000000000     
  -4.3850015660915863E-003   6.8289798177932669E-003   0.0000000000000000     
  -5.5341764822529563E-003   9.4494111023704398E-003   0.0000000000000000     
  -6.6837754097821798E-003   1.2367886581179164E-002   0.0000000000000000     
  -7.8337983486792499E-003   1.5584406254219444E-002   0.0000000000000000     
  -8.9842452989441733E-003   1.9098970121491272E-002   0.0000000000000000     
  -5.3305912005731960E-003   6.9876018411950671E-003   0.0000000000000000     
  -6.7234761555923410E-003   9.6499367188345141E-003   0.0000000000000000     
  -8.1173535431317886E-003   1.2604693654978245E-002   0.0000000000000000     
  -9.5122233631915430E-003   1.5851872649626262E-002   0.0000000000000000     
  -1.0908085615771605E-002   1.9391473702778564E-002   0.0000000000000000     
  -6.3160971951997267E-003   7.1846726115581041E-003   0.0000000000000000     
  -7.9557388724420877E-003   9.8956358342166453E-003   0.0000000000000000     
  -9.5993667384884247E-003   1.2893225900755343E-002   0.0000000000000000     
  -1.1246980793338735E-002   1.6177442811174197E-002   0.0000000000000000     
  -1.2898581036993022E-002   1.9748286565473214E-002   0.0000000000000000     
  -7.3415195499711757E-003   7.4201921288823839E-003   0.0000000000000000     
  -9.2309646328021973E-003   1.0186508448516830E-002   0.0000000000000000     
  -1.1129814995852081E-002   1.3233483318510453E-002   0.0000000000000000     
  -1.3038070639120821E-002   1.6561116738863246E-002   0.0000000000000000     
  -1.4955731562608425E-002   2.0169408709575218E-002   0.0000000000000000     
  -7.1270600865107302E-003   1.8870775821611337E-002   0.0000000000000000     
  -8.0380204510952340E-003   2.2644098743453071E-002   0.0000000000000000     
  -8.9379119460843807E-003   2.6669109864601130E-002   0.0000000000000000     
  -9.8267345714781722E-003   3.0945809185055514E-002   0.0000000000000000     
  -1.0704488327276607E-002   3.5474196704816219E-002   0.0000000000000000     
  -8.9842452989441733E-003   1.9098970121491272E-002   0.0000000000000000     
  -1.0128020708891195E-002   2.2886756972963194E-002   0.0000000000000000     
  -1.1258029026834562E-002   2.6922945598603740E-002   0.0000000000000000     
  -1.2374270252774275E-002   3.1207535998412909E-002   0.0000000000000000     
  -1.3476744386710329E-002   3.5740528172390713E-002   0.0000000000000000     
  -1.0908085615771605E-002   1.9391473702778564E-002   0.0000000000000000     
  -1.2294590186984084E-002   2.3198579219116406E-002   0.0000000000000000     
  -1.3661386962941091E-002   2.7248271603321040E-002   0.0000000000000000     
  -1.5008475943642628E-002   3.1540550855392466E-002   0.0000000000000000     
  -1.6335857129088693E-002   3.6075416975330683E-002   0.0000000000000000     
  -1.2898581036993022E-002   1.9748286565473214E-002   0.0000000000000000     
  -1.4537728885373895E-002   2.3579565481912715E-002   0.0000000000000000     
  -1.6147985754403963E-002   2.7645087878753034E-002   0.0000000000000000     
  -1.7729351644083232E-002   3.1944853755994172E-002   0.0000000000000000     
  -1.9281826554411702E-002   3.6478863113636129E-002   0.0000000000000000     
  -1.4955731562608425E-002   2.0169408709575218E-002   0.0000000000000000     
  -1.6857436804060637E-002   2.4029715761352124E-002   0.0000000000000000     
  -1.8717825401223191E-002   2.8113394424899723E-002   0.0000000000000000     
  -2.0536897354096091E-002   3.2420444700218029E-002   0.0000000000000000     
  -2.2314652662679343E-002   3.6950866587307028E-002   0.0000000000000000     
  -1.0704488327276607E-002   3.5474196704816219E-002   0.0000000000000000     
  -1.1565500463179702E-002   4.0234107432854264E-002   0.0000000000000000     
  -1.2404098228887477E-002   4.5205376378140691E-002   0.0000000000000000     
  -1.3220281624399930E-002   5.0388003540675512E-002   0.0000000000000000     
  -1.4014050649717063E-002   5.5781988920458679E-002   0.0000000000000000     
  -1.3476744386710329E-002   3.5740528172390713E-002   0.0000000000000000     
  -1.4557834767207276E-002   4.0502218782410934E-002   0.0000000000000000     
  -1.5609924732829662E-002   4.5472904490347361E-002   0.0000000000000000     
  -1.6633014283577489E-002   5.0652585296200009E-002   0.0000000000000000     
  -1.7627103419450750E-002   5.6041261199968849E-002   0.0000000000000000     
  -1.6335857129088693E-002   3.6075416975330683E-002   0.0000000000000000     
  -1.7635791289646163E-002   4.0835278505715403E-002   0.0000000000000000     
  -1.8900539195681909E-002   4.5802543989126338E-002   0.0000000000000000     
  -2.0130100847195929E-002   5.0977213425563488E-002   0.0000000000000000     
  -2.1324476244188220E-002   5.6359286815026853E-002   0.0000000000000000     
  -1.9281826554411702E-002   3.6478863113636129E-002   0.0000000000000000     
  -2.0799370030496360E-002   4.1233286602767684E-002   0.0000000000000000     
  -2.2275941617444207E-002   4.6194294874477626E-002   0.0000000000000000     
  -2.3711541315255248E-002   5.1361887928765948E-002   0.0000000000000000     
  -2.5106169123929475E-002   5.6736065765632678E-002   0.0000000000000000     
  -2.2314652662679343E-002   3.6950866587307028E-002   0.0000000000000000     
  -2.4048570989757864E-002   4.1696243073567750E-002   0.0000000000000000     
  -2.5736131998116567E-002   4.6648157146401213E-002   0.0000000000000000     
  -2.7377335687755442E-002   5.1806608805807404E-002   0.0000000000000000     
  -2.8972182058674509E-002   5.7171598051786329E-002   0.0000000000000000     
  -1.4014050649717063E-002   5.5781988920458679E-002   0.0000000000000000     
  -1.4784543797952486E-002   6.1374083442578158E-002   0.0000000000000000     
  -1.5530899562219825E-002   6.7151038032121843E-002   0.0000000000000000     
  -1.6253117942519071E-002   7.3112852689089763E-002   0.0000000000000000     
  -1.6951198938850224E-002   7.9259527413481870E-002   0.0000000000000000     
  -1.7627103419450750E-002   5.6041261199968849E-002   0.0000000000000000     
  -1.8591663277173008E-002   6.1626643432259105E-002   0.0000000000000000     
  -1.9526164993467824E-002   6.7396443223675939E-002   0.0000000000000000     
  -2.0430608568335194E-002   7.3350660574219392E-002   0.0000000000000000     
  -2.1304994001775119E-002   7.9489295483889430E-002   0.0000000000000000     
  -2.1324476244188220E-002   5.6359286815026853E-002   0.0000000000000000     
  -2.2483089276289947E-002   6.1936876522693952E-002   0.0000000000000000     
  -2.3605363833132279E-002   6.7698094913742332E-002   0.0000000000000000     
  -2.4691299914715206E-002   7.3642941988171964E-002   0.0000000000000000     
  -2.5740897521038728E-002   7.9771417745982912E-002   0.0000000000000000     
  -2.5106169123929475E-002   5.6736065765632678E-002   0.0000000000000000     
  -2.6458821795303313E-002   6.2304782713882727E-002   0.0000000000000000     
  -2.7768496081213193E-002   6.8055993102321008E-002   0.0000000000000000     
  -2.9035191981659107E-002   7.3989696930947549E-002   0.0000000000000000     
  -3.0258909496641052E-002   8.0105894199762356E-002   0.0000000000000000     
  -2.8972182058674509E-002   5.7171598051786329E-002   0.0000000000000000     
  -3.0518860834213096E-002   6.2730362005825407E-002   0.0000000000000000     
  -3.2015561737710557E-002   6.8470137789411981E-002   0.0000000000000000     
  -3.3462284769166892E-002   7.4390925402546090E-002   0.0000000000000000     
  -3.4859029928582079E-002   8.0492724845227737E-002   0.0000000000000000     
  -1.6951198938850224E-002   7.9259527413481870E-002   0.0000000000000000     
  -1.7624317193408845E-002   8.5578117318468955E-002   0.0000000000000000     
  -1.8271647348390485E-002   9.2055677517221740E-002   0.0000000000000000     
  -1.8893189403795151E-002   9.8692208009740282E-002   0.0000000000000000     
  -1.9488943359622837E-002  0.10548770879602451        0.0000000000000000     
  -2.1304994001775119E-002   7.9489295483889430E-002   0.0000000000000000     
  -2.2148226807108474E-002   8.5799465679628900E-002   0.0000000000000000     
  -2.2959212497656117E-002   9.2268288888380706E-002   0.0000000000000000     
  -2.3737951073418057E-002   9.8895765110144765E-002   0.0000000000000000     
  -2.4484442534394291E-002  0.10568189434492116        0.0000000000000000     
  -2.5740897521038728E-002   7.9771417745982912E-002   0.0000000000000000     
  -2.6753097423439690E-002   8.6070955559758452E-002   0.0000000000000000     
  -2.7726840393254931E-002   9.2528988802081907E-002   0.0000000000000000     
  -2.8662126430484443E-002   9.9145517472953318E-002   0.0000000000000000     
  -2.9558955535128231E-002  0.10592054157237263        0.0000000000000000     
  -3.0258909496641052E-002   8.0105894199762356E-002   0.0000000000000000     
  -3.1438929042402496E-002   8.6392586958857584E-002   0.0000000000000000     
  -3.2574531035186913E-002   9.2837777258325427E-002   0.0000000000000000     
  -3.3665715474994293E-002   9.9441465098165871E-002   0.0000000000000000     
  -3.4712482361824649E-002  0.10620365047837893        0.0000000000000000     
  -3.4859029928582079E-002   8.0492724845227737E-002   0.0000000000000000     
  -3.6205721663996895E-002   8.6764359876926295E-002   0.0000000000000000     
  -3.7502284423452076E-002   9.3194654257111209E-002   0.0000000000000000     
  -3.8748718206947627E-002   9.9783607985782452E-002   0.0000000000000000     
  -3.9945023014483556E-002  0.10653122106294004        0.0000000000000000     
  -1.9488943359622837E-002  0.10548770879602451        0.0000000000000000     
  -2.0058463295645236E-002  0.11243050605037448        0.0000000000000000     
  -2.0601303291634038E-002  0.11950892594709017        0.0000000000000000     
  -2.1117463347589242E-002  0.12672296848617159        0.0000000000000000     
  -2.1606943463510848E-002  0.13407263366761873        0.0000000000000000     
  -2.4484442534394291E-002  0.10568189434492116        0.0000000000000000     
  -2.5198610392962759E-002  0.11261504050769430        0.0000000000000000     
  -2.5880378161501402E-002  0.11968356751344862        0.0000000000000000     
  -2.6529745840010215E-002  0.12688747536218420        0.0000000000000000     
  -2.7146713428489205E-002  0.13422676405390091        0.0000000000000000     
  -2.9558955535128231E-002  0.10592054157237263        0.0000000000000000     
  -3.0417455351102917E-002  0.11284231983992603        0.0000000000000000     
  -3.1237753522325114E-002  0.11989911101519968        0.0000000000000000     
  -3.2019850048794832E-002  0.12709091509819356        0.0000000000000000     
  -3.2763744930512068E-002  0.13441773208890770        0.0000000000000000     
  -3.4712482361824649E-002  0.10620365047837893        0.0000000000000000     
  -3.5714998170065702E-002  0.11311234404706970        0.0000000000000000     
  -3.6673429374105185E-002  0.12015555645234330        0.0000000000000000     
  -3.7587775973943076E-002  0.12733328769419977        0.0000000000000000     
  -3.8458037969579424E-002  0.13464553777263902        0.0000000000000000     
  -3.9945023014483556E-002  0.10653122106294004        0.0000000000000000     
  -4.1091238849851122E-002  0.11342511312912527        0.0000000000000000     
  -4.2187405716841590E-002  0.12045290382487951        0.0000000000000000     
  -4.3233523615454995E-002  0.12761459315020277        0.0000000000000000     
  -4.4229592545691289E-002  0.13491018110509501        0.0000000000000000     
  -2.1606943463510848E-002  0.13407263366761873        0.0000000000000000     
  -2.2068296322798477E-002  0.14154593256415421        0.0000000000000000     
  -2.2500074608851749E-002  0.14913087624850066        0.0000000000000000     
  -2.2902278321670664E-002  0.15682746472065798        0.0000000000000000     
  -2.3274907461255212E-002  0.16463569798062627        0.0000000000000000     
  -2.7146713428489205E-002  0.13422676405390091        0.0000000000000000     
  -2.7730227343626106E-002  0.14168955384071835        0.0000000000000000     
  -2.8279234002108668E-002  0.14926396497475597        0.0000000000000000     
  -2.8793733403936882E-002  0.15694999745601379        0.0000000000000000     
  -2.9273725549110761E-002  0.16474765128449173        0.0000000000000000     
  -3.2763744930512068E-002  0.13441773208890770        0.0000000000000000     
  -3.3468555747475856E-002  0.14186797273815360        0.0000000000000000     
  -3.4133400079685253E-002  0.14943004779674288        0.0000000000000000     
  -3.4758277927140258E-002  0.15710395726467546        0.0000000000000000     
  -3.5343189289840864E-002  0.16488970114195137        0.0000000000000000     
  -3.8458037969579424E-002  0.13464553777263902        0.0000000000000000     
  -3.9283281534347715E-002  0.14208118925645996        0.0000000000000000     
  -4.0062572841581497E-002  0.14962912471446130        0.0000000000000000     
  -4.0795911891280776E-002  0.15728934414664306        0.0000000000000000     
  -4.1483298683445524E-002  0.16506184755300524        0.0000000000000000     
  -4.4229592545691289E-002  0.13491018110509501        0.0000000000000000     
  -4.5174404704241708E-002  0.14232920339563743        0.0000000000000000     
  -4.6066752287797406E-002  0.14986119572791132        0.0000000000000000     
  -4.6906635296358426E-002  0.15750615810191659        0.0000000000000000     
  -4.7694053729924732E-002  0.16526409051765328        0.0000000000000000     
   0.0000000000000000        0.0000000000000000        0.0000000000000000     
  -1.7983579710711948E-003   1.2768437730448980E-003   0.0000000000000000     
  -3.6213972197567893E-003   2.9391570522069284E-003   0.0000000000000000     
  -5.4691177460567831E-003   4.9869398374860893E-003   0.0000000000000000     
  -7.3415195499711757E-003   7.4201921288823839E-003   0.0000000000000000     
   0.0000000000000000        0.0000000000000000        0.0000000000000000     
  -2.0694750021309155E-003   1.3549541280845519E-003   0.0000000000000000     
  -4.1641195719431213E-003   3.0939913812346653E-003   0.0000000000000000     
  -6.2839337094366165E-003   5.2171117594503403E-003   0.0000000000000000     
  -8.4289174146114018E-003   7.7243152627315776E-003   0.0000000000000000     
   0.0000000000000000        0.0000000000000000        0.0000000000000000     
  -2.3401344289933632E-003   1.4589986229077631E-003   0.0000000000000000     
  -4.7202375617985282E-003   3.2998643109885773E-003   0.0000000000000000     
  -7.1403093984154934E-003   5.5225970642424427E-003   0.0000000000000000     
  -9.6003499388442586E-003   8.1271968826693609E-003   0.0000000000000000     
   0.0000000000000000        0.0000000000000000        0.0000000000000000     
  -2.6103362516585373E-003   1.5889772575145315E-003   0.0000000000000000     
  -5.2897511893230083E-003   3.5567758414686641E-003   0.0000000000000000     
  -8.0382448129934139E-003   5.9033957518623975E-003   0.0000000000000000     
  -1.0855817122669755E-002   8.6288369886957320E-003   0.0000000000000000     
   0.0000000000000000        0.0000000000000000        0.0000000000000000     
  -2.8800804701264384E-003   1.7448900319048575E-003   0.0000000000000000     
  -5.8726604545165642E-003   3.8647259726749253E-003   0.0000000000000000     
  -8.9777399531703779E-003   6.3595078223102047E-003   0.0000000000000000     
  -1.2195318966087878E-002   9.2292355808106952E-003   0.0000000000000000     
  -7.3415195499711757E-003   7.4201921288823839E-003   0.0000000000000000     
  -9.2309646328021973E-003   1.0186508448516830E-002   0.0000000000000000     
  -1.1129814995852081E-002   1.3233483318510453E-002   0.0000000000000000     
  -1.3038070639120821E-002   1.6561116738863246E-002   0.0000000000000000     
  -1.4955731562608425E-002   2.0169408709575218E-002   0.0000000000000000     
  -8.4289174146114018E-003   7.7243152627315776E-003   0.0000000000000000     
  -1.0590790566652682E-002   1.0558186401814959E-002   0.0000000000000000     
  -1.2761273044745667E-002   1.3661309687437069E-002   0.0000000000000000     
  -1.4940364848890353E-002   1.7033685119597908E-002   0.0000000000000000     
  -1.7128065979086740E-002   2.0675312698297473E-002   0.0000000000000000     
  -9.6003499388442586E-003   8.1271968826693609E-003   0.0000000000000000     
  -1.2076853803973551E-002   1.1046301534190912E-002   0.0000000000000000     
  -1.4546315614692086E-002   1.4212548786728682E-002   0.0000000000000000     
  -1.7008735370999863E-002   1.7625938640282671E-002   0.0000000000000000     
  -1.9464113072896892E-002   2.1286471094852880E-002   0.0000000000000000     
  -1.0855817122669755E-002   8.6288369886957320E-003   0.0000000000000000     
  -1.3689154344764804E-002   1.1650853845644692E-002   0.0000000000000000     
  -1.6484942705691338E-002   1.4887200616385293E-002   0.0000000000000000     
  -1.9243182205449360E-002   1.8337877300917543E-002   0.0000000000000000     
  -2.1963872844038865E-002   2.2002883899241439E-002   0.0000000000000000     
  -1.2195318966087878E-002   9.2292355808106952E-003   0.0000000000000000     
  -1.5427692189026438E-002   1.2371843336176294E-002   0.0000000000000000     
  -1.8577154317743427E-002   1.5685265176406903E-002   0.0000000000000000     
  -2.1643705352238835E-002   1.9169501101502520E-002   0.0000000000000000     
  -2.4627345292512679E-002   2.2824551111463150E-002   0.0000000000000000     
  -1.4955731562608425E-002   2.0169408709575218E-002   0.0000000000000000     
  -1.6857436804060637E-002   2.4029715761352124E-002   0.0000000000000000     
  -1.8717825401223191E-002   2.8113394424899723E-002   0.0000000000000000     
  -2.0536897354096091E-002   3.2420444700218029E-002   0.0000000000000000     
  -2.2314652662679343E-002   3.6950866587307028E-002   0.0000000000000000     
  -1.7128065979086740E-002   2.0675312698297473E-002   0.0000000000000000     
  -1.9293103440361593E-002   2.4558479246409845E-002   0.0000000000000000     
  -2.1404204237741687E-002   2.8655471586809093E-002   0.0000000000000000     
  -2.3461368371227011E-002   3.2966289719495209E-002   0.0000000000000000     
  -2.5464595840817575E-002   3.7490933644468219E-002   0.0000000000000000     
  -1.9464113072896892E-002   2.1286471094852880E-002   0.0000000000000000     
  -2.1884118291594083E-002   2.5175305126061094E-002   0.0000000000000000     
  -2.4240420598302389E-002   2.9273599709529100E-002   0.0000000000000000     
  -2.6533019993021805E-002   3.3581354845256893E-002   0.0000000000000000     
  -2.8761916475752335E-002   3.8098570533244482E-002   0.0000000000000000     
  -2.1963872844038865E-002   2.2002883899241439E-002   0.0000000000000000     
  -2.4630481357758104E-002   2.5880193400305875E-002   0.0000000000000000     
  -2.7226474482905303E-002   2.9967778793059761E-002   0.0000000000000000     
  -2.9751852219480474E-002   3.4265640077503073E-002   0.0000000000000000     
  -3.2206614567483624E-002   3.8773777253635830E-002   0.0000000000000000     
  -2.4627345292512679E-002   2.2824551111463150E-002   0.0000000000000000     
  -2.7532192638853641E-002   2.6673144069144193E-002   0.0000000000000000     
  -3.0362365891550426E-002   3.0738008837401062E-002   0.0000000000000000     
  -3.3117865050603018E-002   3.5019145416233750E-002   0.0000000000000000     
  -3.5798690116011431E-002   3.9516553805642271E-002   0.0000000000000000     
  -2.2314652662679343E-002   3.6950866587307028E-002   0.0000000000000000     
  -2.4048570989757864E-002   4.1696243073567750E-002   0.0000000000000000     
  -2.5736131998116567E-002   4.6648157146401213E-002   0.0000000000000000     
  -2.7377335687755442E-002   5.1806608805807404E-002   0.0000000000000000     
  -2.8972182058674509E-002   5.7171598051786329E-002   0.0000000000000000     
  -2.5464595840817575E-002   3.7490933644468219E-002   0.0000000000000000     
  -2.7414855091087861E-002   4.2225588119792129E-002   0.0000000000000000     
  -2.9313114566612355E-002   4.7166437903531019E-002   0.0000000000000000     
  -3.1159374267391057E-002   5.2313482995684876E-002   0.0000000000000000     
  -3.2953634193423967E-002   5.7666723396253679E-002   0.0000000000000000     
  -2.8761916475752335E-002   3.8098570533244482E-002   0.0000000000000000     
  -3.0929683258143530E-002   4.2822761943117349E-002   0.0000000000000000     
  -3.3038893551844951E-002   4.7751444244500986E-002   0.0000000000000000     
  -3.5089547356856605E-002   5.2884617437395393E-002   0.0000000000000000     
  -3.7081644673178475E-002   5.8222281521800569E-002   0.0000000000000000     
  -3.2206614567483624E-002   3.8773777253635830E-002   0.0000000000000000     
  -3.4593055490924868E-002   4.3487764543543389E-002   0.0000000000000000     
  -3.6913468953814352E-002   4.8403176169311106E-002   0.0000000000000000     
  -3.9167854956152076E-002   5.3520012130938995E-002   0.0000000000000000     
  -4.1356213497938055E-002   5.8838272428427041E-002   0.0000000000000000     
  -3.5798690116011431E-002   3.9516553805642271E-002   0.0000000000000000     
  -3.8404971789431877E-002   4.4220595921070256E-002   0.0000000000000000     
  -4.0936840772520570E-002   4.9121633677961386E-002   0.0000000000000000     
  -4.3394297065277497E-002   5.4219667076315647E-002   0.0000000000000000     
  -4.5777340667702671E-002   5.9514696116133040E-002   0.0000000000000000     
  -2.8972182058674509E-002   5.7171598051786329E-002   0.0000000000000000     
  -3.0518860834213096E-002   6.2730362005825407E-002   0.0000000000000000     
  -3.2015561737710557E-002   6.8470137789411981E-002   0.0000000000000000     
  -3.3462284769166892E-002   7.4390925402546090E-002   0.0000000000000000     
  -3.4859029928582079E-002   8.0492724845227737E-002   0.0000000000000000     
  -3.2953634193423967E-002   5.7666723396253679E-002   0.0000000000000000     
  -3.4693465636841947E-002   6.3212961750553742E-002   0.0000000000000000     
  -3.6376439889775875E-002   6.8939000703901326E-002   0.0000000000000000     
  -3.8002556952225715E-002   7.4844840256296480E-002   0.0000000000000000     
  -3.9571816824191502E-002   8.0930480407739133E-002   0.0000000000000000     
  -3.7081644673178475E-002   5.8222281521800569E-002   0.0000000000000000     
  -3.9012895447012509E-002   6.3751929300099514E-002   0.0000000000000000     
  -4.0881009624560607E-002   6.9461053574675150E-002   0.0000000000000000     
  -4.2685987205822770E-002   7.5349654345527525E-002   0.0000000000000000     
  -4.4427828190799011E-002   8.1417731612656627E-002   0.0000000000000000     
  -4.1356213497938055E-002   5.8838272428427041E-002   0.0000000000000000     
  -4.3477150264724776E-002   6.4347264654462707E-002   0.0000000000000000     
  -4.5529270942064770E-002   7.0036296401733436E-002   0.0000000000000000     
  -4.7512575529958044E-002   7.5905367670239296E-002   0.0000000000000000     
  -4.9427064028404605E-002   8.1954478459980218E-002   0.0000000000000000     
  -4.5777340667702671E-002   5.9514696116133040E-002   0.0000000000000000     
  -4.8086230089978747E-002   6.4998967813643310E-002   0.0000000000000000     
  -5.0321223842288376E-002   7.0664729185076214E-002   0.0000000000000000     
  -5.2482321924631550E-002   7.6511980230431736E-002   0.0000000000000000     
  -5.4569524337008277E-002   8.2540720949709906E-002   0.0000000000000000     
  -3.4859029928582079E-002   8.0492724845227737E-002   0.0000000000000000     
  -3.6205721663996895E-002   8.6764359876926295E-002   0.0000000000000000     
  -3.7502284423452076E-002   9.3194654257111209E-002   0.0000000000000000     
  -3.8748718206947627E-002   9.9783607985782452E-002   0.0000000000000000     
  -3.9945023014483556E-002  0.10653122106294004        0.0000000000000000     
  -3.9571816824191502E-002   8.0930480407739133E-002   0.0000000000000000     
  -4.1084778398038292E-002   8.7185385629959616E-002   0.0000000000000000     
  -4.2542000566131152E-002   9.3599020394688245E-002   0.0000000000000000     
  -4.3943483328470076E-002  0.10017138470192498        0.0000000000000000     
  -4.5289226685055084E-002  0.10690247855166986        0.0000000000000000     
  -4.4427828190799011E-002   8.1417731612656627E-002   0.0000000000000000     
  -4.6107402354342117E-002   8.7654775533952567E-002   0.0000000000000000     
  -4.7725579471304874E-002   9.4050276267305513E-002   0.0000000000000000     
  -4.9282359541687283E-002  0.10060423381271542        0.0000000000000000     
  -5.0777742565489364E-002  0.10731664817018234        0.0000000000000000     
  -4.9427064028404605E-002   8.1954478459980218E-002   0.0000000000000000     
  -5.1273593532908356E-002   8.8172529588905132E-002   0.0000000000000000     
  -5.3053021138973248E-002   9.4548421874962998E-002   0.0000000000000000     
  -5.4765346846599262E-002  0.10108215531815376        0.0000000000000000     
  -5.6410570655786411E-002  0.10777372991847745        0.0000000000000000     
  -5.4569524337008277E-002   8.2540720949709906E-002   0.0000000000000000     
  -5.6583351933737029E-002   8.8738647794817327E-002   0.0000000000000000     
  -5.8524325569136268E-002   9.5093457217660673E-002   0.0000000000000000     
  -6.0392445243205993E-002  0.10160514921823999        0.0000000000000000     
  -6.2187710955946218E-002  0.10827372379655519        0.0000000000000000     
  -3.9945023014483556E-002  0.10653122106294004        0.0000000000000000     
  -4.1091238849851122E-002  0.11342511312912527        0.0000000000000000     
  -4.2187405716841590E-002  0.12045290382487951        0.0000000000000000     
  -4.3233523615454995E-002  0.12761459315020277        0.0000000000000000     
  -4.4229592545691289E-002  0.13491018110509501        0.0000000000000000     
  -4.5289226685055084E-002  0.10690247855166986        0.0000000000000000     
  -4.6579085190725074E-002  0.11377963368413986        0.0000000000000000     
  -4.7812913400318985E-002  0.12079018183955198        0.0000000000000000     
  -4.8990711313836803E-002  0.12793412301790621        0.0000000000000000     
  -5.0112478931278542E-002  0.13521145721920258        0.0000000000000000     
  -5.0777742565489364E-002  0.10731664817018234        0.0000000000000000     
  -5.2211444992953458E-002  0.11417491231016054        0.0000000000000000     
  -5.3583183274321947E-002  0.12116641920310435        0.0000000000000000     
  -5.4892957409594816E-002  0.12829116884901376        0.0000000000000000     
  -5.6140767398772072E-002  0.13554916124788879        0.0000000000000000     
  -5.6410570655786411E-002  0.10777372991847745        0.0000000000000000     
  -5.7988318256536296E-002  0.11461094900718732        0.0000000000000000     
  -5.9498215338850496E-002  0.12158161591553666        0.0000000000000000     
  -6.0940261902729026E-002  0.12868573064352545        0.0000000000000000     
  -6.2314457948171878E-002  0.13592329319115365        0.0000000000000000     
  -6.2187710955946218E-002  0.10827372379655519        0.0000000000000000     
  -6.3909704981473567E-002  0.11508774377522019        0.0000000000000000     
  -6.5558009593904620E-002  0.12203577197684885        0.0000000000000000     
  -6.7132624793239420E-002  0.12911780840144121        0.0000000000000000     
  -6.8633550579477953E-002  0.13633385304899720        0.0000000000000000     
  -4.4229592545691289E-002  0.13491018110509501        0.0000000000000000     
  -4.5174404704241708E-002  0.14232920339563743        0.0000000000000000     
  -4.6066752287797406E-002  0.14986119572791132        0.0000000000000000     
  -4.6906635296358426E-002  0.15750615810191659        0.0000000000000000     
  -4.7694053729924732E-002  0.16526409051765328        0.0000000000000000     
  -5.0112478931278542E-002  0.13521145721920258        0.0000000000000000     
  -5.1176754904048327E-002  0.14261172930568997        0.0000000000000000     
  -5.2182077883550261E-002  0.15012448413961743        0.0000000000000000     
  -5.3128447869784365E-002  0.15774972172098481        0.0000000000000000     
  -5.4015864862750618E-002  0.16548744204979224        0.0000000000000000     
  -5.6140767398772072E-002  0.13554916124788879        0.0000000000000000     
  -5.7325161780658100E-002  0.14292848113662154        0.0000000000000000     
  -5.8444689094057325E-002  0.15041721325210411        0.0000000000000000     
  -5.9499349338969727E-002  0.15801535759433652        0.0000000000000000     
  -6.0489142515395306E-002  0.16572291416331875        0.0000000000000000     
  -6.2314457948171878E-002  0.13592329319115365        0.0000000000000000     
  -6.3619625334071062E-002  0.14327945888843208        0.0000000000000000     
  -6.4854585919318614E-002  0.15073938306537144        0.0000000000000000     
  -6.6019339703914520E-002  0.15830306572197164        0.0000000000000000     
  -6.7113886687858795E-002  0.16597050685823281        0.0000000000000000     
  -6.8633550579477953E-002  0.13633385304899720        0.0000000000000000     
  -7.0060145564287191E-002  0.14366466256112165        0.0000000000000000     
  -7.1411768359334118E-002  0.15109099357941935        0.0000000000000000     
  -7.2688418964618751E-002  0.15861284610389026        0.0000000000000000     
  -7.3890097380141073E-002  0.16623022013453445        0.0000000000000000     
   0.0000000000000000        0.0000000000000000        0.0000000000000000     
  -2.8800804701264384E-003   1.7448900319048575E-003   0.0000000000000000     
  -5.8726604545165642E-003   3.8647259726749253E-003   0.0000000000000000     
  -8.9777399531703779E-003   6.3595078223102047E-003   0.0000000000000000     
  -1.2195318966087878E-002   9.2292355808106952E-003   0.0000000000000000     
   0.0000000000000000        0.0000000000000000        0.0000000000000000     
  -3.2832115678629635E-003   1.9993990576285636E-003   0.0000000000000000     
  -6.6769507217086625E-003   4.3310284557357354E-003   0.0000000000000000     
  -1.0181217461537100E-002   6.9948881943215158E-003   0.0000000000000000     
  -1.3796011787348269E-002   9.9909782733859052E-003   0.0000000000000000     
   0.0000000000000000        0.0000000000000000        0.0000000000000000     
  -3.9535740283340092E-003   2.4251664462354734E-003   0.0000000000000000     
  -7.9106073552287735E-003   5.0629970417794675E-003   0.0000000000000000     
  -1.1871099980684289E-002   7.9134917866319834E-003   0.0000000000000000     
  -1.5835051904700557E-002   1.0976650680793020E-002   0.0000000000000000     
   0.0000000000000000        0.0000000000000000        0.0000000000000000     
  -4.8911678515395777E-003   3.0221921977255871E-003   0.0000000000000000     
  -9.5736303550768911E-003   6.0606317308061243E-003   0.0000000000000000     
  -1.4047387510611947E-002   9.1153185992416084E-003   0.0000000000000000     
  -1.8312439318144736E-002   1.2186252803032042E-002   0.0000000000000000     
   0.0000000000000000        0.0000000000000000        0.0000000000000000     
  -6.0959930374796653E-003   3.7904763120989045E-003   0.0000000000000000     
  -1.1666019721253022E-002   7.3239325228157005E-003   0.0000000000000000     
  -1.6710080051320075E-002   1.0600368632150390E-002   0.0000000000000000     
  -2.1228174027680815E-002   1.3619784640102970E-002   0.0000000000000000     
  -1.2195318966087878E-002   9.2292355808106952E-003   0.0000000000000000     
  -1.5427692189026438E-002   1.2371843336176294E-002   0.0000000000000000     
  -1.8577154317743427E-002   1.5685265176406903E-002   0.0000000000000000     
  -2.1643705352238835E-002   1.9169501101502520E-002   0.0000000000000000     
  -2.4627345292512679E-002   2.2824551111463150E-002   0.0000000000000000     
  -1.3796011787348269E-002   9.9909782733859052E-003   0.0000000000000000     
  -1.7404279260299693E-002   1.3221309156484558E-002   0.0000000000000000     
  -2.0888965441548894E-002   1.6587891307173142E-002   0.0000000000000000     
  -2.4250070331095875E-002   2.0090724725451647E-002   0.0000000000000000     
  -2.7487593928940620E-002   2.3729809411320080E-002   0.0000000000000000     
  -1.5835051904700557E-002   1.0976650680793020E-002   0.0000000000000000     
  -1.9730727482125818E-002   1.4211290457268322E-002   0.0000000000000000     
  -2.3486391067808310E-002   1.7576227849063635E-002   0.0000000000000000     
  -2.7102042661748031E-002   2.1071462856178960E-002   0.0000000000000000     
  -3.0577682263944993E-002   2.4696995478614293E-002   0.0000000000000000     
  -1.8312439318144736E-002   1.2186252803032042E-002   0.0000000000000000     
  -2.2407036854504802E-002   1.5341787238527582E-002   0.0000000000000000     
  -2.6369431196521659E-002   1.8650274802078384E-002   0.0000000000000000     
  -3.0199622344195320E-002   2.2111715493684455E-002   0.0000000000000000     
  -3.3897610297525776E-002   2.5726109313345794E-002   0.0000000000000000     
  -2.1228174027680815E-002   1.3619784640102970E-002   0.0000000000000000     
  -2.5433207377436647E-002   1.6612799500262340E-002   0.0000000000000000     
  -2.9538085827688951E-002   1.9810032166217399E-002   0.0000000000000000     
  -3.3542809378437739E-002   2.3211482637968146E-002   0.0000000000000000     
  -3.7447378029683002E-002   2.6817150915514579E-002   0.0000000000000000     
  -2.4627345292512679E-002   2.2824551111463150E-002   0.0000000000000000     
  -2.7532192638853641E-002   2.6673144069144193E-002   0.0000000000000000     
  -3.0362365891550426E-002   3.0738008837401062E-002   0.0000000000000000     
  -3.3117865050603018E-002   3.5019145416233750E-002   0.0000000000000000     
  -3.5798690116011431E-002   3.9516553805642271E-002   0.0000000000000000     
  -2.7487593928940620E-002   2.3729809411320080E-002   0.0000000000000000     
  -3.0624465162527897E-002   2.7547701953942010E-002   0.0000000000000000     
  -3.3683612959302459E-002   3.1586958942481008E-002   0.0000000000000000     
  -3.6665037319264293E-002   3.5847580376937090E-002   0.0000000000000000     
  -3.9568738242413408E-002   4.0329566257310247E-002   0.0000000000000000     
  -3.0577682263944993E-002   2.4696995478614293E-002   0.0000000000000000     
  -3.3942511956428056E-002   2.8497411876065293E-002   0.0000000000000000     
  -3.7225733821226098E-002   3.2517298208227616E-002   0.0000000000000000     
  -4.0427347858339145E-002   3.6756654475101264E-002   0.0000000000000000     
  -4.3547354067767170E-002   4.1215480676686234E-002   0.0000000000000000     
  -3.3897610297525776E-002   2.5726109313345794E-002   0.0000000000000000     
  -3.7486333020554111E-002   2.9522273835514042E-002   0.0000000000000000     
  -4.0988728477321379E-002   3.3529026634640871E-002   0.0000000000000000     
  -4.4404796667827574E-002   3.7746367710726279E-002   0.0000000000000000     
  -4.7734537592072711E-002   4.2174297063770246E-002   0.0000000000000000     
  -3.7447378029683002E-002   2.6817150915514579E-002   0.0000000000000000     
  -4.1255928354906067E-002   3.0622287832288264E-002   0.0000000000000000     
  -4.4972596927588267E-002   3.4622144221720774E-002   0.0000000000000000     
  -4.8597383747729588E-002   3.8816720083812102E-002   0.0000000000000000     
  -5.2130288815330036E-002   4.3206015418562255E-002   0.0000000000000000     
  -3.5798690116011431E-002   3.9516553805642271E-002   0.0000000000000000     
  -3.8404971789431877E-002   4.4220595921070256E-002   0.0000000000000000     
  -4.0936840772520570E-002   4.9121633677961386E-002   0.0000000000000000     
  -4.3394297065277497E-002   5.4219667076315647E-002   0.0000000000000000     
  -4.5777340667702671E-002   5.9514696116133040E-002   0.0000000000000000     
  -3.9568738242413408E-002   4.0329566257310247E-002   0.0000000000000000     
  -4.2392381725057708E-002   4.5019064489973795E-002   0.0000000000000000     
  -4.5133633763505106E-002   4.9902222981301071E-002   0.0000000000000000     
  -4.7792494357755601E-002   5.4979041731292068E-002   0.0000000000000000     
  -5.0368963507809193E-002   6.0249520739946771E-002   0.0000000000000000     
  -4.3547354067767170E-002   4.1215480676686234E-002   0.0000000000000000     
  -4.6582234869195514E-002   4.5880978664529851E-002   0.0000000000000000     
  -4.9528472682309491E-002   5.0740350290179419E-002   0.0000000000000000     
  -5.2386067507109134E-002   5.5793595553634938E-002   0.0000000000000000     
  -5.5155019343594430E-002   6.1040714454896422E-002   0.0000000000000000     
  -4.7734537592072711E-002   4.2174297063770246E-002   0.0000000000000000     
  -5.0974531221845268E-002   4.6806338444738423E-002   0.0000000000000000     
  -5.4121357528933725E-002   5.1636015604596436E-002   0.0000000000000000     
  -5.7175016513338096E-002   5.6663328543344299E-002   0.0000000000000000     
  -6.0135508175058396E-002   6.1888277260981985E-002   0.0000000000000000     
  -5.2130288815330036E-002   4.3206015418562255E-002   0.0000000000000000     
  -5.5569270783006990E-002   4.7795143830599504E-002   0.0000000000000000     
  -5.8912288303377816E-002   5.2589218924552122E-002   0.0000000000000000     
  -6.2159341376442509E-002   5.7588240700420103E-002   0.0000000000000000     
  -6.5310430002201075E-002   6.2792209158203452E-002   0.0000000000000000     
  -4.5777340667702671E-002   5.9514696116133040E-002   0.0000000000000000     
  -4.8086230089978747E-002   6.4998967813643310E-002   0.0000000000000000     
  -5.0321223842288376E-002   7.0664729185076214E-002   0.0000000000000000     
  -5.2482321924631550E-002   7.6511980230431736E-002   0.0000000000000000     
  -5.4569524337008277E-002   8.2540720949709906E-002   0.0000000000000000     
  -5.0368963507809193E-002   6.0249520739946771E-002   0.0000000000000000     
  -5.2864877163360295E-002   6.5708150600595358E-002   0.0000000000000000     
  -5.5282071274103381E-002   7.1349421906567914E-002   0.0000000000000000     
  -5.7620545840038409E-002   7.7173334657864467E-002   0.0000000000000000     
  -5.9880300861165414E-002   8.3179888854485032E-002   0.0000000000000000     
  -5.5155019343594430E-002   6.1040714454896422E-002   0.0000000000000000     
  -5.7837833725455326E-002   6.6475924838272804E-002   0.0000000000000000     
  -6.0437016186381795E-002   7.2093444548073010E-002   0.0000000000000000     
  -6.2952566726373824E-002   7.7893273584297082E-002   0.0000000000000000     
  -6.5384485345431412E-002   8.3875411946944978E-002   0.0000000000000000     
  -6.0135508175058396E-002   6.1888277260981985E-002   0.0000000000000000     
  -6.3005099776263812E-002   6.7302290526675676E-002   0.0000000000000000     
  -6.5786058579123605E-002   7.2896797109591543E-002   0.0000000000000000     
  -6.8478384583637766E-002   7.8671797009729538E-002   0.0000000000000000     
  -7.1082077789806283E-002   8.4627290227089702E-002   0.0000000000000000     
  -6.5310430002201075E-002   6.2792209158203452E-002   0.0000000000000000     
  -6.8366675315785760E-002   6.8187247665803960E-002   0.0000000000000000     
  -7.1329198452328824E-002   7.3759479591123431E-002   0.0000000000000000     
  -7.4197999411830209E-002   7.9508904934161864E-002   0.0000000000000000     
  -7.6973078194289987E-002   8.5435523694919260E-002   0.0000000000000000     
  -5.4569524337008277E-002   8.2540720949709906E-002   0.0000000000000000     
  -5.6583351933737029E-002   8.8738647794817327E-002   0.0000000000000000     
  -5.8524325569136268E-002   9.5093457217660673E-002   0.0000000000000000     
  -6.0392445243205993E-002  0.10160514921823999        0.0000000000000000     
  -6.2187710955946218E-002  0.10827372379655519        0.0000000000000000     
  -5.9880300861165414E-002   8.3179888854485032E-002   0.0000000000000000     
  -6.2061367196038462E-002   8.9355857731487215E-002   0.0000000000000000     
  -6.4163775703211676E-002   9.5688014523928652E-002   0.0000000000000000     
  -6.6187526382685005E-002  0.10217635923180939        0.0000000000000000     
  -6.8132619234458486E-002  0.10882089185512937        0.0000000000000000     
  -6.5384485345431412E-002   8.3875411946944978E-002   0.0000000000000000     
  -6.7732328959023036E-002   9.0026886978712875E-002   0.0000000000000000     
  -6.9995654482617159E-002   9.6334726022297007E-002   0.0000000000000000     
  -7.2174461916213767E-002  0.10279892907769733        0.0000000000000000     
  -7.4268751259812860E-002  0.10941949614491384        0.0000000000000000     
  -7.1082077789806283E-002   8.4627290227089702E-002   0.0000000000000000     
  -7.3596237222690750E-002   9.0751735536494335E-002   0.0000000000000000     
  -7.6019961907352746E-002   9.7033591712765696E-002   0.0000000000000000     
  -7.8353251843792313E-002  0.10347285875590377        0.0000000000000000     
  -8.0596107032009395E-002  0.11006953666590859        0.0000000000000000     
  -7.6973078194289987E-002   8.5435523694919260E-002   0.0000000000000000     
  -7.9653091987041583E-002   9.1530403404831553E-002   0.0000000000000000     
  -8.2236697977418449E-002   9.7784611595334733E-002   0.0000000000000000     
  -8.4723896165420601E-002  0.10419814826642874        0.0000000000000000     
  -8.7114686551048065E-002  0.11077101341811363        0.0000000000000000     
  -6.2187710955946218E-002  0.10827372379655519        0.0000000000000000     
  -6.3909704981473567E-002  0.11508774377522019        0.0000000000000000     
  -6.5558009593904620E-002  0.12203577197684885        0.0000000000000000     
  -6.7132624793239420E-002  0.12911780840144121        0.0000000000000000     
  -6.8633550579477953E-002  0.13633385304899720        0.0000000000000000     
  -6.8132619234458486E-002  0.10882089185512937        0.0000000000000000     
  -6.9998677735680567E-002  0.11561076533359510        0.0000000000000000     
  -7.1785325363499755E-002  0.12253513260691307        0.0000000000000000     
  -7.3492562117916035E-002  0.12959399367508329        0.0000000000000000     
  -7.5120387998929394E-002  0.13678734853810573        0.0000000000000000     
  -7.4268751259812860E-002  0.10941949614491384        0.0000000000000000     
  -7.6278309087072657E-002  0.11618548240164805        0.0000000000000000     
  -7.8202921971651337E-002  0.12308594302560140        0.0000000000000000     
  -8.0042589913548901E-002  0.13012087801677394        0.0000000000000000     
  -8.1797312912765319E-002  0.13729028737516563        0.0000000000000000     
  -8.0596107032009395E-002  0.11006953666590859        0.0000000000000000     
  -8.2748599035649822E-002  0.11681189497937901        0.0000000000000000     
  -8.4810799418359326E-002  0.12368820323291387        0.0000000000000000     
  -8.6782708180137974E-002  0.13069846142651317        0.0000000000000000     
  -8.8664325320985740E-002  0.13784266956017693        0.0000000000000000     
  -8.7114686551048065E-002  0.11077101341811363        0.0000000000000000     
  -8.9409547581412036E-002  0.11749000306678799        0.0000000000000000     
  -9.1608957703623789E-002  0.12434191322885042        0.0000000000000000     
  -9.3712916917683325E-002  0.13132674390430096        0.0000000000000000     
  -9.5721425223590617E-002  0.13844449509313961        0.0000000000000000     
  -6.8633550579477953E-002  0.13633385304899720        0.0000000000000000     
  -7.0060145564287191E-002  0.14366466256112165        0.0000000000000000     
  -7.1411768359334118E-002  0.15109099357941935        0.0000000000000000     
  -7.2688418964618751E-002  0.15861284610389026        0.0000000000000000     
  -7.3890097380141073E-002  0.16623022013453445        0.0000000000000000     
  -7.5120387998929394E-002  0.13678734853810573        0.0000000000000000     
  -7.6669059794895994E-002  0.14409399253756341        0.0000000000000000     
  -7.8138834294171941E-002  0.15149272101503933        0.0000000000000000     
  -7.9529711496757263E-002  0.15898353397053350        0.0000000000000000     
  -8.0841691402651975E-002  0.16656643140404589        0.0000000000000000     
  -8.1797312912765319E-002  0.13729028737516563        0.0000000000000000     
  -8.3468705349486985E-002  0.14457734920063059        0.0000000000000000     
  -8.5058381603900210E-002  0.15196524159302283        0.0000000000000000     
  -8.6566341676004979E-002  0.15945396455234245        0.0000000000000000     
  -8.7992585565801321E-002  0.16704351807858936        0.0000000000000000     
  -8.8664325320985740E-002  0.13784266956017693        0.0000000000000000     
  -9.0459082228060178E-002  0.14511473255032314        0.0000000000000000     
  -9.2170410288518898E-002  0.15250855531336988        0.0000000000000000     
  -9.3798309502361885E-002  0.16002413784931710        0.0000000000000000     
  -9.5342779869589125E-002  0.16766148015816482        0.0000000000000000     
  -9.5721425223590617E-002  0.13844449509313961        0.0000000000000000     
  -9.7640190430615559E-002  0.14570614258664114        0.0000000000000000     
  -9.9474920348028004E-002  0.15312266217608045        0.0000000000000000     
 -0.10122561497582792       0.16069405386145752        0.0000000000000000     
 -0.10289227431401535       0.16842031764277235        0.0000000000000000     
 </DataArray>
 <DataArray  type="Float64" Name="stress" NumberOfComponents="3" format="ascii">
   13416741023.670586        4025022307.1011758        2894020698.6744308     
   11766510850.589951        1890439727.2071679        1715834137.1810486     
   10313571911.490194        413494593.91609383        810737435.58245349     
   9057924206.3713169       -405813092.77204704        178730593.87864414     
   7999567735.2333202       -567483332.85725832       -180186387.93037769     
   10539999350.614082        3161999805.1842246        2225773683.7245560     
   9667555933.5467129        1589569308.8308423        1446724697.2256405     
   8943759839.7751846        512629890.13026667        863155951.56353724     
   8368611069.2994995       -68818450.917504311        475067446.73824769     
   7942109622.1196556       -154775714.31246805        282459182.74976909     
   8337957371.2110043        2501387211.3633013        1712369997.4704320     
   8021558941.4198322        1424586267.9294233        1275707356.8334391     
   7805163924.2394638        681130033.19822454        956915337.97528374     
   7688772319.6699018        271018507.16970682        755993940.89596748     
   7672384127.7111397        194251689.84386587        672943165.59548938     
   6810615085.4613533        2043184525.6384060        1353809639.9120593     
   6828519874.2093096        1395490604.5029116        1202782116.0044441     
   6897784164.8830328        918995023.11997008        1092015594.8176937     
   7018407957.4825220        613697781.48958135        1021510076.3518069     
   7190391252.0077753        479598879.61174560        991265560.60678375     
   5957972493.3651304        1787391748.0095391        1150092611.0494378     
   6088438731.9151468        1502282318.5513079        1227948974.7386560     
   6221620561.7058907        1226224859.8955028        1268456722.0907643     
   6357517982.7373629        959219372.04212344        1271615853.1057632     
   6496130995.0095615        701265854.99117017        1237426367.7836514     
   7999567735.2333202       -567483332.85725832       -180186387.93037769     
   7917520666.9318199       -199982203.72054148       -78260185.958982110     
   7793970418.5204124        29174991.716485500       -8950385.3861858752     
   7628916989.9990940        119988253.45381689        27743013.788015492     
   7422360381.3678722        72457581.491463661        31820011.563613668     
   7942109622.1196556       -154775714.31246805        282459182.74976909     
   7739645713.0675745        16445032.634672642        281184776.76067525     
   7513787282.1946735        109684040.17907333        265193905.94425389     
   7264534329.5009451        124941308.32072639        234486570.30050084     
   6991886854.9863977        62216837.059634686        189062769.82941952     
   7672384127.7111397        194251689.84386587        672943165.59548938     
   7400646053.8263931        184534857.37681055        589594919.64983797     
   7123622116.4099092        157198479.80395842        509430145.44812578     
   6841312315.4616833        112242557.12530327        432448842.99035257     
   6553716650.9817181        49667089.340850830        358651012.27651852     
   7190391252.0077753        479598879.61174560        991265560.60678375     
   6900521689.2082729        304287270.50586438        846970242.70850480     
   6623474921.1661167        171718310.59113193        723758333.12543464     
   6359250947.8813019        81891999.867543221        621629831.85757244     
   6107849769.3538322        34808338.335102558        540584738.90491819     
   6496130995.0095615        701265854.99117017        1237426367.7836514     
   6239272619.2132168        375702272.02183890        1053310745.9366765     
   6013345696.4632959        153243532.54059744        908178468.97617829     
   5818350226.7598038        33889636.547448874        802029536.90215743     
   5654286210.1027393        17640584.042390823        734863949.71461320     
   7422360381.3678722        72457581.491463661        31820011.563613668     
   7218635486.9819813       -18582183.560174465        14779704.840248367     
   7027166339.2799196       -68769459.665711403        2149497.9047613386     
   6847952938.2616882       -78104246.825150967       -6070609.2428434147     
   6680995283.9272881       -46586545.038485527       -9880616.6025657319     
   6991886854.9863977        62216837.059634686        189062769.82941952     
   6808251843.1381388        2594634.9547410011        180738802.26875597     
   6632449944.5544224       -30917189.601685524        176208283.88452899     
   6464481159.2352524       -38318636.609630346        175471214.67673302     
   6304345487.1806183       -19609706.069103479        178527594.64537302     
   6553716650.9817181        49667089.340850830        358651012.27651852     
   6388409662.7812462        20933892.515741348        353883644.88939244     
   6226513154.4260254        3568961.8414773941        352293076.06725192     
   6068027125.9160614       -2427702.6819367409        353879305.81009966     
   5912951577.2513504        2943898.9454939365        358642334.11793435     
   6107849769.3538322        34808338.335102558        540584738.90491819     
   5959108945.9112949        36435589.122826815        534214232.70215607     
   5809355968.8947239        34688994.663766861        530403874.45293397     
   5658590838.3041182        29568554.957931995        529153664.15725398     
   5506813554.1394777        21074270.005314350        530463601.81511235     
   5654286210.1027393        17640584.042390823        734863949.71461320     
   5520349692.5282888        49099724.775992870        721730565.70704854     
   5380978387.9605169        62442908.865186691        710540679.04157591     
   5236172296.3994226        57670136.309974909        701294289.71819937     
   5085931417.8450069        34781407.110355139        693991397.73691237     
   6680995283.9272881       -46586545.038485527       -9880616.6025657319     
   6508676122.9393044       -6811285.4115483761       -3219258.4060534243     
   6330606276.6980572        13795023.371176958        4869929.7728560092     
   6146785745.2035389        15232381.309659719        14386947.934153922     
   5957214528.4557562       -2499211.5960643291        25331796.077847037     
   6304345487.1806183       -19609706.069103479        178527594.64537302     
   6131942386.3700762        1984156.4587955475        175267431.51582852     
   5956034849.6229973        11896565.864921570        174710576.33246171     
   5776622876.9393921        10127522.149280548        176857029.09527916     
   5593706468.3192520       -3322974.6881322861        181706789.80428293     
   5912951577.2513504        2943898.9454939365        358642334.11793435     
   5744108759.3719330        7449631.2004578114        348081273.86517978     
   5574007754.8727236        7761408.0561118126        341498999.52239901     
   5402648563.7537174        3879229.5124404430        338895511.08959979     
   5230031186.0149136       -4196904.4305477142        340270808.56677616     
   5506813554.1394777        21074270.005314350        530463601.81511235     
   5345175241.9448833        9585138.8134489059        515222268.64201200     
   5184524992.4472265        1389549.9447238445        505235199.34267908     
   5024862805.6465130       -3512496.6008644104        500502393.91711980     
   4866188681.5427427       -5121000.8233106136        501023852.36532646     
   5085931417.8450069        34781407.110355139        693991397.73691237     
   4935141834.0889244        8390679.2977733612        676690415.84632254     
   4787586562.3465166       -7219008.4692184925        665919175.79329526     
   4643265602.6177864       -12047656.190614462        661677677.57783139     
   4502178954.9027348       -6095263.8664298058        663965921.19992483     
   5957214528.4557562       -2499211.5960643291        25331796.077847037     
   5770778090.1170664       -24132072.745281458        18391334.857751008     
   5586900006.1967821       -37237085.833149910        15241861.454908287     
   5405580276.6948929       -41814250.859701157        15883375.869323676     
   5226818901.6114082       -37863567.824904919        20315878.100999415     
   5593706468.3192520       -3322974.6881322861        181706789.80428293     
   5419414740.1083603       -17045492.390550375        177111972.29445210     
   5246742112.6772194       -25371007.493804932        176242787.80871844     
   5075688586.0258331       -28299519.997871399        179099236.34708002     
   4906254160.1541939       -25831029.902771473        185681317.90953368     
   5230031186.0149136       -4196904.4305477142        340270808.56677616     
   5067697439.9513569       -10065097.080308914        336925838.85545850     
   4906043541.0289049       -13667132.593059301        337241147.37506872     
   4745069489.2475529       -15003010.968794823        341216734.12561911     
   4584775284.6073074       -14072732.207533360        348852599.10709804     
   4866188681.5427427       -5121000.8233106136        501023852.36532646     
   4715626189.6460629       -3190886.8145475388        497832934.54075205     
   4564804291.2518291       -2125461.1309514046        498236940.15395677     
   4413722986.3600597       -1924723.7724885941        502235869.20493633     
   4262382274.9707375       -2588674.7391932011        509829721.69368482     
   4502178954.9027348       -6095263.8664298058        663965921.19992483     
   4363200989.1924677        3577138.4067170620        659833259.35035324     
   4223024363.3460031        9254006.8925368786        659230166.14538896     
   4081649077.3633423        10935341.591040850        662156641.58504093     
   3939075131.2444906        8621142.5022301674        668612685.66929531     
   5226818901.6114082       -37863567.824904919        20315878.100999415     
   5042925646.0301104       -33831151.410911083        15667152.332041403     
   4857543023.4118700       -34763291.786722183        15450120.389836321     
   4670671033.7566729       -40659988.952388525        19664782.274380323     
   4482309677.0645475       -51521242.907826185        28311137.985667005     
   4906254160.1541939       -25831029.902771473        185681317.90953368     
   4733358265.7364645       -23368289.203035355        179275738.12255719     
   4559524165.8148689       -24032900.182849407        177260205.95332086     
   4384751860.3894243       -27824862.842174292        179634721.40183750     
   4209041349.4601202       -34744177.181007147        186399284.46809044     
   4584775284.6073074       -14072732.207533360        348852599.10709804     
   4422757762.1845522       -13215363.972669363        341333187.09070003     
   4260353195.7910342       -13648142.307019711        338162176.48304576     
   4097561585.4267483       -15371067.210601807        339339567.28413165     
   3934382931.0916929       -18384138.683404446        344865359.49396384     
   4262382274.9707375       -2588674.7391932011        509829721.69368482     
   4111124135.3743877       -3372375.7197577953        501839499.23647046     
   3960030113.3403549       -3609018.1592535973        498156031.97900319     
   3809100208.8686523       -3298602.0576548576        498779319.92126971     
   3658334421.9592695       -2441127.4149861336        503709363.06327951     
   3939075131.2444906        8621142.5022301674        668612685.66929531     
   3798457385.3059607        6160675.5556702614        660794674.55987716     
   3658554918.4628420        6084472.2604715824        657241772.44118977     
   3519367730.7151432        8392532.6166718006        657953979.31324220     
   3380895822.0628514        13084856.624237299        662931295.17603350     
   4482309677.0645475       -51521242.907826185        28311137.985667005     
   4295628287.1156750       -62906730.807492495        21542445.006904010     
   4109758314.3352785       -71587494.812253475        18514496.623134740     
   3924699758.7233605       -77563534.922074795        19227292.834354065     
   3740452620.2799039       -80834851.137034655        23680833.640559431     
   4209041349.4601202       -34744177.181007147        186399284.46809044     
   4033409603.1989541       -42316957.311982632        179973442.26191121     
   3858269626.0509658       -48250507.065733433        177426725.73542899     
   3683621418.0161242       -52544826.442311764        178759134.88865656     
   3509464979.0944490       -55199915.441657305        183970669.72159779     
   3934382931.0916929       -18384138.683404446        344865359.49396384     
   3770196203.0460110       -22025598.687317610        338409445.32915366     
   3606181596.0581679       -25093321.831772566        335971037.92877388     
   3442339110.1281729       -27587308.116729975        337550137.29281163     
   3278668745.2560220       -29507557.542201281        343146743.42126894     
   3658334421.9592695       -2441127.4149861336        503709363.06327951     
   3505988086.6568189       -2032654.9335379601        496850454.20864898     
   3353494224.3568959       -2115939.1103334427        494147433.20315820     
   3200852835.0595036       -2690979.9453603029        495600300.04679757     
   3048063918.7646379       -3757777.4386308193        501209054.73958224     
   3380895822.0628514        13084856.624237299        662931295.17603350     
   3240785254.0313911        17661873.949367523        655296468.90038276     
   3100207510.9471431        20681641.098543525        651955911.55858290     
   2959162592.8101101        22144158.071771264        652909623.15063500     
   2817650499.6202936        22049424.869058251        658157603.67653632     
   3740452620.2799039       -80834851.137034655        23680833.640559431     
   3568289508.4880261       -116886036.31915331        46234838.384693846     
   3371311632.0797291       -235653103.55597997        68828227.084841371     
   3149518991.0550418       -437136052.84744620        91460999.741016731     
   2902911585.4139609       -721334884.19356883        114133156.35320391     
   3509464979.0944490       -55199915.441657305        183970669.72159779     
   3341482497.8023295       -81196901.344529867        182547940.91468078     
   3156396763.3141804       -164204731.23417866        181981497.93329403     
   2954207775.6299944       -304223405.11059058        182271340.77742475     
   2734915534.7497735       -501252922.97381854        183417469.44705755     
   3278668745.2560220       -29507557.542201281        343146743.42126894     
   3117200899.8051085       -44750142.563347101        326744044.38708305     
   2946341312.5785193       -91298533.503404140        312014533.04790908     
   2766089983.5762568       -169152730.36235499        298958209.40374815     
   2576446912.7983270       -278312733.14023280        287575073.45459682     
   3048063918.7646379       -3757777.4386308193        501209054.73958224     
   2895444714.4963408       -7545759.9756432772        478823148.80186772     
   2741145279.8727417       -16934510.363681436        458927332.42867452     
   2585165614.8938355       -31924028.602744937        441521605.61998135     
   2427505719.5596075       -52514314.692835450        426605968.37579685     
   2817650499.6202936        22049424.869058251        658157603.67653632     
   2676213941.8760486        30416246.418619633        638785254.15906072     
   2540808665.1968522        58887338.185016155        622719896.07558739     
   2411434669.5827112        107462700.16827488        609961529.42612743     
   2288091955.0336380        176142332.36838675        600510154.21067607     
   5957972493.3651304        1787391748.0095391        1150092611.0494378     
   6088438731.9151468        1502282318.5513079        1227948974.7386560     
   6221620561.7058907        1226224859.8955028        1268456722.0907643     
   6357517982.7373629        959219372.04212344        1271615853.1057632     
   6496130995.0095615        701265854.99117017        1237426367.7836514     
   5434648422.6672802        1630394526.8001840        1033526100.3947818     
   5489916940.6240263        1372519329.5491281        1113906387.8087616     
   5547375890.4672289        1121945571.9195905        1167506068.2864494     
   5607025272.1968861        878673253.91157043        1194325141.8278439     
   5668865085.8129978        642702375.52506804        1194363608.4329476     
   4895261701.1127529        1468578510.3338261        936417297.46030653     
   4905526811.0499935        1246995839.0620747        1018708822.6857302     
   4917457193.5194168        1030964076.2309334        1084787750.3756788     
   4931052848.5210238        820483221.84040165        1134654080.5301526     
   4946313776.0548124        615553275.89048052        1168307813.1491520     
   4339812328.7015457        1301943698.6104636        858766202.24601185     
   4335268343.1930456        1125711847.0901470        942356279.36956131     
   4331864470.8624563        953280372.82953131        1020301768.3584535     
   4329600711.7097759        784649275.82861793        1092602669.2126884     
   4328477065.7350063        619818556.08740568        1159258981.9322655     
   3768300305.4336605        1130490091.6300981        800572814.75189793     
   3779141537.0531836        1008667353.6333447        884848757.86025512     
   3790597722.4963441        888894461.71538460        974048122.23477244     
   3802668861.7631426        771171415.87621784        1068170907.8754507     
   3815354954.8535800        655498216.11584556        1167217114.7822895     
   6496130995.0095615        701265854.99117017        1237426367.7836514     
   6239272619.2132168        375702272.02183890        1053310745.9366765     
   6013345696.4632959        153243532.54059744        908178468.97617829     
   5818350226.7598038        33889636.547448874        802029536.90215743     
   5654286210.1027393        17640584.042390823        734863949.71461320     
   5668865085.8129978        642702375.52506804        1194363608.4329476     
   5518906066.7455931        383151690.11417770        1073547781.8880700     
   5393103764.8778868        204123395.36894917        980745139.27318549     
   5291458180.2098789        105617491.28938222        915955680.58829236     
   5213969312.7415724        87633977.875477552        879179405.83339357     
   4946313776.0548124        615553275.89048052        1168307813.1491520     
   4871910796.6978245        412612492.93247366        1102887923.4185216     
   4814889798.6938066        267611647.81769896        1054511056.6613997     
   4775250782.0427570        180550740.54615641        1023177212.8777862     
   4752993746.7446775        151429771.11784601        1008886392.0676816     
   4328477065.7350063        619818556.08740568        1159258981.9322655     
   4298286809.0699072        464084680.47672415        1141331170.5280330     
   4278703797.9110498        343708289.88684583        1129476221.1408238     
   4269728032.2584324        258689384.31777048        1123694133.7706382     
   4271359512.1120591        209027963.76949787        1123984908.4174776     
   3815354954.8535800        655498216.11584556        1167217114.7822895     
   3798034103.8618455        537568252.74693191        1188877523.2166026     
   3784545762.5296226        432413321.57639217        1205640632.7114549     
   3774889930.8569117        340033422.60422516        1217506443.2668490     
   3769066608.8437142        260428555.83043170        1224474954.8827815     
   5654286210.1027393        17640584.042390823        734863949.71461320     
   5520349692.5282888        49099724.775992870        721730565.70704854     
   5380978387.9605169        62442908.865186691        710540679.04157591     
   5236172296.3994226        57670136.309974909        701294289.71819937     
   5085931417.8450069        34781407.110355139        693991397.73691237     
   5213969312.7415724        87633977.875477552        879179405.83339357     
   5077714239.2475758        85388886.412996531        855441432.56597197     
   4939303514.7686930        75958291.667559624        835754357.14051676     
   4798737139.3049240        59342193.639165878        820118179.55703020     
   4656015112.8562651        35540592.327818394        808532899.81551063     
   4752993746.7446775        151429771.11784601        1008886392.0676816     
   4620441261.6164894        117286790.74488974        978369488.21691227     
   4489012261.5118484        86888760.450427771        954010882.70798373     
   4358706746.4307566        60235680.234461784        935810575.54089594     
   4229524716.3732128        37327550.096990108        923768566.71564782     
   4271359512.1120591        209027963.76949787        1123984908.4174776     
   4148530759.6350293        144793437.77167010        1090514732.6598692     
   4030104628.1899853        95234315.213790894        1065310255.7439735     
   3916081117.7769241        60350596.095857382        1048371477.6697923     
   3806460228.3958473        40142280.417870045        1039698398.4373271     
   3769066608.8437142        260428555.83043170        1224474954.8827815     
   3661982733.3031979        167908827.49333858        1191877165.8948410     
   3562580614.8031025        100994955.95764589        1169652476.2484882     
   3470860253.3434258        59686941.223350048        1157800885.9437230     
   3386821648.9241686        43984783.290452123        1156322394.9805458     
   5085931417.8450069        34781407.110355139        693991397.73691237     
   4935141834.0889244        8390679.2977733612        676690415.84632254     
   4787586562.3465166       -7219008.4692184925        665919175.79329526     
   4643265602.6177864       -12047656.190614462        661677677.57783139     
   4502178954.9027348       -6095263.8664298058        663965921.19992483     
   4656015112.8562651        35540592.327818394        808532899.81551063     
   4523081346.4363995        15003785.055276632        795363834.22545469     
   4392519703.1092234        2374054.7583751678        788049366.16261137     
   4264330182.8747420       -2348598.5628855228        786589495.62698233     
   4138512785.7329493        835825.09148979187        790984222.61856425     
   4229524716.3732128        37327550.096990108        923768566.71564782     
   4112517783.5457149        22065968.241336584        913725530.35164249     
   3997020784.8899198        11837500.291370630        908861947.20449913     
   3883033720.4058318        6642146.2470901012        909177817.27422190     
   3770556590.0934510        6479906.1084983349        914673140.56081176     
   3806460228.3958473        40142280.417870045        1039698398.4373271     
   3703451145.4168625        29577228.855943203        1031775504.2248868     
   3601089807.6885986        21171328.129759550        1028356918.9189615     
   3499376215.2110538        14924578.239305735        1029442642.5195560     
   3398310367.9842329        10836979.184592009        1035032675.0266652     
   3386821648.9241686        43984783.290452123        1156322394.9805458     
   3295881432.0498481        37537566.899102807        1149513755.8451877     
   3204726771.5052633        30375538.273541093        1146534281.3059993     
   3113357667.2904134        22498697.413762331        1147383971.3629787     
   3021774119.4052973        13907044.319764018        1152062826.0161283     
   4502178954.9027348       -6095263.8664298058        663965921.19992483     
   4363200989.1924677        3577138.4067170620        659833259.35035324     
   4223024363.3460031        9254006.8925368786        659230166.14538896     
   4081649077.3633423        10935341.591040850        662156641.58504093     
   3939075131.2444906        8621142.5022301674        668612685.66929531     
   4138512785.7329493        835825.09148979187        790984222.61856425     
   4007679180.7781868        5146781.1668195724        784500675.73787868     
   3876208438.2899613        7333945.4639458656        781989709.91631281     
   3744100558.2682810        7397317.9828920364        783451325.15386152     
   3611355540.7131424        5336898.7236335278        788885521.45053041     
   3770556590.0934510        6479906.1084983349        914673140.56081176     
   3649133095.6499195        5809140.9127264023        906493818.35220766     
   3527633986.2756672        4886325.9478843212        902730089.61722827     
   3406059261.9706960        3711461.2139775753        903381954.35587108     
   3284408922.7350078        2284546.7110042572        908449412.56814253     
   3398310367.9842329        10836979.184592009        1035032675.0266652     
   3287562733.8076668        5564217.6444323063        1025812687.1933373     
   3177301007.3031263        1911148.3443491459        1021451305.2481412     
   3067525188.4705944       -122228.71569240093        1021948529.1910728     
   2958235277.3100853       -535913.53566980362        1027304359.0221386     
   3021774119.4052973        13907044.319764018        1152062826.0161283     
   2922968095.2514353        4412011.3619574308        1142457282.2612700     
   2825209501.3723278       -1591587.3466702700        1138153356.8090491     
   2728498337.7679772       -4103751.8061075211        1139151049.6594629     
   2632834604.4383783       -3124482.0163692236        1145450360.8125167     
   3939075131.2444906        8621142.5022301674        668612685.66929531     
   3798457385.3059607        6160675.5556702614        660794674.55987716     
   3658554918.4628420        6084472.2604715824        657241772.44118977     
   3519367730.7151432        8392532.6166718006        657953979.31324220     
   3380895822.0628514        13084856.624237299        662931295.17603350     
   3611355540.7131424        5336898.7236335278        788885521.45053041     
   3482157818.6237564        4129975.3129408360        782028492.98155582     
   3353458315.7439747        4583782.6009352207        779401709.97444177     
   3225257032.0738020        6698320.5876257420        781005172.42919481     
   3097553967.6132431        10473589.273023605        786838880.34581196     
   3284408922.7350078        2284546.7110042572        908449412.56814253     
   3166531614.4122601        2301283.8114265203        902300130.20617986     
   3048935465.4133162        3255218.6578584909        900346229.77720475     
   2931620475.7381787        5146351.2503119707        902587711.28121746     
   2814586645.3868446        7974681.5887777805        909024574.71821856     
   2958235277.3100853       -535913.53566980362        1027304359.0221386     
   2851578772.6714807        674601.05112731457        1021609586.2337492     
   2744986367.4708695        2098780.4312483072        1020075331.8494730     
   2638458061.7082601        3736624.6047070026        1022701595.8693051     
   2531993855.3836498        5588133.5714888573        1029488378.2932532     
   2632834604.4383783       -3124482.0163692236        1145450360.8125167     
   2537299293.4014053       -750072.96796536446        1139956861.0642629     
   2441611021.9166317        1114467.9210959673        1138589016.1912448     
   2345769789.9840517        2469140.6508044004        1141346826.1934628     
   2249775597.6036663        3313945.2211698294        1148230291.0709178     
   3380895822.0628514        13084856.624237299        662931295.17603350     
   3240785254.0313911        17661873.949367523        655296468.90038276     
   3100207510.9471431        20681641.098543525        651955911.55858290     
   2959162592.8101101        22144158.071771264        652909623.15063500     
   2817650499.6202936        22049424.869058251        658157603.67653632     
   3097553967.6132431        10473589.273023605        786838880.34581196     
   2968399377.5379043        14201607.109339952        778938834.23756468     
   2839002528.8037333        17122096.082891464        775368117.50529027     
   2709363421.4107370        19235056.193696260        776126730.14898098     
   2579482055.3589172        20540487.441750526        781214672.16864264     
   2814586645.3868446        7974681.5887777805        909024574.71821856     
   2696488205.9593801        10883751.743792772        901121711.23699915     
   2578372424.2670527        13735014.349258542        897583237.57386386     
   2460239300.3098521        16528469.405157685        898409153.72881317     
   2342088834.0877895        19264116.911513925        903599459.70184624     
   2531993855.3836498        5588133.5714888573        1029488378.2932532     
   2425051739.2958264        7708307.8527408838        1021845099.8986795     
   2318317197.3370943        10520395.897635460        1018601271.7643075     
   2211790229.5074544        14024397.706170440        1019756893.8901354     
   2105470835.8069105        18220313.278353691        1025311966.2761625     
   2249775597.6036663        3313945.2211698294        1148230291.0709178     
   2154089977.5472388        4675275.4361771345        1141109000.2226121     
   2058836848.0138640        7478240.7280281782        1138422220.0766189     
   1964016209.0035419        11722841.096717954        1140169950.6329451     
   1869628060.5162764        17409076.542266965        1146352191.8915846     
   2817650499.6202936        22049424.869058251        658157603.67653632     
   2676213941.8760486        30416246.418619633        638785254.15906072     
   2540808665.1968522        58887338.185016155        622719896.07558739     
   2411434669.5827112        107462700.16827488        609961529.42612743     
   2288091955.0336380        176142332.36838675        600510154.21067607     
   2579482055.3589172        20540487.441750526        781214672.16864264     
   2446706155.5839391        27277678.662307620        768408403.77860534     
   2318326439.8014984        48668816.524678826        759333257.08375835     
   2194342908.0116062        84713901.028859377        753989232.08412087     
   2074755560.2142413        135412932.17481345        752376328.77967179     
   2342088834.0877895        19264116.911513925        903599459.70184624     
   2219185393.0283289        24735218.026967168        895451659.18798852     
   2099043038.8888943        39409942.209169030        891459110.63050663     
   1981661771.6694908        63288289.458134055        891621814.02941763     
   1867041591.3701060        96370259.773838758        895939769.38470876     
   2105470835.8069105        18220313.278353691        1025311966.2761625     
   1993651654.2092164        22788864.512571573        1019915020.3872161     
   1882958462.4590287        31110715.238479495        1019097456.7158332     
   1773391260.5563569        43185865.456103206        1022859275.2620168     
   1664950048.5011969        59014315.165425241        1031200476.0257725     
   1869628060.5162764        17409076.542266965        1146352191.8915846     
   1770104939.1265934        21438618.119112849        1141798487.3762741     
   1670072710.5119092        23771135.612613678        1142248295.3397198     
   1569531374.6722212        24406629.022775173        1147701615.7819233     
   1468480931.6075287        23345098.349577188        1158158448.7028840     
   3768300305.4336605        1130490091.6300981        800572814.75189793     
   3779141537.0531836        1008667353.6333447        884848757.86025512     
   3790597722.4963441        888894461.71538460        974048122.23477244     
   3802668861.7631426        771171415.87621784        1068170907.8754507     
   3815354954.8535800        655498216.11584556        1167217114.7822895     
   3207876954.2120099        962363086.26360297        756691572.96114302     
   3235902653.9699006        868184376.53247714        853048166.04688847     
   3263656870.3464537        773100722.19689298        951320768.37315047     
   3291139603.3416700        677112123.25685096        1051509379.9399287     
   3318350852.9555478        580218579.71234989        1153614000.7472231     
   2685693597.9395070        805708079.38185203        721976914.85692537     
   2722311160.0482116        736595616.18008792        829379981.18092108     
   2757770801.5706029        663623417.69061351        935691644.71978903     
   2792072522.5066819        586791483.91342890        1040911905.4735292     
   2825216322.8564458        506099814.84853315        1145040763.4421420     
   2201750236.6161518        660525070.98484552        696428840.43924510     
   2238367055.2881155        613901072.57617664        813844203.26235282     
   2272939516.1687913        560462548.19654560        927160751.27468872     
   2305467619.2581778        500209497.84595209        1036378484.4762528     
   2335951364.5562754        433141921.52439612        1141497402.8670456     
   1756046870.2419436        526814061.07258308        680047349.70810223     
   1784070339.6896126        500100745.72074312        806440832.29118359     
   1809163014.1410177        463618113.71468925        925728088.03784907     
   1831324893.5961580        417366165.05442083        1037909116.9480989     
   1850555978.0550344        361344899.73993778        1142983919.0219331     
   3815354954.8535800        655498216.11584556        1167217114.7822895     
   3798034103.8618455        537568252.74693191        1188877523.2166026     
   3784545762.5296226        432413321.57639217        1205640632.7114549     
   3774889930.8569117        340033422.60422516        1217506443.2668490     
   3769066608.8437142        260428555.83043170        1224474954.8827815     
   3318350852.9555478        580218579.71234989        1153614000.7472231     
   3293852860.8764877        473046997.77415943        1181931622.8825204     
   3273077825.2210879        378285270.58150554        1207142962.7907066     
   3256025745.9893508        295933398.13439417        1229248020.4717803     
   3242696623.1812749        225991380.43281877        1248246795.9257438     
   2825216322.8564458        506099814.84853315        1145040763.4421420     
   2798658380.2967701        411221771.52307773        1179887787.1699314     
   2775713840.9249039        328388405.49032629        1213419545.3829587     
   2756382704.7408504        257599716.75027943        1245636038.0812221     
   2740664971.7446051        198855705.30293572        1276537265.2647231     
   2335951364.5562754        433141921.52439612        1141497402.8670456     
   2312450662.1226921        352092573.99368811        1182746016.0788352     
   2292453809.6410699        282722726.30285156        1224470380.4882102     
   2275960807.1114078        225032378.45188266        1266670496.0951707     
   2262971654.5337067        179021530.44078505        1309346362.8997169     
   1850555978.0550344        361344899.73993778        1142983919.0219331     
   1835229706.3542545        295659405.18599135        1190506309.6092312     
   1823297731.3695850        241288233.01908070        1240295468.1064630     
   1814760053.1010261        198231383.23920453        1292351394.5136285     
   1809616671.5485783        166488855.84636390        1346674088.8307288     
   3769066608.8437142        260428555.83043170        1224474954.8827815     
   3661982733.3031979        167908827.49333858        1191877165.8948410     
   3562580614.8031025        100994955.95764589        1169652476.2484882     
   3470860253.3434258        59686941.223350048        1157800885.9437230     
   3386821648.9241686        43984783.290452123        1156322394.9805458     
   3242696623.1812749        225991380.43281877        1248246795.9257438     
   3164902422.5584898        151579646.22315300        1230998657.0564806     
   3093189533.7557707        97438951.413710237        1221729170.1375539     
   3027557956.7731185        63569296.004486561        1220438335.1689637     
   2968007691.6105347        49970679.995490670        1227126152.1507115     
   2740664971.7446051        198855705.30293572        1276537265.2647231     
   2685319167.7788315        140499581.74247968        1272771590.4237263     
   2634454230.4127731        97079680.181072235        1274590120.1418145     
   2588070159.6464276        68596000.618709087        1281992854.4189882     
   2546166955.4797959        55048543.055395603        1294979793.2552490     
   2262971654.5337067        179021530.44078505        1309346362.8997169     
   2223232968.9642282        134668634.05132508        1317195965.9965751     
   2186374704.7741103        99917142.259734750        1328235326.2612672     
   2152396861.9633551        74767055.066017151        1342464443.6937935     
   2121299440.5319605        59218372.470174074        1359883318.2941546     
   1809616671.5485783        166488855.84636390        1346674088.8307288     
   1778643826.1146765        134086803.14968389        1364271783.7750292     
   1748950956.8397837        105951337.64970100        1382664788.4959135     
   1720538063.7238986        82082459.346410692        1401853102.9933810     
   1693405146.7670228        62480168.239817798        1421836727.2674305     
   3386821648.9241686        43984783.290452123        1156322394.9805458     
   3295881432.0498481        37537566.899102807        1149513755.8451877     
   3204726771.5052633        30375538.273541093        1146534281.3059993     
   3113357667.2904134        22498697.413762331        1147383971.3629787     
   3021774119.4052973        13907044.319764018        1152062826.0161283     
   2968007691.6105347        49970679.995490670        1227126152.1507115     
   2886145785.6086125        39317750.558689713        1219440760.8779542     
   2804558070.3079391        29578790.126049638        1215880070.2290545     
   2723244545.7085166        20753798.697583556        1216444080.2040145     
   2642205211.8103437        12842776.273273945        1221132790.8028305     
   2546166955.4797959        55048543.055395603        1294979793.2552490     
   2474227749.0008135        40443217.168300748        1286987723.2785254     
   2403051367.5945959        28380641.523754239        1283415889.9533474     
   2332637811.2611403        18860816.121753693        1284264293.2797205     
   2262987080.0004487        11883740.962300539        1289532933.2576377     
   2121299440.5319605        59218372.470174074        1359883318.2941546     
   2060127322.2264571        40913966.727947354        1352154643.0468981     
   2000206663.3652310        26781092.466649890        1349141740.4788785     
   1941537463.9482841        16819749.686283231        1350844610.5900958     
   1884119723.9756155        11029938.386844516        1357263253.3805487     
   1693405146.7670228        62480168.239817798        1421836727.2674305     
   1643844505.2855394        40729999.237626672        1414941520.1830766     
   1596023957.6198463        24780142.954739690        1413057621.8056474     
   1549943503.7699494        14630599.391170144        1416185032.1351426     
   1505603143.7358451        10281368.546908796        1424323751.1715648     
   3021774119.4052973        13907044.319764018        1152062826.0161283     
   2922968095.2514353        4412011.3619574308        1142457282.2612700     
   2825209501.3723278       -1591587.3466702700        1138153356.8090491     
   2728498337.7679772       -4103751.8061075211        1139151049.6594629     
   2632834604.4383783       -3124482.0163692236        1145450360.8125167     
   2642205211.8103437        12842776.273273945        1221132790.8028305     
   2557483582.1799364        5499010.8633857965        1212611364.3776658     
   2473590143.6509771        915882.45832896233        1209126022.9260764     
   2390524896.2234640       -906608.94191229343        1210676766.4480667     
   2308287839.8973980        31536.662674188614        1217263594.9436319     
   2262987080.0004487        11883740.962300539        1289532933.2576377     
   2191591178.2390428        6463643.1040029526        1281839845.1266372     
   2120804228.4057748        3073385.0061691999        1278917308.6401560     
   2050626230.5006444        1712966.6687977314        1280765323.7981932     
   1981057184.5236521        2382388.0918865204        1287383890.6007426     
   1884119723.9756155        11029938.386844516        1357263253.3805487     
   1825290883.4287500        7305908.0837961435        1350142724.5081902     
   1766851755.6367159        4880920.2968509197        1347527213.9512892     
   1708802340.5995138        3754975.0260158777        1349416721.7098448     
   1651142638.3171380        3928072.2712689638        1355811247.7838597     
   1505603143.7358451        10281368.546908796        1424323751.1715648     
   1458582697.7490644        8025805.8027738333        1417520002.5223200     
   1411732725.3438060        6338488.3303819299        1414955738.8594730     
   1365053226.5200715        5219416.1297326088        1416630960.1830232     
   1318544201.2778568        4668589.2008213997        1422545666.4929726     
   2632834604.4383783       -3124482.0163692236        1145450360.8125167     
   2537299293.4014053       -750072.96796536446        1139956861.0642629     
   2441611021.9166317        1114467.9210959673        1138589016.1912448     
   2345769789.9840517        2469140.6508044004        1141346826.1934628     
   2249775597.6036663        3313945.2211698294        1148230291.0709178     
   2308287839.8973980        31536.662674188614        1217263594.9436319     
   2223402454.8954244        1352591.9273468256        1210803255.6760893     
   2138465191.9323561        2500720.6550446749        1208652593.9718621     
   2053476051.0081854        3475922.8457386494        1210811609.8309484     
   1968435032.1229234        4278198.4994585514        1217280303.2533510     
   1981057184.5236521        2382388.0918865204        1287383890.6007426     
   1907347504.6654727        2807823.3054788113        1280074641.3817403     
   1833687029.3329034        3397273.6044405699        1277259092.4141297     
   1760075758.5259459        4150738.9887708426        1278937243.6979122     
   1686513692.2445993        5068219.4584778547        1285109095.2330894     
   1651142638.3171380        3928072.2712689638        1355811247.7838597     
   1589134442.7115486        3615621.1664103866        1347771018.1812181     
   1527276534.1182759        3804126.7692804933        1344408511.5180500     
   1465568912.5373232        4493589.0798831582        1345723727.7943547     
   1404011577.9686911        5684008.0982161164        1351716667.0101273     
   1318544201.2778568        4668589.2008213997        1422545666.4929726     
   1268763269.0336516        3775985.5101499557        1413892386.0745225     
   1219233706.2884767        3721280.1495771408        1410100851.2836194     
   1169955513.0423260        4504473.1190868020        1411171062.1202719     
   1120928689.2952034        6125564.4186870456        1417103018.5844715     
   2249775597.6036663        3313945.2211698294        1148230291.0709178     
   2154089977.5472388        4675275.4361771345        1141109000.2226121     
   2058836848.0138640        7478240.7280281782        1138422220.0766189     
   1964016209.0035419        11722841.096717954        1140169950.6329451     
   1869628060.5162764        17409076.542266965        1146352191.8915846     
   1968435032.1229234        4278198.4994585514        1217280303.2533510     
   1884246885.0053771        5792507.6238707304        1210383683.2561672     
   1800411388.5568693        8482318.9784114361        1207861459.6843977     
   1716928542.7773991        12347632.563079000        1209713632.5380571     
   1633798347.6669726        17388448.377892554        1215940201.8171339     
   1686513692.2445993        5068219.4584778547        1285109095.2330894     
   1613651262.9890916        6683980.9692314267        1278343999.5906727     
   1541061644.5486138        9209111.8634162545        1275893186.0967827     
   1468744836.9231570        12643612.141007245        1277756654.7514272     
   1396700840.1127281        16987481.802022636        1283934405.5545957     
   1404011577.9686911        5684008.0982161164        1351716667.0101273     
   1342303111.4983892        7349695.4722748995        1344989949.2261333     
   1280787615.9890912        9658619.3830244541        1342517399.3137743     
   1219465091.4408159        12610779.830503881        1344299017.2730486     
   1158335537.8535480        16206176.814688742        1350334803.1039605     
   1120928689.2952034        6125564.4186870456        1417103018.5844715     
   1070202430.5332575        7789651.1329762936        1410321532.1625524     
   1019589302.8783202        9830841.5372864008        1407734099.3353686     
   969089306.33037412        12249135.631570876        1409340720.1029356     
   918702440.88942707        15044533.415852547        1415141394.4652340     
   1869628060.5162764        17409076.542266965        1146352191.8915846     
   1770104939.1265934        21438618.119112849        1141798487.3762741     
   1670072710.5119092        23771135.612613678        1142248295.3397198     
   1569531374.6722212        24406629.022775173        1147701615.7819233     
   1468480931.6075287        23345098.349577188        1158158448.7028840     
   1633798347.6669726        17388448.377892554        1215940201.8171339     
   1546724230.1103933        21235837.587122500        1210241718.2913570     
   1459290703.7276096        23885197.375666499        1209157914.2432718     
   1371497768.5186055        25336527.743483901        1212688789.6728861     
   1283345424.4833889        25589828.690587878        1220834344.5801907     
   1396700840.1127281        16987481.802022636        1283934405.5545957     
   1320964774.9576538        20319433.214175284        1277265791.1502705     
   1245018999.3751631        22952349.868268609        1274823023.2225800     
   1168863513.3652453        24886231.764269233        1276606101.7715223     
   1092498316.9279025        26121078.902201176        1282615026.7971010     
   1158335537.8535480        16206176.814688742        1350334803.1039605     
   1092826573.6683769        18689405.000271142        1342870705.9530122     
   1027257597.4545760        20972593.090425134        1339243622.2776363     
   961628609.21214068        23055741.085134566        1339453552.0778339     
   895939608.94107723        24938848.984406292        1343500495.3536084     
   918702440.88942707        15044533.415852547        1415141394.4652340     
   862309626.24255168        16345752.945379049        1407056462.6995895     
   806006497.96584797        17945927.042147815        1402419711.4084511     
   749793056.05929291        19845055.706072390        1401231140.5918264     
   693669300.52290165        22043138.937212825        1403490750.2497234     
   1756046870.2419436        526814061.07258308        680047349.70810223     
   1784070339.6896126        500100745.72074312        806440832.29118359     
   1809163014.1410177        463618113.71468925        925728088.03784907     
   1831324893.5961580        417366165.05442083        1037909116.9480989     
   1850555978.0550344        361344899.73993778        1142983919.0219331     
   1326356414.1765196        397906924.25295585        669723925.68128955     
   1339571688.9864941        375531239.55665958        791860865.53844035     
   1350588867.5492134        345828567.36951363        908712121.59019315     
   1359407949.8646779        308798907.69151783        1020277693.8365484     
   1366028935.9328878        264442260.52267244        1126557582.2775056     
   890451783.77951443        267135535.13385433        662350051.37660062     
   894060415.46898818        250657946.54825997        781085263.71499860     
   896203649.66021669        229295699.63518038        896355335.27901626     
   896881486.35319924        203048794.39461535        1008160266.0686544     
   896093925.54793632        171917230.82656485        1116500056.0839124     
   448332979.05092865        134499893.71527860        657925726.79403520     
   447536519.13709587        125480866.69554429        774114026.82085788     
   446007360.47402674        114019510.51168916        888657729.10431814     
   443745503.06172138        100115825.16371325        1001556833.6444163     
   440750946.90017998        83769810.651616544        1112811340.4411528     
  -9.2378600190646670E-003  -2.7713580057194000E-003   656450951.93359339     
  -9.1834507031840849E-003  -1.4874033781199334E-003   770947154.85601795     
  -9.3558402783264303E-003  -9.5979199862542258E-004   885619303.06609821     
  -9.7552003105497685E-003  -1.1885753370532871E-003   1000467396.5638347     
  -1.0381650896094741E-002  -2.1741537142056745E-003   1115491435.3492267     
   1850555978.0550344        361344899.73993778        1142983919.0219331     
   1835229706.3542545        295659405.18599135        1190506309.6092312     
   1823297731.3695850        241288233.01908070        1240295468.1064630     
   1814760053.1010261        198231383.23920453        1292351394.5136285     
   1809616671.5485783        166488855.84636390        1346674088.8307288     
   1366028935.9328878        264442260.52267244        1126557582.2775056     
   1360293936.0573971        216906050.77695310        1181980229.7488472     
   1357104658.7189865        177855582.82150304        1238325714.2201166     
   1356461103.9176569        147290856.65632325        1295594035.6913154     
   1358363271.6534092        125211872.28141296        1353785194.1624408     
   896093925.54793632        171917230.82656485        1116500056.0839124     
   896110394.89771712        141378365.10906649        1178832957.2304296     
   897824012.60554934        116496660.58507335        1240744764.4668701     
   901234778.67143273        97272117.254584193        1302235477.7932320     
   906342693.09536779        83704735.117600441        1363305097.2095160     
   440750946.90017998        83769810.651616544        1112811340.4411528     
   442679082.87521601        69076348.182334512        1181064492.0539780     
   445455793.02927393        57211466.309792235        1247552618.8467197     
   449081077.36235368        48175165.033989951        1312275720.8193791     
   453554935.87445533        41967444.354926944        1375233797.9719536     
  -1.0381650896094741E-002  -2.1741537142056745E-003   1115491435.3492267     
  -1.0106796352208189E-002  -3.2440568088963418E-003   1188674834.2194929     
  -9.8399324974759485E-003  -4.3400751170585960E-003   1258749277.3596694     
  -9.5807665973114513E-003  -5.4617532737799932E-003   1325714764.7697568     
  -9.3289844713708697E-003  -6.6085644282905635E-003   1389571296.4497547     
   1809616671.5485783        166488855.84636390        1346674088.8307288     
   1778643826.1146765        134086803.14968389        1364271783.7750292     
   1748950956.8397837        105951337.64970100        1382664788.4959135     
   1720538063.7238986        82082459.346410692        1401853102.9933810     
   1693405146.7670228        62480168.239817798        1421836727.2674305     
   1358363271.6534092        125211872.28141296        1353785194.1624408     
   1332458979.3468618        100107935.28875941        1372733062.3639290     
   1307514669.1592417        78203938.692531466        1393100327.2627935     
   1283530341.0905497        59499882.492729247        1414886988.8590333     
   1260505995.1407857        43995766.689353466        1438093047.1526499     
   906342693.09536779        83704735.117600441        1363305097.2095160     
   887290059.40415406        66433845.475367874        1383229812.2880976     
   868877413.79178703        51296249.429290593        1405198010.9848466     
   851104756.25826669        38291946.979369134        1429209693.2997642     
   833972086.80359268        27420938.125602901        1455264859.2328501     
   453554935.87445533        41967444.354926944        1375233797.9719536     
   443137066.28655350        33064533.709506765        1395762033.5475326     
   433039190.73741835        25228269.859976768        1418957839.6620739     
   423261309.22704709        18458652.806326360        1444821216.3155763     
   413803421.75544226        12755682.548563167        1473352163.5080380     
  -9.3289844713708697E-003  -6.6085644282905635E-003   1389571296.4497547     
  -5.9393195489959158E-003  -8.8186669505291720E-003   1410329726.1422379     
  -3.8664698732082180E-003  -1.5417806683363441E-002   1434379813.2944751     
  -3.1074187408201568E-003  -2.6395841213327505E-002   1461721557.9064653     
  -3.6641019888535523E-003  -4.1760871317796266E-002   1492354959.9782083     
   1693405146.7670228        62480168.239817798        1421836727.2674305     
   1643844505.2855394        40729999.237626672        1414941520.1830766     
   1596023957.6198463        24780142.954739690        1413057621.8056474     
   1549943503.7699494        14630599.391170144        1416185032.1351426     
   1505603143.7358451        10281368.546908796        1424323751.1715648     
   1260505995.1407857        43995766.689353466        1438093047.1526499     
   1225206809.3123014        28244528.518606067        1434983703.2074273     
   1191212693.8459270        16843524.888226211        1436449032.4041765     
   1158523648.7416661        9792755.7982209921        1442489034.7428989     
   1127139673.9995155        7092221.2485865951        1453103710.2235923     
   833972086.80359268        27420938.125602901        1455264859.2328501     
   811686826.44252479        17294371.730620682        1455433851.0641332     
   790271612.98988795        10067961.697073370        1459740880.4724345     
   769726446.44568181        5741708.0249615908        1468185947.4577532     
   750051326.80990541        4315610.7142843306        1480769052.0200899     
   413803421.75544226        12755682.548563167        1473352163.5080380     
   403284556.67621034        7879528.8736738861        1476291963.7531967     
   393200715.05172867        4453453.3812861741        1482933166.0104203     
   383551896.88199496        2477456.0713914484        1493275770.2797089     
   374338102.16701126        1951536.9439948052        1507319776.5610623     
  -3.6641019888535523E-003  -4.1760871317796266E-002   1492354959.9782083     
   1.3358087529886212E-002  -5.2231753720689902E-002   1497558041.2746150     
   3.1449796979120308E-002  -5.9137916633297663E-002   1506025889.0181341     
   5.0607520692395616E-002  -6.2490872138115605E-002   1517758503.2087631     
   7.0834318264414303E-002  -6.2279554224398612E-002   1532755883.8465030     
   1505603143.7358451        10281368.546908796        1424323751.1715648     
   1458582697.7490644        8025805.8027738333        1417520002.5223200     
   1411732725.3438060        6338488.3303819299        1414955738.8594730     
   1365053226.5200715        5219416.1297326088        1416630960.1830232     
   1318544201.2778568        4668589.2008213997        1422545666.4929726     
   1127139673.9995155        7092221.2485865951        1453103710.2235923     
   1091410095.0095038        5261275.8421993256        1447009441.4392312     
   1055808371.2074442        3856514.3956537247        1445262981.3572764     
   1020334502.5933391        2877936.9089561701        1447864329.9777274     
   984988489.16718614        2325543.3821007609        1454813487.3005829     
   750051326.80990541        4315610.7142843306        1480769052.0200899     
   725922111.14811230        3002131.5450716913        1475334541.6414502     
   701878132.28070414        1972775.0238071978        1474356163.6812236     
   677919390.20768189        1227541.1504957080        1477833918.1394117     
   654045884.92904365        766429.92513179779        1485767805.0160155     
   374338102.16701126        1951536.9439948052        1507319776.5610623     
   362118746.16489142        1248372.9113946408        1502495303.1289768     
   349942008.56358892        687270.21485219896        1502235285.8313141     
   337807889.36310214        268228.85436181724        1506539724.6680758     
   325716388.56343234       -8751.1700727492571        1515408619.6392598     
   7.0834318264414303E-002  -6.2279554224398612E-002   1532755883.8465030     
   5.9842790063983527E-002  -5.8825746471782271E-002   1528491725.9018104     
   5.6097594518351897E-002  -3.1216455702416549E-002   1528900347.8075500     
   5.9600493039048852E-002   2.0552801676682601E-002   1533981749.5637212     
   7.0349220954107949E-002   9.6474476758960384E-002   1543735931.1703241     
   1318544201.2778568        4668589.2008213997        1422545666.4929726     
   1268763269.0336516        3775985.5101499557        1413892386.0745225     
   1219233706.2884767        3721280.1495771408        1410100851.2836194     
   1169955513.0423260        4504473.1190868020        1411171062.1202719     
   1120928689.2952034        6125564.4186870456        1417103018.5844715     
   984988489.16718614        2325543.3821007609        1454813487.3005829     
   947868930.79529941        1720932.8782206774        1447306184.5720606     
   910937899.54756570        1744746.1215190887        1444610194.6131244     
   874195395.42398238        2396983.1119841337        1446725517.4237733     
   837641418.42455351        3677643.8496341705        1453652153.0040157     
   654045884.92904365        766429.92513179779        1485767805.0160155     
   629443606.54958320        406584.44407883286        1479333163.8733959     
   604967012.91939950        465688.12728103995        1477659402.6424010     
   580616104.03849113        943740.97473388910        1480746521.3230331     
   556390879.90686333        1840742.9864558876        1488594519.9152937     
   325716388.56343234       -8751.1700727492571        1515408619.6392598     
   313487296.29650402       -167059.79227682948        1509973323.9785252     
   301321046.40397948       -115893.83313484490        1509248475.3714516     
   289217638.88585532        144746.70734189451        1513234073.8180454     
   277177073.74213725        614861.82917183638        1521930119.3183017     
   7.0349220954107949E-002   9.6474476758960384E-002   1543735931.1703241     
   3.6066799729933721E-002  0.16917170503277851        1539226664.8874505     
   1.3072876114961218E-003  0.24027863032571872        1539377412.8002813     
  -3.3923642283551533E-002  0.30981485691934912        1544188174.9088128     
  -6.9625440943823474E-002  0.37778013318345116        1553658951.2130439     
   1120928689.2952034        6125564.4186870456        1417103018.5844715     
   1070202430.5332575        7789651.1329762936        1410321532.1625524     
   1019589302.8783202        9830841.5372864008        1407734099.3353686     
   969089306.33037412        12249135.631570876        1409340720.1029356     
   918702440.88942707        15044533.415852547        1415141394.4652340     
   837641418.42455351        3677643.8496341705        1453652153.0040157     
   798029280.52276278        4455475.7504245639        1447881879.3539813     
   758501990.94771576        5516135.4070290029        1446671396.1893661     
   719059549.69941282        6859622.8194464445        1450020703.5101638     
   679701956.77784956        8485937.9876625240        1457929801.3163767     
   556390879.90686333        1840742.9864558876        1488594519.9152937     
   528937825.41000432        2045808.8371786773        1483802462.4601855     
   501541336.45963490        2439426.5095311999        1483935932.3811657     
   474201413.05575138        3021596.0035050213        1488994929.6782341     
   446918055.19835305        3792317.3190967739        1498979454.3513873     
   277177073.74213725        614861.82917183638        1521930119.3183017     
   262928065.19499162        560650.39326407015        1518083281.4811518     
   248707339.41407421        600714.84478487074        1519527707.9107664     
   234514896.39939216        735055.18375769258        1526263398.6071405     
   220350736.15094078        963671.41016294062        1538290353.5702734     
  -6.9625440943823474E-002  0.37778013318345116        1553658951.2130439     
 -0.12228075694866089       0.41866986068482354        1550724336.4168909     
 -0.18896235309085641       0.41280323939349778        1553446722.7781699     
 -0.26966377848662670       0.36020489475767464        1561826110.2968829     
 -0.36439669962792037       0.26083489763677414        1575862498.9730313     
   918702440.88942707        15044533.415852547        1415141394.4652340     
   862309626.24255168        16345752.945379049        1407056462.6995895     
   806006497.96584797        17945927.042147815        1402419711.4084511     
   749793056.05929291        19845055.706072390        1401231140.5918264     
   693669300.52290165        22043138.937212825        1403490750.2497234     
   679701956.77784956        8485937.9876625240        1457929801.3163767     
   633096472.78752625        8168590.6800923645        1452615163.4438653     
   586558253.55497026        8075459.2317490876        1451754576.4104414     
   540087299.08017254        8206543.6425975561        1455348040.2161062     
   493683609.36313891        8561843.9126569331        1463395554.8608606     
   446918055.19835305        3792317.3190967739        1498979454.3513873     
   412973817.19193697        2718577.7726382017        1496408951.8242168     
   379074422.33088589        1794315.3773942441        1499298370.5007055     
   345219870.61519957        1019530.1333717108        1507647710.3808587     
   311410162.04487884        394222.04055851698        1521456971.4646766     
   220350736.15094078        963671.41016294062        1538290353.5702734     
   201941659.45577967       -4285.7770005315542        1538437827.8406479     
   183555004.29359010       -897504.52092362195        1545051093.6792550     
   165190770.66436881       -1715984.8216205463        1558130151.0861053     
   146848958.56811410       -2459726.6790946051        1577675000.0611782     
 -0.36439669962792037       0.26083489763677414        1575862498.9730313     
 -0.42093773521768074        3.1206035923823483E-002   1578701791.4931490     
 -0.55691531972126862      -0.46320854661099098        1589012745.9460790     
 -0.77231064949872041       -1.2223534570063890        1606795362.3318193     
  -1.0671469202810862       -2.2462966468591010        1632049640.6503725     
  -9.2378600190646670E-003  -2.7713580057194000E-003   656450951.93359339     
  -9.1834507031840849E-003  -1.4874033781199334E-003   770947154.85601795     
  -9.3558402783264303E-003  -9.5979199862542258E-004   885619303.06609821     
  -9.7552003105497685E-003  -1.1885753370532871E-003   1000467396.5638347     
  -1.0381650896094741E-002  -2.1741537142056745E-003   1115491435.3492267     
  -448332979.06912327       -134499893.72073698        657925726.79523706     
  -447536519.15526462       -125480866.69853504        774114026.82175338     
  -446007360.49254328       -114019510.51345769        888657729.10486662     
  -443745503.08095956       -100115825.16550516        1001556833.6445768     
  -440750946.92051315       -83769810.654677421        1112811340.4408846     
  -890451783.79686606       -267135535.13905981        662350051.37892878     
  -894060415.48651350       -250657946.55113280        781085263.71680737     
  -896203649.67820895       -229295699.63669902        896355335.28022480     
  -896881486.37195218       -203048794.39575821        1008160266.0691804     
  -896093925.56774366       -171917230.82831085        1116500056.0836747     
  -1326356414.1924660       -397906924.25773978        669723925.68466830     
  -1339571689.0029297       -375531239.55928087        791860865.54118061     
  -1350588867.5663524       -345828567.37068361        908712121.59217298     
  -1359407949.8827336       -308798907.69194806        1020277693.8376446     
  -1366028935.9520726       -264442260.52307361        1126557582.2775970     
  -1756046870.2559228       -526814061.07677686        680047349.71245575     
  -1784070339.7045140       -500100745.72297931        806440832.29487264     
  -1809163014.1569738       -463618113.71541160        925728088.04071069     
  -1831324893.6133027       -417366165.05407381        1037909116.9499702     
  -1850555978.0735006       -361344899.73896623        1142983919.0226507     
  -1.0381650896094741E-002  -2.1741537142056745E-003   1115491435.3492267     
  -1.0106796352208189E-002  -3.2440568088963418E-003   1188674834.2194929     
  -9.8399324974759485E-003  -4.3400751170585960E-003   1258749277.3596694     
  -9.5807665973114513E-003  -5.4617532737799932E-003   1325714764.7697568     
  -9.3289844713708697E-003  -6.6085644282905635E-003   1389571296.4497547     
  -440750946.92051315       -83769810.654677421        1112811340.4408846     
  -442679082.89487988       -69076348.186868981        1181064492.0536401     
  -445455793.04837865       -57211466.316167474        1247552618.8462503     
  -449081077.38100952       -48175165.042572588        1312275720.8187153     
  -453554935.89277250       -41967444.366084725        1375233797.9710352     
  -896093925.56774366       -171917230.82831085        1116500056.0836747     
  -896110394.91691089       -141378365.11167085        1178832957.2299409     
  -897824012.62433493       -116496660.58921981        1240744764.4660063     
  -901234778.69001532       -97272117.260956556        1302235477.7918711     
  -906342693.11395133       -83704735.126880884        1363305097.2075341     
  -1366028935.9520726       -264442260.52307361        1126557582.2775970     
  -1360293936.0762000       -216906050.77765065        1181980229.7483954     
  -1357104658.7377088       -177855582.82349685        1238325714.2189372     
  -1356461103.9365981       -147290856.66061401        1295594035.6892221     
  -1358363271.6728680       -125211872.28899866        1353785194.1592507     
  -1850555978.0735006       -361344899.73896623        1142983919.0226507     
  -1835229706.3727484       -295659405.18480796        1190506309.6090033     
  -1823297731.3885002       -241288233.01900047        1240295468.1050434     
  -1814760053.1207583       -198231383.24154437        1292351394.5107710     
  -1809616671.5695205       -166488855.85243767        1346674088.8261857     
  -9.3289844713708697E-003  -6.6085644282905635E-003   1389571296.4497547     
  -5.9393195489959158E-003  -8.8186669505291720E-003   1410329726.1422379     
  -3.8664698732082180E-003  -1.5417806683363441E-002   1434379813.2944751     
  -3.1074187408201568E-003  -2.6395841213327505E-002   1461721557.9064653     
  -3.6641019888535523E-003  -4.1760871317796266E-002   1492354959.9782083     
  -453554935.89277250       -41967444.366084725        1375233797.9710352     
  -443137066.29847836       -33064533.724308908        1395762033.5435839     
  -433039190.74474156       -25228269.884391576        1418957839.6546159     
  -423261309.23156220       -18458652.846331716        1444821216.3041317     
  -413803421.75894094       -12755682.610132888        1473352163.4921331     
  -906342693.11395133       -83704735.126880884        1363305097.2075341     
  -887290059.41809368       -66433845.487919539        1383229812.2810318     
  -868877413.80203557       -51296249.448291004        1405198010.9717436     
  -851104756.26577735       -38291947.007994771        1429209693.2796700     
  -833972086.80931866       -27420938.167031407        1455264859.2048113     
  -1358363271.6728680       -125211872.28899866        1353785194.1592507     
  -1332458979.3647869       -100107935.29965270        1372733062.3545818     
  -1307514669.1757491       -78203938.707117856        1393100327.2458572     
  -1283530341.1057518       -59499882.511383593        1414886988.8330784     
  -1260505995.1547971       -43995766.712459564        1438093047.1162441     
  -1809616671.5695205       -166488855.85243767        1346674088.8261857     
  -1778643826.1385586       -134086803.15951335        1364271783.7642336     
  -1748950956.8658807       -105951337.66086656        1382664788.4769571     
  -1720538063.7514887       -82082459.356506467        1401853102.9643571     
  -1693405146.7953787       -62480168.246421993        1421836727.2264311     
  -3.6641019888535523E-003  -4.1760871317796266E-002   1492354959.9782083     
   1.3358087529886212E-002  -5.2231753720689902E-002   1497558041.2746150     
   3.1449796979120308E-002  -5.9137916633297663E-002   1506025889.0181341     
   5.0607520692395616E-002  -6.2490872138115605E-002   1517758503.2087631     
   7.0834318264414303E-002  -6.2279554224398612E-002   1532755883.8465030     
  -413803421.75894094       -12755682.610132888        1473352163.4921331     
  -403284556.64618295       -7879528.9483013600        1476291963.7358725     
  -393200714.98720717       -4453453.4657433033        1482933165.9894588     
  -383551896.78201026       -2477456.1624487340        1493275770.2528932     
  -374338102.03059483       -1951537.0384253711        1507319776.5261719     
  -833972086.80931866       -27420938.167031407        1455264859.2048113     
  -811686826.42158341       -17294371.779133409        1455433851.0318947     
  -790271612.94247627       -10067961.753328890        1459740880.4315608     
  -769726446.37199759       -5741708.0896199644        1468185947.4038093     
  -750051326.71014774       -4315610.7880066335        1480769051.9486384     
  -1260505995.1547971       -43995766.712459564        1438093047.1162441     
  -1225206809.3128409       -28244528.544721007        1434983703.1626830     
  -1191212693.8343606       -16843524.921905875        1436449032.3444390     
  -1158523648.7193551       -9792755.8440026641        1442489034.6615109     
  -1127139673.9678266       -7092221.3110256195        1453103710.1139019     
  -1693405146.7953787       -62480168.246421993        1421836727.2264311     
  -1643844505.3199544       -40729999.245063066        1414941520.1282351     
  -1596023957.6628551       -24780142.971454918        1413057621.7280917     
  -1549943503.8240807       -14630599.425596476        1416185032.0260022     
  -1505603143.8036296       -10281368.607481956        1424323751.0219648     
   7.0834318264414303E-002  -6.2279554224398612E-002   1532755883.8465030     
   5.9842790063983527E-002  -5.8825746471782271E-002   1528491725.9018104     
   5.6097594518351897E-002  -3.1216455702416549E-002   1528900347.8075500     
   5.9600493039048852E-002   2.0552801676682601E-002   1533981749.5637212     
   7.0349220954107949E-002   9.6474476758960384E-002   1543735931.1703241     
  -374338102.03059483       -1951537.0384253711        1507319776.5261719     
  -362118746.04761773       -1248373.0059601963        1502495303.1005497     
  -349942008.45329511       -687270.26900729537        1502235285.8131583     
  -337807889.24762911       -268228.82757708430        1506539724.6640012     
  -325716388.43061584        8751.3183426558971        1515408619.6530776     
  -750051326.71014774       -4315610.7880066335        1480769051.9486384     
  -725922111.05377007       -3002131.6226989031        1475334541.5801988     
  -701878132.18194807       -1972775.0725774765        1474356163.6377940     
  -677919390.09468341       -1227541.1376476288        1477833918.1214221     
  -654045884.79197538       -766429.81790587306        1485767805.0310869     
  -1127139673.9678266       -7092221.3110256195        1453103710.1139019     
  -1091410094.9586141       -5261275.9090442657        1447009441.3407602     
  -1055808371.1298617       -3856514.4419285655        1445262981.2814536     
  -1020334502.4815654       -2877936.9096648097        1447864329.9359853     
  -984988489.01372957       -2325543.3122736216        1454813487.3043497     
  -1505603143.8036296       -10281368.607481956        1424323751.0219648     
  -1458582697.7621517       -8025805.8650017977        1417520002.3822341     
  -1411732725.2970331       -6338488.3770490289        1414955738.7441416     
  -1365053226.4082761       -5219416.1436387300        1416630960.1076875     
  -1318544201.0958793       -4668589.1647599936        1422545666.4728708     
   7.0349220954107949E-002   9.6474476758960384E-002   1543735931.1703241     
   3.6066799729933721E-002  0.16917170503277851        1539226664.8874505     
   1.3072876114961218E-003  0.24027863032571872        1539377412.8002813     
  -3.3923642283551533E-002  0.30981485691934912        1544188174.9088128     
  -6.9625440943823474E-002  0.37778013318345116        1553658951.2130439     
  -325716388.43061584        8751.3183426558971        1515408619.6530776     
  -313487296.23186398        167060.05328223109        1509973323.9993656     
  -301321046.40853143        115894.20349107683        1509248475.4071512     
  -289217638.96060610       -144746.23099090159        1513234073.8764374     
  -277177073.88809794       -614861.25019654632        1521930119.4072223     
  -654045884.79197538       -766429.81790587306        1485767805.0310869     
  -629443606.45791066       -406584.25004112720        1479333163.9024351     
  -604967012.87420154       -465687.85002923012        1477659402.7010815     
  -580616104.04084611       -943740.61786392331        1480746521.4270248     
  -556390879.95784807       -1840742.5535565019        1488594520.0802665     
  -984988489.01372957       -2325543.3122736216        1454813487.3043497     
  -947868930.64207184       -1720932.7407976985        1447306184.5966632     
  -910937899.39571047       -1744745.9203078747        1444610194.6820698     
  -874195395.27464437       -2396982.8508061171        1446725517.5605736     
  -837641418.27887726       -3677643.5322985649        1453652153.2321684     
  -1318544201.0958793       -4668589.1647599936        1422545666.4728708     
  -1268763268.7843494       -3775985.4189890623        1413892386.0820465     
  -1219233705.9730561       -3721280.0073382854        1410100851.3501174     
  -1169955512.6620002       -4504472.9298132062        1411171062.2770782     
  -1120928688.8511846       -6125564.1864240170        1417103018.8629334     
  -6.9625440943823474E-002  0.37778013318345116        1553658951.2130439     
 -0.12228075694866089       0.41866986068482354        1550724336.4168909     
 -0.18896235309085641       0.41280323939349778        1553446722.7781699     
 -0.26966377848662670       0.36020489475767464        1561826110.2968829     
 -0.36439669962792037       0.26083489763677414        1575862498.9730313     
  -277177073.88809794       -614861.25019654632        1521930119.4072223     
  -262928065.43959144       -560649.75571687520        1518083281.5813601     
  -248707339.77991730       -600714.22400924563        1519527708.0327470     
  -234514896.90908161       -735054.65509858727        1526263398.7613776     
  -220350736.82707766       -963671.04895851016        1538290353.7672555     
  -556390879.95784807       -1840742.5535565019        1488594520.0802665     
  -528937825.52299839       -2045808.3599283099        1483802462.6540847     
  -501541336.65179408       -2439426.0451186299        1483935932.6249604     
  -474201413.34423137       -3021595.6091150641        1488994929.9928999     
  -446918055.60031503       -3792317.0519305468        1498979454.7578957     
  -837641418.27887726       -3677643.5322985649        1453652153.2321684     
  -798029280.37250185       -4455475.3939657807        1447881879.6350539     
  -758501990.80458117       -5516135.0504842997        1446671396.5548129     
  -719059549.57511497       -6859622.5018516779        1450020703.9914448     
  -679701956.68410289       -8485937.7480652034        1457929801.9449539     
  -1120928688.8511846       -6125564.1864240170        1417103018.8629334     
  -1070202429.9881036       -7789650.8578394651        1410321532.5242758     
  -1019589302.2382879       -9830841.2401399612        1407734099.8223040     
  -969089305.60173368       -12249135.333310664        1409340720.7570198     
  -918702440.07844424       -15044533.137365878        1415141395.3284230     
 -0.36439669962792037       0.26083489763677414        1575862498.9730313     
 -0.42093773521768074        3.1206035923823483E-002   1578701791.4931490     
 -0.55691531972126862      -0.46320854661099098        1589012745.9460790     
 -0.77231064949872041       -1.2223534570063890        1606795362.3318193     
  -1.0671469202810862       -2.2462966468591010        1632049640.6503725     
  -220350736.82707766       -963671.04895851016        1538290353.7672555     
  -201941660.20413718        4285.7985822558403        1538437827.9605107     
  -183555005.22369996        897503.83778101206        1545051093.7258306     
  -165190771.88577184        1715983.0686130598        1558130151.0632045     
  -146848960.19034865        2459723.4910950884        1577674999.9726405     
  -446918055.60031503       -3792317.0519305468        1498979454.7578957     
  -412973817.61431390       -2718577.7221247107        1496408952.1340318     
  -379074422.83389741       -1794315.7442662120        1499298370.7214746     
  -345219871.25906432       -1019531.1183497161        1507647710.5202279     
  -311410162.88982040       -394223.84440083802        1521456971.5302923     
  -679701956.68410289       -8485937.7480652034        1457929801.9449539     
  -633096472.65147269       -8168590.5309279859        1452615164.0137069     
  -586558253.38750362       -8075459.2093295753        1451754576.9330192     
  -540087298.89220095       -8206543.7832824290        1455348040.7028928     
  -493683609.16555738       -8561844.2527730167        1463395555.3233278     
  -918702440.07844424       -15044533.137365878        1415141395.3284230     
  -862309625.31561470       -16345752.627832860        1407056463.5995388     
  -806006496.88451993       -17945926.557417631        1402419712.3604665     
  -749793054.78516626       -19845054.926140845        1401231141.6111929     
  -693669299.01756251       -22043137.734025627        1403490751.3517394     
  -1756046870.2559228       -526814061.07677686        680047349.71245575     
  -1784070339.7045140       -500100745.72297931        806440832.29487264     
  -1809163014.1569738       -463618113.71541160        925728088.04071069     
  -1831324893.6133027       -417366165.05407381        1037909116.9499702     
  -1850555978.0735006       -361344899.73896623        1142983919.0226507     
  -2201750236.6277242       -660525070.98831725        696428840.44448185     
  -2238367055.3010082       -613901072.57804132        813844203.26694942     
  -2272939516.1831031       -560462548.19713855        927160751.27858365     
  -2305467619.2740116       -500209497.84560990        1036378484.4793848     
  -2335951364.5737305       -433141921.52345490        1141497402.8693521     
  -2685693597.9483585       -805708079.38450754        721976914.86293757     
  -2722311160.0584903       -736595616.18139946        829379981.18635583     
  -2757770801.5823765       -663623417.69080853        935691644.72468591     
  -2792072522.5200191       -586791483.91273582        1040911905.4779276     
  -2825216322.8714175       -506099814.84718090        1145040763.4460814     
  -3207876954.2178240       -962363086.26534724        756691572.96782291     
  -3235902653.9769607       -868184376.53305399        853048166.05309105     
  -3263656870.3547959       -773100722.19642234        951320768.37901640     
  -3291139603.3513288       -677112123.25545239        1051509379.9455996     
  -3318350852.9665608       -580218579.71014309        1153614000.7528391     
  -3768300305.4361215       -1130490091.6308365        800572814.75913763     
  -3779141537.0564194       -1008667353.6330053        884848757.86715591     
  -3790597722.5003581       -888894461.71397901        974048122.24157643     
  -3802668861.7679391       -771171415.87375879        1068170907.8823994     
  -3815354954.8591619       -655498216.11234403        1167217114.7896252     
  -1850555978.0735006       -361344899.73896623        1142983919.0226507     
  -1835229706.3727484       -295659405.18480796        1190506309.6090033     
  -1823297731.3885002       -241288233.01900047        1240295468.1050434     
  -1814760053.1207583       -198231383.24154437        1292351394.5107710     
  -1809616671.5695205       -166488855.85243767        1346674088.8261857     
  -2335951364.5737305       -433141921.52345490        1141497402.8693521     
  -2312450662.1407275       -352092573.99253219        1182746016.0803061     
  -2292453809.6600442       -282722726.30267388        1224470380.4886658     
  -2275960807.1316800       -225032378.45388031        1266670496.0944307     
  -2262971654.5556345       -179021530.44615042        1309346362.8976009     
  -2825216322.8714175       -506099814.84718090        1145040763.4460814     
  -2798658380.3126845       -411221771.52145082        1179887787.1731875     
  -2775713840.9420848       -328388405.48949730        1213419545.3854167     
  -2756382704.7596188       -257599716.75132191        1245636038.0827692     
  -2740664971.7652845       -198855705.30692208        1276537265.2652459     
  -3318350852.9665608       -580218579.71014309        1153614000.7528391     
  -3293852860.8886180       -473046997.77156150        1181931622.8876472     
  -3273077825.2346220       -378285270.57946908        1207142962.7952971     
  -3256025746.0045743       -295933398.13386905        1229248020.4757884     
  -3242696623.1984720       -225991380.43475509        1248246795.9291203     
  -3815354954.8591619       -655498216.11234403        1167217114.7896252     
  -3798034103.8685284       -537568252.74286592        1188877523.2236857     
  -3784545762.5376568       -432413321.57259047        1205640632.7183061     
  -3774889930.8665481       -340033422.60152078        1217506443.2734864     
  -3769066608.8551965       -260428555.82965004        1224474954.8892257     
  -1809616671.5695205       -166488855.85243767        1346674088.8261857     
  -1778643826.1385586       -134086803.15951335        1364271783.7642336     
  -1748950956.8658807       -105951337.66086656        1382664788.4769571     
  -1720538063.7514887       -82082459.356506467        1401853102.9643571     
  -1693405146.7953787       -62480168.246421993        1421836727.2264311     
  -2262971654.5556345       -179021530.44615042        1309346362.8976009     
  -2223232968.9931121       -134668634.06113422        1317195965.9902594     
  -2186374704.8092551       -99917142.271667480        1328235326.2497277     
  -2152396862.0040603       -74767055.077744126        1342464443.6760087     
  -2121299440.5775301       -59218372.479367256        1359883318.2691007     
  -2740664971.7652845       -198855705.30692208        1276537265.2652459     
  -2685319167.8079586       -140499581.75084412        1272771590.4220707     
  -2634454230.4496765       -97079680.191577435        1274590120.1378429     
  -2588070159.6904373       -68596000.629123330        1281992854.4125609     
  -2546166955.5302424       -55048543.063481688        1294979793.2462270     
  -3242696623.1984720       -225991380.43475509        1248246795.9291203     
  -3164902422.5830975       -151579646.22864115        1230998657.0596700     
  -3093189533.7871456       -97438951.420603275        1221729170.1413016     
  -3027557956.8106179       -63569296.010645151        1220438335.1740153     
  -2968007691.6535115       -49970679.998761892        1227126152.1578102     
  -3769066608.8551965       -260428555.82965004        1224474954.8892257     
  -3661982733.3185296       -167908827.49452615        1191877165.9030559     
  -3562580614.8216643       -100994955.95874393        1169652476.2601037     
  -3470860253.3646035       -59686941.222306490        1157800885.9603705     
  -3386821648.9473448       -43984783.285213828        1156322395.0038536     
  -1693405146.7953787       -62480168.246421993        1421836727.2264311     
  -1643844505.3199544       -40729999.245063066        1414941520.1282351     
  -1596023957.6628551       -24780142.971454918        1413057621.7280917     
  -1549943503.8240807       -14630599.425596476        1416185032.0260022     
  -1505603143.8036296       -10281368.607481956        1424323751.0219648     
  -2121299440.5775301       -59218372.479367256        1359883318.2691007     
  -2060127322.2973084       -40913966.742493153        1352154643.0117629     
  -2000206663.4632239       -26781092.492743373        1349141740.4287884     
  -1941537464.0752749       -16819749.730112195        1350844610.5201800     
  -1884119724.1334622       -11029938.454601645        1357263253.2859371     
  -2546166955.5302424       -55048543.063481688        1294979793.2462270     
  -2474227749.0843325       -40443217.182826281        1286987723.2639670     
  -2403051367.7123723       -28380641.548665643        1283415889.9323833     
  -2332637811.4143581       -18860816.160994530        1284264293.2514758     
  -2262987080.1902905       -11883741.019815922        1289532933.2212446     
  -2968007691.6535115       -49970679.998761892        1227126152.1578102     
  -2886145785.6810250       -39317750.566059828        1219440760.8848493     
  -2804558070.4102979       -29578790.139220119        1215880070.2388756     
  -2723244545.8413291       -20753798.718245983        1216444080.2198884     
  -2642205211.9741192       -12842776.303134918        1221132790.8278921     
  -3386821648.9473448       -43984783.285213828        1156322395.0038536     
  -3295881432.0873857       -37537566.892189860        1149513755.8744092     
  -3204726771.5570030       -30375538.264410496        1146534281.3482647     
  -3113357667.3561883       -22498697.401859403        1147383971.4254205     
  -3021774119.4849429       -13907044.304547191        1152062826.1058745     
  -1505603143.8036296       -10281368.607481956        1424323751.0219648     
  -1458582697.7621517       -8025805.8650017977        1417520002.3822341     
  -1411732725.2970331       -6338488.3770490289        1414955738.7441416     
  -1365053226.4082761       -5219416.1436387300        1416630960.1076875     
  -1318544201.0958793       -4668589.1647599936        1422545666.4728708     
  -1884119724.1334622       -11029938.454601645        1357263253.2859371     
  -1825290883.4978466       -7305908.1381909847        1350142724.4441721     
  -1766851755.6142879       -4880920.3286277056        1347527213.9253535     
  -1708802340.4827738       -3754975.0258878469        1349416721.7294805     
  -1651142638.1033115       -3928072.2299834490        1355811247.8565528     
  -2262987080.1902905       -11883741.019815922        1289532933.2212446     
  -2191591178.3282356       -6463643.1397986412        1281839845.1391418     
  -2120804228.3939190       -3073385.0189156532        1278917308.7012928     
  -2050626230.3873415       -1712966.6571578979        1280765323.9076962     
  -1981057184.3085032       -2382388.0545349121        1287383890.7583556     
  -2642205211.9741192       -12842776.303134918        1221132790.8278921     
  -2557483582.2533107       -5499010.8698112965        1212611364.4671452     
  -2473590143.6359310       -915882.44791316986        1209126023.0719607     
  -2390524896.1219811        906608.96254706383        1210676766.6423388     
  -2308287839.7114582       -31536.638415455818        1217263595.1782768     
  -3021774119.4849429       -13907044.304547191        1152062826.1058745     
  -2922968095.2730722       -4412011.3282212019        1142457282.4281795     
  -2825209501.3403239        1591587.3843642473        1138153357.0373573     
  -2728498337.6866894        4103751.8332396746        1139151049.9334018     
  -2632834604.3121748        3124482.0183758736        1145450361.1163197     
  -1318544201.0958793       -4668589.1647599936        1422545666.4728708     
  -1268763268.7843494       -3775985.4189890623        1413892386.0820465     
  -1219233705.9730561       -3721280.0073382854        1410100851.3501174     
  -1169955512.6620002       -4504472.9298132062        1411171062.2770782     
  -1120928688.8511846       -6125564.1864240170        1417103018.8629334     
  -1651142638.1033115       -3928072.2299834490        1355811247.8565528     
  -1589134442.3674526       -3615621.0723113418        1347771018.2623086     
  -1527276533.6455765       -3804126.6279156804        1344408511.6251404     
  -1465568911.9376819       -4493588.8967872262        1345723727.9450486     
  -1404011577.2437711       -5684007.8789473176        1351716667.2220314     
  -1981057184.3085032       -2382388.0545349121        1287383890.7583556     
  -1907347504.2963660       -2807823.2293815613        1280074641.5279891     
  -1833687028.8119543       -3397273.4966465235        1277259092.5528827     
  -1760075757.8552697       -4150738.8563362360        1278937243.8330376     
  -1686513691.4263110       -5068219.3084449768        1285109095.3684478     
  -2308287839.7114582       -31536.638415455818        1217263595.1782768     
  -2223402454.5710888       -1352591.8901940584        1210803255.8790882     
  -2138465191.4721897       -2500720.6135382652        1208652594.1333416     
  -2053476050.4147580       -3475922.8084419966        1210811609.9410369     
  -1968435031.3988028       -4278198.4749356508        1217280303.3021715     
  -2632834604.3121748        3124482.0183758736        1145450361.1163197     
  -2537299293.1916203        750072.94525623322        1139956861.3156061     
  -2441611021.6262841       -1114467.9785867929        1138589016.3665135     
  -2345769789.6161613       -2469140.7531464100        1141346826.2690530     
  -2249775597.1612506       -3313945.3784065247        1148230291.0232124     
  -1120928688.8511846       -6125564.1864240170        1417103018.8629334     
  -1070202429.9881036       -7789650.8578394651        1410321532.5242758     
  -1019589302.2382879       -9830841.2401399612        1407734099.8223040     
  -969089305.60173368       -12249135.333310664        1409340720.7570198     
  -918702440.07844424       -15044533.137365878        1415141395.3284230     
  -1404011577.2437711       -5684007.8789473176        1351716667.2220314     
  -1342303110.5845921       -7349695.2059000731        1344989949.4411526     
  -1280787614.8901315       -9658619.0819134712        1342517399.5564816     
  -1219465090.1604054       -12610779.507039726        1344299017.5680110     
  -1158335536.3953979       -16206176.481233895        1350334803.4757445     
  -1686513691.4263110       -5068219.3084449768        1285109095.3684478     
  -1613651261.9438398       -6683980.7827700973        1278343999.6519773     
  -1541061643.2775557       -9209111.6443839669        1275893186.0912299     
  -1468744835.4274547       -12643611.893278658        1277756654.6862047     
  -1396700838.3935397       -16987481.529454947        1283934405.4369001     
  -1968435031.3988028       -4278198.4749356508        1217280303.3021715     
  -1884246884.0658517       -5792507.5884817839        1210383683.1567426     
  -1800411387.4005485       -8482318.9275254011        1207861459.4265511     
  -1716928541.4028842       -12347632.492026687        1209713632.1116006     
  -1633798346.0728722       -17388448.282041550        1215940201.2118850     
  -2249775597.1612506       -3313945.3784065247        1148230291.0232124     
  -2154089976.9506259       -4675275.6230174303        1141108999.9554527     
  -2058836847.2591100       -7478240.9313231707        1138422219.5624487     
  -1964016208.0866995       -11722841.303307533        1140169949.8441966     
  -1869628059.4333892       -17409076.738970041        1146352190.8007035     
  -918702440.07844424       -15044533.137365878        1415141395.3284230     
  -862309625.31561470       -16345752.627832860        1407056463.5995388     
  -806006496.88451993       -17945926.557417631        1402419712.3604665     
  -749793054.78516626       -19845054.926140845        1401231141.6111929     
  -693669299.01756251       -22043137.734025627        1403490751.3517394     
  -1158335536.3953979       -16206176.481233895        1350334803.4757445     
  -1092826572.0471048       -18689404.574726641        1342870706.2809870     
  -1027257595.6094368       -20972592.370294988        1339243622.5705450     
  -961628607.08239293       -23055739.867951572        1339453552.3444343     
  -895939606.46597111       -24938847.067680329        1343500495.6026316     
  -1396700838.3935397       -16987481.529454947        1283934405.4369001     
  -1320964773.0469007       -20319432.802125514        1277265790.9342351     
  -1245018997.1897633       -22952349.039801180        1274823022.9104078     
  -1168863510.8221378       -24886230.242507517        1276606101.3654110     
  -1092498313.9440143       -26121076.410232067        1282615026.2992442     
  -1633798346.0728722       -17388448.282041550        1215940201.2118850     
  -1546724228.3149953       -21235837.310007334        1210241717.5592921     
  -1459290701.6255083       -23885196.565939784        1209157913.3800433     
  -1371497766.0044069       -25336526.049819231        1212688788.6741340     
  -1283345421.4516971       -25589825.761675656        1220834343.4415667     
  -1869628059.4333892       -17409076.738970041        1146352190.8007035     
  -1770104937.8513887       -21438618.098375440        1141798486.1561477     
  -1670072708.9166567       -23771134.948682845        1142248293.9794464     
  -1569531372.6291971       -24406627.289893031        1147701614.2705944     
  -1468480928.9890056       -23345095.122000396        1158158447.0296071     
  -3768300305.4361215       -1130490091.6308365        800572814.75913763     
  -3779141537.0564194       -1008667353.6330053        884848757.86715591     
  -3790597722.5003581       -888894461.71397901        974048122.24157643     
  -3802668861.7679391       -771171415.87375879        1068170907.8823994     
  -3815354954.8591619       -655498216.11234403        1167217114.7896252     
  -4339812328.7003517       -1301943698.6101055        858766202.25361574     
  -4335268343.1921883       -1125711847.0893061        942356279.37692213     
  -4331864470.8619318       -953280372.82819593        1020301768.3658030     
  -4329600711.7095814       -784649275.82677555        1092602669.2202590     
  -4328477065.7351389       -619818556.08504462        1159258981.9402888     
  -4895261701.1076126       -1468578510.3322837        936417297.46799099     
  -4905526811.0447826       -1246995839.0606546        1018708822.6932760     
  -4917457193.5141239       -1030964076.2295984        1084787750.3833079     
  -4931052848.5156393       -820483221.83911669        1134654080.5380867     
  -4946313776.0493250       -615553275.88920820        1168307813.1576121     
  -5434648422.6579056       -1630394526.7973719        1033526100.4022629     
  -5489916940.6142025       -1372519329.5470507        1113906387.8162174     
  -5547375890.4569387       -1121945571.9181876        1167506068.2940907     
  -5607025272.1861095       -878673253.91078150        1194325141.8358834     
  -5668865085.8017178       -642702375.52483320        1194363608.4415946     
  -5957972493.3512325       -1787391748.0053697        1150092611.0564322     
  -6088438731.9004498       -1502282318.5484946        1227948974.7457464     
  -6221620561.6903696       -1226224859.8939619        1268456722.0981522     
  -6357517982.7209949       -959219372.04177117        1271615853.1136487     
  -6496130994.9923182       -701265854.99192190        1237426367.7922361     
  -3815354954.8591619       -655498216.11234403        1167217114.7896252     
  -3798034103.8685284       -537568252.74286592        1188877523.2236857     
  -3784545762.5376568       -432413321.57259047        1205640632.7183061     
  -3774889930.8665481       -340033422.60152078        1217506443.2734864     
  -3769066608.8551965       -260428555.82965004        1224474954.8892257     
  -4328477065.7351389       -619818556.08504462        1159258981.9402888     
  -4298286809.0711622       -464084680.47423089        1141331170.5356822     
  -4278703797.9135280       -343708289.88455689        1129476221.1481640     
  -4269728032.2622371       -258689384.31602263        1123694133.7777350     
  -4271359512.1172872       -209027963.76862836        1123984908.4243946     
  -4946313776.0493250       -615553275.88920820        1168307813.1576121     
  -4871910796.6933498       -412612492.93146253        1102887923.4266598     
  -4814889798.6902981       -267611647.81679225        1054511056.6693252     
  -4775250782.0401688       -180550740.54519916        1023177212.8856090     
  -4752993746.7429619       -151429771.11668086        1008886392.0755112     
  -5668865085.8017178       -642702375.52483320        1194363608.4415946     
  -5518906066.7350903       -383151690.11455941        1073547781.8966184     
  -5393103764.8679609       -204123395.36929536        980745139.28178990     
  -5291458180.2003422       -105617491.28904772        915955680.59710956     
  -5213969312.7322216       -87633977.873808146        879179405.84257615     
  -6496130994.9923182       -701265854.99192190        1237426367.7922361     
  -6239272619.1963787       -375702272.02352142        1053310745.9455584     
  -6013345696.4465246       -153243532.54206920        908178468.98555815     
  -5818350226.7427540       -33889636.547567129        802029536.91223621     
  -5654286210.0850687       -17640584.040013552        734863949.72558975     
  -3769066608.8551965       -260428555.82965004        1224474954.8892257     
  -3661982733.3185296       -167908827.49452615        1191877165.9030559     
  -3562580614.8216643       -100994955.95874393        1169652476.2601037     
  -3470860253.3646035       -59686941.222306490        1157800885.9603705     
  -3386821648.9473448       -43984783.285213828        1156322395.0038536     
  -4271359512.1172872       -209027963.76862836        1123984908.4243946     
  -4148530759.6401820       -144793437.77144146        1090514732.6688600     
  -4030104628.1950994       -95234315.214330673        1065310255.7561225     
  -3916081117.7820439       -60350596.097301960        1048371477.6861801     
  -3806460228.4010091       -40142280.420353413        1039698398.4590360     
  -4752993746.7429619       -151429771.11668086        1008886392.0755112     
  -4620441261.6123400       -117286790.74350810        978369488.22635567     
  -4489012261.5059595       -86888760.451148033        954010882.71957457     
  -4358706746.4238224       -60235680.239599466        935810575.55516911     
  -4229524716.3659310       -37327550.108866453        923768566.73313820     
  -5213969312.7322216       -87633977.873808146        879179405.84257615     
  -5077714239.2349968       -85388886.410723686        855441432.57554150     
  -4939303514.7542391       -75958291.669188261        835754357.15046144     
  -4798737139.2899446       -59342193.649200201        820118179.56733394     
  -4656015112.8421106       -35540592.350757837        808532899.82616031     
  -5654286210.0850687       -17640584.040013552        734863949.72558975     
  -5520349692.5081635       -49099724.773093700        721730565.71641886     
  -5380978387.9399414       -62442908.868458986        710540679.04878068     
  -5236172296.3804026       -57670136.326099873        701294289.72267485     
  -5085931417.8295498       -34781407.146030188        693991397.73810089     
  -3386821648.9473448       -43984783.285213828        1156322395.0038536     
  -3295881432.0873857       -37537566.892189860        1149513755.8744092     
  -3204726771.5570030       -30375538.264410496        1146534281.3482647     
  -3113357667.3561883       -22498697.401859403        1147383971.4254205     
  -3021774119.4849429       -13907044.304547191        1152062826.1058745     
  -3806460228.4010091       -40142280.420353413        1039698398.4590360     
  -3703451145.4205513       -29577228.858551741        1031775504.2500222     
  -3601089807.6904755       -21171328.131353617        1028356918.9529902     
  -3499376215.2107773       -14924578.238755465        1029442642.5679406     
  -3398310367.9814634       -10836979.180762529        1035032675.0948747     
  -4229524716.3659310       -37327550.108866453        923768566.73313820     
  -4112517783.5258794       -22065968.256561279        913725530.37027550     
  -3997020784.8570161       -11837500.308220148        908861947.22807920     
  -3883033720.3593435       -6642146.2638466358        909177817.30654764     
  -3770556590.0328617       -6479906.1234393120        914673140.60568154     
  -4656015112.8421106       -35540592.350757837        808532899.82616031     
  -4523081346.4033699       -15003785.086214542        795363834.23517144     
  -4392519703.0566282       -2374054.7950074673        788049366.17353165     
  -4264330182.8018832        2348598.5228743553        786589495.64123952     
  -4138512785.6391435       -835825.13258266449        790984222.63829815     
  -5085931417.8295498       -34781407.146030188        693991397.73810089     
  -4935141834.0530262       -8390679.3475270271        676690415.84470749     
  -4787586562.2893085        7219008.4082870483        665919175.78934669     
  -4643265602.5383987        12047656.121399641        661677677.57201648     
  -4502178954.8003035        6095263.7918119431        663965921.19271970     
  -3021774119.4849429       -13907044.304547191        1152062826.1058745     
  -2922968095.2730722       -4412011.3282212019        1142457282.4281795     
  -2825209501.3403239        1591587.3843642473        1138153357.0373573     
  -2728498337.6866894        4103751.8332396746        1139151049.9334018     
  -2632834604.3121748        3124482.0183758736        1145450361.1163197     
  -3398310367.9814634       -10836979.180762529        1035032675.0948747     
  -3287562733.7877822       -5564217.6331844330        1025812687.3285847     
  -3177301007.2666187       -1911148.3273359537        1021451305.4372967     
  -3067525188.4179759        122228.73678410053        1021948529.4210098     
  -2958235277.2418485        535913.55918014050        1027304359.2797287     
  -3770556590.0328617       -6479906.1234393120        914673140.60568154     
  -3649133095.6055651       -5809140.9290697575        906493818.45849454     
  -3527633986.2441850       -4886325.9544222355        902730089.77444315     
  -3406059261.9487219       -3711461.1995058060        903381954.55352581     
  -3284408922.7191811       -2284546.6643161774        908449412.79574347     
  -4138512785.6391435       -835825.13258266449        790984222.63829815     
  -4007679180.7264171       -5146781.2158722878        784500675.81791437     
  -3876208438.2730126       -7333945.4968874454        781989710.04879737     
  -3744100558.2789278       -7397317.9756386280        783451325.33094847     
  -3611355540.7441568       -5336898.6521091461        788885521.66436899     
  -4502178954.8003035        6095263.7918119431        663965921.19271970     
  -4363200989.1503496       -3577138.4936020374        659833259.40684140     
  -4223024363.3531098       -9254006.9547331333        659230166.26036084     
  -4081649077.4085917       -10935341.591602564        662156641.75328076     
  -3939075131.3167872       -8621142.4041888714        668612685.88560438     
  -2632834604.3121748        3124482.0183758736        1145450361.1163197     
  -2537299293.1916203        750072.94525623322        1139956861.3156061     
  -2441611021.6262841       -1114467.9785867929        1138589016.3665135     
  -2345769789.6161613       -2469140.7531464100        1141346826.2690530     
  -2249775597.1612506       -3313945.3784065247        1148230291.0232124     
  -2958235277.2418485        535913.55918014050        1027304359.2797287     
  -2851578772.5697737       -674601.02571320534        1021609586.4383625     
  -2744986367.3390746       -2098780.4151955843        1020075331.9800258     
  -2638458061.5497513       -3736624.6092643738        1022701595.9047245     
  -2531993855.2018056       -5588133.6079202890        1029488378.2124528     
  -3284408922.7191811       -2284546.6643161774        908449412.79574347     
  -3166531614.4058452       -2301283.7340639830        902300130.37986982     
  -3048935465.4200478       -3255218.5622659922        900346229.87843561     
  -2931620475.7617903       -5146351.1489270926        902587711.29144096     
  -2814586645.4310646       -7974681.4940466881        909024574.61888456     
  -3611355540.7441568       -5336898.6521091461        788885521.66436899     
  -3482157818.6998339       -4129975.1797869205        782028493.14013422     
  -3353458315.8692079       -4583782.4197957516        779401710.06174278     
  -3225257032.2522793       -6698320.3721297979        781005172.42919827     
  -3097553967.8490477       -10473589.036788106        786838880.24250102     
  -3939075131.3167872       -8621142.4041888714        668612685.88560438     
  -3798457385.4517412       -6160675.3628938198        660794674.71915102     
  -3658554918.6865439       -6084471.9877707958        657241772.52995074     
  -3519367731.0212131       -8392532.2788622379        657953979.31800306     
  -3380895822.4557381       -13084856.236141443        662931295.08331287     
  -2249775597.1612506       -3313945.3784065247        1148230291.0232124     
  -2154089976.9506259       -4675275.6230174303        1141108999.9554527     
  -2058836847.2591100       -7478240.9313231707        1138422219.5624487     
  -1964016208.0866995       -11722841.303307533        1140169949.8441966     
  -1869628059.4333892       -17409076.738970041        1146352190.8007035     
  -2531993855.2018056       -5588133.6079202890        1029488378.2124528     
  -2425051739.0276794       -7708307.9144439697        1021845099.6109922     
  -2318317196.9873748       -10520396.000366092        1018601271.2440623     
  -2211790229.0808883       -14024397.865690231        1019756893.1116647     
  -2105470835.3082232       -18220313.510423899        1025311965.2138026     
  -2814586645.4310646       -7974681.4940466881        909024574.61888456     
  -2696488205.9797921       -10883751.668380737        901121710.93322003     
  -2578372424.2770486       -13735014.337835431        897583237.04186416     
  -2460239300.3228436       -16528469.502399564        898409152.94482040     
  -2342088834.1171761       -19264117.162099719        903599458.64208567     
  -3097553967.8490477       -10473589.036788106        786838880.24250102     
  -2968399377.8069687       -14201606.884838820        778938833.92213511     
  -2839002529.1281390       -17122095.943728089        775368116.95585322     
  -2709363421.8125591       -19235056.213441849        776126729.34366381     
  -2579482055.8602338       -20540487.694020510        781214671.08555746     
  -3380895822.4557381       -13084856.236141443        662931295.08331287     
  -3240785254.5092072       -17661873.563815594        655296468.57774079     
  -3100207511.5406418       -20681640.818046689        651955910.98603058     
  -2959162593.5500369       -22144157.998805165        652909622.30818713     
  -2817650500.5374064       -22049425.106155753        658157602.54421389     
  -1869628059.4333892       -17409076.738970041        1146352190.8007035     
  -1770104937.8513887       -21438618.098375440        1141798486.1561477     
  -1670072708.9166567       -23771134.948682845        1142248293.9794464     
  -1569531372.6291971       -24406627.289893031        1147701614.2705944     
  -1468480928.9890056       -23345095.122000396        1158158447.0296071     
  -2105470835.3082232       -18220313.510423899        1025311965.2138026     
  -1993651653.6015735       -22788864.735748410        1019915019.3224926     
  -1882958461.6912861       -31110715.282299399        1019097455.6436591     
  -1773391259.5773711       -43185865.150095820        1022859274.1772989     
  -1664950047.2598312       -59014314.339125216        1031200474.9234190     
  -2342088834.1171761       -19264117.162099719        903599458.64208567     
  -2219185393.0155191       -24735218.472234845        895451658.16340709     
  -2099043038.8593383       -39409942.933946133        891459109.64182866     
  -1981661771.6486247       -63288290.547224045        891621813.07734287     
  -1867041591.3833721       -96370261.312058032        895939768.46995461     
  -2579482055.8602338       -20540487.694020510        781214671.08555746     
  -2446706156.0932336       -27277679.307865977        768408402.67889524     
  -2318326440.4208069       -48668817.903619528        759333255.97395146     
  -2194342908.8429465       -84713903.481271982        753989230.97071660     
  -2074755561.3596570       -135412936.04082066        752376327.66921997     
  -2817650500.5374064       -22049425.106155753        658157602.54421389     
  -2676213942.8347135       -30416247.242616773        638785252.86895037     
  -2540808666.3756909       -58887340.191310644        622719894.64002550     
  -2411434671.1603432       -107462703.95224249        609961527.85744059     
  -2288091957.1886525       -176142338.52538979        600510152.52119672     
  -5957972493.3512325       -1787391748.0053697        1150092611.0564322     
  -6088438731.9004498       -1502282318.5484946        1227948974.7457464     
  -6221620561.6903696       -1226224859.8939619        1268456722.0981522     
  -6357517982.7209949       -959219372.04177117        1271615853.1136487     
  -6496130994.9923182       -701265854.99192190        1237426367.7922361     
  -6810615085.4433651       -2043184525.6330094        1353809639.9182224     
  -6828519874.1902180       -1395490604.4996738        1202782116.0103991     
  -6897784164.8627043       -918995023.11845112        1092015594.8236597     
  -7018407957.4608240       -613697781.48933935        1021510076.3580037     
  -7190391251.9845772       -479598879.61233997        991265560.61343110     
  -8337957371.1900816       -2501387211.3570247        1712369997.4753573     
  -8021558941.3974504       -1424586267.9260919        1275707356.8379769     
  -7805163924.2153807       -681130033.19704247        956915337.97967279     
  -7688772319.6438732       -271018507.16987276        755993940.90044463     
  -7672384127.6829348       -194251689.84458828        672943165.60029292     
  -10539999350.591381       -3161999805.1774144        2225773683.7278371     
  -9667555933.5221405       -1589569308.8277483        1446724697.2284806     
  -8943759839.7483940       -512629890.12973452        863155951.56619227     
  -8368611069.2701435        68818450.916625977        475067446.74097323     
  -7942109622.0873899        154775714.31133509        282459182.75282121     
  -13416741023.647264       -4025022307.0941796        2894020698.6756620     
  -11766510850.564295       -1890439727.2046430        1715834137.1819086     
  -10313571911.461750       -413494593.91653061        810737435.58321679     
  -9057924206.3396320        405813092.77016068        178730593.87958571     
  -7999567735.1979446        567483332.85542727       -180186387.92898473     
  -6496130994.9923182       -701265854.99192190        1237426367.7922361     
  -6239272619.1963787       -375702272.02352142        1053310745.9455584     
  -6013345696.4465246       -153243532.54206920        908178468.98555815     
  -5818350226.7427540       -33889636.547567129        802029536.91223621     
  -5654286210.0850687       -17640584.040013552        734863949.72558975     
  -7190391251.9845772       -479598879.61233997        991265560.61343110     
  -6900521689.1847248       -304287270.50707054        846970242.71551681     
  -6623474921.1419659       -171718310.59212708        723758333.13312089     
  -6359250947.8563099       -81891999.867514849        621629831.86624289     
  -6107849769.3277493       -34808338.333228588        540584738.91488373     
  -7672384127.6829348       -194251689.84458828        672943165.60029292     
  -7400646053.7967606       -184534857.37772655        589594919.65495765     
  -7123622116.3786983       -157198479.80457163        509430145.45398343     
  -6841312315.4287491       -112242557.12512422        432448842.99736726     
  -6553716650.9469147       -49667089.339388371        358651012.28511178     
  -7942109622.0873899        154775714.31133509        282459182.75282121     
  -7739645713.0324936       -16445032.635491371        281184776.76388347     
  -7513787282.1567230       -109684040.17940378        265193905.94814733     
  -7264534329.4600801       -124941308.32040691        234486570.30561289     
  -6991886854.9425602       -62216837.058491230        189062769.83627811     
  -7999567735.1979446        567483332.85542727       -180186387.92898473     
  -7917520666.8919201        199982203.71963549       -78260185.957709163     
  -7793970418.4760361       -29174991.716621876       -8950385.3843871932     
  -7628916989.9502926       -119988253.45334721        27743013.790970851     
  -7422360381.3146896       -72457581.490541458        31820011.568377163     
  -5654286210.0850687       -17640584.040013552        734863949.72558975     
  -5520349692.5081635       -49099724.773093700        721730565.71641886     
  -5380978387.9399414       -62442908.868458986        710540679.04878068     
  -5236172296.3804026       -57670136.326099873        701294289.72267485     
  -5085931417.8295498       -34781407.146030188        693991397.73810089     
  -6107849769.3277493       -34808338.333228588        540584738.91488373     
  -5959108945.8836098       -36435589.120827436        534214232.70887005     
  -5809355968.8669109       -34688994.666579008        530403874.45639414     
  -5658590838.2776594       -29568554.970482588        529153664.15745747     
  -5506813554.1158571       -21074270.032543182        530463601.81205684     
  -6553716650.9469147       -49667089.339388371        358651012.28511178     
  -6388409662.7440939       -20933892.514074087        353883644.89370281     
  -6226513154.3874807       -3568961.8427844048        352293076.06783479     
  -6068027125.8770733        2427702.6744856834        353879305.80751014     
  -5912951577.2128754       -2943898.9622676373        358642334.11272812     
  -6991886854.9425602       -62216837.058491230        189062769.83627811     
  -6808251843.0896177       -2594634.9528312683        180738802.27091661     
  -6632449944.5016422        30917189.602941036        176208283.88310200     
  -6464481159.1786346        38318636.608817577        175471214.67283541     
  -6304345487.1205959        19609706.064803839        178527594.64011559     
  -7422360381.3146896       -72457581.490541458        31820011.568377163     
  -7218635486.9201851        18582183.562895775        14779704.840507135     
  -7027166339.2094040        68769459.670579910        2149497.9021927202     
  -6847952938.1823540        78104246.832489967       -6070609.2465687599     
  -6680995283.8390350        46586545.048644543       -9880616.6057785470     
  -5085931417.8295498       -34781407.146030188        693991397.73810089     
  -4935141834.0530262       -8390679.3475270271        676690415.84470749     
  -4787586562.2893085        7219008.4082870483        665919175.78934669     
  -4643265602.5383987        12047656.121399641        661677677.57201648     
  -4502178954.8003035        6095263.7918119431        663965921.19271970     
  -5506813554.1158571       -21074270.032543182        530463601.81205684     
  -5345175241.9029350       -9585138.8496687412        515222268.63773435     
  -5184524992.3859119       -1389549.9864554405        505235199.33390838     
  -5024862805.5647907        3512496.5570881367        500502393.90057832     
  -4866188681.4395590        5121000.7809844017        501023852.33774358     
  -5912951577.2128754       -2943898.9622676373        358642334.11272812     
  -5744108759.3279428       -7449631.2243444920        348081273.86053938     
  -5574007754.8219995       -7761408.0830461979        341498999.51131111     
  -5402648563.6950464       -3879229.5383739471        338895511.06504691     
  -5230031185.9470778        4196904.4096729755        340270808.52173942     
  -6304345487.1205959        19609706.064803839        178527594.64011559     
  -6131942386.3280468       -1984156.4715487957        175267431.51312321     
  -5956034849.5975752       -11896565.881489277        174710576.32156074     
  -5776622876.9291725       -10127522.165000916        176857029.06541583     
  -5593706468.3228531        3322974.6778919697        181706789.74470150     
  -6680995283.8390350        46586545.048644543       -9880616.6057785470     
  -6508676122.9032478        6811285.4087231159       -3219258.4045091467     
  -6330606276.7126293       -13795023.381762743        4869929.7646484720     
  -6146785745.2671728       -15232381.322789431        14386947.901695110     
  -5957214528.5668850        2499211.5856277943        25331796.006633490     
  -4502178954.8003035        6095263.7918119431        663965921.19271970     
  -4363200989.1503496       -3577138.4936020374        659833259.40684140     
  -4223024363.3531098       -9254006.9547331333        659230166.26036084     
  -4081649077.4085917       -10935341.591602564        662156641.75328076     
  -3939075131.3167872       -8621142.4041888714        668612685.88560438     
  -4866188681.4395590        5121000.7809844017        501023852.33774358     
  -4715626189.6144285        3190886.7599830627        497832934.57645315     
  -4564804291.2834187        2125461.0919041634        498236940.24949211     
  -4413722986.4465313        1924723.7767586708        502235869.35686541     
  -4262382275.1037621        2588674.8145434856        509829721.89857221     
  -5230031185.9470778        4196904.4096729755        340270808.52173942     
  -5067697439.9612474        10065097.048731089        336925838.87006187     
  -4906043541.1109362        13667132.569389105        337241147.44764978     
  -4745069489.3961592        15003010.971610069        341216734.25450367     
  -4584775284.8169041        14072732.255422115        348852599.29062593     
  -5593706468.3228531        3322974.6778919697        181706789.74470150     
  -5419414740.1907978        17045492.372678518        177111972.28767070     
  -5246742112.8356714        25371007.477701664        176242787.85483006     
  -5075688586.2574768        28299519.992957830        179099236.44619745     
  -4906254160.4562073        25831029.918463945        185681318.06176239     
  -5957214528.5668850        2499211.5856277943        25331796.006633490     
  -5770778090.3030882        24132072.731789351        18391334.829274431     
  -5586900006.4576187        37237085.816851139        15241861.471042497     
  -5405580277.0304861        41814250.840796232        15883375.931951063     
  -5226818902.0216846        37863567.803640604        20315878.211983714     
  -3939075131.3167872       -8621142.4041888714        668612685.88560438     
  -3798457385.4517412       -6160675.3628938198        660794674.71915102     
  -3658554918.6865439       -6084471.9877707958        657241772.52995074     
  -3519367731.0212131       -8392532.2788622379        657953979.31800306     
  -3380895822.4557381       -13084856.236141443        662931295.08331287     
  -4262382275.1037621        2588674.8145434856        509829721.89857221     
  -4111124135.6071200        3372375.8575942516        501839499.38127559     
  -3960030113.6762710        3609018.3479928970        498156032.06447089     
  -3809100209.3112326        3298602.2856869698        498779319.94816023     
  -3658334422.5119953        2441127.6707193851        503709363.03233886     
  -4584775284.8169041        14072732.255422115        348852599.29062593     
  -4422757762.4794111        13215364.063004732        341333187.21221918     
  -4260353196.1736655        13648142.431442738        338162176.55754566     
  -4097561585.8996620        15371067.360716343        339339567.32659698     
  -3934382931.6574130        18384138.850830793        344865359.51938230     
  -4906254160.4562073        25831029.918463945        185681318.06176239     
  -4733358266.0686216        23368289.253344536        179275738.21197951     
  -4559524166.1787224        24032900.262584209        177260206.00915927     
  -4384751860.7865086        27824862.946222544        179634721.45331690     
  -4209041349.8919897        34744177.304198503        186399284.54443619     
  -5226818902.0216846        37863567.803640604        20315878.211983714     
  -5042925646.3747482        33831151.428596020        15667152.380555160     
  -4857543023.6914330        34763291.841470957        15450120.419330355     
  -4670671033.9717636        40659989.042189837        19664782.328317225     
  -4482309677.2157259        51521243.030817747        28311138.107505441     
  -3380895822.4557381       -13084856.236141443        662931295.08331287     
  -3240785254.5092072       -17661873.563815594        655296468.57774079     
  -3100207511.5406418       -20681640.818046689        651955910.98603058     
  -2959162593.5500369       -22144157.998805165        652909622.30818713     
  -2817650500.5374064       -22049425.106155753        658157602.54421389     
  -3658334422.5119953        2441127.6707193851        503709363.03233886     
  -3505988087.3279114        2032655.1723790169        496850453.97585344     
  -3353494225.1706657        2115939.2512478828        494147432.76608121     
  -3200852836.0402441        2690979.9073615074        495600299.40301794     
  -3048063919.9366503        3757777.1407191753        501209053.88667363     
  -3934382931.6574130        18384138.850830793        344865359.51938230     
  -3770196203.7133594        22025598.838538408        338409445.18830574     
  -3606181596.8450027        25093321.907251358        335971037.63679332     
  -3442339111.0523400        27587308.056984663        337550136.86484092     
  -3278668746.3353672        29507557.287748814        343146742.87244767     
  -4209041349.8919897        34744177.304198503        186399284.54443619     
  -4033409603.6655388        42316957.434687853        179973442.21509659     
  -3858269626.5636554        48250507.149962425        177426725.59816921     
  -3683621418.5863295        52544826.450035095        178759134.69364470     
  -3509464979.7335606        55199915.334923983        183970669.50153586     
  -4482309677.2157259        51521243.030817747        28311138.107505441     
  -4295628287.1844587        62906730.960808277        21542445.056224816     
  -4109758314.3266177        71587494.979380131        18514496.650211800     
  -3924699758.6422029        77563535.086518288        19227292.889438208     
  -3740452620.1312022        80834851.282298088        23680833.773934793     
  -2817650500.5374064       -22049425.106155753        658157602.54421389     
  -2676213942.8347135       -30416247.242616773        638785252.86895037     
  -2540808666.3756909       -58887340.191310644        622719894.64002550     
  -2411434671.1603432       -107462703.95224249        609961527.85744059     
  -2288091957.1886525       -176142338.52538979        600510152.52119672     
  -3048063919.9366503        3757777.1407191753        501209053.88667363     
  -2895444715.6640429        7545759.2293678522        478823147.71709859     
  -2741145281.1747603        16934508.706929922        458927331.10301656     
  -2585165616.4687896        31924025.573431730        441521604.04442918     
  -2427505721.5461535        52514309.828852534        426605966.54134053     
  -3278668746.3353672        29507557.287748814        343146742.87244767     
  -3117200900.8952546        44750141.980775952        326744043.57896155     
  -2946341313.7781119        91298532.263892412        312014531.95012152     
  -2766089984.9839330        169152728.13709831        298958207.98594046     
  -2576446914.5127540        278312729.60036504        287575071.68640482     
  -3509464979.7335606        55199915.334923983        183970669.50153586     
  -3341482498.5283360        81196901.011642456        182547940.45453957     
  -3156396764.1857543        164204730.47956109        181981497.18135306     
  -2954207776.7057891        304223403.73873389        182271339.68197602     
  -2734915536.0884590        501252920.78914917        183417467.95640028     
  -3740452620.1312022        80834851.282298088        23680833.773934793     
  -3568289508.5632982        116886036.32193112        46234838.343836784     
  -3371311632.3976789        235653103.35396004        68828226.796696857     
  -3149518991.6343269        437136052.37839341        91460999.132532462     
  -2902911586.2732854        721334883.39519060        114133155.35132328     
 </DataArray>
 <DataArray  type="Float64" Name="VM" NumberOfComponents="1" format="ascii">
   12935730739.819141     
   11340763676.033119     
   10210192098.666691     
   9272665922.2943878     
   8303742773.3914375     
   10130378011.660233     
   9322025271.4282932     
   8826318906.6548939     
   8443421658.0341568     
   8035524627.0033331     
   7982395893.0120020     
   7734968581.1223078     
   7669110204.9518127     
   7669514439.3188362     
   7666250442.8558102     
   6491697706.9780703     
   6586880659.9442291     
   6757399137.0735435     
   6961173919.6652889     
   7171545167.4501085     
   5657836482.7035246     
   5890921876.5879498     
   6116374039.1442890     
   6331737749.7012367     
   6536791942.1080799     
   8303742773.3914375     
   8020527638.1415434     
   7779439399.5139351     
   7569788650.9685135     
   7386603752.0115271     
   8035524627.0033331     
   7746760749.6693277     
   7473678531.2075796     
   7214317763.0672626     
   6968685230.0384398     
   7666250442.8558102     
   7381111330.3753138     
   7101368746.3286591     
   6827100570.9853544     
   6558510225.3881254     
   7171545167.4501085     
   6911014772.9874754     
   6658379206.6920395     
   6409779877.9330788     
   6162072046.3130226     
   6536791942.1080799     
   6328819534.3034630     
   6143017833.5294676     
   5965477368.0235338     
   5787192229.2805166     
   7386603752.0115271     
   7227989825.6818285     
   7061803189.8126802     
   6887345241.9234629     
   6704431792.2913656     
   6968685230.0384398     
   6814149580.6482086     
   6654964532.5892525     
   6490844746.4078283     
   6321740205.8624668     
   6558510225.3881254     
   6407353811.7155724     
   6254565360.2956409     
   6100113289.8957710     
   5944028167.9187794     
   6162072046.3130226     
   6012598263.2775354     
   5864493515.3500404     
   5717798441.8364992     
   5572572338.4944630     
   5787192229.2805166     
   5636338251.7932091     
   5489756620.7619209     
   5347363503.1201134     
   5209211501.0356970     
   6704431792.2913656     
   6512086824.4002934     
   6323725675.6081591     
   6139234300.0891113     
   5958626068.4330816     
   6321740205.8624668     
   6138461586.6842718     
   5957785465.5709095     
   5779689159.3900967     
   5604212961.0916300     
   5944028167.9187794     
   5771960772.9360542     
   5601448495.0026255     
   5432514973.7858896     
   5265220454.1918201     
   5572572338.4944630     
   5414436069.7697992     
   5257174620.6214991     
   5100825061.2697029     
   4945484098.3654652     
   5209211501.0356970     
   5068334626.9114485     
   4928077097.6165314     
   4788470853.7350025     
   4649693183.0454464     
   5958626068.4330816     
   5782969624.9047766     
   5605673474.0704222     
   5426677961.1459150     
   5245971187.1787310     
   5604212961.0916300     
   5436619282.1475410     
   5268324798.1862726     
   5099341589.3788242     
   4929722444.4708424     
   5265220454.1918201     
   5106194530.0233994     
   4947493945.3238220     
   4789194760.7779636     
   4631412006.5765181     
   4945484098.3654652     
   4795383244.7267199     
   4646704767.3280811     
   4499574658.4971685     
   4354161494.0091972     
   4649693183.0454464     
   4508665843.0858870     
   4370205229.6614122     
   4234465586.0576496     
   4101652917.5403323     
   5245971187.1787310     
   5059998812.0814209     
   4875091077.6007853     
   4691256834.1430340     
   4508557774.5926170     
   4929722444.4708424     
   4755234631.9029789     
   4581886110.5382280     
   4409720412.7577477     
   4238833565.6724639     
   4631412006.5765181     
   4468661349.4677954     
   4307203559.6406269     
   4147129746.7495613     
   3988587922.4352450     
   4354161494.0091972     
   4203658636.6607580     
   4054703644.0109811     
   3907449605.2679820     
   3762115964.4219632     
   4101652917.5403323     
   3964197800.8325810     
   3828668303.5517001     
   3695293434.4670224     
   3564382547.1451664     
   4508557774.5926170     
   4327585446.9861717     
   4146139630.2372837     
   3964190579.5807071     
   3781740519.1404047     
   4238833565.6724639     
   4066698500.4808021     
   3894762741.6324630     
   3723069626.4051032     
   3551710751.4830198     
   3988587922.4352450     
   3826417152.2541542     
   3665282536.0268888     
   3505316642.4618063     
   3346719887.6355233     
   3762115964.4219632     
   3611047518.5171566     
   3462018029.5317326     
   3315258438.8080740     
   3171087080.0484800     
   3564382547.1451664     
   3425493110.5382433     
   3289792773.7150464     
   3157606431.8113198     
   3029360862.6211281     
   3781740519.1404047     
   3629028597.2695065     
   3497134045.1141624     
   3392995939.7638783     
   3328703983.8819146     
   3551710751.4830198     
   3397556106.5010161     
   3256908165.7575941     
   3133417165.9264498     
   3033616288.3892140     
   3346719887.6355233     
   3190411293.4381008     
   3041433609.3304768     
   2901014675.8486948     
   2771406307.7442980     
   3171087080.0484800     
   3015513254.4099932     
   2862241615.5018306     
   2711356355.3601904     
   2563005760.3874850     
   3029360862.6211281     
   2881975994.1411824     
   2733659660.5123014     
   2585263104.3783083     
   2438277752.4800687     
   5657836482.7035246     
   5890921876.5879498     
   6116374039.1442890     
   6331737749.7012367     
   6536791942.1080799     
   5151455847.4485350     
   5311340935.0854568     
   5467860512.0157290     
   5618121891.0517378     
   5760661241.1179810     
   4643475626.2556000     
   4755557106.2741852     
   4868762045.2994041     
   4980456648.8827372     
   5088716497.9995127     
   4134159563.7513270     
   4224407876.5816789     
   4320573917.9949093     
   4420999946.1816444     
   4524230598.4216566     
   3625026810.4919100     
   3719717175.6790347     
   3825654502.0469451     
   3942772319.0602360     
   4070975356.7448211     
   6536791942.1080799     
   6328819534.3034630     
   6143017833.5294676     
   5965477368.0235338     
   5787192229.2805166     
   5760661241.1179810     
   5652262000.6625748     
   5559852427.1636009     
   5474371070.3171873     
   5390278668.1040487     
   5088716497.9995127     
   5054170350.9084368     
   5030133187.1420403     
   5011398842.9556637     
   4994766364.2335405     
   4524230598.4216566     
   4539139295.6979952     
   4558724077.6176271     
   4580505416.4310894     
   4602759760.5191460     
   4070975356.7448211     
   4112496737.8712535     
   4151383854.9643888     
   4186740234.7910504     
   4217834788.8731108     
   5787192229.2805166     
   5636338251.7932091     
   5489756620.7619209     
   5347363503.1201134     
   5209211501.0356970     
   5390278668.1040487     
   5249022092.4110470     
   5111043323.2861662     
   4976385588.4432869     
   4845145888.4230719     
   4994766364.2335405     
   4867436438.4501839     
   4743326503.9023609     
   4622404944.6822653     
   4504713084.2293291     
   4602759760.5191460     
   4494247402.9936686     
   4389950621.2971058     
   4289550553.5213299     
   4192954705.0127077     
   4217834788.8731108     
   4133418103.9492865     
   4055445560.1567130     
   3983061268.8900771     
   3915963657.8895655     
   5209211501.0356970     
   5068334626.9114485     
   4928077097.6165314     
   4788470853.7350025     
   4649693183.0454464     
   4845145888.4230719     
   4721063177.5182676     
   4598572855.4154921     
   4477800992.4652796     
   4358990459.3547115     
   4504713084.2293291     
   4396274078.6465654     
   4290348548.0527673     
   4187125054.7759805     
   4086879860.9440284     
   4192954705.0127077     
   4098849771.6099610     
   4008068117.2225199     
   3920827258.0184808     
   3837405541.9860063     
   3915963657.8895655     
   3834666835.3253989     
   3757322667.4393363     
   3684145165.0262341     
   3615388575.6929770     
   4649693183.0454464     
   4508665843.0858870     
   4370205229.6614122     
   4234465586.0576496     
   4101652917.5403323     
   4358990459.3547115     
   4229328101.2908630     
   4102577416.9146476     
   3978949025.1830049     
   3858712866.1011443     
   4086879860.9440284     
   3969911950.6175547     
   3856391200.5821753     
   3746586296.9541874     
   3640835729.7300839     
   3837405541.9860063     
   3734525670.3212996     
   3635830215.6340089     
   3541641162.7172151     
   3452362139.1229606     
   3615388575.6929770     
   3527958575.2429967     
   3445647547.0274024     
   3368814693.8921776     
   3297912013.4330873     
   4101652917.5403323     
   3964197800.8325810     
   3828668303.5517001     
   3695293434.4670224     
   3564382547.1451664     
   3858712866.1011443     
   3734402843.3173857     
   3612856659.0923491     
   3494371363.0559287     
   3379327453.9784617     
   3640835729.7300839     
   3530166745.0627799     
   3423151050.9342246     
   3320140310.2377138     
   3221566882.7389479     
   3452362139.1229606     
   3355687219.3119884     
   3263564690.1435189     
   3176377125.1263204     
   3094578154.4814658     
   3297912013.4330873     
   3215322124.1080661     
   3138136289.3599520     
   3066735675.2249074     
   3001556928.1147895     
   3564382547.1451664     
   3425493110.5382433     
   3289792773.7150464     
   3157606431.8113198     
   3029360862.6211281     
   3379327453.9784617     
   3254178487.8765688     
   3132922916.9549651     
   3015961452.4659524     
   2903800072.1147056     
   3221566882.7389479     
   3110929155.1085544     
   3004953582.2896881     
   2904101175.5096645     
   2808933764.0041404     
   3094578154.4814658     
   2999123961.3372397     
   2909116935.4266381     
   2825049742.0689416     
   2747502678.1770101     
   3001556928.1147895     
   2921719318.6166382     
   2848066724.4198127     
   2781085362.4586020     
   2721329400.5262818     
   3029360862.6211281     
   2881975994.1411824     
   2733659660.5123014     
   2585263104.3783083     
   2438277752.4800687     
   2903800072.1147056     
   2773396661.8976784     
   2644605247.8549385     
   2518317926.9766736     
   2395873323.6983571     
   2808933764.0041404     
   2697407019.1444764     
   2590156307.1703000     
   2488079817.6153016     
   2392347896.6908579     
   2747502678.1770101     
   2655261407.0328827     
   2569746902.3760509     
   2491770341.8617969     
   2422273463.4572086     
   2721329400.5262818     
   2647053808.1744337     
   2581511554.3068738     
   2525346401.2338600     
   2479252384.3377910     
   3625026810.4919100     
   3719717175.6790347     
   3825654502.0469451     
   3942772319.0602360     
   4070975356.7448211     
   3138028251.4549165     
   3255537358.1416273     
   3382460498.4489493     
   3518327176.3292475     
   3662678385.1199846     
   2694806593.6815286     
   2830533897.8857179     
   2973572113.1246076     
   3122838712.2495046     
   3277422445.3756347     
   2298853112.2917981     
   2449500525.9440179     
   2604871592.8192573     
   2763044475.6300826     
   2922589810.6609764     
   1955381465.5507493     
   2119394553.5206769     
   2284768982.2011271     
   2448546168.4355140     
   2608768927.5898051     
   4070975356.7448211     
   4112496737.8712535     
   4151383854.9643888     
   4186740234.7910504     
   4217834788.8731108     
   3662678385.1199846     
   3702158830.7052746     
   3740262485.8410969     
   3776091306.9938531     
   3808896454.1505003     
   3277422445.3756347     
   3320712030.4062266     
   3364234683.9357033     
   3407167040.6905131     
   3448830726.7467732     
   2922589810.6609764     
   2975544480.4613590     
   3030698097.2046218     
   3087366957.4906921     
   3145017084.6534038     
   2608768927.5898051     
   2676713554.9508967     
   2749125840.2185540     
   2825495304.6789265     
   2905467833.6689906     
   4217834788.8731108     
   4133418103.9492865     
   4055445560.1567130     
   3983061268.8900771     
   3915963657.8895655     
   3808896454.1505003     
   3755785140.9456444     
   3708609603.5833707     
   3666892103.5312519     
   3630532900.7755203     
   3448830726.7467732     
   3422460446.7490115     
   3401141206.3295822     
   3384641537.3898654     
   3372944073.1819205     
   3145017084.6534038     
   3141101139.2012539     
   3140762442.2054839     
   3143899861.1528430     
   3150499349.2735710     
   2905467833.6689906     
   2920063863.4083362     
   2935989985.3471918     
   2953191346.7132607     
   2971629108.9353352     
   3915963657.8895655     
   3834666835.3253989     
   3757322667.4393363     
   3684145165.0262341     
   3615388575.6929770     
   3630532900.7755203     
   3560760302.1114168     
   3495505467.8168344     
   3434993814.7798471     
   3379493445.1983356     
   3372944073.1819205     
   3315476598.7973442     
   3263239224.5189314     
   3216452045.5080433     
   3175381009.1320696     
   3150499349.2735710     
   3105877829.5162082     
   3067332148.8204560     
   3035051554.6898069     
   3009275275.9223166     
   2971629108.9353352     
   2939916397.0361962     
   2915227667.7099271     
   2897689157.3399401     
   2887483561.2717586     
   3615388575.6929770     
   3527958575.2429967     
   3445647547.0274024     
   3368814693.8921776     
   3297912013.4330873     
   3379493445.1983356     
   3307259869.6341734     
   3240731512.7509971     
   3180250315.7931132     
   3126229667.8016281     
   3175381009.1320696     
   3117416907.2605925     
   3065646819.1917915     
   3020370450.9580860     
   2981936525.5509648     
   3009275275.9223166     
   2964297709.0076008     
   2925859508.6233797     
   2894197556.3967481     
   2869577330.0364017     
   2887483561.2717586     
   2853753750.9226222     
   2826726099.5062513     
   2806564199.2935729     
   2793444716.6542430     
   3297912013.4330873     
   3215322124.1080661     
   3138136289.3599520     
   3066735675.2249074     
   3001556928.1147895     
   3126229667.8016281     
   3055919914.1331630     
   2991691027.7265024     
   2933910788.2294517     
   2882992790.9962201     
   2981936525.5509648     
   2923764722.9515319     
   2872344424.6698222     
   2828006313.5119715     
   2791114949.1587400     
   2869577330.0364017     
   2822955152.6634169     
   2783717095.3650827     
   2752134411.6746297     
   2728500366.4023819     
   2793444716.6542430     
   2757219377.8142443     
   2728948662.1516619     
   2708829536.7767525     
   2697071601.5658798     
   3001556928.1147895     
   2921719318.6166382     
   2848066724.4198127     
   2781085362.4586020     
   2721329400.5262818     
   2882992790.9962201     
   2816840667.2065582     
   2757366383.2474627     
   2704998576.8010345     
   2660210875.8392267     
   2791114949.1587400     
   2737812923.4269323     
   2691556103.4375119     
   2652694332.7773204     
   2621602192.2682681     
   2728500366.4023819     
   2686812243.6483612     
   2652394855.3122206     
   2625508575.2584009     
   2606423585.9325819     
   2697071601.5658798     
   2665347611.4106646     
   2640981153.7408223     
   2624145082.6194887     
   2615013300.5967155     
   2721329400.5262818     
   2647053808.1744337     
   2581511554.3068738     
   2525346401.2338600     
   2479252384.3377910     
   2660210875.8392267     
   2598848951.0443606     
   2545865864.2756310     
   2501747664.9778814     
   2467002071.1444716     
   2621602192.2682681     
   2571525474.1593013     
   2529336717.2281318     
   2495384148.0530429     
   2470020560.5244470     
   2606423585.9325819     
   2565950142.5914154     
   2532760194.9321208     
   2507089456.6289387     
   2489169895.6675901     
   2615013300.5967155     
   2582474325.6634674     
   2556530292.8174877     
   2537331254.7395148     
   2525021031.1606965     
   1955381465.5507493     
   2119394553.5206769     
   2284768982.2011271     
   2448546168.4355140     
   2608768927.5898051     
   1653896993.9078300     
   1820317526.1725211     
   1988438742.7732866     
   2155565533.0197363     
   2319940719.4494476     
   1393742168.1474271     
   1571099186.0551057     
   1749462922.7052829     
   1926830525.8086979     
   2101952187.1642125     
   1207224390.6644182     
   1399154992.5334201     
   1590662488.3799219     
   1780970402.8403974     
   1969620367.7985690     
   1137006401.4259388     
   1335319642.1612942     
   1533937629.0742218     
   1732860362.1647220     
   1932087841.4327943     
   2608768927.5898051     
   2676713554.9508967     
   2749125840.2185540     
   2825495304.6789265     
   2905467833.6689906     
   2319940719.4494476     
   2406994730.4311962     
   2496467253.2455935     
   2587968067.9706573     
   2681221482.4694085     
   2101952187.1642125     
   2205731734.0362802     
   2309417381.4910140     
   2412772822.8922429     
   2515631282.4397569     
   1969620367.7985690     
   2086839155.5181937     
   2201222716.2872877     
   2312696004.2148805     
   2421206889.5411735     
   1932087841.4327943     
   2058845206.5466740     
   2180217702.3775563     
   2296205328.9254413     
   2406808086.1903296     
   2905467833.6689906     
   2920063863.4083362     
   2935989985.3471918     
   2953191346.7132607     
   2971629108.9353352     
   2681221482.4694085     
   2702825742.5501242     
   2726837588.5861297     
   2753241006.8451471     
   2782029636.8669548     
   2515631282.4397569     
   2544155096.5795078     
   2576189717.9922490     
   2611738149.8523932     
   2650807515.4523249     
   2421206889.5411735     
   2455049198.1462502     
   2493503284.3303328     
   2536573094.8556380     
   2584263420.6577744     
   2406808086.1903296     
   2442762741.1030569     
   2484418713.9771910     
   2531776004.8127308     
   2584834613.6096754     
   2971629108.9353352     
   2939916397.0361962     
   2915227667.7099271     
   2897689157.3399401     
   2887483561.2717586     
   2782029636.8669548     
   2764933774.2018995     
   2754880148.7068453     
   2751954151.0791450     
   2756271285.3339777     
   2650807515.4523249     
   2645743765.0457897     
   2647490222.1137328     
   2656087753.4433270     
   2671589347.9470830     
   2584263420.6577744     
   2588017912.4277658     
   2598104666.6890278     
   2614533522.5864120     
   2637317010.7195668     
   2584834613.6096754     
   2593846614.7709632     
   2608513357.2934957     
   2628834841.1772685     
   2654811066.4222841     
   2887483561.2717586     
   2853753750.9226222     
   2826726099.5062513     
   2806564199.2935729     
   2793444716.6542430     
   2756271285.3339777     
   2732575788.1142406     
   2716068796.0870128     
   2706859374.8926659     
   2705062651.2109661     
   2671589347.9470830     
   2656055089.7636833     
   2648099403.1418967     
   2647777049.0240469     
   2655144673.6355352     
   2637317010.7195668     
   2627385752.6635571     
   2625328920.1485834     
   2631161237.5999308     
   2644897704.9568100     
   2654811066.4222841     
   2647425328.2105780     
   2648133082.1124043     
   2656934328.1277623     
   2673829066.2566524     
   2793444716.6542430     
   2757219377.8142443     
   2728948662.1516619     
   2708829536.7767525     
   2697071601.5658798     
   2705062651.2109661     
   2679722528.2613406     
   2662502091.7821803     
   2653520693.6454029     
   2652902159.8833127     
   2655144673.6355352     
   2638413031.7987027     
   2629854655.3532634     
   2629524440.0725169     
   2637478144.2002301     
   2644897704.9568100     
   2634081434.0773778     
   2631410684.1999397     
   2636899142.3232813     
   2650560496.7488327     
   2673829066.2566524     
   2666018787.9498582     
   2666279890.9940162     
   2674612375.3891196     
   2691016241.1351676     
   2697071601.5658798     
   2665347611.4106646     
   2640981153.7408223     
   2624145082.6194887     
   2615013300.5967155     
   2652902159.8833127     
   2631045570.3794246     
   2617201957.0507698     
   2611482593.2729897     
   2613996321.5802517     
   2637478144.2002301     
   2623681868.2177248     
   2618496466.2919645     
   2621976538.2082276     
   2634174156.8003297     
   2650560496.7488327     
   2642482662.1211047     
   2643595972.2831326     
   2653915085.5542707     
   2673453696.1657448     
   2691016241.1351676     
   2685933339.2075872     
   2690648650.7031550     
   2705162175.6218743     
   2729473913.9637480     
   2615013300.5967155     
   2582474325.6634674     
   2556530292.8174877     
   2537331254.7395148     
   2525021031.1606965     
   2613996321.5802517     
   2593449209.6402497     
   2581114705.1182384     
   2577099754.0797954     
   2581501427.3246050     
   2634174156.8003297     
   2624338262.5359178     
   2624253659.5242114     
   2633976213.3129587     
   2653553773.2900195     
   2673453696.1657448     
   2672293799.2878318     
   2682425513.0012770     
   2703864475.7721415     
   2736623301.1949563     
   2729473913.9637480     
   2734391712.8661423     
   2752250809.8531451     
   2783051204.9247546     
   2826792898.0809736     
   1137006401.4259388     
   1335319642.1612942     
   1533937629.0742218     
   1732860362.1647220     
   1932087841.4327943     
   1207224390.6717212     
   1399154992.5396931     
   1590662488.3852482     
   1780970402.8447981     
   1969620367.8020198     
   1393742168.1595039     
   1571099186.0660195     
   1749462922.7149885     
   1926830525.8171189     
   2101952187.1712384     
   1653896993.9220374     
   1820317526.1860733     
   1988438742.7859578     
   2155565533.0313125     
   2319940719.4597116     
   1955381465.5652094     
   2119394553.5352600     
   2284768982.2154818     
   2448546168.4493260     
   2608768927.6027789     
   1932087841.4327943     
   2058845206.5466740     
   2180217702.3775563     
   2296205328.9254413     
   2406808086.1903296     
   1969620367.8020198     
   2086839155.5211351     
   2201222716.2896285     
   2312696004.2165241     
   2421206889.5420294     
   2101952187.1712384     
   2205731734.0423169     
   2309417381.4958544     
   2412772822.8956723     
   2515631282.4415579     
   2319940719.4597116     
   2406994730.4401755     
   2496467253.2529488     
   2587968067.9760222     
   2681221482.4724131     
   2608768927.6027789     
   2676713554.9625263     
   2749125840.2283673     
   2825495304.6863995     
   2905467833.6735740     
   2406808086.1903296     
   2442762741.1030569     
   2484418713.9771910     
   2531776004.8127308     
   2584834613.6096754     
   2421206889.5420294     
   2455049198.1404510     
   2493503284.3169622     
   2536573094.8337722     
   2584263420.6264968     
   2515631282.4415579     
   2544155096.5708013     
   2576189717.9713364     
   2611738149.8175530     
   2650807515.4018292     
   2681221482.4724131     
   2702825742.5421052     
   2726837588.5647721     
   2753241006.8081098     
   2782029636.8118668     
   2905467833.6735740     
   2920063863.4046612     
   2935989985.3325624     
   2953191346.6849589     
   2971629108.8906021     
   2584834613.6096754     
   2593846614.7709632     
   2608513357.2934957     
   2628834841.1772685     
   2654811066.4222841     
   2584263420.6264968     
   2588017912.3878984     
   2598104666.6371794     
   2614533522.5192518     
   2637317010.6337996     
   2650807515.4018292     
   2645743764.9791055     
   2647490222.0238786     
   2656087753.3233695     
   2671589347.7901177     
   2782029636.8118668     
   2764933774.1269507     
   2754880148.6013589     
   2751954150.9323354     
   2756271285.1349673     
   2971629108.8906021     
   2939916396.9740410     
   2915227667.6160798     
   2897689157.1997042     
   2887483561.0700240     
   2654811066.4222841     
   2647425328.2105780     
   2648133082.1124043     
   2656934328.1277623     
   2673829066.2566524     
   2637317010.6337996     
   2627385752.5921812     
   2625328920.0991344     
   2631161237.5798292     
   2644897704.9733343     
   2671589347.7901177     
   2656055089.6253633     
   2648099403.0367918     
   2647777048.9666581     
   2655144673.6402674     
   2756271285.1349673     
   2732575787.9243102     
   2716068795.9269419     
   2706859374.7834783     
   2705062651.1738844     
   2887483561.0700240     
   2853753750.7048144     
   2826726099.2982035     
   2806564199.1218677     
   2793444716.5462394     
   2673829066.2566524     
   2666018787.9498582     
   2666279890.9940162     
   2674612375.3891196     
   2691016241.1351676     
   2644897704.9733343     
   2634081434.1210709     
   2631410684.2831087     
   2636899142.4581032     
   2650560496.9473901     
   2655144673.6402674     
   2638413031.8488016     
   2629854655.4736242     
   2629524440.2879887     
   2637478144.5356593     
   2705062651.1738844     
   2679722528.2712703     
   2662502091.8767881     
   2653520693.8628120     
   2652902160.2621231     
   2793444716.5462394     
   2757219377.7321205     
   2728948662.1456170     
   2708829536.8984294     
   2697071601.8685141     
   2691016241.1351676     
   2685933339.2075872     
   2690648650.7031550     
   2705162175.6218743     
   2729473913.9637480     
   2650560496.9473901     
   2642482662.3497052     
   2643595972.5569115     
   2653915085.8885550     
   2673453696.5761342     
   2637478144.5356593     
   2623681868.6171699     
   2618496466.7872095     
   2621976538.8315315     
   2634174157.5844898     
   2652902160.2621231     
   2631045570.8514600     
   2617201957.6663599     
   2611482594.0835094     
   2613996322.6381478     
   2697071601.8685141     
   2665347611.8212004     
   2640981154.3298326     
   2624145083.4596457     
   2615013301.7628222     
   2729473913.9637480     
   2734391712.8661423     
   2752250809.8531451     
   2783051204.9247546     
   2826792898.0809736     
   2673453696.5761342     
   2672293799.5522151     
   2682425513.1219578     
   2703864475.7528973     
   2736623301.0412078     
   2634174157.5844898     
   2624338263.1360612     
   2624253659.9488449     
   2633976213.5723739     
   2653553773.3964033     
   2613996322.6381478     
   2593449210.5825090     
   2581114705.9646969     
   2577099754.8511066     
   2581501428.0422411     
   2615013301.7628222     
   2582474326.8789024     
   2556530294.1201010     
   2537331256.1659474     
   2525021032.7460995     
   1955381465.5652094     
   2119394553.5352600     
   2284768982.2154818     
   2448546168.4493260     
   2608768927.6027789     
   2298853112.3053131     
   2449500525.9583807     
   2604871592.8342338     
   2763044475.6454659     
   2922589810.6765733     
   2694806593.6933298     
   2830533897.8987541     
   2973572113.1387882     
   3122838712.2647538     
   3277422445.3918877     
   3138028251.4644437     
   3255537358.1524463     
   3382460498.4611139     
   3518327176.3428230     
   3662678385.1350465     
   3625026810.4987278     
   3719717175.6868887     
   3825654502.0560231     
   3942772319.0707455     
   4070975356.7569900     
   2608768927.6027789     
   2676713554.9625263     
   2749125840.2283673     
   2825495304.6863995     
   2905467833.6735740     
   2922589810.6765733     
   2975544480.4763746     
   3030698097.2186923     
   3087366957.5033965     
   3145017084.6642900     
   3277422445.3918877     
   3320712030.4226089     
   3364234683.9519610     
   3407167040.7063413     
   3448830726.7618370     
   3662678385.1350465     
   3702158830.7210259     
   3740262485.8573856     
   3776091307.0104828     
   3808896454.1672411     
   4070975356.7569900     
   4112496737.8844776     
   4151383854.9786010     
   4186740234.8061376     
   4217834788.8889303     
   2905467833.6735740     
   2920063863.4046612     
   2935989985.3325624     
   2953191346.6849589     
   2971629108.8906021     
   3145017084.6642900     
   3141101139.2100821     
   3140762442.2109761     
   3143899861.1537089     
   3150499349.2684608     
   3448830726.7618370     
   3422460446.7664824     
   3401141206.3494062     
   3384641537.4119978     
   3372944073.2062783     
   3808896454.1672411     
   3755785140.9669294     
   3708609603.6101375     
   3666892103.5644970     
   3630532900.8162651     
   4217834788.8889303     
   4133418103.9691858     
   4055445560.1823835     
   3983061268.9233284     
   3915963657.9323335     
   2971629108.8906021     
   2939916396.9740410     
   2915227667.6160798     
   2897689157.1997042     
   2887483561.0700240     
   3150499349.2684608     
   3105877829.5122161     
   3067332148.8095541     
   3035051554.6635613     
   3009275275.8718753     
   3372944073.2062783     
   3315476598.8369660     
   3263239224.5714588     
   3216452045.5708790     
   3175381009.2023902     
   3630532900.8162651     
   3560760302.1738892     
   3495505467.9036036     
   3434993814.8935380     
   3379493445.3416772     
   3915963657.9323335     
   3834666835.3866606     
   3757322667.5257688     
   3684145165.1449146     
   3615388575.8514867     
   2887483561.0700240     
   2853753750.7048144     
   2826726099.2982035     
   2806564199.1218677     
   2793444716.5462394     
   3009275275.8718753     
   2964297708.9459748     
   2925859508.5644789     
   2894197556.3554010     
   2869577330.0283723     
   3175381009.2023902     
   3117416907.3261209     
   3065646819.2557135     
   3020370451.0244398     
   2981936525.6246309     
   3379493445.3416772     
   3307259869.7868018     
   3240731512.9067764     
   3180250315.9464478     
   3126229667.9473858     
   3615388575.8514867     
   3527958575.4369936     
   3445647547.2428665     
   3368814694.1152053     
   3297912013.6496339     
   2793444716.5462394     
   2757219377.7321205     
   2728948662.1456170     
   2708829536.8984294     
   2697071601.8685141     
   2869577330.0283723     
   2822955152.6124449     
   2783717095.2998066     
   2752134411.6253066     
   2728500366.4010072     
   2981936525.6246309     
   2923764722.9277577     
   2872344424.5569396     
   2828006313.3193974     
   2791114948.8970618     
   3126229667.9473858     
   3055919914.1520505     
   2991691027.6082816     
   2933910787.9637642     
   2882992790.5725217     
   3297912013.6496339     
   3215322124.2008624     
   3138136289.3025298     
   3066735674.9889922     
   3001556927.6699252     
   2697071601.8685141     
   2665347611.8212004     
   2640981154.3298326     
   2624145083.4596457     
   2615013301.7628222     
   2728500366.4010072     
   2686812243.5818076     
   2652394855.2237010     
   2625508575.1934071     
   2606423585.9389544     
   2791114948.8970618     
   2737812922.9525108     
   2691556102.7659941     
   2652694331.9258947     
   2621602191.2558289     
   2882992790.5725217     
   2816840666.4626513     
   2757366382.1718345     
   2704998575.3818064     
   2660210874.0642600     
   3001556927.6699252     
   2921719317.7956495     
   2848066723.1856852     
   2781085360.7708826     
   2721329398.3408689     
   2615013301.7628222     
   2582474326.8789024     
   2556530294.1201010     
   2537331256.1659474     
   2525021032.7460995     
   2606423585.9389544     
   2565950142.5092759     
   2532760194.7961111     
   2507089456.4713845     
   2489169895.5180783     
   2621602191.2558289     
   2571525472.9659824     
   2529336715.8866882     
   2495384146.5924511     
   2470020558.9696198     
   2660210874.0642600     
   2598848949.0406184     
   2545865862.0750680     
   2501747662.6069884     
   2467002068.6241345     
   2721329398.3408689     
   2647053805.7547307     
   2581511551.6851878     
   2525346398.4351511     
   2479252381.3796511     
   3625026810.4987278     
   3719717175.6868887     
   3825654502.0560231     
   3942772319.0707455     
   4070975356.7569900     
   4134159563.7550750     
   4224407876.5860467     
   4320573918.0000219     
   4420999946.1876593     
   4524230598.4287481     
   4643475626.2559681     
   4755557106.2747021     
   4868762045.3001099     
   4980456648.8836966     
   5088716498.0008030     
   5151455847.4452238     
   5311340935.0818005     
   5467860512.0116634     
   5618121891.0472231     
   5760661241.1129770     
   5657836482.6962290     
   5890921876.5798044     
   6116374039.1351280     
   6331737749.6909170     
   6536791942.0964508     
   4070975356.7569900     
   4112496737.8844776     
   4151383854.9786010     
   4186740234.8061376     
   4217834788.8889303     
   4524230598.4287481     
   4539139295.7058144     
   4558724077.6262178     
   4580505416.4404678     
   4602759760.5293102     
   5088716498.0008030     
   5054170350.9100389     
   5030133187.1441450     
   5011398842.9584570     
   4994766364.2371969     
   5760661241.1129770     
   5652262000.6573858     
   5559852427.1585531     
   5474371070.3126421     
   5390278668.1003542     
   6536791942.0964508     
   6328819534.2910681     
   6143017833.5167360     
   5965477368.0109615     
   5787192229.2686148     
   4217834788.8889303     
   4133418103.9691858     
   4055445560.1823835     
   3983061268.9233284     
   3915963657.9323335     
   4602759760.5293102     
   4494247403.0049849     
   4389950621.3103542     
   4289550553.5373449     
   4192954705.0324149     
   4994766364.2371969     
   4867436438.4526119     
   4743326503.9035082     
   4622404944.6820860     
   4504713084.2278061     
   5390278668.1003542     
   5249022092.4047213     
   5111043323.2764196     
   4976385588.4293070     
   4845145888.4040003     
   5787192229.2686148     
   5636338251.7785788     
   5489756620.7431011     
   5347363503.0956306     
   5209211501.0039558     
   3915963657.9323335     
   3834666835.3866606     
   3757322667.5257688     
   3684145165.1449146     
   3615388575.8514867     
   4192954705.0324149     
   4098849771.6311021     
   4008068117.2496862     
   3920827258.0565891     
   3837405542.0404353     
   4504713084.2278061     
   4396274078.6326332     
   4290348548.0293422     
   4187125054.7462196     
   4086879860.9114342     
   4845145888.4040003     
   4721063177.4768658     
   4598572855.3534050     
   4477800992.3843155     
   4358990459.2569027     
   5209211501.0039558     
   5068334626.8517361     
   4928077097.5296249     
   4788470853.6217794     
   4649693182.9068880     
   3615388575.8514867     
   3527958575.4369936     
   3445647547.2428665     
   3368814694.1152053     
   3297912013.6496339     
   3837405542.0404353     
   3734525670.4201946     
   3635830215.7689643     
   3541641162.8798208     
   3452362139.3045111     
   4086879860.9114342     
   3969911950.6421385     
   3856391200.6608205     
   3746586297.0837617     
   3640835729.9072113     
   4358990459.2569027     
   4229328101.2631946     
   4102577416.9589043     
   3978949025.3010173     
   3858712866.2946730     
   4649693182.9068880     
   4508665843.0279741     
   4370205229.6903820     
   4234465586.1798625     
   4101652917.7623410     
   3297912013.6496339     
   3215322124.2008624     
   3138136289.3025298     
   3066735674.9889922     
   3001556927.6699252     
   3452362139.3045111     
   3355687219.4232421     
   3263564690.1618681     
   3176377125.0270729     
   3094578154.2373657     
   3640835729.9072113     
   3530166745.2248588     
   3423151051.0625739     
   3320140310.3114848     
   3221566882.7345872     
   3858712866.2946730     
   3734402843.5498400     
   3612856659.3488488     
   3494371363.3195291     
   3379327454.2296114     
   4101652917.7623410     
   3964197801.1438599     
   3828668303.9408545     
   3695293434.9208126     
   3564382547.6480064     
   3001556927.6699252     
   2921719317.7956495     
   2848066723.1856852     
   2781085360.7708826     
   2721329398.3408689     
   3094578154.2373657     
   2999123960.8019185     
   2909116934.5615339     
   2825049740.8313665     
   2747502676.5197744     
   3221566882.7345872     
   3110929154.8946495     
   3004953581.8263640     
   2904101174.7523923     
   2808933762.9030557     
   3379327454.2296114     
   3254178487.9963212     
   3132922916.9024014     
   3015961452.1951809     
   2903800071.5738420     
   3564382547.6480064     
   3425493110.9842925     
   3289792774.0624828     
   3157606432.0132408     
   3029360862.6242480     
   2721329398.3408689     
   2647053805.7547307     
   2581511551.6851878     
   2525346398.4351511     
   2479252381.3796511     
   2747502676.5197744     
   2655261405.2704692     
   2569746900.5270257     
   2491770339.9413123     
   2422273461.4750566     
   2808933762.9030557     
   2697407017.9345322     
   2590156305.8430982     
   2488079816.1693916     
   2392347895.1349449     
   2903800071.5738420     
   2773396661.1519980     
   2644605246.8571496     
   2518317925.7010546     
   2395873322.1563182     
   3029360862.6242480     
   2881975993.7946038     
   2733659659.7250695     
   2585263103.0992556     
   2438277750.7321310     
   5657836482.6962290     
   5890921876.5798044     
   6116374039.1351280     
   6331737749.6909170     
   6536791942.0964508     
   6491697706.9670172     
   6586880659.9307127     
   6757399137.0576363     
   6961173919.6471977     
   7171545167.4301233     
   7982395892.9979067     
   7734968581.1045170     
   7669110204.9305115     
   7669514439.2944489     
   7666250442.8288622     
   10130378011.643734     
   9322025271.4073029     
   8826318906.6295433     
   8443421658.0049582     
   8035524626.9708719     
   12935730739.800859     
   11340763676.009918     
   10210192098.638512     
   9272665922.2617950     
   8303742773.3550510     
   6536791942.0964508     
   6328819534.2910681     
   6143017833.5167360     
   5965477368.0109615     
   5787192229.2686148     
   7171545167.4301233     
   6911014772.9665098     
   6658379206.6703644     
   6409779877.9109793     
   6162072046.2907839     
   7666250442.8288622     
   7381111330.3467636     
   7101368746.2986622     
   6827100570.9540424     
   6558510225.3556099     
   8035524626.9708719     
   7746760749.6342592     
   7473678531.1699572     
   7214317763.0271206     
   6968685229.9957743     
   8303742773.3550510     
   8020527638.1011515     
   7779439399.4694843     
   7569788650.9199800     
   7386603751.9588633     
   5787192229.2686148     
   5636338251.7785788     
   5489756620.7431011     
   5347363503.0956306     
   5209211501.0039558     
   6162072046.2907839     
   6012598263.2529478     
   5864493515.3221340     
   5717798441.8042946     
   5572572338.4569426     
   6558510225.3556099     
   6407353811.6801300     
   6254565360.2567282     
   6100113289.8528214     
   5944028167.8712378     
   6968685229.9957743     
   6814149580.6008635     
   6654964532.5370474     
   6490844746.3505478     
   6321740205.7999134     
   7386603751.9588633     
   7227989825.6214008     
   7061803189.7446337     
   6887345241.8478737     
   6704431792.2082605     
   5209211501.0039558     
   5068334626.8517361     
   4928077097.5296249     
   4788470853.6217794     
   4649693182.9068880     
   5572572338.4569426     
   5414436069.7093897     
   5257174620.5379438     
   5100825061.1627073     
   4945484098.2346306     
   5944028167.8712378     
   5771960772.8796101     
   5601448494.9367933     
   5432514973.7100897     
   5265220454.1052942     
   6321740205.7999134     
   6138461586.6356964     
   5957785465.5363121     
   5779689159.3693218     
   5604212961.0843134     
   6704431792.2082605     
   6512086824.3628187     
   6323725675.6174364     
   6139234300.1459761     
   5958626068.5380783     
   4649693182.9068880     
   4508665843.0279741     
   4370205229.6903820     
   4234465586.1798625     
   4101652917.7623410     
   4945484098.2346306     
   4795383244.6798544     
   4646704767.3706551     
   4499574658.6349783     
   4354161494.2483540     
   5265220454.1052942     
   5106194530.0203829     
   4947493945.4083204     
   4789194760.9543848     
   4631412006.8496437     
   5604212961.0843134     
   5436619282.2202206     
   5268324798.3409891     
   5099341589.6180077     
   4929722444.7973013     
   5958626068.5380783     
   5782969625.0837345     
   5605673474.3231525     
   5426677961.4724855     
   5245971187.5795326     
   4101652917.7623410     
   3964197801.1438599     
   3828668303.9408545     
   3695293434.9208126     
   3564382547.6480064     
   4354161494.2483540     
   4203658637.0078335     
   4054703644.4630394     
   3907449605.8212457     
   3762115965.0716972     
   4631412006.8496437     
   4468661349.8328791     
   4307203560.0991783     
   4147129747.3028398     
   3988587923.0845208     
   4929722444.7973013     
   4755234632.2698240     
   4581886110.9478321     
   4409720413.2125130     
   4238833566.1753116     
   5245971187.5795326     
   5059998812.4354296     
   4875091077.9082851     
   4691256834.4042730     
   4508557774.8086176     
   3564382547.6480064     
   3425493110.9842925     
   3289792774.0624828     
   3157606432.0132408     
   3029360862.6242480     
   3762115965.0716972     
   3611047519.1889014     
   3462018030.2014194     
   3315258439.4482765     
   3171087080.6277666     
   3988587923.0845208     
   3826417152.9516182     
   3665282536.7610860     
   3505316643.2195640     
   3346719888.4019809     
   4238833566.1753116     
   4066698501.0019069     
   3894762742.1675296     
   3723069626.9491305     
   3551710752.0309091     
   4508557774.8086176     
   4327585447.1340036     
   4146139630.3147030     
   3964190579.5849857     
   3781740519.0691867     
   3029360862.6242480     
   2881975993.7946038     
   2733659659.7250695     
   2585263103.0992556     
   2438277750.7321310     
   3171087080.6277666     
   3015513254.6557736     
   2862241615.3118219     
   2711356354.6215892     
   2563005758.9702592     
   3346719888.4019809     
   3190411293.9698138     
   3041433609.5351224     
   2901014675.6029811     
   2771406306.8728666     
   3551710752.0309091     
   3397556106.9778948     
   3256908166.0944858     
   3133417166.0218816     
   3033616288.0905442     
   3781740519.0691867     
   3629028597.3446245     
   3497134045.3033829     
   3392995940.0115767     
   3328703984.1002340     
 </DataArray>
 <DataArray  type="Float64" Name="strain" NumberOfComponents="3" format="ascii">
  0.20348723885900388        0.0000000000000000       0.12540756360922534     
  0.18665631554046333       -2.7325225466163616E-002   7.4352812611178778E-002
  0.16982539222192278       -4.4676282992182743E-002   3.5131955541906318E-002
  0.15299446890338220       -5.2053172578057375E-002   7.7449924014079130E-003
  0.13616354558484164       -4.9455894223787572E-002  -7.8080768103163667E-003
  0.15985665681764691        0.0000000000000000        9.6450192961397424E-002
  0.15317808568162433       -2.1844957853886193E-002   6.2691403546444424E-002
  0.14649951454560176       -3.6174967696704821E-002   3.7403424567753280E-002
  0.13982094340957918       -4.2990029528455896E-002   2.0586256025324066E-002
  0.13314237227355660       -4.2290143349139414E-002   1.2239897919156660E-002
  0.12645902013003357        0.0000000000000000        7.4202699890385387E-002
  0.12656971768401676       -1.6364690241608776E-002   5.5280652129449027E-002
  0.12668041523799994       -2.7673652401226909E-002   4.1466331312262295E-002
  0.12679111279198316       -3.3926886478854397E-002   3.2759737438825258E-002
  0.12690181034596634       -3.5124392474491270E-002   2.9160870509137876E-002
  0.10329432879616386        0.0000000000000000        5.8665084396189240E-002
  0.10683121154764061       -1.0884422629331356E-002   5.2120558360192581E-002
  0.11036809429911736       -1.9172337105748994E-002   4.7320675775433391E-002
  0.11390497705059412       -2.4863743429252915E-002   4.4265436641911633E-002
  0.11744185980207086       -2.7958641599843119E-002   4.2954840959627295E-002
   9.0362582816037818E-002   0.0000000000000000        4.9837346478808969E-002
   9.3962567272495912E-002  -5.4041550170539372E-003   5.3211122238675100E-002
   9.7562551728954006E-002  -1.0671021810271075E-002   5.4966457957266457E-002
  0.10116253618541210       -1.5800600379651426E-002   5.5103353634583074E-002
  0.10476252064187018       -2.0792890725194975E-002   5.3621809270624897E-002
  0.13616354558484164       -4.9455894223787572E-002  -7.8080768103163667E-003
  0.13295858880079972       -4.2920640063334799E-002  -3.3912747248892247E-003
  0.12975363201675777       -3.8483602230660635E-002  -3.8785003340138791E-004
  0.12654867523271582       -3.6144780725765192E-002   1.2021972641473380E-003
  0.12334371844867389       -3.5904175548648304E-002   1.3788671677565922E-003
  0.13314237227355660       -4.2290143349139414E-002   1.2239897919156660E-002
  0.12891187005461954       -3.8424144688093326E-002   1.2184673659629261E-002
  0.12468136783568252       -3.5740869074655478E-002   1.1491735924251002E-002
  0.12045086561674546       -3.4240316508825960E-002   1.0161084713021703E-002
  0.11622036339780845       -3.3922486990604739E-002   8.1927200259415134E-003
  0.12690181034596634       -3.5124392474491270E-002   2.9160870509137876E-002
  0.12242142661022251       -3.3927649312851790E-002   2.5549113184826312E-002
  0.11794104287447869       -3.2998135918650237E-002   2.2075306302752118E-002
  0.11346065913873488       -3.2335852291886694E-002   1.8739449862915279E-002
  0.10898027540299104       -3.1940798432561077E-002   1.5541543865315803E-002
  0.11744185980207086       -2.7958641599843119E-002   4.2954840959627295E-002
  0.11348725846760857       -2.9431153937610290E-002   3.6702043850701874E-002
  0.10953265713314629       -3.0255402762645052E-002   3.1362861102102166E-002
  0.10557805579868400       -3.0431388074947462E-002   2.6937292713828137E-002
  0.10162345446422169       -2.9959109874517449E-002   2.3425338685879787E-002
  0.10476252064187018       -2.0792890725194975E-002   5.3621809270624897E-002
  0.10210936562677775       -2.4934658562368768E-002   4.5643465657255980E-002
   9.9456210611685275E-002  -2.7512669606639853E-002   3.9354400322301059E-002
   9.6803055596592830E-002  -2.8526923858008205E-002   3.4754613265760154E-002
   9.4149900581500370E-002  -2.7977421316473849E-002   3.1844104487633237E-002
  0.12334371844867389       -3.5904175548648304E-002   1.3788671677565922E-003
  0.12040350236750055       -3.6402880494246143E-002   6.4045387641076257E-004
  0.11746328628632723       -3.6281989357494791E-002   9.3144909206324678E-005
  0.11452307020515390       -3.5541502138394292E-002  -2.6305973385654796E-004
  0.11158285412398056       -3.4181418836944533E-002  -4.2816005277784841E-004
  0.11622036339780845       -3.3922486990604739E-002   8.1927200259415134E-003
  0.11345789087752861       -3.3998015299778347E-002   7.8320147649794253E-003
  0.11069541835724880       -3.3677536216133536E-002   7.6356923016629233E-003
  0.10793294583696902       -3.2961049739670102E-002   7.6037526359917645E-003
  0.10517047331668916       -3.1848555870388151E-002   7.7361957679661641E-003
  0.10898027540299104       -3.1940798432561077E-002   1.5541543865315803E-002
  0.10636882491710872       -3.1593150105310538E-002   1.5334957945207006E-002
  0.10375737443122637       -3.1073083074772172E-002   1.5266033296247584E-002
  0.10114592394534404       -3.0380597340945916E-002   1.5334769918437652E-002
   9.8534473459461702E-002  -2.9515692903831853E-002   1.5541167811777154E-002
  0.10162345446422169       -2.9959109874517449E-002   2.3425338685879787E-002
   9.9136304486240778E-002  -2.9188284910842695E-002   2.3149283417093429E-002
   9.6649154508259894E-002  -2.8468629933410837E-002   2.2984167892960473E-002
   9.4162004530278981E-002  -2.7800144942221727E-002   2.2929992113481006E-002
   9.1674854552298055E-002  -2.7182829937275485E-002   2.2986756078654868E-002
   9.4149900581500370E-002  -2.7977421316473849E-002   3.1844104487633237E-002
   9.1760329584924860E-002  -2.6783419716374900E-002   3.1274991180638770E-002
   8.9370758588349336E-002  -2.5864176792049470E-002   3.0790096091801625E-002
   8.6981187591773840E-002  -2.5219692543497534E-002   3.0389419221121976E-002
   8.4591616595198343E-002  -2.4849966970719117E-002   3.0072960568599538E-002
  0.11158285412398056       -3.4181418836944533E-002  -4.2816005277784841E-004
  0.10851199180937948       -3.2656902038222330E-002  -1.3950119759564839E-004
  0.10544112949477841       -3.1423114327304005E-002   2.1103029015709374E-004
  0.10237026718017736       -3.0480055704190035E-002   6.2343441048000325E-004
   9.9299404865576257E-002  -2.9827726168879853E-002   1.0977111633733716E-003
  0.10517047331668916       -3.1848555870388151E-002   7.7361957679661641E-003
  0.10218911899054062       -3.0626642657537118E-002   7.5949220323525690E-003
   9.9207764664392017E-002  -2.9581898150366298E-002   7.5707916410733406E-003
   9.6226410338243459E-002  -2.8714322348875616E-002   7.6638045941287633E-003
   9.3245056012094873E-002  -2.8023915253065135E-002   7.8739608915189274E-003
   9.8534473459461702E-002  -2.9515692903831853E-002   1.5541167811777154E-002
   9.5697897833529916E-002  -2.8596383276852030E-002   1.5083521867491123E-002
   9.2861322207598157E-002  -2.7740681973428417E-002   1.4798289979303957E-002
   9.0024746581666426E-002  -2.6948588993561250E-002   1.4685472147215991E-002
   8.7188170955734626E-002  -2.6220104337250361E-002   1.4745068371226966E-002
   9.1674854552298055E-002  -2.7182829937275485E-002   2.2986756078654868E-002
   8.9038328338347489E-002  -2.6566123896166936E-002   2.2326298307820520E-002
   8.6401802124396826E-002  -2.5899465796490734E-002   2.1893525304849427E-002
   8.3765275910446205E-002  -2.5182855638246970E-002   2.1688437069741860E-002
   8.1128749696495597E-002  -2.4416293421435559E-002   2.1711033602497480E-002
   8.4591616595198343E-002  -2.4849966970719117E-002   3.0072960568599538E-002
   8.2210410504993198E-002  -2.4535864515481731E-002   2.9323251353340643E-002
   7.9829204414788038E-002  -2.4058249619552892E-002   2.8856497617709462E-002
   7.7447998324582851E-002  -2.3417122282932509E-002   2.8672699361706029E-002
   7.5066792234377733E-002  -2.2612482505620840E-002   2.8771856585330075E-002
   9.9299404865576257E-002  -2.9827726168879853E-002   1.0977111633733716E-003
   9.6300295199010844E-002  -2.9256091663006689E-002   7.9695784383587709E-004
   9.3301185532445458E-002  -2.8555118128203077E-002   6.6048066304602582E-004
   9.0302075865880058E-002  -2.7724805564469483E-002   6.8827962100402595E-004
   8.7302966199314658E-002  -2.6765153971805455E-002   8.8035471770997464E-004
   9.3245056012094873E-002  -2.8023915253065135E-002   7.8739608915189274E-003
   9.0408806463758762E-002  -2.7381165240384309E-002   7.6748521327595909E-003
   8.7572556915422678E-002  -2.6656560688282843E-002   7.6371874717111321E-003
   8.4736307367086580E-002  -2.5850101596760357E-002   7.7609669083734678E-003
   8.1900057818750427E-002  -2.4961787965817162E-002   8.0461904427464592E-003
   8.7188170955734626E-002  -2.6220104337250361E-002   1.4745068371226966E-002
   8.4511949484590815E-002  -2.5506238817761928E-002   1.4600119683736534E-002
   8.1835728013447046E-002  -2.4758003248362179E-002   1.4613783052919646E-002
   7.9159506542303193E-002  -2.3975397629051012E-002   1.4786058478776828E-002
   7.6483285071159451E-002  -2.3158421959828757E-002   1.5116945961307582E-002
   8.1128749696495597E-002  -2.4416293421435559E-002   2.1711033602497480E-002
   7.8609724261507113E-002  -2.3631312395139437E-002   2.1572760496765923E-002
   7.6090698826518588E-002  -2.2859445808441674E-002   2.1590267406671460E-002
   7.3571673391530104E-002  -2.2100693661341778E-002   2.1763554332213907E-002
   7.1052647956541592E-002  -2.1355055953840241E-002   2.2092621273393009E-002
   7.5066792234377733E-002  -2.2612482505620840E-002   2.8771856585330075E-002
   7.2702130794507547E-002  -2.1756385972517056E-002   2.8592774571848639E-002
   7.0337469354637361E-002  -2.0960888368521065E-002   2.8566640532966855E-002
   6.7972807914767161E-002  -2.0225989693632693E-002   2.8693454468685105E-002
   6.5608146474897017E-002  -1.9551689947851947E-002   2.8973216379002797E-002
   8.7302966199314658E-002  -2.6765153971805455E-002   8.8035471770997464E-004
   8.4217916524223058E-002  -2.5778480753665733E-002   6.7890993438846081E-004
   8.1132866849131458E-002  -2.4867103313504724E-002   6.6950521689290721E-004
   7.8047817174039830E-002  -2.4031021651323176E-002   8.5214056522314729E-004
   7.4962767498948257E-002  -2.3270235767119840E-002   1.2268159793789035E-003
   8.1900057818750427E-002  -2.4961787965817162E-002   8.0461904427464592E-003
   7.9006145874956246E-002  -2.4056262815399576E-002   7.7686153186441453E-003
   7.6112233931162065E-002  -2.3198169165455168E-002   7.6812755913105712E-003
   7.3218321987367940E-002  -2.2387507015983361E-002   7.7841712607462921E-003
   7.0324410043573704E-002  -2.1624276366984052E-002   8.0773023269505861E-003
   7.6483285071159451E-002  -2.3158421959828757E-002   1.5116945961307582E-002
   7.3778706189605886E-002  -2.2334044877133918E-002   1.4791104773930336E-002
   7.1074127308052334E-002  -2.1529235017405501E-002   1.4653694314265317E-002
   6.8369548426498811E-002  -2.0743992380643769E-002   1.4704714582312373E-002
   6.5664969544945245E-002  -1.9978316966848542E-002   1.4944165578071766E-002
   7.1052647956541592E-002  -2.1355055953840241E-002   2.2092621273393009E-002
   6.8535597468171922E-002  -2.0611826938867900E-002   2.1746378300247053E-002
   6.6018546979802181E-002  -1.9860300869356001E-002   2.1586761385756804E-002
   6.3501496491432483E-002  -1.9100477745304177E-002   2.1613770529921687E-002
   6.0984446003062756E-002  -1.8332357566712781E-002   2.1827405732742111E-002
   6.5608146474897017E-002  -1.9551689947851947E-002   2.8973216379002797E-002
   6.3276819710654325E-002  -1.8889609000601965E-002   2.8634435897594679E-002
   6.0945492946411675E-002  -1.8191366721306348E-002   2.8480476805784888E-002
   5.8614166182169032E-002  -1.7456963109964519E-002   2.8511339103573827E-002
   5.6282839417926334E-002  -1.6686398166576966E-002   2.8727022790961454E-002
   7.4962767498948257E-002  -2.3270235767119840E-002   1.2268159793789035E-003
   7.1908338439298725E-002  -2.2526586949036587E-002   9.3350595029917383E-004
   6.8853909379649247E-002  -2.1741916485213952E-002   8.0229485366917208E-004
   6.5799480319999715E-002  -2.0916224375651382E-002   8.3318268948867624E-004
   6.2745051260350237E-002  -2.0049510620350097E-002   1.0261694577575753E-003
   7.0324410043573704E-002  -2.1624276366984052E-002   8.0773023269505861E-003
   6.7435078173209151E-002  -2.0872330637861147E-002   7.7988491646828195E-003
   6.4545746302844764E-002  -2.0095523248017055E-002   7.6884914485352562E-003
   6.1656414432480294E-002  -1.9293854197452484E-002   7.7462291785084514E-003
   5.8767082562115769E-002  -1.8467323486166531E-002   7.9720623546025715E-003
   6.5664969544945245E-002  -1.9978316966848542E-002   1.4944165578071766E-002
   6.2946731377536772E-002  -1.9218074326685347E-002   1.4664409297596659E-002
   6.0228493210128325E-002  -1.8449130010820380E-002   1.4558744976913535E-002
   5.7510255042719866E-002  -1.7671484019253031E-002   1.4627172616021838E-002
   5.4792016875311378E-002  -1.6885136351983465E-002   1.4869692214921654E-002
   6.0984446003062756E-002  -1.8332357566712781E-002   2.1827405732742111E-002
   5.8443298052281337E-002  -1.7563818015509727E-002   2.1530186349041455E-002
   5.5902150101499938E-002  -1.6802736773623372E-002   2.1413055438803522E-002
   5.3361002150718526E-002  -1.6049113841053522E-002   2.1476013002027894E-002
   5.0819854199937127E-002  -1.5302949217800371E-002   2.1719059038715231E-002
   5.6282839417926334E-002  -1.6686398166576966E-002   2.8727022790961454E-002
   5.3924778197443013E-002  -1.5909561704334163E-002   2.8396180319016584E-002
   5.1566716976959664E-002  -1.5156343536426656E-002   2.8251422834205259E-002
   4.9208655756476316E-002  -1.4426743662854364E-002   2.8292750336527520E-002
   4.6850594535992940E-002  -1.3720762083617166E-002   2.8520162825983242E-002
   6.2745051260350237E-002  -2.0049510620350097E-002   1.0261694577575753E-003
   6.0055921989729533E-002  -1.9789548147759350E-002   2.0035096633367333E-003
   5.7366792719108717E-002  -2.0784109886331642E-002   2.9825565070097926E-003
   5.4677663448487929E-002  -2.3033195836065980E-002   3.9633099887773915E-003
   5.1988534177867196E-002  -2.6536805996962620E-002   4.9457701086388361E-003
   5.8767082562115769E-002  -1.8467323486166531E-002   7.9720623546025715E-003
   5.6097359470094810E-002  -1.8060694178087144E-002   7.9104107729695006E-003
   5.3427636378073906E-002  -1.8518729337140549E-002   7.8858649104427414E-003
   5.0757913286052864E-002  -1.9841428963326482E-002   7.8984247670217389E-003
   4.8088190194031988E-002  -2.2028793056645846E-002   7.9480903427058269E-003
   5.4792016875311378E-002  -1.6885136351983465E-002   1.4869692214921654E-002
   5.2177099042901881E-002  -1.6331840208414661E-002   1.4158908590106933E-002
   4.9562181210492343E-002  -1.6253348787949332E-002   1.3520629765409395E-002
   4.6947263378082728E-002  -1.6649662090587204E-002   1.2954855740829087E-002
   4.4332345545673280E-002  -1.7520780116328849E-002   1.2461586516365863E-002
   5.0819854199937127E-002  -1.5302949217800371E-002   2.1719059038715231E-002
   4.8295140708150566E-002  -1.4602986238742427E-002   2.0749003114747602E-002
   4.5770427216364096E-002  -1.3987968238758398E-002   1.9886851071909229E-002
   4.3245713724577646E-002  -1.3457895217848259E-002   1.9132602910199192E-002
   4.0721000232790974E-002  -1.3012767176011963E-002   1.8486258629617863E-002
   4.6850594535992940E-002  -1.3720762083617166E-002   2.8520162825983242E-002
   4.4451484465841046E-002  -1.2874132269069916E-002   2.7680694346892631E-002
   4.2052374395689124E-002  -1.1722587689567326E-002   2.6984528829942123E-002
   3.9653264325537146E-002  -1.0266128345108975E-002   2.6431666275132187E-002
   3.7254154255385363E-002  -8.5047542356950778E-003   2.6022106682462631E-002
   9.0362582816037818E-002   0.0000000000000000        4.9837346478808969E-002
   9.3962567272495912E-002  -5.4041550170539372E-003   5.3211122238675100E-002
   9.7562551728954006E-002  -1.0671021810271075E-002   5.4966457957266457E-002
  0.10116253618541210       -1.5800600379651426E-002   5.5103353634583074E-002
  0.10476252064187018       -2.0792890725194975E-002   5.3621809270624897E-002
   8.2425501077120419E-002   0.0000000000000000        4.4786131017107211E-002
   8.4636019029321469E-002  -4.5742625439679965E-003   4.8269276805046335E-002
   8.6846536981522532E-002  -9.0377865870096379E-003   5.0591929625746143E-002
   8.9057054933723581E-002  -1.3390572129124921E-002   5.1754089479206573E-002
   9.1267572885924630E-002  -1.7632619170313855E-002   5.1755756365427730E-002
   7.4244802466876758E-002   0.0000000000000000        4.0578082889946618E-002
   7.5523800988856180E-002  -3.7443700708820549E-003   4.4144048983048308E-002
   7.6802799510835615E-002  -7.4045513637481936E-003   4.7007469182946078E-002
   7.8081798032815050E-002  -1.0980543878598422E-002   4.9168343489639950E-002
   7.9360796554794485E-002  -1.4472347615432726E-002   5.0626671903129923E-002
   6.5820486985306778E-002   0.0000000000000000        3.7213202097327182E-002
   6.6625913151100030E-002  -2.9144775977961138E-003   4.0835438772680990E-002
   6.7431339316893268E-002  -5.7713161404867545E-003   4.4213076628866317E-002
   6.8236765482686507E-002  -8.5705156280719147E-003   4.7346115665883169E-002
   6.9042191648479745E-002  -1.1312076060551604E-002   5.0234555883731505E-002
   5.7152554632410521E-002   0.0000000000000000        3.4691488639248910E-002
   5.7942355516053007E-002  -2.0845851247101727E-003   3.8343446173944390E-002
   5.8732156399695479E-002  -4.1380809172253102E-003   4.2208751963506805E-002
   5.9521957283337951E-002  -6.1604873775454160E-003   4.6287406007936197E-002
   6.0311758166980436E-002  -8.1518045056704746E-003   5.0579408307232544E-002
  0.10476252064187018       -2.0792890725194975E-002   5.3621809270624897E-002
  0.10210936562677775       -2.4934658562368768E-002   4.5643465657255980E-002
   9.9456210611685275E-002  -2.7512669606639853E-002   3.9354400322301059E-002
   9.6803055596592830E-002  -2.8526923858008205E-002   3.4754613265760154E-002
   9.4149900581500370E-002  -2.7977421316473849E-002   3.1844104487633237E-002
   9.1267572885924630E-002  -1.7632619170313855E-002   5.1755756365427730E-002
   9.0066009328522337E-002  -2.1208668831825005E-002   4.6520403881816365E-002
   8.8864445771120043E-002  -2.3563462234906952E-002   4.2498956035171370E-002
   8.7662882213717749E-002  -2.4696999379559693E-002   3.9691412825492670E-002
   8.6461318656315497E-002  -2.4609280265783240E-002   3.8097774252780388E-002
   7.9360796554794485E-002  -1.4472347615432726E-002   5.0626671903129923E-002
   7.9135450813634711E-002  -1.7482679101281231E-002   4.7791810014802601E-002
   7.8910105072474951E-002  -1.9614254863174051E-002   4.5695479121993988E-002
   7.8684759331315163E-002  -2.0867074901111175E-002   4.4337679224704066E-002
   7.8459413590155389E-002  -2.1241139215092616E-002   4.3718410322932867E-002
   6.9042191648479745E-002  -1.1312076060551604E-002   5.0234555883731505E-002
   6.9317690082114844E-002  -1.3756689370737469E-002   4.9457684056214764E-002
   6.9593188515749929E-002  -1.5665047491441150E-002   4.8943969582769038E-002
   6.9868686949385028E-002  -1.7037150422662656E-002   4.8693412463394328E-002
   7.0144185383020169E-002  -1.7872998164402000E-002   4.8706012698090696E-002
   6.0311758166980436E-002  -8.1518045056704746E-003   5.0579408307232544E-002
   6.0612727133962763E-002  -1.0030699640193694E-002   5.1518026006052778E-002
   6.0913696100945082E-002  -1.1715840119708243E-002   5.2244427417496381E-002
   6.1214665067927401E-002  -1.3207225944214139E-002   5.2758612541563457E-002
   6.1515634034909741E-002  -1.4504857113711377E-002   5.3060581378253861E-002
   9.4149900581500370E-002  -2.7977421316473849E-002   3.1844104487633237E-002
   9.1760329584924860E-002  -2.6783419716374900E-002   3.1274991180638770E-002
   8.9370758588349336E-002  -2.5864176792049470E-002   3.0790096091801625E-002
   8.6981187591773840E-002  -2.5219692543497534E-002   3.0389419221121976E-002
   8.4591616595198343E-002  -2.4849966970719117E-002   3.0072960568599538E-002
   8.6461318656315497E-002  -2.4609280265783240E-002   3.8097774252780388E-002
   8.4201626222061274E-002  -2.3965423089354600E-002   3.7069128744525455E-002
   8.1941933787807092E-002  -2.3430546046050806E-002   3.6216022142755724E-002
   7.9682241353552896E-002  -2.3004649135871851E-002   3.5538454447471307E-002
   7.7422548919298659E-002  -2.2687732358817686E-002   3.5036425658672127E-002
   7.8459413590155389E-002  -2.1241139215092616E-002   4.3718410322932867E-002
   7.6420920406550380E-002  -2.1147426462334289E-002   4.2396011156066199E-002
   7.4382427222945330E-002  -2.0996915300052113E-002   4.1340471584012627E-002
   7.2343934039340307E-002  -2.0789605728246088E-002   4.0551791606772157E-002
   7.0305440855735257E-002  -2.0525497746916227E-002   4.0029971224344742E-002
   7.0144185383020169E-002  -1.7872998164402000E-002   4.8706012698090696E-002
   6.8418212138392137E-002  -1.8329429835313979E-002   4.7255638415261002E-002
   6.6692238893764133E-002  -1.8563284554053414E-002   4.6163444415572186E-002
   6.4966265649136115E-002  -1.8574562320620332E-002   4.5429430699024331E-002
   6.3240292404508111E-002  -1.8363263135014740E-002   4.5053597265617508E-002
   6.1515634034909741E-002  -1.4504857113711377E-002   5.3060581378253861E-002
   6.0193501417586601E-002  -1.5511433208293679E-002   5.1648010522109780E-002
   5.8871368800263481E-002  -1.6129653808054749E-002   5.0684940637434492E-002
   5.7549236182940347E-002  -1.6359518912994631E-002   5.0171371724227996E-002
   5.6227103565617220E-002  -1.6201028523113309E-002   5.0107303782490314E-002
   8.4591616595198343E-002  -2.4849966970719117E-002   3.0072960568599538E-002
   8.2210410504993198E-002  -2.4535864515481731E-002   2.9323251353340643E-002
   7.9829204414788038E-002  -2.4058249619552892E-002   2.8856497617709462E-002
   7.7447998324582851E-002  -2.3417122282932509E-002   2.8672699361706029E-002
   7.5066792234377733E-002  -2.2612482505620840E-002   2.8771856585330075E-002
   7.7422548919298659E-002  -2.2687732358817686E-002   3.5036425658672127E-002
   7.5309670181996941E-002  -2.2365343647927388E-002   3.4465766149769705E-002
   7.3196791444695181E-002  -2.1923030936239866E-002   3.4148805867046494E-002
   7.1083912707393462E-002  -2.1360794223755135E-002   3.4085544810502570E-002
   6.8971033970091702E-002  -2.0678633510473249E-002   3.4275982980137787E-002
   7.0305440855735257E-002  -2.0525497746916227E-002   4.0029971224344742E-002
   6.8431633217888560E-002  -2.0194822780372962E-002   3.9594772981904509E-002
   6.6557825580041807E-002  -1.9787812252926754E-002   3.9384017712194963E-002
   6.4684017942195082E-002  -1.9304466164577656E-002   3.9397705415216283E-002
   6.2810210304348357E-002  -1.8744784515325616E-002   3.9635836090968511E-002
   6.3240292404508111E-002  -1.8363263135014740E-002   4.5053597265617508E-002
   6.1576299612667994E-002  -1.8024301912818591E-002   4.4710271849745097E-002
   5.9912306820827849E-002  -1.7652593569613670E-002   4.4562133153154999E-002
   5.8248314028987697E-002  -1.7248138105400174E-002   4.4609181175847432E-002
   5.6584321237147586E-002  -1.6810935520177962E-002   4.4851415917822157E-002
   5.6227103565617220E-002  -1.6201028523113309E-002   5.0107303782490314E-002
   5.4743669366335290E-002  -1.5853781045264193E-002   4.9812262753291467E-002
   5.3260235167053346E-002  -1.5517374886300631E-002   4.9683152189926638E-002
   5.1776800967771409E-002  -1.5191810046222696E-002   4.9719972092395745E-002
   5.0293366768489473E-002  -1.4877086525030420E-002   4.9922722460698898E-002
   7.5066792234377733E-002  -2.2612482505620840E-002   2.8771856585330075E-002
   7.2702130794507547E-002  -2.1756385972517056E-002   2.8592774571848639E-002
   7.0337469354637361E-002  -2.0960888368521065E-002   2.8566640532966855E-002
   6.7972807914767161E-002  -2.0225989693632693E-002   2.8693454468685105E-002
   6.5608146474897017E-002  -1.9551689947851947E-002   2.8973216379002797E-002
   6.8971033970091702E-002  -2.0678633510473249E-002   3.4275982980137787E-002
   6.6768919107135685E-002  -1.9952616217777275E-002   3.3995029281974745E-002
   6.4566804244179626E-002  -1.9258809767050709E-002   3.3886220763040223E-002
   6.2364689381223554E-002  -1.8597214158293206E-002   3.3949557423333998E-002
   6.0162574518267536E-002  -1.7967829391505152E-002   3.4185039262856320E-002
   6.2810210304348357E-002  -1.8744784515325616E-002   3.9635836090968511E-002
   6.0789839222935030E-002  -1.8148846463037493E-002   3.9281398795262330E-002
   5.8769468141521702E-002  -1.7556731165580267E-002   3.9118303883413225E-002
   5.6749097060108375E-002  -1.6968438622953851E-002   3.9146551355421083E-002
   5.4728725978695110E-002  -1.6383968835158302E-002   3.9366141211286176E-002
   5.6584321237147586E-002  -1.6810935520177962E-002   4.4851415917822157E-002
   5.4764891141905622E-002  -1.6345076708297795E-002   4.4451883111711284E-002
   5.2945461046663693E-002  -1.5854652564109811E-002   4.4262889894086117E-002
   5.1126030951421708E-002  -1.5339663087614513E-002   4.4284436264946492E-002
   4.9306600856179772E-002  -1.4800108278811591E-002   4.4516522224292671E-002
   5.0293366768489473E-002  -1.4877086525030420E-002   4.9922722460698898E-002
   4.8694074864047476E-002  -1.4541306953557889E-002   4.9506482231321702E-002
   4.7094782959605480E-002  -1.4152573962639477E-002   4.9319978795058797E-002
   4.5495491055163491E-002  -1.3710887552275010E-002   4.9363212151910064E-002
   4.3896199150721488E-002  -1.3216247722464713E-002   4.9636182301875720E-002
   6.5608146474897017E-002  -1.9551689947851947E-002   2.8973216379002797E-002
   6.3276819710654325E-002  -1.8889609000601965E-002   2.8634435897594679E-002
   6.0945492946411675E-002  -1.8191366721306348E-002   2.8480476805784888E-002
   5.8614166182169032E-002  -1.7456963109964519E-002   2.8511339103573827E-002
   5.6282839417926334E-002  -1.6686398166576966E-002   2.8727022790961454E-002
   6.0162574518267536E-002  -1.7967829391505152E-002   3.4185039262856320E-002
   5.8015313767164567E-002  -1.7341956171236433E-002   3.3887901362534084E-002
   5.5868053016061570E-002  -1.6690895202037620E-002   3.3774074098892479E-002
   5.3720792264958572E-002  -1.6014646483908580E-002   3.3843557471931775E-002
   5.1573531513855603E-002  -1.5313210016849155E-002   3.4096351481651854E-002
   5.4728725978695110E-002  -1.6383968835158302E-002   3.9366141211286176E-002
   5.2764020487813874E-002  -1.5794303341870861E-002   3.9099672308934463E-002
   5.0799314996932646E-002  -1.5190423682768940E-002   3.9015003290345539E-002
   4.8834609506051424E-002  -1.4572329857852362E-002   3.9112134155519424E-002
   4.6869904015170188E-002  -1.3940021867121261E-002   3.9391064904456138E-002
   4.9306600856179772E-002  -1.4800108278811591E-002   4.4516522224292671E-002
   4.7522939872602372E-002  -1.4246650512505281E-002   4.4269748736795796E-002
   4.5739278889024917E-002  -1.3689952163500208E-002   4.4203264380143832E-002
   4.3955617905447469E-002  -1.3130013231796186E-002   4.4317069154336558E-002
   4.2171956921870056E-002  -1.2566833717393436E-002   4.4611163059374306E-002
   4.3896199150721488E-002  -1.3216247722464713E-002   4.9636182301875720E-002
   4.2292071921529922E-002  -1.2698997683139784E-002   4.9398130646118060E-002
   4.0687944692338385E-002  -1.2189480644231560E-002   4.9338857368287276E-002
   3.9083817463146840E-002  -1.1687696605740185E-002   4.9458362468383393E-002
   3.7479690233955254E-002  -1.1193645567665500E-002   4.9756645946406441E-002
   5.6282839417926334E-002  -1.6686398166576966E-002   2.8727022790961454E-002
   5.3924778197443013E-002  -1.5909561704334163E-002   2.8396180319016584E-002
   5.1566716976959664E-002  -1.5156343536426656E-002   2.8251422834205259E-002
   4.9208655756476316E-002  -1.4426743662854364E-002   2.8292750336527520E-002
   4.6850594535992940E-002  -1.3720762083617166E-002   2.8520162825983242E-002
   5.1573531513855603E-002  -1.5313210016849155E-002   3.4096351481651854E-002
   4.9402314923418372E-002  -1.4605303435867190E-002   3.3754016150294469E-002
   4.7231098332981100E-002  -1.3909644375970476E-002   3.3599285091895914E-002
   4.5059881742543807E-002  -1.3226232837158750E-002   3.3632158306455842E-002
   4.2888665152106542E-002  -1.2555068819432080E-002   3.3852635793974517E-002
   4.6869904015170188E-002  -1.3940021867121261E-002   3.9391064904456138E-002
   4.4887051340604042E-002  -1.3301045167400355E-002   3.9048607486936629E-002
   4.2904198666037924E-002  -1.2662945215514289E-002   3.8895273628200770E-002
   4.0921345991471750E-002  -1.2025722011463300E-002   3.8931063328248569E-002
   3.8938493316905590E-002  -1.1389375555247050E-002   3.9155976587080005E-002
   4.2171956921870056E-002  -1.2566833717393436E-002   4.4611163059374306E-002
   4.0378987449000071E-002  -1.1996786898933451E-002   4.4279954328942779E-002
   3.8586017976130066E-002  -1.1416246055058216E-002   4.4139388443119994E-002
   3.6793048503260060E-002  -1.0825211185767767E-002   4.4189465401905867E-002
   3.5000079030390076E-002  -1.0223682291061992E-002   4.4430185205300378E-002
   3.7479690233955254E-002  -1.1193645567665500E-002   4.9756645946406441E-002
   3.5878123248606425E-002  -1.0692528630466575E-002   4.9448056676313190E-002
   3.4276556263257596E-002  -1.0169546894602186E-002   4.9331629536653487E-002
   3.2674989277908781E-002  -9.6247003600724128E-003   4.9407364527427625E-002
   3.1073422292559938E-002  -9.0579890268769336E-003   4.9675261648635338E-002
   4.6850594535992940E-002  -1.3720762083617166E-002   2.8520162825983242E-002
   4.4451484465841046E-002  -1.2874132269069916E-002   2.7680694346892631E-002
   4.2052374395689124E-002  -1.1722587689567326E-002   2.6984528829942123E-002
   3.9653264325537146E-002  -1.0266128345108975E-002   2.6431666275132187E-002
   3.7254154255385363E-002  -8.5047542356950778E-003   2.6022106682462631E-002
   4.2888665152106542E-002  -1.2555068819432080E-002   3.3852635793974517E-002
   4.0642047533087450E-002  -1.1778902800214569E-002   3.3297697497072898E-002
   3.8395429914068246E-002  -1.0780485256929512E-002   3.2904441140296198E-002
   3.6148812295049140E-002  -9.5598161895770403E-003   3.2672866723645236E-002
   3.3902194676029951E-002  -8.1168955981576474E-003   3.2602974247119110E-002
   3.8938493316905590E-002  -1.1389375555247050E-002   3.9155976587080005E-002
   3.6862747127003985E-002  -1.0683673331358862E-002   3.8802905231479501E-002
   3.4787000937102394E-002  -9.8383828242916554E-003   3.8629894793988623E-002
   3.2711254747200845E-002  -8.8535040340452197E-003   3.8636945274608099E-002
   3.0635508557299240E-002  -7.7290369606198839E-003   3.8824056673337382E-002
   3.5000079030390076E-002  -1.0223682291061992E-002   4.4430185205300378E-002
   3.3113583247590749E-002  -9.5884438625032237E-003   4.4196317550112697E-002
   3.1227087464791418E-002  -8.8962803916538200E-003   4.4160889791019439E-002
   2.9340591681992101E-002  -8.1471918785133973E-003   4.4323901928020729E-002
   2.7454095899192822E-002  -7.3411783230822314E-003   4.4685353961116808E-002
   3.1073422292559938E-002  -9.0579890268769336E-003   4.9675261648635338E-002
   2.9394555894847657E-002  -8.4932143936477522E-003   4.9477934452971883E-002
   2.7715689497135418E-002  -7.9541779590159845E-003   4.9497426131387856E-002
   2.6036823099423144E-002  -7.4408797229815193E-003   4.9733736683883339E-002
   2.4357956701710926E-002  -6.9533196855446899E-003   5.0186866110458306E-002
   5.7152554632410521E-002   0.0000000000000000        3.4691488639248910E-002
   5.7942355516053007E-002  -2.0845851247101727E-003   3.8343446173944390E-002
   5.8732156399695479E-002  -4.1380809172253102E-003   4.2208751963506805E-002
   5.9521957283337951E-002  -6.1604873775454160E-003   4.6287406007936197E-002
   6.0311758166980436E-002  -8.1518045056704746E-003   5.0579408307232544E-002
   4.8652800472215485E-002   0.0000000000000000        3.2789968161649530E-002
   4.9590789016835959E-002  -1.7097736609748828E-003   3.6965420528698500E-002
   5.0528777561456434E-002  -3.4332723151173847E-003   4.1223899962836520E-002
   5.1466766106076915E-002  -5.1704959624275012E-003   4.5565406464063575E-002
   5.2404754650697383E-002  -6.9214446029052419E-003   4.9989940032379665E-002
   4.0733019568749189E-002   0.0000000000000000        3.1285666310466767E-002
   4.1688874586569752E-002  -1.3349621972395921E-003   3.5939799184506578E-002
   4.2644729604390315E-002  -2.7284637130094566E-003   4.0546637937857524E-002
   4.3600584622210885E-002  -4.1805045473095942E-003   4.5106182570519598E-002
   4.4556439640031434E-002  -5.6910847001400101E-003   4.9618433082492822E-002
   3.3393211922011633E-002   0.0000000000000000        3.0178583085700622E-002
   3.4236612225254377E-002  -9.6015073350430059E-004   3.5266582141368623E-002
   3.5080012528497129E-002  -2.0236551109015315E-003   4.0176965888569845E-002
   3.5923412831739873E-002  -3.1905131321916884E-003   4.4909734327304288E-002
   3.6766813134982611E-002  -4.4607247973747748E-003   4.9464887457571979E-002
   2.6633377532002813E-002   0.0000000000000000        2.9468718487351095E-002
   2.7234001932889829E-002  -5.8533926976901164E-004   3.4945769399284621E-002
   2.7834626333776848E-002  -1.3188465087936013E-003   4.0114883814973461E-002
   2.8435250734663863E-002  -2.2005217170737758E-003   4.4976061734417622E-002
   2.9035875135550886E-002  -3.2303648946095422E-003   4.9529303157617097E-002
   6.0311758166980436E-002  -8.1518045056704746E-003   5.0579408307232544E-002
   6.0612727133962763E-002  -1.0030699640193694E-002   5.1518026006052778E-002
   6.0913696100945082E-002  -1.1715840119708243E-002   5.2244427417496381E-002
   6.1214665067927401E-002  -1.3207225944214139E-002   5.2758612541563457E-002
   6.1515634034909741E-002  -1.4504857113711377E-002   5.3060581378253861E-002
   5.2404754650697383E-002  -6.9214446029052419E-003   4.9989940032379665E-002
   5.2532312692403993E-002  -8.5851476748131129E-003   5.1217036991575891E-002
   5.2659870734110603E-002  -1.0060634616413679E-002   5.2309528387597289E-002
   5.2787428775817213E-002  -1.1347905427706853E-002   5.3267414220443815E-002
   5.2914986817523824E-002  -1.2446960108692728E-002   5.4090694490115568E-002
   4.4556439640031434E-002  -5.6910847001400101E-003   4.9618433082492822E-002
   4.4588197480664109E-002  -7.1395957094325530E-003   5.1128470777363696E-002
   4.4619955321296763E-002  -8.4054291131190791E-003   5.2581513633261544E-002
   4.4651713161929445E-002  -9.4885849111995962E-003   5.3977561650186287E-002
   4.4683471002562078E-002  -1.0389063103674098E-002   5.5316614828137996E-002
   3.6766813134982611E-002  -4.4607247973747748E-003   4.9464887457571979E-002
   3.6780381498743089E-002  -5.6940437440519895E-003   5.1252327363416193E-002
   3.6793949862503575E-002  -6.7502236098244909E-003   5.3060383154489105E-002
   3.6807518226264047E-002  -7.6292643946923276E-003   5.4889054830790734E-002
   3.6821086590024525E-002  -8.3311660986554511E-003   5.6738342392321069E-002
   2.9035875135550886E-002  -3.2303648946095422E-003   4.9529303157617097E-002
   2.9108864746640949E-002  -4.2484917786714165E-003   5.1588606749733354E-002
   2.9181854357731015E-002  -5.0950181065299140E-003   5.3746136951280062E-002
   2.9254843968821078E-002  -5.7699438781850547E-003   5.6001893762257234E-002
   2.9327833579911151E-002  -6.2732690936368254E-003   5.8355877182664918E-002
   6.1515634034909741E-002  -1.4504857113711377E-002   5.3060581378253861E-002
   6.0193501417586601E-002  -1.5511433208293679E-002   5.1648010522109780E-002
   5.8871368800263481E-002  -1.6129653808054749E-002   5.0684940637434492E-002
   5.7549236182940347E-002  -1.6359518912994631E-002   5.0171371724227996E-002
   5.6227103565617220E-002  -1.6201028523113309E-002   5.0107303782490314E-002
   5.2914986817523824E-002  -1.2446960108692728E-002   5.4090694490115568E-002
   5.1990475478192397E-002  -1.3298184675739899E-002   5.3343275139114160E-002
   5.1065964138860963E-002  -1.3841965145217017E-002   5.2941597372627339E-002
   5.0141452799529543E-002  -1.4078301517124150E-002   5.2885661190655096E-002
   4.9216941460198123E-002  -1.4007193791461162E-002   5.3175466593197496E-002
   4.4683471002562078E-002  -1.0389063103674098E-002   5.5316614828137996E-002
   4.4052821554268123E-002  -1.1084936143186161E-002   5.5153435585028138E-002
   4.3422172105974197E-002  -1.1554276482379330E-002   5.5232238539478624E-002
   4.2791522657680249E-002  -1.1797084121253654E-002   5.5553023691489491E-002
   4.2160873209386295E-002  -1.1813359059809056E-002   5.6115791041060792E-002
   3.6821086590024525E-002  -8.3311660986554511E-003   5.6738342392321069E-002
   3.6380539645813843E-002  -8.8716876106323880E-003   5.7078491859851588E-002
   3.5939992701603168E-002  -9.2665878195416409E-003   5.7556864137988245E-002
   3.5499445757392500E-002  -9.5158667253831559E-003   5.8173459226731054E-002
   3.5058898813181805E-002  -9.6195243281569018E-003   5.8928277126080036E-002
   2.9327833579911151E-002  -6.2732690936368254E-003   5.8355877182664918E-002
   2.8973629752829522E-002  -6.6584390780786498E-003   5.9118443963584594E-002
   2.8619425925747888E-002  -6.9788991567039018E-003   5.9915474168156249E-002
   2.8265222098666255E-002  -7.2346493295126473E-003   6.0746967796379843E-002
   2.7911018271584626E-002  -7.4256895965048170E-003   6.1612924848255327E-002
   5.6227103565617220E-002  -1.6201028523113309E-002   5.0107303782490314E-002
   5.4743669366335290E-002  -1.5853781045264193E-002   4.9812262753291467E-002
   5.3260235167053346E-002  -1.5517374886300631E-002   4.9683152189926638E-002
   5.1776800967771409E-002  -1.5191810046222696E-002   4.9719972092395745E-002
   5.0293366768489473E-002  -1.4877086525030420E-002   4.9922722460698898E-002
   4.9216941460198123E-002  -1.4007193791461162E-002   5.3175466593197496E-002
   4.7905841007350097E-002  -1.3775433085398234E-002   5.2842432971378014E-002
   4.6594740554502065E-002  -1.3529810516105533E-002   5.2688136376592365E-002
   4.5283640101654025E-002  -1.3270326083582858E-002   5.2712576808840630E-002
   4.3972539648806028E-002  -1.2996979787830487E-002   5.2915754268122658E-002
   4.2160873209386295E-002  -1.1813359059809056E-002   5.6115791041060792E-002
   4.1034913064172049E-002  -1.1697085125532386E-002   5.5769468008736098E-002
   3.9908952918957824E-002  -1.1542246145910408E-002   5.5614688564645055E-002
   3.8782992773743578E-002  -1.1348842120943144E-002   5.5651452708787894E-002
   3.7657032628529312E-002  -1.1116873050630569E-002   5.5879760441164307E-002
   3.5058898813181805E-002  -9.6195243281569018E-003   5.8928277126080036E-002
   3.4130885536801214E-002  -9.6187371656664966E-003   5.8593367865365585E-002
   3.3202872260420603E-002  -9.5546817757153242E-003   5.8462808754084737E-002
   3.2274858984039985E-002  -9.4273581583033672E-003   5.8536599792237486E-002
   3.1346845707659374E-002  -9.2367663134306707E-003   5.8814740979823782E-002
   2.7911018271584626E-002  -7.4256895965048170E-003   6.1612924848255327E-002
   2.7193758425237524E-002  -7.5403892058005864E-003   6.1314132541266650E-002
   2.6476498578890409E-002  -7.5671174055202371E-003   6.1232496944911390E-002
   2.5759238732543304E-002  -7.5058741956635774E-003   6.1368018059189511E-002
   2.5041978886196206E-002  -7.3566595762307452E-003   6.1720695884101145E-002
   5.0293366768489473E-002  -1.4877086525030420E-002   4.9922722460698898E-002
   4.8694074864047476E-002  -1.4541306953557889E-002   4.9506482231321702E-002
   4.7094782959605480E-002  -1.4152573962639477E-002   4.9319978795058797E-002
   4.5495491055163491E-002  -1.3710887552275010E-002   4.9363212151910064E-002
   4.3896199150721488E-002  -1.3216247722464713E-002   4.9636182301875720E-002
   4.3972539648806028E-002  -1.2996979787830487E-002   5.2915754268122658E-002
   4.2597231315348677E-002  -1.2695767729843252E-002   5.2546492456365515E-002
   4.1221922981891312E-002  -1.2352686010616072E-002   5.2395460993463309E-002
   3.9846614648433962E-002  -1.1967734630149192E-002   5.2462659879416229E-002
   3.8471306314976597E-002  -1.1540913588442420E-002   5.2748089114224045E-002
   3.7657032628529312E-002  -1.1116873050630569E-002   5.5879760441164307E-002
   3.6494201421797365E-002  -1.0850228506128497E-002   5.5546393288820946E-002
   3.5331370215065397E-002  -1.0552798058592720E-002   5.5419750041073426E-002
   3.4168539008333422E-002  -1.0224581708023261E-002   5.5499830697921707E-002
   3.3005707801601440E-002  -9.8655794544201536E-003   5.5786635259365516E-002
   3.1346845707659374E-002  -9.2367663134306707E-003   5.8814740979823782E-002
   3.0384985183393519E-002  -9.0046892824138143E-003   5.8506184728688237E-002
   2.9423124659127674E-002  -8.7529101065693966E-003   5.8392845937889196E-002
   2.8461264134861816E-002  -8.4814287858973048E-003   5.8474724607426615E-002
   2.7499403610595954E-002  -8.1902453203978737E-003   5.8751820737300585E-002
   2.5041978886196206E-002  -7.3566595762307452E-003   6.1720695884101145E-002
   2.4269582600137202E-002  -7.1591500586990903E-003   6.1425866775967203E-002
   2.3497186314078190E-002  -6.9530221545459972E-003   6.1314748683910500E-002
   2.2724790028019196E-002  -6.7382758637714816E-003   6.1387341607931002E-002
   2.1952393741960174E-002  -6.5149111863755937E-003   6.1643645548028814E-002
   4.3896199150721488E-002  -1.3216247722464713E-002   4.9636182301875720E-002
   4.2292071921529922E-002  -1.2698997683139784E-002   4.9398130646118060E-002
   4.0687944692338385E-002  -1.2189480644231560E-002   4.9338857368287276E-002
   3.9083817463146840E-002  -1.1687696605740185E-002   4.9458362468383393E-002
   3.7479690233955254E-002  -1.1193645567665500E-002   4.9756645946406441E-002
   3.8471306314976597E-002  -1.1540913588442420E-002   5.2748089114224045E-002
   3.7049944621953670E-002  -1.1094469075688007E-002   5.2468141079297204E-002
   3.5628582928930709E-002  -1.0650647282077701E-002   5.2374945738780695E-002
   3.4207221235907734E-002  -1.0209448207611950E-002   5.2468503092674430E-002
   3.2785859542884765E-002  -9.7708718522903082E-003   5.2748813140978540E-002
   3.3005707801601440E-002  -9.8655794544201536E-003   5.5786635259365516E-002
   3.1775085961230486E-002  -9.4899404682360494E-003   5.5469901126542077E-002
   3.0544464120859521E-002  -9.1118139199238418E-003   5.5347894004612291E-002
   2.9313842280488576E-002  -8.7311998094835482E-003   5.5420613893576200E-002
   2.8083220440117601E-002  -8.3480981369150331E-003   5.5688060793433872E-002
   2.7499403610595954E-002  -8.1902453203978737E-003   5.8751820737300585E-002
   2.6467495939360427E-002  -7.8854118607842374E-003   5.8403410787852786E-002
   2.5435588268124865E-002  -7.5729805577700385E-003   5.8257702165782160E-002
   2.4403680596889302E-002  -7.2529514113552299E-003   5.8314694871088708E-002
   2.3371772925653775E-002  -6.9253244215398552E-003   5.8574388903772187E-002
   2.1952393741960174E-002  -6.5149111863755937E-003   6.1643645548028814E-002
   2.1127174556343442E-002  -6.2808832533324255E-003   6.1268670063229308E-002
   2.0301955370726724E-002  -6.0341471956160964E-003   6.1104370222290177E-002
   1.9476736185109998E-002  -5.7747030132268493E-003   6.1150746025211783E-002
   1.8651516999493287E-002  -5.5025507061645662E-003   6.1407797471993764E-002
   3.7479690233955254E-002  -1.1193645567665500E-002   4.9756645946406441E-002
   3.5878123248606425E-002  -1.0692528630466575E-002   4.9448056676313190E-002
   3.4276556263257596E-002  -1.0169546894602186E-002   4.9331629536653487E-002
   3.2674989277908781E-002  -9.6247003600724128E-003   4.9407364527427625E-002
   3.1073422292559938E-002  -9.0579890268769336E-003   4.9675261648635338E-002
   3.2785859542884765E-002  -9.7708718522903082E-003   5.2748813140978540E-002
   3.1375152211970264E-002  -9.3246926312957057E-003   5.2449959607767244E-002
   2.9964444881055763E-002  -8.8606849598108217E-003   5.2340663252990569E-002
   2.8553737550141255E-002  -8.3788488378356771E-003   5.2420924076649146E-002
   2.7143030219226746E-002  -7.8791842653699873E-003   5.2690742078742470E-002
   2.8083220440117601E-002  -8.3480981369150331E-003   5.5688060793433872E-002
   2.6860767811638701E-002  -7.9568566321249340E-003   5.5394906648929154E-002
   2.5638315183159816E-002  -7.5518230250194648E-003   5.5288704730860581E-002
   2.4415862554680916E-002  -7.1329973155989986E-003   5.5369455039228507E-002
   2.3193409926202023E-002  -6.7003795038632630E-003   5.5637157574032481E-002
   2.3371772925653775E-002  -6.9253244215398552E-003   5.8574388903772187E-002
   2.2334970047611778E-002  -6.5890206329540305E-003   5.8282897799799109E-002
   2.1298167169569733E-002  -6.2429610902283821E-003   5.8175753970263554E-002
   2.0261364291527743E-002  -5.8871457933623471E-003   5.8252957415165438E-002
   1.9224561413485691E-002  -5.5215747423562611E-003   5.8514508134504956E-002
   1.8651516999493287E-002  -5.5025507061645662E-003   6.1407797471993764E-002
   1.7797758919889411E-002  -5.2211846337833490E-003   6.1113933060377268E-002
   1.6944000840285571E-002  -4.9340991554368274E-003   6.1001810971199305E-002
   1.6090242760681713E-002  -4.6412942711256885E-003   6.1071431204460541E-002
   1.5236484681077855E-002  -4.3427699808495923E-003   6.1322793760160144E-002
   3.1073422292559938E-002  -9.0579890268769336E-003   4.9675261648635338E-002
   2.9394555894847657E-002  -8.4932143936477522E-003   4.9477934452971883E-002
   2.7715689497135418E-002  -7.9541779590159845E-003   4.9497426131387856E-002
   2.6036823099423144E-002  -7.4408797229815193E-003   4.9733736683883339E-002
   2.4357956701710926E-002  -6.9533196855446899E-003   5.0186866110458306E-002
   2.7143030219226746E-002  -7.8791842653699873E-003   5.2690742078742470E-002
   2.5672557980570943E-002  -7.3796905240999244E-003   5.2443807792625474E-002
   2.4202085741915159E-002  -6.8983668957102728E-003   5.2396842950541783E-002
   2.2731613503259338E-002  -6.4352133802016293E-003   5.2549847552491730E-002
   2.1261141264603545E-002  -5.9902299775738133E-003   5.2902821598474925E-002
   2.3193409926202023E-002  -6.7003795038632630E-003   5.5637157574032481E-002
   2.1914482416556684E-002  -6.2661666545520134E-003   5.5348184283178392E-002
   2.0635554906911376E-002  -5.8425558324046722E-003   5.5242331006311804E-002
   1.9356627397266075E-002  -5.4295470374217392E-003   5.5319597743432633E-002
   1.8077699887620702E-002  -5.0271402696028256E-003   5.5579984494541046E-002
   1.9224561413485691E-002  -5.5215747423562611E-003   5.8514508134504956E-002
   1.8120329202804927E-002  -5.1526427850040329E-003   5.8191063924630526E-002
   1.7016096992124141E-002  -4.7867447690991272E-003   5.8033890298697571E-002
   1.5911864781443338E-002  -4.4238806946417936E-003   5.8042987256706133E-002
   1.4807632570762591E-002  -4.0640505616319489E-003   5.8218354798656363E-002
   1.5236484681077855E-002  -4.3427699808495923E-003   6.1322793760160144E-002
   1.4290098339315632E-002  -4.0391189154564411E-003   6.0972446716982209E-002
   1.3343711997553395E-002  -3.7309337057934433E-003   6.0771520827699543E-002
   1.2397325655791186E-002  -3.4182143518619243E-003   6.0720016092312479E-002
   1.1450939314028963E-002  -3.1009608536609612E-003   6.0817932510821349E-002
   2.6633377532002813E-002   0.0000000000000000        2.9468718487351095E-002
   2.7234001932889829E-002  -5.8533926976901164E-004   3.4945769399284621E-002
   2.7834626333776848E-002  -1.3188465087936013E-003   4.0114883814973461E-002
   2.8435250734663863E-002  -2.2005217170737758E-003   4.4976061734417622E-002
   2.9035875135550886E-002  -3.2303648946095422E-003   4.9529303157617097E-002
   2.0116405615010546E-002   0.0000000000000000        2.9021370112855882E-002
   2.0448538618658269E-002  -4.3900445232147693E-004   3.4313970839999083E-002
   2.0780671622305989E-002  -9.8913488158750614E-004   3.9377525268908371E-002
   2.1112804625953711E-002  -1.6503912877980928E-003   4.4212033399583767E-002
   2.1444937629601438E-002  -2.4227736709532327E-003   4.8817495232025249E-002
   1.3505185387322635E-002   0.0000000000000000        2.8701835559652694E-002
   1.3647717191741838E-002  -2.9266963487394222E-004   3.3847028094316604E-002
   1.3790248996161042E-002  -6.5942325438141016E-004   3.8842064528757374E-002
   1.3932780800580243E-002  -1.1002608585224064E-003   4.3686944862975023E-002
   1.4075312604999448E-002  -1.6151824472969336E-003   4.8381669096969532E-002
   6.7997168489390847E-003   0.0000000000000000        2.8510114827741528E-002
   6.8315376521405425E-003  -1.4633481742640751E-004   3.3544941162237177E-002
   6.8633584553420002E-003  -3.2971162717531461E-004   3.8508501594520454E-002
   6.8951792585434579E-003  -5.5013042924672000E-004   4.3400796124591377E-002
   6.9270000617449165E-003  -8.0759122364062411E-004   4.8221824752449953E-002
  -1.4010754362248079E-013   0.0000000000000000        2.8446207917122379E-002
  -1.4562049482913508E-013   2.1127197213921534E-014   3.3407710043760780E-002
  -1.5113171131231340E-013   3.0782668081208442E-014   3.8376836466197592E-002
  -1.5664379515722970E-013   2.8966412601860725E-014   4.3353587184432836E-002
  -1.6215674636388400E-013   1.5672359243712464E-014   4.8337962198466491E-002
   2.9035875135550886E-002  -3.2303648946095422E-003   4.9529303157617097E-002
   2.9108864746640949E-002  -4.2484917786714165E-003   5.1588606749733354E-002
   2.9181854357731015E-002  -5.0950181065299140E-003   5.3746136951280062E-002
   2.9254843968821078E-002  -5.7699438781850547E-003   5.6001893762257234E-002
   2.9327833579911151E-002  -6.2732690936368254E-003   5.8355877182664918E-002
   2.1444937629601438E-002  -2.4227736709532327E-003   4.8817495232025249E-002
   2.1587035347071851E-002  -3.1863688340044334E-003   5.1219143289116711E-002
   2.1729133064542262E-002  -3.8212635799032158E-003   5.3660780949538391E-002
   2.1871230782012668E-002  -4.3274579086495651E-003   5.6142408213290335E-002
   2.2013328499483089E-002  -4.7049518202434970E-003   5.8664025080372433E-002
   1.4075312604999448E-002  -1.6151824472969336E-003   4.8381669096969532E-002
   1.4228281422749954E-002  -2.1242458893374777E-003   5.1082761479985285E-002
   1.4381250240500455E-002  -2.5475090532765241E-003   5.3765606460231034E-002
   1.4534219058250957E-002  -2.8849719391140934E-003   5.6430204037706717E-002
   1.4687187876001461E-002  -3.1366345468501651E-003   5.9076554212412362E-002
   6.9270000617449165E-003  -8.0759122364062411E-004   4.8221824752449953E-002
   7.0326029736752609E-003  -1.0621229446705048E-003   5.1179461322339047E-002
   7.1382058856056044E-003  -1.2737545266498327E-003   5.4060613483357861E-002
   7.2438087975359453E-003  -1.4424859695786024E-003   5.6865281235506424E-002
   7.3494117094662879E-003  -1.5683172734568280E-003   5.9593464578784658E-002
  -1.6215674636388400E-013   1.5672359243712464E-014   4.8337962198466491E-002
  -1.5222632182565476E-013  -3.5336317205647561E-015   5.1509242816178032E-002
  -1.4229849937263950E-013  -2.3134922796930191E-014   5.4545802018919010E-002
  -1.3237067691962423E-013  -4.3125388243109297E-014   5.7447639806689467E-002
  -1.2244025238139500E-013  -6.3497818114655047E-014   6.0214756179489369E-002
   2.9327833579911151E-002  -6.2732690936368254E-003   5.8355877182664918E-002
   2.8973629752829522E-002  -6.6584390780786498E-003   5.9118443963584594E-002
   2.8619425925747888E-002  -6.9788991567039018E-003   5.9915474168156249E-002
   2.8265222098666255E-002  -7.2346493295126473E-003   6.0746967796379843E-002
   2.7911018271584626E-002  -7.4256895965048170E-003   6.1612924848255327E-002
   2.2013328499483089E-002  -4.7049518202434970E-003   5.8664025080372433E-002
   2.1707109979337235E-002  -4.9938293085883198E-003   5.9485099369103588E-002
   2.1400891459191371E-002  -5.2341743675873506E-003   6.0367680848054384E-002
   2.1094672939045517E-002  -5.4259869972405946E-003   6.1311769517224779E-002
   2.0788454418899659E-002  -5.5692671975480362E-003   6.2317365376614829E-002
   1.4687187876001461E-002  -3.1366345468501651E-003   5.9076554212412362E-002
   1.4455998429359062E-002  -3.3292195390979724E-003   5.9939958532484232E-002
   1.4224808982716663E-002  -3.4894495784707586E-003   6.0891913809343355E-002
   1.3993619536074267E-002  -3.6173246649685150E-003   6.1932420042989780E-002
   1.3762430089431864E-002  -3.7128447985912486E-003   6.3061477233423507E-002
   7.3494117094662879E-003  -1.5683172734568280E-003   5.9593464578784658E-002
   7.2202951028950239E-003  -1.6646097696076546E-003   6.0483021453726409E-002
   7.0911784963237547E-003  -1.7447247893541454E-003   6.1488173052023198E-002
   6.9620618897524855E-003  -1.8086623326964628E-003   6.2608919373674979E-002
   6.8329452831812224E-003  -1.8564223996344921E-003   6.3845260418681646E-002
  -1.2244025238139500E-013  -6.3497818114655047E-014   6.0214756179489369E-002
  -5.4895324397286061E-014  -1.1728118476383997E-013   6.1114288132830312E-002
   1.2647868863346901E-014  -2.3763109535668292E-013   6.2156458576093920E-002
   8.0188893719634891E-014  -4.2439359318469094E-013   6.3341267509280166E-002
   1.4773599010808880E-013  -6.7769401201900337E-013   6.4668714932389029E-002
   2.7911018271584626E-002  -7.4256895965048170E-003   6.1612924848255327E-002
   2.7193758425237524E-002  -7.5403892058005864E-003   6.1314132541266650E-002
   2.6476498578890409E-002  -7.5671174055202371E-003   6.1232496944911390E-002
   2.5759238732543304E-002  -7.5058741956635774E-003   6.1368018059189511E-002
   2.5041978886196206E-002  -7.3566595762307452E-003   6.1720695884101145E-002
   2.0788454418899659E-002  -5.5692671975480362E-003   6.2317365376614829E-002
   2.0278890845945328E-002  -5.6552919045847402E-003   6.2182627138988512E-002
   1.9769327272990987E-002  -5.6753380544258651E-003   6.2246124737514313E-002
   1.9259763700036660E-002  -5.6294056470713129E-003   6.2507858172192288E-002
   1.8750200127082325E-002  -5.5174946825211346E-003   6.2967827443022331E-002
   1.3762430089431864E-002  -3.7128447985912486E-003   6.3061477233423507E-002
   1.3441641915388977E-002  -3.7701946033689461E-003   6.3068800212779108E-002
   1.3120853741346099E-002  -3.7835587033315504E-003   6.3255438153805493E-002
   1.2800065567303221E-002  -3.7529370984790487E-003   6.3621391056502635E-002
   1.2479277393260334E-002  -3.6783297888114547E-003   6.4166658920870562E-002
   6.8329452831812224E-003  -1.8564223996344921E-003   6.3845260418681646E-002
   6.6820116335684701E-003  -1.8850973021531537E-003   6.3972651762638527E-002
   6.5310779839557135E-003  -1.8917793522372070E-003   6.4260437193784881E-002
   6.3801443343429595E-003  -1.8764685498867844E-003   6.4708616712120720E-002
   6.2292106847302133E-003  -1.8391648951018094E-003   6.5317190317646032E-002
   1.4773599010808880E-013  -6.7769401201900337E-013   6.4668714932389029E-002
   4.8379356076821978E-013  -9.3731966632759622E-013   6.4894181788566652E-002
   8.1985286615182673E-013  -1.1428809287838959E-012   6.5261121857452475E-002
   1.1559130388971717E-012  -1.2945521390972381E-012   6.5769535139046403E-002
   1.4919697421955647E-012  -1.3921641617287150E-012   6.6419421633348463E-002
   2.5041978886196206E-002  -7.3566595762307452E-003   6.1720695884101145E-002
   2.4269582600137202E-002  -7.1591500586990903E-003   6.1425866775967203E-002
   2.3497186314078190E-002  -6.9530221545459972E-003   6.1314748683910500E-002
   2.2724790028019196E-002  -6.7382758637714816E-003   6.1387341607931002E-002
   2.1952393741960174E-002  -6.5149111863755937E-003   6.1643645548028814E-002
   1.8750200127082325E-002  -5.5174946825211346E-003   6.2967827443022331E-002
   1.8163861870947401E-002  -5.3693625443441972E-003   6.2703742462366679E-002
   1.7577523614812466E-002  -5.2147666161096590E-003   6.2628062525481976E-002
   1.6991185358677538E-002  -5.0537068978174261E-003   6.2740787632368192E-002
   1.6404847102542600E-002  -4.8861833894675855E-003   6.3041917783025259E-002
   1.2479277393260334E-002  -3.6783297888114547E-003   6.4166658920870562E-002
   1.2083691194743180E-002  -3.5795750299893667E-003   6.3931163471129510E-002
   1.1688104996226032E-002  -3.4765110776734005E-003   6.3888767092853030E-002
   1.1292518797708886E-002  -3.3691379318634808E-003   6.4039469786041178E-002
   1.0896932599191736E-002  -3.2574555925596882E-003   6.4383271550694010E-002
   6.2292106847302133E-003  -1.8391648951018094E-003   6.5317190317646032E-002
   6.0290705715245509E-003  -1.7897875156345465E-003   6.5108129802255665E-002
   5.8289304583188876E-003  -1.7382555392370744E-003   6.5096862386023607E-002
   5.6287903451132269E-003  -1.6845689659094804E-003   6.5283388068949955E-002
   5.4286502319075697E-003  -1.6287277956517077E-003   6.5667706851034596E-002
   1.4919697421955647E-012  -1.3921641617287150E-012   6.6419421633348463E-002
   1.2915085667586368E-012  -1.2796430581829554E-012   6.6234641455745119E-002
   1.0910421871512810E-012  -8.0076223429870197E-013   6.6252348404993833E-002
   8.9057754226740116E-013   4.4544229416132453E-014   6.6472542481094590E-002
   6.9011463210699731E-013   1.2561618412121334E-012   6.6895223684047378E-002
   2.1952393741960174E-002  -6.5149111863755937E-003   6.1643645548028814E-002
   2.1127174556343442E-002  -6.2808832533324255E-003   6.1268670063229308E-002
   2.0301955370726724E-002  -6.0341471956160964E-003   6.1104370222290177E-002
   1.9476736185109998E-002  -5.7747030132268493E-003   6.1150746025211783E-002
   1.8651516999493287E-002  -5.5025507061645662E-003   6.1407797471993764E-002
   1.6404847102542600E-002  -4.8861833894675855E-003   6.3041917783025259E-002
   1.5789210848863887E-002  -4.7106624393394858E-003   6.2716601331455957E-002
   1.5173574595185167E-002  -4.5256103957125107E-003   6.2599775099902055E-002
   1.4557938341506451E-002  -4.3310272585868424E-003   6.2691439088363513E-002
   1.3942302087827721E-002  -4.1269130279621979E-003   6.2991593296840676E-002
   1.0896932599191736E-002  -3.2574555925596882E-003   6.4383271550694010E-002
   1.0488693853605992E-002  -3.1404416253466017E-003   6.4104437101180495E-002
   1.0080455108020255E-002  -3.0170735958089806E-003   6.4031907447837377E-002
   9.6722163624345155E-003  -2.8873515039468910E-003   6.4165682590664769E-002
   9.2639776168487765E-003  -2.7512753497600517E-003   6.4505762529662725E-002
   5.4286502319075697E-003  -1.6287277956517077E-003   6.5667706851034596E-002
   5.2256235705697845E-003  -1.5702208113538008E-003   6.5432177372402756E-002
   5.0225969092319994E-003  -1.5085367959054782E-003   6.5400767266096241E-002
   4.8195702478942126E-003  -1.4436757493069118E-003   6.5573476532115302E-002
   4.6165435865564283E-003  -1.3756376715578222E-003   6.5950305170459744E-002
   6.9011463210699731E-013   1.2561618412121334E-012   6.6895223684047378E-002
  -2.4474519633166381E-013   2.6391944185633065E-012   6.6699822145122850E-002
  -1.1796050247703249E-012   3.9981074007044981E-012   6.6706354554678854E-002
  -2.1144683226559380E-012   5.3331991600735762E-012   6.6914820912715223E-002
  -3.0493246816476471E-012   6.6444627577766369E-012   6.7325221219231901E-002
   1.8651516999493287E-002  -5.5025507061645662E-003   6.1407797471993764E-002
   1.7797758919889411E-002  -5.2211846337833490E-003   6.1113933060377268E-002
   1.6944000840285571E-002  -4.9340991554368274E-003   6.1001810971199305E-002
   1.6090242760681713E-002  -4.6412942711256885E-003   6.1071431204460541E-002
   1.5236484681077855E-002  -4.3427699808495923E-003   6.1322793760160144E-002
   1.3942302087827721E-002  -4.1269130279621979E-003   6.2991593296840676E-002
   1.3278210629960589E-002  -3.9158884734400712E-003   6.2741548105339190E-002
   1.2614119172093451E-002  -3.7005743646214284E-003   6.2689093834872534E-002
   1.1950027714226315E-002  -3.4809707015062905E-003   6.2834230485440429E-002
   1.1285936256359180E-002  -3.2570774840948724E-003   6.3176958057042987E-002
   9.2639776168487765E-003  -2.7512753497600517E-003   6.4505762529662725E-002
   8.8054013793141782E-003  -2.6105923130970432E-003   6.4298106706608044E-002
   8.3468251417795920E-003  -2.4670495738059878E-003   6.4303890403183850E-002
   7.8882489042449988E-003  -2.3206471318870069E-003   6.4523113619390143E-002
   7.4296726667104004E-003  -2.1713849873401525E-003   6.4955776355226785E-002
   4.6165435865564283E-003  -1.3756376715578222E-003   6.5950305170459744E-002
   4.3793311679502069E-003  -1.3052961527538903E-003   6.5783608864183246E-002
   4.1421187493439794E-003  -1.2335247829906235E-003   6.5846200676133212E-002
   3.9049063307377476E-003  -1.1603235622676660E-003   6.6138080606309421E-002
   3.6676939121315314E-003  -1.0856924905853216E-003   6.6659248654711845E-002
  -3.0493246816476471E-012   6.6444627577766369E-012   6.7325221219231901E-002
  -4.1313619192351325E-012   7.5892347961570295E-012   6.7198054578065269E-002
  -5.2133887484817620E-012   7.8248657553459111E-012   6.7316024653720691E-002
  -6.2954207818988195E-012   7.3517338050610448E-012   6.7679131446198262E-002
  -7.3774528153158769E-012   6.1692317920858386E-012   6.8287374955498026E-002
   1.5236484681077855E-002  -4.3427699808495923E-003   6.1322793760160144E-002
   1.4290098339315632E-002  -4.0391189154564411E-003   6.0972446716982209E-002
   1.3343711997553395E-002  -3.7309337057934433E-003   6.0771520827699543E-002
   1.2397325655791186E-002  -3.4182143518619243E-003   6.0720016092312479E-002
   1.1450939314028963E-002  -3.1009608536609612E-003   6.0817932510821349E-002
   1.1285936256359180E-002  -3.2570774840948724E-003   6.3176958057042987E-002
   1.0510764926391643E-002  -3.0293391859360919E-003   6.2946657082567498E-002
   9.7355935964240914E-003  -2.7982002805790329E-003   6.2909364977785792E-002
   8.9604222664565539E-003  -2.5636607680242368E-003   6.3065081742697940E-002
   8.1852509364890302E-003  -2.3257206482714121E-003   6.3413807377303955E-002
   7.4296726667104004E-003  -2.1713849873401525E-003   6.4955776355226785E-002
   6.8693040643357586E-003  -2.0195594564157149E-003   6.4844387912382728E-002
   6.3089354619611272E-003  -1.8654668553645254E-003   6.4969596055030568E-002
   5.7485668595864681E-003  -1.7091071841864695E-003   6.5331400783170540E-002
   5.1881982572118540E-003  -1.5504804428817520E-003   6.5929802096802659E-002
   3.6676939121315314E-003  -1.0856924905853216E-003   6.6659248654711845E-002
   3.3657157531479971E-003  -1.0097797268955738E-003   6.6665639206428082E-002
   3.0637375941644533E-003  -9.3273343015001092E-004   6.6952214059434384E-002
   2.7617594351809164E-003  -8.5455360034885318E-004   6.7518973213731237E-002
   2.4597812761973752E-003  -7.7524023749214743E-004   6.8365916669317725E-002
  -7.3774528153158769E-012   6.1692317920858386E-012   6.8287374955498026E-002
  -7.1716590999137964E-012   2.6247892748187951E-012   6.8410410964703128E-002
  -6.9658792622995236E-012  -4.9355658449101725E-012   6.8857218990996755E-002
  -6.7600768732800631E-012  -1.6511004369279547E-011   6.9627799034378837E-002
  -6.5542987703892663E-012  -3.2102542846246251E-011   7.0722151094849472E-002
  -1.4010754362248079E-013   0.0000000000000000        2.8446207917122379E-002
  -1.4562049482913508E-013   2.1127197213921534E-014   3.3407710043760780E-002
  -1.5113171131231340E-013   3.0782668081208442E-014   3.8376836466197592E-002
  -1.5664379515722970E-013   2.8966412601860725E-014   4.3353587184432836E-002
  -1.6215674636388400E-013   1.5672359243712464E-014   4.8337962198466491E-002
  -6.7997168492150359E-003   0.0000000000000000        2.8510114827793608E-002
  -6.8315376524284025E-003   1.4633481746740597E-004   3.3544941162275979E-002
  -6.8633584556417665E-003   3.2971162723842169E-004   3.8508501594544220E-002
  -6.8951792588551339E-003   5.5013042931304542E-004   4.3400796124598330E-002
  -6.9270000620684988E-003   8.0759122369127544E-004   4.8221824752438337E-002
  -1.3505185387585801E-002   0.0000000000000000        2.8701835559753579E-002
  -1.3647717192019562E-002   2.9266963491368734E-004   3.3847028094394986E-002
  -1.3790248996453321E-002   6.5942325444606157E-004   3.8842064528809742E-002
  -1.3932780800887079E-002   1.1002608585971244E-003   4.3686944862997817E-002
  -1.4075312605320842E-002   1.6151824473668711E-003   4.8381669096959234E-002
  -2.0116405615252402E-002   0.0000000000000000        2.9021370113002293E-002
  -2.0448538618919092E-002   4.3900445235996784E-004   3.4313970840117829E-002
  -2.0780671622585786E-002   9.8913488165370102E-004   3.9377525268994164E-002
  -2.1112804626252486E-002   1.6503912878812000E-003   4.4212033399631263E-002
  -2.1444937629919177E-002   2.4227736710424703E-003   4.8817495232029197E-002
  -2.6633377532214831E-002   0.0000000000000000        2.9468718487539750E-002
  -2.7234001933127003E-002   5.8533926980624835E-004   3.4945769399444479E-002
  -2.7834626334039173E-002   1.3188465088613422E-003   4.0114883815097466E-002
  -2.8435250734951345E-002   2.2005217171652842E-003   4.4976061734498710E-002
  -2.9035875135863514E-002   3.2303648947180665E-003   4.9529303157648197E-002
  -1.6215674636388400E-013   1.5672359243712464E-014   4.8337962198466491E-002
  -1.5222632182565476E-013  -3.5336317205647561E-015   5.1509242816178032E-002
  -1.4229849937263950E-013  -2.3134922796930191E-014   5.4545802018919010E-002
  -1.3237067691962423E-013  -4.3125388243109297E-014   5.7447639806689467E-002
  -1.2244025238139500E-013  -6.3497818114655047E-014   6.0214756179489369E-002
  -6.9270000620684988E-003   8.0759122369127544E-004   4.8221824752438337E-002
  -7.0326029739803198E-003   1.0621229446932498E-003   5.1179461322324406E-002
  -7.1382058858921399E-003   1.2737545266391019E-003   5.4060613483337509E-002
  -7.2438087978039627E-003   1.4424859695288377E-003   5.6865281235477662E-002
  -7.3494117097157845E-003   1.5683172733624504E-003   5.9593464578744856E-002
  -1.4075312605320842E-002   1.6151824473668711E-003   4.8381669096959234E-002
  -1.4228281423056828E-002   2.1242458893900402E-003   5.1082761479964107E-002
  -1.4381250240792818E-002   2.5475090533013454E-003   5.3765606460193606E-002
  -1.4534219058528806E-002   2.8849719391008007E-003   5.6430204037647744E-002
  -1.4687187876264786E-002   3.1366345467884089E-003   5.9076554212326479E-002
  -2.1444937629919177E-002   2.4227736710424703E-003   4.8817495232029197E-002
  -2.1587035347381749E-002   3.1863688340868237E-003   5.1219143289097137E-002
  -2.1729133064844329E-002   3.8212635799635963E-003   5.3660780949487279E-002
  -2.1871230782306898E-002   4.3274579086727567E-003   5.6142408213199629E-002
  -2.2013328499769474E-002   4.7049518202143623E-003   5.8664025080234203E-002
  -2.9035875135863514E-002   3.2303648947180665E-003   4.9529303157648197E-002
  -2.9108864746955100E-002   4.2484917787836089E-003   5.1588606749723473E-002
  -2.9181854358046669E-002   5.0950181066258269E-003   5.3746136951218548E-002
  -2.9254843969138251E-002   5.7699438782447196E-003   5.6001893762133409E-002
  -2.9327833580229820E-002   6.2732690936403088E-003   5.8355877182468048E-002
  -1.2244025238139500E-013  -6.3497818114655047E-014   6.0214756179489369E-002
  -5.4895324397286061E-014  -1.1728118476383997E-013   6.1114288132830312E-002
   1.2647868863346901E-014  -2.3763109535668292E-013   6.2156458576093920E-002
   8.0188893719634891E-014  -4.2439359318469094E-013   6.3341267509280166E-002
   1.4773599010808880E-013  -6.7769401201900337E-013   6.4668714932389029E-002
  -7.3494117097157845E-003   1.5683172733624504E-003   5.9593464578744856E-002
  -7.2202951030197610E-003   1.6646097694205768E-003   6.0483021453555302E-002
  -7.0911784963237348E-003   1.7447247889838483E-003   6.1488173051700019E-002
  -6.9620618896277121E-003   1.8086623320522827E-003   6.2608919373179042E-002
  -6.8329452829316850E-003   1.8564223986258233E-003   6.3845260417992433E-002
  -1.4687187876264786E-002   3.1366345467884089E-003   5.9076554212326479E-002
  -1.4455998429528631E-002   3.3292195389584764E-003   5.9939958532178046E-002
  -1.4224808982792473E-002   3.4894495782053286E-003   6.0891913808775559E-002
  -1.3993619536056314E-002   3.6173246645289734E-003   6.1932420042119032E-002
  -1.3762430089320155E-002   3.7128447979294030E-003   6.3061477232208493E-002
  -2.2013328499769474E-002   4.7049518202143623E-003   5.8664025080234203E-002
  -2.1707109979581519E-002   4.9938293084963899E-003   5.9485099368698544E-002
  -2.1400891459393563E-002   5.2341743674267811E-003   6.0367680847320485E-002
  -2.1094672939205611E-002   5.4259869970056983E-003   6.1311769516100061E-002
  -2.0788454419017655E-002   5.5692671972329931E-003   6.2317365375037244E-002
  -2.9327833580229820E-002   6.2732690936403088E-003   5.8355877182468048E-002
  -2.8973629753178409E-002   6.6584390780342374E-003   5.9118443963116787E-002
  -2.8619425926127012E-002   6.9788991566482935E-003   5.9915474167334809E-002
  -2.8265222099075612E-002   7.2346493294823348E-003   6.0746967795122141E-002
  -2.7911018272024204E-002   7.4256895965365277E-003   6.1612924846478678E-002
   1.4773599010808880E-013  -6.7769401201900337E-013   6.4668714932389029E-002
   4.8379356076821978E-013  -9.3731966632759622E-013   6.4894181788566652E-002
   8.1985286615182673E-013  -1.1428809287838959E-012   6.5261121857452475E-002
   1.1559130388971717E-012  -1.2945521390972381E-012   6.5769535139046403E-002
   1.4919697421955647E-012  -1.3921641617287150E-012   6.6419421633348463E-002
  -6.8329452829316850E-003   1.8564223986258233E-003   6.3845260417992433E-002
  -6.6820116326948755E-003   1.8850973007592253E-003   6.3972651761887808E-002
  -6.5310779824580695E-003   1.8917793505069808E-003   6.4260437192876552E-002
  -6.3801443322212600E-003   1.8764685478692388E-003   6.4708616710958705E-002
  -6.2292106819844539E-003   1.8391648928458848E-003   6.5317190316134116E-002
  -1.3762430089320155E-002   3.7128447979294030E-003   6.3061477232208493E-002
  -1.3441641914797391E-002   3.7701946024556940E-003   6.3068800211382101E-002
  -1.3120853740274626E-002   3.7835587021568997E-003   6.3255438152034299E-002
  -1.2800065565751860E-002   3.7529370970329884E-003   6.3621391054165075E-002
  -1.2479277391229096E-002   3.6783297870839615E-003   6.4166658917774330E-002
  -2.0788454419017655E-002   5.5692671972329931E-003   6.2317365375037244E-002
  -2.0278890845823742E-002   5.6552919041521869E-003   6.2182627137049598E-002
  -1.9769327272629818E-002   5.6753380538067067E-003   6.2246124734925690E-002
  -1.9259763699435904E-002   5.6294056461967312E-003   6.2507858168665470E-002
  -1.8750200126241980E-002   5.5174946813220382E-003   6.2967827438269078E-002
  -2.7911018272024204E-002   7.4256895965365277E-003   6.1612924846478678E-002
  -2.7193758425773925E-002   7.5403892058487215E-003   6.1314132538890190E-002
  -2.6476498579523645E-002   7.5671174054566942E-003   6.1232496941550640E-002
  -2.5759238733273366E-002   7.5058741953604631E-003   6.1368018054460099E-002
  -2.5041978887023083E-002   7.3566595755601150E-003   6.1720695877618470E-002
   1.4919697421955647E-012  -1.3921641617287150E-012   6.6419421633348463E-002
   1.2915085667586368E-012  -1.2796430581829554E-012   6.6234641455745119E-002
   1.0910421871512810E-012  -8.0076223429870197E-013   6.6252348404993833E-002
   8.9057754226740116E-013   4.4544229416132453E-014   6.6472542481094590E-002
   6.9011463210699731E-013   1.2561618412121334E-012   6.6895223684047378E-002
  -6.2292106819844539E-003   1.8391648928458848E-003   6.5317190316134116E-002
  -6.0290705690971610E-003   1.7897875134720853E-003   6.5108129801023817E-002
  -5.8289304562098819E-003   1.7382555377830206E-003   6.5096862385236862E-002
  -5.6287903433225994E-003   1.6845689657785275E-003   6.5283388068773388E-002
  -5.4286502304353099E-003   1.6287277974587899E-003   6.5667706851633367E-002
  -1.2479277391229096E-002   3.6783297870839615E-003   6.4166658917774330E-002
  -1.2083691192782674E-002   3.5795750282238692E-003   6.3931163468475286E-002
  -1.1688104994336247E-002   3.4765110763667825E-003   6.3888767090971077E-002
  -1.1292518795889819E-002   3.3691379315126235E-003   6.4039469785261621E-002
  -1.0896932597443393E-002   3.2574555936614458E-003   6.4383271551347099E-002
  -1.8750200126241980E-002   5.5174946813220382E-003   6.2967827438269078E-002
  -1.8163861869765017E-002   5.3693625429756670E-003   6.2703742458099607E-002
  -1.7577523613288053E-002   5.2147666149504994E-003   6.2628062522196326E-002
  -1.6991185356811097E-002   5.0537068972467463E-003   6.2740787630559361E-002
  -1.6404847100334127E-002   4.8861833898640877E-003   6.3041917783188489E-002
  -2.5041978887023083E-002   7.3566595755601150E-003   6.1720695877618470E-002
  -2.4269582600044186E-002   7.1591500577273953E-003   6.1425866769896809E-002
  -2.3497186313065306E-002   6.9530221535343481E-003   6.1314748678912803E-002
  -2.2724790026086409E-002   6.7382758629807357E-003   6.1387341604666461E-002
  -2.1952393739107519E-002   6.5149111860667297E-003   6.1643645547157733E-002
   6.9011463210699731E-013   1.2561618412121334E-012   6.6895223684047378E-002
  -2.4474519633166381E-013   2.6391944185633065E-012   6.6699822145122850E-002
  -1.1796050247703249E-012   3.9981074007044981E-012   6.6706354554678854E-002
  -2.1144683226559380E-012   5.3331991600735762E-012   6.6914820912715223E-002
  -3.0493246816476471E-012   6.6444627577766369E-012   6.7325221219231901E-002
  -5.4286502304353099E-003   1.6287277974587899E-003   6.5667706851633367E-002
  -5.2256235707974783E-003   1.5702208153806907E-003   6.5432177373305839E-002
  -5.0225969111596467E-003   1.5085368021008419E-003   6.5400767267643226E-002
  -4.8195702515218142E-003   1.4436757576198490E-003   6.5573476534645625E-002
  -4.6165435918839835E-003   1.3756376819372140E-003   6.5950305174312968E-002
  -1.0896932597443393E-002   3.2574555936614458E-003   6.4383271551347099E-002
  -1.0488693853048304E-002   3.1404416281222008E-003   6.4104437102438849E-002
  -1.0080455108653213E-002   3.0170736002038540E-003   6.4031907450380204E-002
  -9.6722163642581158E-003   2.8873515099064988E-003   6.4165682595171081E-002
  -9.2639776198630182E-003   2.7512753572299653E-003   6.4505762536811548E-002
  -1.6404847100334127E-002   4.8861833898640877E-003   6.3041917783188489E-002
  -1.5789210846997210E-002   4.7106624408637318E-003   6.2716601332522076E-002
  -1.5173574593660304E-002   4.5256103983067550E-003   6.2599775102889693E-002
  -1.4557938340323377E-002   4.3310272621931208E-003   6.2691439094291521E-002
  -1.3942302086986463E-002   4.1269130325227443E-003   6.2991593306727295E-002
  -2.1952393739107519E-002   6.5149111860667297E-003   6.1643645547157733E-002
  -2.1127174552644210E-002   6.2808832536052628E-003   6.1268670063555353E-002
  -2.0301955366180909E-002   6.0341471964096421E-003   6.1104370225171761E-002
  -1.9476736179717603E-002   5.7747030144797810E-003   6.1150746032006723E-002
  -1.8651516993254291E-002   5.5025507078155234E-003   6.1407797484060445E-002
  -3.0493246816476471E-012   6.6444627577766369E-012   6.7325221219231901E-002
  -4.1313619192351325E-012   7.5892347961570295E-012   6.7198054578065269E-002
  -5.2133887484817620E-012   7.8248657553459111E-012   6.7316024653720691E-002
  -6.2954207818988195E-012   7.3517338050610448E-012   6.7679131446198262E-002
  -7.3774528153158769E-012   6.1692317920858386E-012   6.8287374955498026E-002
  -4.6165435918839835E-003   1.3756376819372140E-003   6.5950305174312968E-002
  -4.3793311752146069E-003   1.3052961646026762E-003   6.5783608868525606E-002
  -4.1421187585452424E-003   1.2335247951660994E-003   6.5846200681419040E-002
  -3.9049063418758675E-003   1.1603235736270985E-003   6.6138080612993033E-002
  -3.6676939252065013E-003   1.0856924999860795E-003   6.6659248663247739E-002
  -9.2639776198630182E-003   2.7512753572299653E-003   6.4505762536811548E-002
  -8.8054013835836657E-003   2.6105923216161869E-003   6.4298106715010336E-002
  -8.3468251473043081E-003   2.4670495825069930E-003   6.4303890413748288E-002
  -7.8882489110249469E-003   2.3206471399025725E-003   6.4523113633025667E-002
  -7.4296726747455979E-003   2.1713849938027330E-003   6.4955776372842153E-002
  -1.3942302086986463E-002   4.1269130325227443E-003   6.2991593306727295E-002
  -1.3278210629238535E-002   3.9158884786297463E-003   6.2741548117519003E-002
  -1.2614119171490598E-002   3.7005743698481676E-003   6.2689093850708560E-002
  -1.1950027713742659E-002   3.4809707061780474E-003   6.2834230506295941E-002
  -1.1285936255994724E-002   3.2570774876194281E-003   6.3176958084281337E-002
  -1.8651516993254291E-002   5.5025507078155234E-003   6.1407797484060445E-002
  -1.7797758912179197E-002   5.2211846356431946E-003   6.1113933076051952E-002
  -1.6944000831104099E-002   4.9340991571891063E-003   6.1001810992299843E-002
  -1.6090242750029009E-002   4.6412942724534910E-003   6.1071431232804188E-002
  -1.5236484668953908E-002   4.3427699814361231E-003   6.1322793797565001E-002
  -7.3774528153158769E-012   6.1692317920858386E-012   6.8287374955498026E-002
  -7.1716590999137964E-012   2.6247892748187951E-012   6.8410410964703128E-002
  -6.9658792622995236E-012  -4.9355658449101725E-012   6.8857218990996755E-002
  -6.7600768732800631E-012  -1.6511004369279547E-011   6.9627799034378837E-002
  -6.5542987703892663E-012  -3.2102542846246251E-011   7.0722151094849472E-002
  -3.6676939252065013E-003   1.0856924999860795E-003   6.6659248663247739E-002
  -3.3657157657285310E-003   1.0097797309970569E-003   6.6665639211622135E-002
  -3.0637376062505710E-003   9.3273342341484988E-004   6.6952214061452658E-002
  -2.7617594467725963E-003   8.5455357723907693E-004   6.7518973212738864E-002
  -2.4597812872946198E-003   7.7524019246999476E-004   6.8365916665481086E-002
  -7.4296726747455979E-003   2.1713849938027330E-003   6.4955776372842153E-002
  -6.8693040716279411E-003   2.0195594593694910E-003   6.4844387925808045E-002
  -6.3089354685102930E-003   1.8654668517650505E-003   6.4969596064597235E-002
  -5.7485668653926569E-003   1.7091071709894930E-003   6.5331400789209876E-002
  -5.1881982622750018E-003   1.5504804170424213E-003   6.5929802099645995E-002
  -1.1285936255994724E-002   3.2570774876194281E-003   6.3176958084281337E-002
  -1.0510764924869905E-002   3.0293391877418974E-003   6.2946657107260634E-002
  -9.7355935937450799E-003   2.7982002801153587E-003   6.2909365000430831E-002
  -8.9604222626202702E-003   2.5636607647396307E-003   6.3065081763792025E-002
  -8.1852509314954240E-003   2.3257206416149034E-003   6.3413807397344202E-002
  -1.5236484668953908E-002   4.3427699814361231E-003   6.1322793797565001E-002
  -1.4290098325454414E-002   4.0391189161141927E-003   6.0972446755980014E-002
  -1.3343711981954911E-002   3.7309337084656391E-003   6.0771520868953544E-002
  -1.2397325638455399E-002   3.4182143584901500E-003   6.0720016136485033E-002
  -1.1450939294955914E-002   3.1009608661873855E-003   6.0817932558575372E-002
  -2.6633377532214831E-002   0.0000000000000000        2.9468718487539750E-002
  -2.7234001933127003E-002   5.8533926980624835E-004   3.4945769399444479E-002
  -2.7834626334039173E-002   1.3188465088613422E-003   4.0114883815097466E-002
  -2.8435250734951345E-002   2.2005217171652842E-003   4.4976061734498710E-002
  -2.9035875135863514E-002   3.2303648947180665E-003   4.9529303157648197E-002
  -3.3393211922187152E-002   0.0000000000000000        3.0178583085927548E-002
  -3.4236612225459928E-002   9.6015073353768621E-004   3.5266582141567811E-002
  -3.5080012528732690E-002   2.0236551109632066E-003   4.0176965888738626E-002
  -3.5923412832005473E-002   3.1905131322765585E-003   4.4909734327440005E-002
  -3.6766813135278235E-002   4.4607247974777385E-003   4.9464887457671920E-002
  -4.0733019568883436E-002   0.0000000000000000        3.1285666310727295E-002
  -4.1688874586734509E-002   1.3349621972691280E-003   3.5939799184742084E-002
  -4.2644729604585568E-002   2.7284637130650735E-003   4.0546637938069723E-002
  -4.3600584622436642E-002   4.1805045473878319E-003   4.5106182570710196E-002
  -4.4556439640287722E-002   5.6910847002374070E-003   4.9618433082663532E-002
  -4.8652800472303664E-002   0.0000000000000000        3.2789968161938993E-002
  -4.9590789016950743E-002   1.7097736610005695E-003   3.6965420528967279E-002
  -5.0528777561597814E-002   3.4332723151669379E-003   4.1223899963090713E-002
  -5.1466766106244892E-002   5.1704959624991054E-003   4.5565406464309316E-002
  -5.2404754650891963E-002   6.9214446029970842E-003   4.9989940032623033E-002
  -5.7152554632447845E-002   0.0000000000000000        3.4691488639562632E-002
  -5.7942355516108629E-002   2.0845851247320085E-003   3.8343446174243422E-002
  -5.8732156399769406E-002   4.1380809172688066E-003   4.2208751963801645E-002
  -5.9521957283430189E-002   6.1604873776103814E-003   4.6287406008237310E-002
  -6.0311758167090980E-002   8.1518045057567441E-003   5.0579408307550422E-002
  -2.9035875135863514E-002   3.2303648947180665E-003   4.9529303157648197E-002
  -2.9108864746955100E-002   4.2484917787836089E-003   5.1588606749723473E-002
  -2.9181854358046669E-002   5.0950181066258269E-003   5.3746136951218548E-002
  -2.9254843969138251E-002   5.7699438782447196E-003   5.6001893762133409E-002
  -2.9327833580229820E-002   6.2732690936403088E-003   5.8355877182468048E-002
  -3.6766813135278235E-002   4.4607247974777385E-003   4.9464887457671920E-002
  -3.6780381499049462E-002   5.6940437441614332E-003   5.1252327363479934E-002
  -3.6793949862820696E-002   6.7502236099223215E-003   5.3060383154508853E-002
  -3.6807518226591937E-002   7.6292643947603964E-003   5.4889054830758663E-002
  -3.6821086590363157E-002   8.3311660986756658E-003   5.6738342392229371E-002
  -4.4556439640287722E-002   5.6910847002374070E-003   4.9618433082663532E-002
  -4.4588197480937487E-002   7.1395957095392428E-003   5.1128470777504792E-002
  -4.4619955321587260E-002   8.4054291132188014E-003   5.2581513633368063E-002
  -4.4651713162237032E-002   9.4885849112760594E-003   5.3977561650253331E-002
  -4.4683471002886797E-002   1.0389063103711054E-002   5.5316614828160658E-002
  -5.2404754650891963E-002   6.9214446029970842E-003   4.9989940032623033E-002
  -5.2532312692619161E-002   8.5851476749170662E-003   5.1217036991798047E-002
  -5.2659870734346359E-002   1.0060634616515293E-002   5.2309528387796213E-002
  -5.2787428776073564E-002   1.1347905427791722E-002   5.3267414220617496E-002
  -5.2914986817800755E-002   1.2446960108746441E-002   5.4090694490261881E-002
  -6.0311758167090980E-002   8.1518045057567441E-003   5.0579408307550422E-002
  -6.0612727134094484E-002   1.0030699640294878E-002   5.1518026006359720E-002
  -6.0913696101097994E-002   1.1715840119811775E-002   5.2244427417793268E-002
  -6.1214665068101526E-002   1.3207225944307392E-002   5.2758612541851074E-002
  -6.1515634035105023E-002   1.4504857113781813E-002   5.3060581378533117E-002
  -2.9327833580229820E-002   6.2732690936403088E-003   5.8355877182468048E-002
  -2.8973629753178409E-002   6.6584390780342374E-003   5.9118443963116787E-002
  -2.8619425926127012E-002   6.9788991566482935E-003   5.9915474167334809E-002
  -2.8265222099075612E-002   7.2346493294823348E-003   6.0746967795122141E-002
  -2.7911018272024204E-002   7.4256895965365277E-003   6.1612924846478678E-002
  -3.6821086590363157E-002   8.3311660986756658E-003   5.6738342392229371E-002
  -3.6380539646246199E-002   8.8716876106133234E-003   5.7078491859577904E-002
  -3.5939992702129248E-002   9.2665878195184841E-003   5.7556864137488201E-002
  -3.5499445758012289E-002   9.5158667253912345E-003   5.8173459225960379E-002
  -3.5058898813895331E-002   9.6195243282315296E-003   5.8928277124994363E-002
  -4.4683471002886797E-002   1.0389063103711054E-002   5.5316614828160658E-002
  -4.4052821554711762E-002   1.1084936143192394E-002   5.5153435584956403E-002
  -4.3422172106536726E-002   1.1554276482388760E-002   5.5232238539306526E-002
  -4.2791522658361676E-002   1.1797084121300132E-002   5.5553023691210970E-002
  -4.2160873210186633E-002   1.1813359059926518E-002   5.6115791040669841E-002
  -5.2914986817800755E-002   1.2446960108746441E-002   5.4090694490261881E-002
  -5.1990475478575091E-002   1.3298184675771471E-002   5.3343275139252362E-002
  -5.1065964139349405E-002   1.3841965145259006E-002   5.2941597372789737E-002
  -5.0141452800123741E-002   1.4078301517209004E-002   5.2885661190873998E-002
  -4.9216941460898056E-002   1.4007193791621526E-002   5.3175466593505111E-002
  -6.1515634035105023E-002   1.4504857113781813E-002   5.3060581378533117E-002
  -6.0193501417836193E-002   1.5511433208350543E-002   5.1648010522465752E-002
  -5.8871368800567356E-002   1.6129653808129259E-002   5.0684940637937825E-002
  -5.7549236183298526E-002   1.6359518913117911E-002   5.0171371724949392E-002
  -5.6227103566029675E-002   1.6201028523316494E-002   5.0107303783500326E-002
  -2.7911018272024204E-002   7.4256895965365277E-003   6.1612924846478678E-002
  -2.7193758425773925E-002   7.5403892058487215E-003   6.1314132538890190E-002
  -2.6476498579523645E-002   7.5671174054566942E-003   6.1232496941550640E-002
  -2.5759238733273366E-002   7.5058741953604631E-003   6.1368018054460099E-002
  -2.5041978887023083E-002   7.3566595755601150E-003   6.1720695877618470E-002
  -3.5058898813895331E-002   9.6195243282315296E-003   5.8928277124994363E-002
  -3.4130885537909342E-002   9.6187371657783238E-003   5.8593367863843060E-002
  -3.3202872261923352E-002   9.5546817757703982E-003   5.8462808751914168E-002
  -3.2274858985937356E-002   9.4273581582078395E-003   5.8536599789207805E-002
  -3.1346845709951360E-002   9.2367663130906164E-003   5.8814740975723936E-002
  -4.2160873210186633E-002   1.1813359059926518E-002   5.6115791040669841E-002
  -4.1034913065491410E-002   1.1697085125707891E-002   5.5769468008105241E-002
  -3.9908952920796215E-002   1.1542246146084102E-002   5.5614688563736615E-002
  -3.8782992776100991E-002   1.1348842121055214E-002   5.5651452707563956E-002
  -3.7657032631405761E-002   1.1116873050621187E-002   5.5879760439587263E-002
  -4.9216941460898056E-002   1.4007193791621526E-002   5.3175466593505111E-002
  -4.7905841008520120E-002   1.3775433085637463E-002   5.2842432971676803E-002
  -4.6594740556142197E-002   1.3529810516397820E-002   5.2688136377017948E-002
  -4.5283640103764261E-002   1.3270326083902547E-002   5.2712576809528504E-002
  -4.3972539651386311E-002   1.2996979788151682E-002   5.2915754269208658E-002
  -5.6227103566029675E-002   1.6201028523316494E-002   5.0107303783500326E-002
  -5.4743669366995477E-002   1.5853781045567096E-002   4.9812262754557732E-002
  -5.3260235167961328E-002   1.5517374886711507E-002   4.9683152191758138E-002
  -5.1776800968927172E-002   1.5191810046749951E-002   4.9719972095101553E-002
  -5.0293366769892975E-002   1.4877086525682259E-002   4.9922722464587899E-002
  -2.5041978887023083E-002   7.3566595755601150E-003   6.1720695877618470E-002
  -2.4269582600044186E-002   7.1591500577273953E-003   6.1425866769896809E-002
  -2.3497186313065306E-002   6.9530221535343481E-003   6.1314748678912803E-002
  -2.2724790026086409E-002   6.7382758629807357E-003   6.1387341604666461E-002
  -2.1952393739107519E-002   6.5149111860667297E-003   6.1643645547157733E-002
  -3.1346845709951360E-002   9.2367663130906164E-003   5.8814740975723936E-002
  -3.0384985184273156E-002   9.0046892818527180E-003   5.8506184725914123E-002
  -2.9423124658594993E-002   8.7529101059276443E-003   5.8392845936765324E-002
  -2.8461264132916792E-002   8.4814287853157387E-003   5.8474724608277490E-002
  -2.7499403607238605E-002   8.1902453200168313E-003   5.8751820740450628E-002
  -3.7657032631405761E-002   1.1116873050621187E-002   5.5879760439587263E-002
  -3.6494201423104930E-002   1.0850228505977867E-002   5.5546393289362811E-002
  -3.5331370214804071E-002   1.0552798058320999E-002   5.5419750043722682E-002
  -3.4168539006503240E-002   1.0224581707650744E-002   5.5499830702666834E-002
  -3.3005707798202374E-002   9.8655794539669328E-003   5.5786635266195414E-002
  -4.3972539651386311E-002   1.2996979788151682E-002   5.2915754269208658E-002
  -4.2597231316539461E-002   1.2695767730103034E-002   5.2546492460242955E-002
  -4.1221922981692617E-002   1.2352686010714436E-002   5.2395460999784961E-002
  -3.9846614646845760E-002   1.1967734629985691E-002   5.2462659887834683E-002
  -3.8471306311998896E-002   1.1540913587917034E-002   5.2748089124391995E-002
  -5.0293366769892975E-002   1.4877086525682259E-002   4.9922722464587899E-002
  -4.8694074864576761E-002   1.4541306954228339E-002   4.9506482238554445E-002
  -4.7094782959260555E-002   1.4152573963107692E-002   4.9319978804952147E-002
  -4.5495491053944348E-002   1.3710887552320774E-002   4.9363212163780743E-002
  -4.3896199148628121E-002   1.3216247721867136E-002   4.9636182315040522E-002
  -2.1952393739107519E-002   6.5149111860667297E-003   6.1643645547157733E-002
  -2.1127174552644210E-002   6.2808832536052628E-003   6.1268670063555353E-002
  -2.0301955366180909E-002   6.0341471964096421E-003   6.1104370225171761E-002
  -1.9476736179717603E-002   5.7747030144797810E-003   6.1150746032006723E-002
  -1.8651516993254291E-002   5.5025507078155234E-003   6.1407797484060445E-002
  -2.7499403607238605E-002   8.1902453200168313E-003   5.8751820740450628E-002
  -2.6467495934095989E-002   7.8854118606320744E-003   5.8403410791366711E-002
  -2.5435588260953362E-002   7.5729805577626208E-003   5.8257702170422754E-002
  -2.4403680587810762E-002   7.2529514114086230E-003   5.8314694877618770E-002
  -2.3371772914668118E-002   6.9253244215697340E-003   5.8574388912954689E-002
  -3.3005707798202374E-002   9.8655794539669328E-003   5.5786635266195414E-002
  -3.1775085955459192E-002   9.4899404676588028E-003   5.5469901132879529E-002
  -3.0544464112716004E-002   9.1118139191156619E-003   5.5347894010624919E-002
  -2.9313842269972815E-002   8.7311998083374111E-003   5.5420613899431634E-002
  -2.8083220427229626E-002   8.3480981353241390E-003   5.5688060799299402E-002
  -3.8471306311998896E-002   1.1540913587917034E-002   5.2748089124391995E-002
  -3.7049944616733846E-002   1.1094469074685545E-002   5.2468141088093820E-002
  -3.5628582921468803E-002   1.0650647280468644E-002   5.2374945745778133E-002
  -3.4207221226203753E-002   1.0209448205266421E-002   5.2468503097444934E-002
  -3.2785859530938703E-002   9.7708718490784191E-003   5.2748813143094098E-002
  -4.3896199148628121E-002   1.3216247721867136E-002   4.9636182315040522E-002
  -4.2292071917919949E-002   1.2698997681712371E-002   4.9398130657009598E-002
  -4.0687944687211798E-002   1.2189480641821640E-002   4.9338857375882256E-002
  -3.9083817456503619E-002   1.1687696602195031E-002   4.9458362471658968E-002
  -3.7479690225795476E-002   1.1193645562832810E-002   4.9756645944339206E-002
  -1.8651516993254291E-002   5.5025507078155234E-003   6.1407797484060445E-002
  -1.7797758912179197E-002   5.2211846356431946E-003   6.1113933076051952E-002
  -1.6944000831104099E-002   4.9340991571891063E-003   6.1001810992299843E-002
  -1.6090242750029009E-002   4.6412942724534910E-003   6.1071431232804188E-002
  -1.5236484668953908E-002   4.3427699814361231E-003   6.1322793797565001E-002
  -2.3371772914668118E-002   6.9253244215697340E-003   5.8574388912954689E-002
  -2.2334970033713705E-002   6.5890206328246270E-003   5.8282897809116607E-002
  -2.1298167152759291E-002   6.2429610897520998E-003   5.8175753980780870E-002
  -2.0261364271804892E-002   5.8871457923513650E-003   5.8252957427947144E-002
  -1.9224561390850464E-002   5.5215747406230919E-003   5.8514508150615596E-002
  -2.8083220427229626E-002   8.3480981353241390E-003   5.5688060799299402E-002
  -2.6860767795150148E-002   7.9568566300063648E-003   5.5394906651585682E-002
  -2.5638315163070673E-002   7.5518230223147118E-003   5.5288704730619968E-002
  -2.4415862530991185E-002   7.1329973122492962E-003   5.5369455036402199E-002
  -2.3193409898911721E-002   6.7003794998101163E-003   5.5637157568932338E-002
  -3.2785859530938703E-002   9.7708718490784191E-003   5.2748813143094098E-002
  -3.1375152196488454E-002   9.3246926271878944E-003   5.2449959603458843E-002
  -2.9964444862038184E-002   8.8606849548773202E-003   5.2340663241817215E-002
  -2.8553737527587938E-002   8.3788488321473106E-003   5.2420924058169366E-002
  -2.7143030193137661E-002   7.8791842589970018E-003   5.2690742052515012E-002
  -3.7479690225795476E-002   1.1193645562832810E-002   4.9756645944339206E-002
  -3.5878123237728682E-002   1.0692528624369507E-002   4.9448056664736284E-002
  -3.4276556249661888E-002   1.0169546887440165E-002   4.9331629514372782E-002
  -3.2674989261595115E-002   9.6247003520450354E-003   4.9407364493248521E-002
  -3.1073422273528301E-002   9.0579890181841094E-003   4.9675261601363818E-002
  -1.5236484668953908E-002   4.3427699814361231E-003   6.1322793797565001E-002
  -1.4290098325454414E-002   4.0391189161141927E-003   6.0972446755980014E-002
  -1.3343711981954911E-002   3.7309337084656391E-003   6.0771520868953544E-002
  -1.2397325638455399E-002   3.4182143584901500E-003   6.0720016136485033E-002
  -1.1450939294955914E-002   3.1009608661873855E-003   6.0817932558575372E-002
  -1.9224561390850464E-002   5.5215747406230919E-003   5.8514508150615596E-002
  -1.8120329177911447E-002   5.1526427839900801E-003   5.8191063938842769E-002
  -1.7016096964972471E-002   4.7867447718756007E-003   5.8033890311390279E-002
  -1.5911864752033458E-002   4.4238807042794384E-003   5.8042987268258822E-002
  -1.4807632539094451E-002   4.0640505812018501E-003   5.8218354809447370E-002
  -2.3193409898911721E-002   6.7003794998101163E-003   5.5637157568932338E-002
  -2.1914482386771052E-002   6.2661666518657455E-003   5.5348184273816853E-002
  -2.0635554874630386E-002   5.8425558352854651E-003   5.5242330992784333E-002
  -1.9356627362489758E-002   5.4295470500688968E-003   5.5319597725834481E-002
  -1.8077699850349079E-002   5.0271402962162037E-003   5.5579984472967248E-002
  -2.7143030193137661E-002   7.8791842589970018E-003   5.2690742052515012E-002
  -2.5672557952033222E-002   7.3796905197415219E-003   5.2443807760902662E-002
  -2.4202085710928772E-002   6.8983668986952115E-003   5.2396842913135205E-002
  -2.2731613469824354E-002   6.4352133958583812E-003   5.2549847509212474E-002
  -2.1261141228719905E-002   5.9902300112305573E-003   5.2902821549134560E-002
  -3.1073422273528301E-002   9.0579890181841094E-003   4.9675261601363818E-002
  -2.9394555873697936E-002   8.4932143876173538E-003   4.9477934400099732E-002
  -2.7715689473867530E-002   7.9541779621052355E-003   4.9497426072442674E-002
  -2.6036823074037152E-002   7.4408797416477684E-003   4.9733736618392421E-002
  -2.4357956674206760E-002   6.9533197262450219E-003   5.0186866037949640E-002
  -5.7152554632447845E-002   0.0000000000000000        3.4691488639562632E-002
  -5.7942355516108629E-002   2.0845851247320085E-003   3.8343446174243422E-002
  -5.8732156399769406E-002   4.1380809172688066E-003   4.2208751963801645E-002
  -5.9521957283430189E-002   6.1604873776103814E-003   4.6287406008237310E-002
  -6.0311758167090980E-002   8.1518045057567441E-003   5.0579408307550422E-002
  -6.5820486985288668E-002   0.0000000000000000        3.7213202097656682E-002
  -6.6625913151089941E-002   2.9144775978058408E-003   4.0835438772999957E-002
  -6.7431339316891215E-002   5.7713161405063933E-003   4.4213076629184798E-002
  -6.8236765482692488E-002   8.5705156281016513E-003   4.7346115666211226E-002
  -6.9042191648493761E-002   1.1312076060591619E-002   5.0234555884079185E-002
  -7.4244802466798793E-002   0.0000000000000000        4.0578082890279608E-002
  -7.5523800988776452E-002   3.7443700708796744E-003   4.4144048983375296E-002
  -7.6802799510754069E-002   7.4045513637439790E-003   4.7007469183276682E-002
  -7.8081798032731728E-002   1.0980543878592916E-002   4.9168343489983758E-002
  -7.9360796554709373E-002   1.4472347615426486E-002   5.0626671903496526E-002
  -8.2425501076978241E-002   0.0000000000000000        4.4786131017431396E-002
  -8.4636019029168133E-002   4.5742625439535046E-003   4.8269276805369424E-002
  -8.6846536981358038E-002   9.0377865869815666E-003   5.0591929626077267E-002
  -8.9057054933547916E-002   1.3390572129084186E-002   5.1754089479554947E-002
  -9.1267572885737794E-002   1.7632619170261366E-002   5.1755756365802437E-002
  -9.0362582815827028E-002   0.0000000000000000        4.9837346479112060E-002
  -9.3962567272265027E-002   5.4041550170273404E-003   5.3211122238982347E-002
  -9.7562551728703026E-002   1.0671021810219155E-002   5.4966457957586590E-002
 -0.10116253618514105        1.5800600379575452E-002   5.5103353634924773E-002
 -0.10476252064157902        2.0792890725096224E-002   5.3621809270996898E-002
  -6.0311758167090980E-002   8.1518045057567441E-003   5.0579408307550422E-002
  -6.0612727134094484E-002   1.0030699640294878E-002   5.1518026006359720E-002
  -6.0913696101097994E-002   1.1715840119811775E-002   5.2244427417793268E-002
  -6.1214665068101526E-002   1.3207225944307392E-002   5.2758612541851074E-002
  -6.1515634035105023E-002   1.4504857113781813E-002   5.3060581378533117E-002
  -6.9042191648493761E-002   1.1312076060591619E-002   5.0234555884079185E-002
  -6.9317690082148220E-002   1.3756689370785299E-002   4.9457684056546228E-002
  -6.9593188515802679E-002   1.5665047491491689E-002   4.8943969583087110E-002
  -6.9868686949457165E-002   1.7037150422710805E-002   4.8693412463701846E-002
  -7.0144185383111651E-002   1.7872998164442634E-002   4.8706012698390429E-002
  -7.9360796554709373E-002   1.4472347615426486E-002   5.0626671903496526E-002
  -7.9135450813565197E-002   1.7482679101275711E-002   4.7791810015155256E-002
  -7.8910105072421008E-002   1.9614254863171622E-002   4.5695479122337429E-002
  -7.8684759331276818E-002   2.0867074901114193E-002   4.4337679225043058E-002
  -7.8459413590132629E-002   2.1241139215103462E-002   4.3718410323272151E-002
  -9.1267572885737794E-002   1.7632619170261366E-002   5.1755756365802437E-002
  -9.0066009328345367E-002   2.1208668831766125E-002   4.6520403882186798E-002
  -8.8864445770952885E-002   2.3563462234851552E-002   4.2498956035544232E-002
  -8.7662882213560459E-002   2.4696999379517578E-002   3.9691412825874746E-002
  -8.6461318656167990E-002   2.4609280265764304E-002   3.8097774253178299E-002
 -0.10476252064157902        2.0792890725096224E-002   5.3621809270996898E-002
 -0.10210936562648870        2.4934658562256538E-002   4.5643465657640866E-002
  -9.9456210611398393E-002   2.7512669606531467E-002   3.9354400322707518E-002
  -9.6803055596308071E-002   2.8526923857920987E-002   3.4754613266196901E-002
  -9.4149900581217749E-002   2.7977421316425118E-002   3.1844104488108892E-002
  -6.1515634035105023E-002   1.4504857113781813E-002   5.3060581378533117E-002
  -6.0193501417836193E-002   1.5511433208350543E-002   5.1648010522465752E-002
  -5.8871368800567356E-002   1.6129653808129259E-002   5.0684940637937825E-002
  -5.7549236183298526E-002   1.6359518913117911E-002   5.0171371724949392E-002
  -5.6227103566029675E-002   1.6201028523316494E-002   5.0107303783500326E-002
  -7.0144185383111651E-002   1.7872998164442634E-002   4.8706012698390429E-002
  -6.8418212138479151E-002   1.8329429835343549E-002   4.7255638415650600E-002
  -6.6692238893846664E-002   1.8563284554069984E-002   4.6163444416098640E-002
  -6.4966265649214219E-002   1.8574562320621851E-002   4.5429430699734472E-002
  -6.3240292404581719E-002   1.8363263134999155E-002   4.5053597266558228E-002
  -7.8459413590132629E-002   2.1241139215103462E-002   4.3718410323272151E-002
  -7.6420920406488124E-002   2.1147426462336565E-002   4.2396011156475413E-002
  -7.4382427222843578E-002   2.0996915300010664E-002   4.1340471584514898E-002
  -7.2343934039199045E-002   2.0789605728125788E-002   4.0551791607390662E-002
  -7.0305440855554513E-002   2.0525497746681880E-002   4.0029971225102656E-002
  -8.6461318656167990E-002   2.4609280265764304E-002   3.8097774253178299E-002
  -8.4201626221862988E-002   2.3965423089329585E-002   3.7069128744940130E-002
  -8.1941933787558041E-002   2.3430546045951392E-002   3.6216022143186664E-002
  -7.9682241353253067E-002   2.3004649135629714E-002   3.5538454447917804E-002
  -7.7422548918948050E-002   2.2687732358364587E-002   3.5036425659133612E-002
  -9.4149900581217749E-002   2.7977421316425118E-002   3.1844104488108892E-002
  -9.1760329584603922E-002   2.6783419716322587E-002   3.1274991181044820E-002
  -8.9370758587990068E-002   2.5864176791892061E-002   3.0790096092113830E-002
  -8.6981187591376213E-002   2.5219692543133682E-002   3.0389419221315911E-002
  -8.4591616594762359E-002   2.4849966970047252E-002   3.0072960568651039E-002
  -5.6227103566029675E-002   1.6201028523316494E-002   5.0107303783500326E-002
  -5.4743669366995477E-002   1.5853781045567096E-002   4.9812262754557732E-002
  -5.3260235167961328E-002   1.5517374886711507E-002   4.9683152191758138E-002
  -5.1776800968927172E-002   1.5191810046749951E-002   4.9719972095101553E-002
  -5.0293366769892975E-002   1.4877086525682259E-002   4.9922722464587899E-002
  -6.3240292404581719E-002   1.8363263134999155E-002   4.5053597266558228E-002
  -6.1576299612716427E-002   1.8024301912793562E-002   4.4710271850834295E-002
  -5.9912306820851156E-002   1.7652593569596486E-002   4.4562133154629577E-002
  -5.8248314028985851E-002   1.7248138105407967E-002   4.4609181177944095E-002
  -5.6584321237120580E-002   1.6810935520227943E-002   4.4851415920777904E-002
  -7.0305440855554513E-002   2.0525497746681880E-002   4.0029971225102656E-002
  -6.8431633217481844E-002   2.0194822780020039E-002   3.9594772982711940E-002
  -6.6557825579409174E-002   1.9787812252481413E-002   3.9384017713216764E-002
  -6.4684017941336491E-002   1.9304466164065941E-002   3.9397705416617065E-002
  -6.2810210303263836E-002   1.8744784514773655E-002   3.9635836092912866E-002
  -7.7422548918948050E-002   2.2687732358364587E-002   3.5036425659133612E-002
  -7.5309670181291755E-002   2.2365343647246606E-002   3.4465766150190764E-002
  -7.3196791443635431E-002   2.1923030935366350E-002   3.4148805867519706E-002
  -7.1083912705979094E-002   2.1360794222723991E-002   3.4085544811120382E-002
  -6.8971033968322812E-002   2.0678633509319339E-002   3.4275982980992922E-002
  -8.4591616594762359E-002   2.4849966970047252E-002   3.0072960568651039E-002
  -8.2210410504146125E-002   2.4535864514473010E-002   2.9323251353270657E-002
  -7.9829204413529906E-002   2.4058249618251325E-002   2.8856497617538356E-002
  -7.7447998322913658E-002   2.3417122281381989E-002   2.8672699361454047E-002
  -7.5066792232297452E-002   2.2612482503865050E-002   2.8771856585017852E-002
  -5.0293366769892975E-002   1.4877086525682259E-002   4.9922722464587899E-002
  -4.8694074864576761E-002   1.4541306954228339E-002   4.9506482238554445E-002
  -4.7094782959260555E-002   1.4152573963107692E-002   4.9319978804952147E-002
  -4.5495491053944348E-002   1.3710887552320774E-002   4.9363212163780743E-002
  -4.3896199148628121E-002   1.3216247721867136E-002   4.9636182315040522E-002
  -5.6584321237120580E-002   1.6810935520227943E-002   4.4851415920777904E-002
  -5.4764891141630447E-002   1.6345076708385836E-002   4.4451883117572005E-002
  -5.2945461046140299E-002   1.5854652564210828E-002   4.4262889902282859E-002
  -5.1126030950650186E-002   1.5339663087702949E-002   4.4284436274910424E-002
  -4.9306600855160046E-002   1.4800108278862245E-002   4.4516522235454908E-002
  -6.2810210303263836E-002   1.8744784514773655E-002   3.9635836092912866E-002
  -6.0789839222114075E-002   1.8148846462543333E-002   3.9281398799868097E-002
  -5.8769468140964301E-002   1.7556731165313887E-002   3.9118303890225872E-002
  -5.6749097059814506E-002   1.6968438623085183E-002   3.9146551363986121E-002
  -5.4728725978664766E-002   1.6383968835857299E-002   3.9366141221148884E-002
  -6.8971033968322812E-002   2.0678633509319339E-002   3.4275982980992922E-002
  -6.6768919106027599E-002   1.9952616216700886E-002   3.3995029285442957E-002
  -6.4566804243732442E-002   1.9258809766416942E-002   3.3886220768781221E-002
  -6.2364689381437279E-002   1.8597214158467330E-002   3.3949557431007769E-002
  -6.0162574519142066E-002   1.7967829392852297E-002   3.4185039272122658E-002
  -7.5066792232297452E-002   2.2612482503865050E-002   2.8771856585017852E-002
  -7.2702130793371150E-002   2.1756385970858383E-002   2.8592774574296459E-002
  -7.0337469354444834E-002   2.0960888367519998E-002   2.8566640537948967E-002
  -6.7972807915518518E-002   2.0225989693849582E-002   2.8693454475975502E-002
  -6.5608146476592188E-002   1.9551689949847462E-002   2.8973216388376188E-002
  -4.3896199148628121E-002   1.3216247721867136E-002   4.9636182315040522E-002
  -4.2292071917919949E-002   1.2698997681712371E-002   4.9398130657009598E-002
  -4.0687944687211798E-002   1.2189480641821640E-002   4.9338857375882256E-002
  -3.9083817456503619E-002   1.1687696602195031E-002   4.9458362471658968E-002
  -3.7479690225795476E-002   1.1193645562832810E-002   4.9756645944339206E-002
  -4.9306600855160046E-002   1.4800108278862245E-002   4.4516522235454908E-002
  -4.7522939871034328E-002   1.4246650512420314E-002   4.4269748745662377E-002
  -4.5739278886908603E-002   1.3689952163108782E-002   4.4203264385801119E-002
  -4.3955617902782865E-002   1.3130013230927683E-002   4.4317069155871393E-002
  -4.2171956918657161E-002   1.2566833715877024E-002   4.4611163055872954E-002
  -5.4728725978664766E-002   1.6383968835857299E-002   3.9366141221148884E-002
  -5.2764020488093769E-002   1.5794303343128160E-002   3.9099672316461026E-002
  -5.0799314997522799E-002   1.5190423684395805E-002   3.9015003294732210E-002
  -4.8834609506951863E-002   1.4572329859660166E-002   3.9112134155962444E-002
  -4.6869904016380838E-002   1.3940021868921210E-002   3.9391064900151665E-002
  -6.0162574519142066E-002   1.7967829392852297E-002   3.4185039272122658E-002
  -5.8015313769098298E-002   1.7341956173836055E-002   3.3887901369405816E-002
  -5.5868053019054488E-002   1.6690895205682777E-002   3.3774074102675522E-002
  -5.3720792269010671E-002   1.6014646488392566E-002   3.3843557471931927E-002
  -5.1573531518966854E-002   1.5313210021965437E-002   3.4096351477175046E-002
  -6.5608146476592188E-002   1.9551689949847462E-002   2.8973216388376188E-002
  -6.3276819714047888E-002   1.8889609004543811E-002   2.8634435904496547E-002
  -6.0945492951503547E-002   1.8191366726969874E-002   2.8480476809631200E-002
  -5.8614166188959239E-002   1.7456963117125027E-002   2.8511339103780134E-002
  -5.6282839426414932E-002   1.6686398175009665E-002   2.8727022786943557E-002
  -3.7479690225795476E-002   1.1193645562832810E-002   4.9756645944339206E-002
  -3.5878123237728682E-002   1.0692528624369507E-002   4.9448056664736284E-002
  -3.4276556249661888E-002   1.0169546887440165E-002   4.9331629514372782E-002
  -3.2674989261595115E-002   9.6247003520450354E-003   4.9407364493248521E-002
  -3.1073422273528301E-002   9.0579890181841094E-003   4.9675261601363818E-002
  -4.2171956918657161E-002   1.2566833715877024E-002   4.4611163055872954E-002
  -4.0378987444222442E-002   1.1996786896564332E-002   4.4279954316476328E-002
  -3.8586017969787750E-002   1.1416246051597440E-002   4.4139388420576034E-002
  -3.6793048495353017E-002   1.0825211180976270E-002   4.4189465368172136E-002
  -3.5000079020918271E-002   1.0223682284700719E-002   4.4430185159264779E-002
  -4.6869904016380838E-002   1.3940021868921210E-002   3.9391064900151665E-002
  -4.4887051341321295E-002   1.3301045168759282E-002   3.9048607473772867E-002
  -4.2904198666261634E-002   1.2662945215754652E-002   3.8895273605147447E-002
  -4.0921345991202063E-002   1.2025722009907558E-002   3.8931063294275550E-002
  -3.8938493316142436E-002   1.1389375551217551E-002   3.9155976541157045E-002
  -5.1573531518966854E-002   1.5313210021965437E-002   3.4096351477175046E-002
  -4.9402314929025283E-002   1.4605303440954197E-002   3.3754016136625854E-002
  -4.7231098339083684E-002   1.3909644379911896E-002   3.3599285068086973E-002
  -4.5059881749142106E-002   1.3226232838838763E-002   3.3632158271558764E-002
  -4.2888665159200458E-002   1.2555068817734161E-002   3.3852635747040824E-002
  -5.6282839426414932E-002   1.6686398175009665E-002   2.8727022786943557E-002
  -5.3924778207334378E-002   1.5909561713149112E-002   2.8396180305035434E-002
  -5.1566716988253797E-002   1.5156343544069098E-002   2.8251422809394661E-002
  -4.9208655769173257E-002   1.4426743667770098E-002   2.8292750300021444E-002
  -4.6850594550092661E-002   1.3720762084251104E-002   2.8520162776915936E-002
  -3.1073422273528301E-002   9.0579890181841094E-003   4.9675261601363818E-002
  -2.9394555873697936E-002   8.4932143876173538E-003   4.9477934400099732E-002
  -2.7715689473867530E-002   7.9541779621052355E-003   4.9497426072442674E-002
  -2.6036823074037152E-002   7.4408797416477684E-003   4.9733736618392421E-002
  -2.4357956674206760E-002   6.9533197262450219E-003   5.0186866037949640E-002
  -3.5000079020918271E-002   1.0223682284700719E-002   4.4430185159264779E-002
  -3.3113583236347478E-002   9.5884438557453933E-003   4.4196317503974680E-002
  -3.1227087451776603E-002   8.8962803870847734E-003   4.4160889744558562E-002
  -2.9340591667205707E-002   8.1471918787185925E-003   4.4323901881016287E-002
  -2.7454095882634894E-002   7.3411783306470690E-003   4.4685353913348158E-002
  -3.8938493316142436E-002   1.1389375551217551E-002   3.9155976541157045E-002
  -3.6862747124564145E-002   1.0683673323873683E-002   3.8802905187080974E-002
  -3.4787000932985909E-002   9.8383828120642558E-003   3.8629894751145907E-002
  -3.2711254741407625E-002   8.8535040157893888E-003   3.8636945233351525E-002
  -3.0635508549829243E-002   7.7290369350492272E-003   3.8824056633698034E-002
  -4.2888665159200458E-002   1.2555068817734161E-002   3.3852635747040824E-002
  -4.0642047538347902E-002   1.1778902792001736E-002   3.3297697449418795E-002
  -3.8395429917495352E-002   1.0780485237043710E-002   3.2904441092204563E-002
  -3.6148812296642747E-002   9.5598161528601990E-003   3.2672866675397719E-002
  -3.3902194675790184E-002   8.1168955394512743E-003   3.2602974198999532E-002
  -4.6850594550092661E-002   1.3720762084251104E-002   2.8520162776915936E-002
  -4.4451484477698811E-002   1.2874132260129956E-002   2.7680694290987851E-002
  -4.2052374405304960E-002   1.1722587662023276E-002   2.6984528767734439E-002
  -3.9653264332911178E-002   1.0266128289931009E-002   2.6431666207155757E-002
  -3.7254154260517258E-002   8.5047541438534324E-003   2.6022106609251860E-002
  -9.0362582815827028E-002   0.0000000000000000        4.9837346479112060E-002
  -9.3962567272265027E-002   5.4041550170273404E-003   5.3211122238982347E-002
  -9.7562551728703026E-002   1.0671021810219155E-002   5.4966457957586590E-002
 -0.10116253618514105        1.5800600379575452E-002   5.5103353634924773E-002
 -0.10476252064157902        2.0792890725096224E-002   5.3621809270996898E-002
 -0.10329432879589104        0.0000000000000000        5.8665084396456305E-002
 -0.10683121154733860        1.0884422629289858E-002   5.2120558360450632E-002
 -0.11036809429878615        1.9172337105672673E-002   4.7320675775691920E-002
 -0.11390497705023371        2.4863743429148467E-002   4.4265436642180161E-002
 -0.11744185980168124        2.7958641599717216E-002   4.2954840959915350E-002
 -0.12645902012971624        0.0000000000000000        7.4202699890598814E-002
 -0.12656971768366038        1.6364690241552383E-002   5.5280652129645669E-002
 -0.12668041523760445        2.7673652401126195E-002   4.1466331312452490E-002
 -0.12679111279154853        3.3926886478721489E-002   3.2759737439019269E-002
 -0.12690181034549264        3.5124392474338198E-002   2.9160870509346029E-002
 -0.15985665681730263        0.0000000000000000        9.6450192961539602E-002
 -0.15317808568123026        2.1844957853814895E-002   6.2691403546567492E-002
 -0.14649951454515789        3.6174967696579727E-002   3.7403424567868333E-002
 -0.13982094340908552        4.2990029528294484E-002   2.0586256025442173E-002
 -0.13314237227301318        4.2290143348959204E-002   1.2239897919288919E-002
 -0.20348723885865019        0.0000000000000000       0.12540756360927868     
 -0.18665631554004836        2.7325225466077418E-002   7.4352812611216040E-002
 -0.16982539222144652        4.4676282992033245E-002   3.5131955541939396E-002
 -0.15299446890284468        5.2053172577867506E-002   7.7449924014487137E-003
 -0.13616354558424287        4.9455894223580175E-002  -7.8080768102560053E-003
 -0.10476252064157902        2.0792890725096224E-002   5.3621809270996898E-002
 -0.10210936562648870        2.4934658562256538E-002   4.5643465657640866E-002
  -9.9456210611398393E-002   2.7512669606531467E-002   3.9354400322707518E-002
  -9.6803055596308071E-002   2.8526923857920987E-002   3.4754613266196901E-002
  -9.4149900581217749E-002   2.7977421316425118E-002   3.1844104488108892E-002
 -0.11744185980168124        2.7958641599717216E-002   4.2954840959915350E-002
 -0.11348725846721006        2.9431153937472445E-002   3.6702043851005728E-002
 -0.10953265713273881        3.0255402762507717E-002   3.1362861102435240E-002
 -0.10557805579826758        3.0431388074822967E-002   2.6937292714203857E-002
 -0.10162345446379635        2.9959109874418272E-002   2.3425338686311629E-002
 -0.12690181034549264        3.5124392474338198E-002   2.9160870509346029E-002
 -0.12242142660972405        3.3927649312688365E-002   2.5549113185048166E-002
 -0.11794104287395546        3.2998135918483967E-002   2.2075306303005950E-002
 -0.11346065913818686        3.2335852291725004E-002   1.8739449863219248E-002
 -0.10898027540241829        3.1940798432411432E-002   1.5541543865688177E-002
 -0.13314237227301318        4.2290143348959204E-002   1.2239897919288919E-002
 -0.12891187005403076        3.8424144687904276E-002   1.2184673659768283E-002
 -0.12468136783504837        3.5740869074460217E-002   1.1491735924419717E-002
 -0.12045086561606597        3.4240316508626953E-002   1.0161084713243226E-002
 -0.11622036339708355        3.3922486990404614E-002   8.1927200262387184E-003
 -0.13616354558424287        4.9455894223580175E-002  -7.8080768102560053E-003
 -0.13295858880013017        4.2920640063120186E-002  -3.3912747248340640E-003
 -0.12975363201601750        3.8483602230436488E-002  -3.8785003332344505E-004
 -0.12654867523190480        3.6144780725529006E-002   1.2021972642754035E-003
 -0.12334371844779213        3.5904175548397754E-002   1.3788671679630105E-003
  -9.4149900581217749E-002   2.7977421316425118E-002   3.1844104488108892E-002
  -9.1760329584603922E-002   2.6783419716322587E-002   3.1274991181044820E-002
  -8.9370758587990068E-002   2.5864176791892061E-002   3.0790096092113830E-002
  -8.6981187591376213E-002   2.5219692543133682E-002   3.0389419221315911E-002
  -8.4591616594762359E-002   2.4849966970047252E-002   3.0072960568651039E-002
 -0.10162345446379635        2.9959109874418272E-002   2.3425338686311629E-002
  -9.9136304485789348E-002   2.9188284910737591E-002   2.3149283417384370E-002
  -9.6649154507782303E-002   2.8468629933224909E-002   2.2984167893110412E-002
  -9.4162004529775245E-002   2.7800144941880253E-002   2.2929992113489825E-002
  -9.1674854551768242E-002   2.7182829936703568E-002   2.2986756078522463E-002
 -0.10898027540241829        3.1940798432411432E-002   1.5541543865688177E-002
 -0.10636882491649786        3.1593150105152568E-002   1.5334957945393787E-002
 -0.10375737443057742        3.1073083074557663E-002   1.5266033296272841E-002
 -0.10114592394465699        3.0380597340626796E-002   1.5334769918325440E-002
  -9.8534473458736588E-002   2.9515692903359918E-002   1.5541167811551553E-002
 -0.11622036339708355        3.3922486990404614E-002   8.1927200262387184E-003
 -0.11345789087672949        3.3998015299567572E-002   7.8320147650730535E-003
 -0.11069541835637542        3.3677536215890570E-002   7.6356923016010865E-003
 -0.10793294583602132        3.2961049739373464E-002   7.6037526358228675E-003
 -0.10517047331566728        3.1848555870016379E-002   7.7361957677383420E-003
 -0.12334371844779213        3.5904175548397754E-002   1.3788671679630105E-003
 -0.12040350236648423        3.6402880493982520E-002   6.4045387642197582E-004
 -0.11746328628517630        3.6281989357223349E-002   9.3144909095017880E-005
 -0.11452307020386836        3.5541502138119942E-002  -2.6305973401797959E-004
 -0.11158285412256047        3.4181418836672584E-002  -4.2816005291707038E-004
  -8.4591616594762359E-002   2.4849966970047252E-002   3.0072960568651039E-002
  -8.2210410504146125E-002   2.4535864514473010E-002   2.9323251353270657E-002
  -7.9829204413529906E-002   2.4058249618251325E-002   2.8856497617538356E-002
  -7.7447998322913658E-002   2.3417122281381989E-002   2.8672699361454047E-002
  -7.5066792232297452E-002   2.2612482503865050E-002   2.8771856585017852E-002
  -9.1674854551768242E-002   2.7182829936703568E-002   2.2986756078522463E-002
  -8.9038328337467249E-002   2.6566123895353531E-002   2.2326298307635155E-002
  -8.6401802123166255E-002   2.5899465795488637E-002   2.1893525304469363E-002
  -8.3765275908865289E-002   2.5182855637108759E-002   2.1688437069025061E-002
  -8.1128749694564239E-002   2.4416293420214202E-002   2.1711033601302221E-002
  -9.8534473458736588E-002   2.9515692903359918E-002   1.5541167811551553E-002
  -9.5697897832677320E-002   2.8596383276233969E-002   1.5083521867290041E-002
  -9.2861322206618094E-002   2.7740681972725896E-002   1.4798289978823482E-002
  -9.0024746580558909E-002   2.6948588992835670E-002   1.4685472146152033E-002
  -8.7188170954499655E-002   2.6220104336563271E-002   1.4745068369275374E-002
 -0.10517047331566728        3.1848555870016379E-002   7.7361957677383420E-003
 -0.10218911898977637        3.0626642657114421E-002   7.5949220322353399E-003
  -9.9207764663885478E-002   2.9581898149963055E-002   7.5707916406009650E-003
  -9.6226410337994533E-002   2.8714322348562513E-002   7.6638045928346865E-003
  -9.3245056012103686E-002   2.8023915252912465E-002   7.8739608889370656E-003
 -0.11158285412256047        3.4181418836672584E-002  -4.2816005291707038E-004
 -0.10851199180876442        3.2656902037994956E-002  -1.3950119752872969E-004
 -0.10544112949496834        3.1423114327200435E-002   2.1103028980143379E-004
 -0.10237026718117227        3.0480055704289376E-002   6.2343440907345476E-004
  -9.9299404867376206E-002   2.9827726169261548E-002   1.0977111602874512E-003
  -7.5066792232297452E-002   2.2612482503865050E-002   2.8771856585017852E-002
  -7.2702130793371150E-002   2.1756385970858383E-002   2.8592774574296459E-002
  -7.0337469354444834E-002   2.0960888367519998E-002   2.8566640537948967E-002
  -6.7972807915518518E-002   2.0225989693849582E-002   2.8693454475975502E-002
  -6.5608146476592188E-002   1.9551689949847462E-002   2.8973216388376188E-002
  -8.1128749694564239E-002   2.4416293420214202E-002   2.1711033601302221E-002
  -7.8609724260707059E-002   2.3631312394071860E-002   2.1572760498312971E-002
  -7.6090698826849837E-002   2.2859445807948832E-002   2.1590267410811326E-002
  -7.3571673392992643E-002   2.2100693661845298E-002   2.1763554338797501E-002
  -7.1052647959135420E-002   2.1355055955761204E-002   2.2092621282271463E-002
  -8.7188170954499655E-002   2.6220104336563271E-002   1.4745068369275374E-002
  -8.4511949484597781E-002   2.5506238817285087E-002   1.4600119684369348E-002
  -8.1835728014695880E-002   2.4758003248377833E-002   1.4613783056064825E-002
  -7.9159506544794034E-002   2.3975397629840963E-002   1.4786058484361826E-002
  -7.6483285074892188E-002   2.3158421961674891E-002   1.5116945969260456E-002
  -9.3245056012103686E-002   2.8023915252912465E-002   7.8739608889370656E-003
  -9.0408806465043359E-002   2.7381165240498634E-002   7.6748521324657305E-003
  -8.7572556917983047E-002   2.6656560688806723E-002   7.6371874737093028E-003
  -8.4736307370922748E-002   2.5850101597836683E-002   7.7609669126685564E-003
  -8.1900057823862449E-002   2.4961787967588772E-002   8.0461904493430367E-003
  -9.9299404867376206E-002   2.9827726169261548E-002   1.0977111602874512E-003
  -9.6300295202043751E-002   2.9256091663711931E-002   7.9695784260189195E-004
  -9.3301185536711240E-002   2.8555118129235613E-002   6.6048066374517489E-004
  -9.0302075871378756E-002   2.7724805565832372E-002   6.8827962371787940E-004
  -8.7302966206046273E-002   2.6765153973502431E-002   8.8035472251929425E-004
  -6.5608146476592188E-002   1.9551689949847462E-002   2.8973216388376188E-002
  -6.3276819714047888E-002   1.8889609004543811E-002   2.8634435904496547E-002
  -6.0945492951503547E-002   1.8191366726969874E-002   2.8480476809631200E-002
  -5.8614166188959239E-002   1.7456963117125027E-002   2.8511339103780134E-002
  -5.6282839426414932E-002   1.6686398175009665E-002   2.8727022786943557E-002
  -7.1052647959135420E-002   2.1355055955761204E-002   2.2092621282271463E-002
  -6.8535597472739976E-002   2.0611826942328840E-002   2.1746378306521943E-002
  -6.6018546986344490E-002   1.9860300874181239E-002   2.1586761389460404E-002
  -6.3501496499948976E-002   1.9100477751317613E-002   2.1613770531086943E-002
  -6.0984446013553517E-002   1.8332357573738634E-002   2.1827405731401350E-002
  -7.6483285074892188E-002   2.3158421961674891E-002   1.5116945969260456E-002
  -7.3778706194971871E-002   2.2334044880113799E-002   1.4791104779196165E-002
  -7.1074127315051638E-002   2.1529235021392375E-002   1.4653694317493644E-002
  -6.8369548435131294E-002   2.0743992385510251E-002   1.4704714584152536E-002
  -6.5664969555211034E-002   1.9978316972467575E-002   1.4944165579173233E-002
  -8.1900057823862449E-002   2.4961787967588772E-002   8.0461904493430367E-003
  -7.9006145880743742E-002   2.4056262817898848E-002   7.7686153225191117E-003
  -7.6112233937624951E-002   2.3198169168603348E-002   7.6812755937302347E-003
  -7.3218321994506258E-002   2.2387507019702921E-002   7.7841712629770658E-003
  -7.0324410051387481E-002   2.1624276371196585E-002   8.0773023302589016E-003
  -8.7302966206046273E-002   2.6765153973502431E-002   8.8035472251929425E-004
  -8.4217916530055448E-002   2.5778480755683675E-002   6.7890993649072362E-004
  -8.1132866854064567E-002   2.4867103315815015E-002   6.6950521817098207E-004
  -7.8047817178073686E-002   2.4031021653895319E-002   8.5214056756041309E-004
  -7.4962767502082861E-002   2.3270235769925596E-002   1.2268159846585691E-003
  -5.6282839426414932E-002   1.6686398175009665E-002   2.8727022786943557E-002
  -5.3924778207334378E-002   1.5909561713149112E-002   2.8396180305035434E-002
  -5.1566716988253797E-002   1.5156343544069098E-002   2.8251422809394661E-002
  -4.9208655769173257E-002   1.4426743667770098E-002   2.8292750300021444E-002
  -4.6850594550092661E-002   1.3720762084251104E-002   2.8520162776915936E-002
  -6.0984446013553517E-002   1.8332357573738634E-002   2.1827405731401350E-002
  -5.8443298064660421E-002   1.7563818022845873E-002   2.1530186338953650E-002
  -5.5902150115767338E-002   1.6802736780040795E-002   2.1413055419863519E-002
  -5.3361002166874207E-002   1.6049113845323912E-002   2.1476012974130779E-002
  -5.0819854217981103E-002   1.5302949218695239E-002   2.1719059001755858E-002
  -6.5664969555211034E-002   1.9978316972467575E-002   1.4944165579173233E-002
  -6.2946731389415353E-002   1.9218074332542440E-002   1.4664409291493249E-002
  -6.0228493223619638E-002   1.8449130016012540E-002   1.4558744964261044E-002
  -5.7510255057823922E-002   1.7671484022878110E-002   1.4627172597476441E-002
  -5.4792016892028200E-002   1.6885136353139318E-002   1.4869692191139400E-002
  -7.0324410051387481E-002   2.1624276371196585E-002   8.0773023302589016E-003
  -6.7435078181599092E-002   2.0872330642239159E-002   7.7988491626541853E-003
  -6.4545746311810731E-002   2.0095523251984316E-002   7.6884914425873318E-003
  -6.1656414442022328E-002   1.9293854200432229E-002   7.7462291700579377E-003
  -5.8767082572233967E-002   1.8467323487583204E-002   7.9720623450665537E-003
  -7.4962767502082861E-002   2.3270235769925596E-002   1.2268159846585691E-003
  -7.1908338441211694E-002   2.2526586951935768E-002   9.3350595243640866E-004
  -6.8853909380340528E-002   2.1741916487956092E-002   8.0229485484251128E-004
  -6.5799480319469306E-002   2.0916224377986320E-002   8.3318269187565575E-004
  -6.2745051258598195E-002   2.0049510622027644E-002   1.0261694635371743E-003
  -4.6850594550092661E-002   1.3720762084251104E-002   2.8520162776915936E-002
  -4.4451484477698811E-002   1.2874132260129956E-002   2.7680694290987851E-002
  -4.2052374405304960E-002   1.1722587662023276E-002   2.6984528767734439E-002
  -3.9653264332911178E-002   1.0266128289931009E-002   2.6431666207155757E-002
  -3.7254154260517258E-002   8.5047541438534324E-003   2.6022106609251860E-002
  -5.0819854217981103E-002   1.5302949218695239E-002   2.1719059001755858E-002
  -4.8295140723880886E-002   1.4602986232143012E-002   2.0749003067740940E-002
  -4.5770427229780655E-002   1.3987968217655966E-002   1.9886851014464052E-002
  -4.3245713735680320E-002   1.3457895175234477E-002   1.9132602841925264E-002
  -4.0721000241580152E-002   1.3012767104878309E-002   1.8486258550124757E-002
  -5.4792016892028200E-002   1.6885136353139318E-002   1.4869692191139400E-002
  -5.2177099058158122E-002   1.6331840204155873E-002   1.4158908555088334E-002
  -4.9562181224287995E-002   1.6253348773288767E-002   1.3520629717838600E-002
  -4.6947263390417715E-002   1.6649662060537973E-002   1.2954855679390753E-002
  -4.4332345556547720E-002   1.7520780065903185E-002   1.2461586439744210E-002
  -5.8767082572233967E-002   1.8467323487583204E-002   7.9720623450665537E-003
  -5.6097359480530476E-002   1.8060694176169054E-002   7.9104107530300477E-003
  -5.3427636388827048E-002   1.8518729328921457E-002   7.8858648778586324E-003
  -5.0757913297123487E-002   1.9841428945841177E-002   7.8984247195522939E-003
  -4.8088190205420066E-002   2.2028793026928117E-002   7.9480902781106783E-003
  -6.2745051258598195E-002   2.0049510622027644E-002   1.0261694635371743E-003
  -6.0055921990997962E-002   1.9789548148182012E-002   2.0035096615662606E-003
  -5.7366792723397786E-002   2.0784109884554397E-002   2.9825564945235306E-003
  -5.4677663455797415E-002   2.3033195831144861E-002   3.9633099624097404E-003
  -5.1988534188197377E-002   2.6536805987952938E-002   4.9457700652240089E-003
 </DataArray>
 </PointData>
 </Piece>
 <Piece  NumberOfPoints="          1600 "  NumberOfCells="         1024 ">
 <Points>
 <DataArray  type="Float64" NumberOfComponents="3"  format="ascii" >
  0.50000000000000000        0.0000000000000000        0.0000000000000000     
  0.53125000000000000        0.0000000000000000        0.0000000000000000     
  0.56250000000000000        0.0000000000000000        0.0000000000000000     
  0.59375000000000000        0.0000000000000000        0.0000000000000000     
  0.62500000000000000        0.0000000000000000        0.0000000000000000     
  0.50000000000000000        3.1250000000000000E-002   0.0000000000000000     
  0.53125000000000000        3.1250000000000000E-002   0.0000000000000000     
  0.56250000000000000        3.1250000000000000E-002   0.0000000000000000     
  0.59375000000000000        3.1250000000000000E-002   0.0000000000000000     
  0.62500000000000000        3.1250000000000000E-002   0.0000000000000000     
  0.50000000000000000        6.2500000000000000E-002   0.0000000000000000     
  0.53125000000000000        6.2500000000000000E-002   0.0000000000000000     
  0.56250000000000000        6.2500000000000000E-002   0.0000000000000000     
  0.59375000000000000        6.2500000000000000E-002   0.0000000000000000     
  0.62500000000000000        6.2500000000000000E-002   0.0000000000000000     
  0.50000000000000000        9.3750000000000000E-002   0.0000000000000000     
  0.53125000000000000        9.3750000000000000E-002   0.0000000000000000     
  0.56250000000000000        9.3750000000000000E-002   0.0000000000000000     
  0.59375000000000000        9.3750000000000000E-002   0.0000000000000000     
  0.62500000000000000        9.3750000000000000E-002   0.0000000000000000     
  0.50000000000000000       0.12500000000000000        0.0000000000000000     
  0.53125000000000000       0.12500000000000000        0.0000000000000000     
  0.56250000000000000       0.12500000000000000        0.0000000000000000     
  0.59375000000000000       0.12500000000000000        0.0000000000000000     
  0.62500000000000000       0.12500000000000000        0.0000000000000000     
  0.62500000000000000        0.0000000000000000        0.0000000000000000     
  0.65625000000000000        0.0000000000000000        0.0000000000000000     
  0.68750000000000000        0.0000000000000000        0.0000000000000000     
  0.71875000000000000        0.0000000000000000        0.0000000000000000     
  0.75000000000000000        0.0000000000000000        0.0000000000000000     
  0.62500000000000000        3.1250000000000000E-002   0.0000000000000000     
  0.65625000000000000        3.1250000000000000E-002   0.0000000000000000     
  0.68750000000000000        3.1250000000000000E-002   0.0000000000000000     
  0.71875000000000000        3.1250000000000000E-002   0.0000000000000000     
  0.75000000000000000        3.1250000000000000E-002   0.0000000000000000     
  0.62500000000000000        6.2500000000000000E-002   0.0000000000000000     
  0.65625000000000000        6.2500000000000000E-002   0.0000000000000000     
  0.68750000000000000        6.2500000000000000E-002   0.0000000000000000     
  0.71875000000000000        6.2500000000000000E-002   0.0000000000000000     
  0.75000000000000000        6.2500000000000000E-002   0.0000000000000000     
  0.62500000000000000        9.3750000000000000E-002   0.0000000000000000     
  0.65625000000000000        9.3750000000000000E-002   0.0000000000000000     
  0.68750000000000000        9.3750000000000000E-002   0.0000000000000000     
  0.71875000000000000        9.3750000000000000E-002   0.0000000000000000     
  0.75000000000000000        9.3750000000000000E-002   0.0000000000000000     
  0.62500000000000000       0.12500000000000000        0.0000000000000000     
  0.65625000000000000       0.12500000000000000        0.0000000000000000     
  0.68750000000000000       0.12500000000000000        0.0000000000000000     
  0.71875000000000000       0.12500000000000000        0.0000000000000000     
  0.75000000000000000       0.12500000000000000        0.0000000000000000     
  0.75000000000000000        0.0000000000000000        0.0000000000000000     
  0.78125000000000000        0.0000000000000000        0.0000000000000000     
  0.81250000000000000        0.0000000000000000        0.0000000000000000     
  0.84375000000000000        0.0000000000000000        0.0000000000000000     
  0.87500000000000000        0.0000000000000000        0.0000000000000000     
  0.75000000000000000        3.1250000000000000E-002   0.0000000000000000     
  0.78125000000000000        3.1250000000000000E-002   0.0000000000000000     
  0.81250000000000000        3.1250000000000000E-002   0.0000000000000000     
  0.84375000000000000        3.1250000000000000E-002   0.0000000000000000     
  0.87500000000000000        3.1250000000000000E-002   0.0000000000000000     
  0.75000000000000000        6.2500000000000000E-002   0.0000000000000000     
  0.78125000000000000        6.2500000000000000E-002   0.0000000000000000     
  0.81250000000000000        6.2500000000000000E-002   0.0000000000000000     
  0.84375000000000000        6.2500000000000000E-002   0.0000000000000000     
  0.87500000000000000        6.2500000000000000E-002   0.0000000000000000     
  0.75000000000000000        9.3750000000000000E-002   0.0000000000000000     
  0.78125000000000000        9.3750000000000000E-002   0.0000000000000000     
  0.81250000000000000        9.3750000000000000E-002   0.0000000000000000     
  0.84375000000000000        9.3750000000000000E-002   0.0000000000000000     
  0.87500000000000000        9.3750000000000000E-002   0.0000000000000000     
  0.75000000000000000       0.12500000000000000        0.0000000000000000     
  0.78125000000000000       0.12500000000000000        0.0000000000000000     
  0.81250000000000000       0.12500000000000000        0.0000000000000000     
  0.84375000000000000       0.12500000000000000        0.0000000000000000     
  0.87500000000000000       0.12500000000000000        0.0000000000000000     
  0.87500000000000000        0.0000000000000000        0.0000000000000000     
  0.90625000000000000        0.0000000000000000        0.0000000000000000     
  0.93750000000000000        0.0000000000000000        0.0000000000000000     
  0.96875000000000000        0.0000000000000000        0.0000000000000000     
   1.0000000000000000        0.0000000000000000        0.0000000000000000     
  0.87500000000000000        3.1250000000000000E-002   0.0000000000000000     
  0.90625000000000000        3.1250000000000000E-002   0.0000000000000000     
  0.93750000000000000        3.1250000000000000E-002   0.0000000000000000     
  0.96875000000000000        3.1250000000000000E-002   0.0000000000000000     
   1.0000000000000000        3.1250000000000000E-002   0.0000000000000000     
  0.87500000000000000        6.2500000000000000E-002   0.0000000000000000     
  0.90625000000000000        6.2500000000000000E-002   0.0000000000000000     
  0.93750000000000000        6.2500000000000000E-002   0.0000000000000000     
  0.96875000000000000        6.2500000000000000E-002   0.0000000000000000     
   1.0000000000000000        6.2500000000000000E-002   0.0000000000000000     
  0.87500000000000000        9.3750000000000000E-002   0.0000000000000000     
  0.90625000000000000        9.3750000000000000E-002   0.0000000000000000     
  0.93750000000000000        9.3750000000000000E-002   0.0000000000000000     
  0.96875000000000000        9.3750000000000000E-002   0.0000000000000000     
   1.0000000000000000        9.3750000000000000E-002   0.0000000000000000     
  0.87500000000000000       0.12500000000000000        0.0000000000000000     
  0.90625000000000000       0.12500000000000000        0.0000000000000000     
  0.93750000000000000       0.12500000000000000        0.0000000000000000     
  0.96875000000000000       0.12500000000000000        0.0000000000000000     
   1.0000000000000000       0.12500000000000000        0.0000000000000000     
   1.0000000000000000        0.0000000000000000        0.0000000000000000     
   1.0312500000000000        0.0000000000000000        0.0000000000000000     
   1.0625000000000000        0.0000000000000000        0.0000000000000000     
   1.0937500000000000        0.0000000000000000        0.0000000000000000     
   1.1250000000000000        0.0000000000000000        0.0000000000000000     
   1.0000000000000000        3.1250000000000000E-002   0.0000000000000000     
   1.0312500000000000        3.1250000000000000E-002   0.0000000000000000     
   1.0625000000000000        3.1250000000000000E-002   0.0000000000000000     
   1.0937500000000000        3.1250000000000000E-002   0.0000000000000000     
   1.1250000000000000        3.1250000000000000E-002   0.0000000000000000     
   1.0000000000000000        6.2500000000000000E-002   0.0000000000000000     
   1.0312500000000000        6.2500000000000000E-002   0.0000000000000000     
   1.0625000000000000        6.2500000000000000E-002   0.0000000000000000     
   1.0937500000000000        6.2500000000000000E-002   0.0000000000000000     
   1.1250000000000000        6.2500000000000000E-002   0.0000000000000000     
   1.0000000000000000        9.3750000000000000E-002   0.0000000000000000     
   1.0312500000000000        9.3750000000000000E-002   0.0000000000000000     
   1.0625000000000000        9.3750000000000000E-002   0.0000000000000000     
   1.0937500000000000        9.3750000000000000E-002   0.0000000000000000     
   1.1250000000000000        9.3750000000000000E-002   0.0000000000000000     
   1.0000000000000000       0.12500000000000000        0.0000000000000000     
   1.0312500000000000       0.12500000000000000        0.0000000000000000     
   1.0625000000000000       0.12500000000000000        0.0000000000000000     
   1.0937500000000000       0.12500000000000000        0.0000000000000000     
   1.1250000000000000       0.12500000000000000        0.0000000000000000     
   1.1250000000000000        0.0000000000000000        0.0000000000000000     
   1.1562500000000000        0.0000000000000000        0.0000000000000000     
   1.1875000000000000        0.0000000000000000        0.0000000000000000     
   1.2187500000000000        0.0000000000000000        0.0000000000000000     
   1.2500000000000000        0.0000000000000000        0.0000000000000000     
   1.1250000000000000        3.1250000000000000E-002   0.0000000000000000     
   1.1562500000000000        3.1250000000000000E-002   0.0000000000000000     
   1.1875000000000000        3.1250000000000000E-002   0.0000000000000000     
   1.2187500000000000        3.1250000000000000E-002   0.0000000000000000     
   1.2500000000000000        3.1250000000000000E-002   0.0000000000000000     
   1.1250000000000000        6.2500000000000000E-002   0.0000000000000000     
   1.1562500000000000        6.2500000000000000E-002   0.0000000000000000     
   1.1875000000000000        6.2500000000000000E-002   0.0000000000000000     
   1.2187500000000000        6.2500000000000000E-002   0.0000000000000000     
   1.2500000000000000        6.2500000000000000E-002   0.0000000000000000     
   1.1250000000000000        9.3750000000000000E-002   0.0000000000000000     
   1.1562500000000000        9.3750000000000000E-002   0.0000000000000000     
   1.1875000000000000        9.3750000000000000E-002   0.0000000000000000     
   1.2187500000000000        9.3750000000000000E-002   0.0000000000000000     
   1.2500000000000000        9.3750000000000000E-002   0.0000000000000000     
   1.1250000000000000       0.12500000000000000        0.0000000000000000     
   1.1562500000000000       0.12500000000000000        0.0000000000000000     
   1.1875000000000000       0.12500000000000000        0.0000000000000000     
   1.2187500000000000       0.12500000000000000        0.0000000000000000     
   1.2500000000000000       0.12500000000000000        0.0000000000000000     
   1.2500000000000000        0.0000000000000000        0.0000000000000000     
   1.2812500000000000        0.0000000000000000        0.0000000000000000     
   1.3125000000000000        0.0000000000000000        0.0000000000000000     
   1.3437500000000000        0.0000000000000000        0.0000000000000000     
   1.3750000000000000        0.0000000000000000        0.0000000000000000     
   1.2500000000000000        3.1250000000000000E-002   0.0000000000000000     
   1.2812500000000000        3.1250000000000000E-002   0.0000000000000000     
   1.3125000000000000        3.1250000000000000E-002   0.0000000000000000     
   1.3437500000000000        3.1250000000000000E-002   0.0000000000000000     
   1.3750000000000000        3.1250000000000000E-002   0.0000000000000000     
   1.2500000000000000        6.2500000000000000E-002   0.0000000000000000     
   1.2812500000000000        6.2500000000000000E-002   0.0000000000000000     
   1.3125000000000000        6.2500000000000000E-002   0.0000000000000000     
   1.3437500000000000        6.2500000000000000E-002   0.0000000000000000     
   1.3750000000000000        6.2500000000000000E-002   0.0000000000000000     
   1.2500000000000000        9.3750000000000000E-002   0.0000000000000000     
   1.2812500000000000        9.3750000000000000E-002   0.0000000000000000     
   1.3125000000000000        9.3750000000000000E-002   0.0000000000000000     
   1.3437500000000000        9.3750000000000000E-002   0.0000000000000000     
   1.3750000000000000        9.3750000000000000E-002   0.0000000000000000     
   1.2500000000000000       0.12500000000000000        0.0000000000000000     
   1.2812500000000000       0.12500000000000000        0.0000000000000000     
   1.3125000000000000       0.12500000000000000        0.0000000000000000     
   1.3437500000000000       0.12500000000000000        0.0000000000000000     
   1.3750000000000000       0.12500000000000000        0.0000000000000000     
   1.3750000000000000        0.0000000000000000        0.0000000000000000     
   1.4062500000000000        0.0000000000000000        0.0000000000000000     
   1.4375000000000000        0.0000000000000000        0.0000000000000000     
   1.4687500000000000        0.0000000000000000        0.0000000000000000     
   1.5000000000000000        0.0000000000000000        0.0000000000000000     
   1.3750000000000000        3.1250000000000000E-002   0.0000000000000000     
   1.4062500000000000        3.1250000000000000E-002   0.0000000000000000     
   1.4375000000000000        3.1250000000000000E-002   0.0000000000000000     
   1.4687500000000000        3.1250000000000000E-002   0.0000000000000000     
   1.5000000000000000        3.1250000000000000E-002   0.0000000000000000     
   1.3750000000000000        6.2500000000000000E-002   0.0000000000000000     
   1.4062500000000000        6.2500000000000000E-002   0.0000000000000000     
   1.4375000000000000        6.2500000000000000E-002   0.0000000000000000     
   1.4687500000000000        6.2500000000000000E-002   0.0000000000000000     
   1.5000000000000000        6.2500000000000000E-002   0.0000000000000000     
   1.3750000000000000        9.3750000000000000E-002   0.0000000000000000     
   1.4062500000000000        9.3750000000000000E-002   0.0000000000000000     
   1.4375000000000000        9.3750000000000000E-002   0.0000000000000000     
   1.4687500000000000        9.3750000000000000E-002   0.0000000000000000     
   1.5000000000000000        9.3750000000000000E-002   0.0000000000000000     
   1.3750000000000000       0.12500000000000000        0.0000000000000000     
   1.4062500000000000       0.12500000000000000        0.0000000000000000     
   1.4375000000000000       0.12500000000000000        0.0000000000000000     
   1.4687500000000000       0.12500000000000000        0.0000000000000000     
   1.5000000000000000       0.12500000000000000        0.0000000000000000     
  0.50000000000000000       0.12500000000000000        0.0000000000000000     
  0.53125000000000000       0.12500000000000000        0.0000000000000000     
  0.56250000000000000       0.12500000000000000        0.0000000000000000     
  0.59375000000000000       0.12500000000000000        0.0000000000000000     
  0.62500000000000000       0.12500000000000000        0.0000000000000000     
  0.50000000000000000       0.15625000000000000        0.0000000000000000     
  0.53125000000000000       0.15625000000000000        0.0000000000000000     
  0.56250000000000000       0.15625000000000000        0.0000000000000000     
  0.59375000000000000       0.15625000000000000        0.0000000000000000     
  0.62500000000000000       0.15625000000000000        0.0000000000000000     
  0.50000000000000000       0.18750000000000000        0.0000000000000000     
  0.53125000000000000       0.18750000000000000        0.0000000000000000     
  0.56250000000000000       0.18750000000000000        0.0000000000000000     
  0.59375000000000000       0.18750000000000000        0.0000000000000000     
  0.62500000000000000       0.18750000000000000        0.0000000000000000     
  0.50000000000000000       0.21875000000000000        0.0000000000000000     
  0.53125000000000000       0.21875000000000000        0.0000000000000000     
  0.56250000000000000       0.21875000000000000        0.0000000000000000     
  0.59375000000000000       0.21875000000000000        0.0000000000000000     
  0.62500000000000000       0.21875000000000000        0.0000000000000000     
  0.50000000000000000       0.25000000000000000        0.0000000000000000     
  0.53125000000000000       0.25000000000000000        0.0000000000000000     
  0.56250000000000000       0.25000000000000000        0.0000000000000000     
  0.59375000000000000       0.25000000000000000        0.0000000000000000     
  0.62500000000000000       0.25000000000000000        0.0000000000000000     
  0.62500000000000000       0.12500000000000000        0.0000000000000000     
  0.65625000000000000       0.12500000000000000        0.0000000000000000     
  0.68750000000000000       0.12500000000000000        0.0000000000000000     
  0.71875000000000000       0.12500000000000000        0.0000000000000000     
  0.75000000000000000       0.12500000000000000        0.0000000000000000     
  0.62500000000000000       0.15625000000000000        0.0000000000000000     
  0.65625000000000000       0.15625000000000000        0.0000000000000000     
  0.68750000000000000       0.15625000000000000        0.0000000000000000     
  0.71875000000000000       0.15625000000000000        0.0000000000000000     
  0.75000000000000000       0.15625000000000000        0.0000000000000000     
  0.62500000000000000       0.18750000000000000        0.0000000000000000     
  0.65625000000000000       0.18750000000000000        0.0000000000000000     
  0.68750000000000000       0.18750000000000000        0.0000000000000000     
  0.71875000000000000       0.18750000000000000        0.0000000000000000     
  0.75000000000000000       0.18750000000000000        0.0000000000000000     
  0.62500000000000000       0.21875000000000000        0.0000000000000000     
  0.65625000000000000       0.21875000000000000        0.0000000000000000     
  0.68750000000000000       0.21875000000000000        0.0000000000000000     
  0.71875000000000000       0.21875000000000000        0.0000000000000000     
  0.75000000000000000       0.21875000000000000        0.0000000000000000     
  0.62500000000000000       0.25000000000000000        0.0000000000000000     
  0.65625000000000000       0.25000000000000000        0.0000000000000000     
  0.68750000000000000       0.25000000000000000        0.0000000000000000     
  0.71875000000000000       0.25000000000000000        0.0000000000000000     
  0.75000000000000000       0.25000000000000000        0.0000000000000000     
  0.75000000000000000       0.12500000000000000        0.0000000000000000     
  0.78125000000000000       0.12500000000000000        0.0000000000000000     
  0.81250000000000000       0.12500000000000000        0.0000000000000000     
  0.84375000000000000       0.12500000000000000        0.0000000000000000     
  0.87500000000000000       0.12500000000000000        0.0000000000000000     
  0.75000000000000000       0.15625000000000000        0.0000000000000000     
  0.78125000000000000       0.15625000000000000        0.0000000000000000     
  0.81250000000000000       0.15625000000000000        0.0000000000000000     
  0.84375000000000000       0.15625000000000000        0.0000000000000000     
  0.87500000000000000       0.15625000000000000        0.0000000000000000     
  0.75000000000000000       0.18750000000000000        0.0000000000000000     
  0.78125000000000000       0.18750000000000000        0.0000000000000000     
  0.81250000000000000       0.18750000000000000        0.0000000000000000     
  0.84375000000000000       0.18750000000000000        0.0000000000000000     
  0.87500000000000000       0.18750000000000000        0.0000000000000000     
  0.75000000000000000       0.21875000000000000        0.0000000000000000     
  0.78125000000000000       0.21875000000000000        0.0000000000000000     
  0.81250000000000000       0.21875000000000000        0.0000000000000000     
  0.84375000000000000       0.21875000000000000        0.0000000000000000     
  0.87500000000000000       0.21875000000000000        0.0000000000000000     
  0.75000000000000000       0.25000000000000000        0.0000000000000000     
  0.78125000000000000       0.25000000000000000        0.0000000000000000     
  0.81250000000000000       0.25000000000000000        0.0000000000000000     
  0.84375000000000000       0.25000000000000000        0.0000000000000000     
  0.87500000000000000       0.25000000000000000        0.0000000000000000     
  0.87500000000000000       0.12500000000000000        0.0000000000000000     
  0.90625000000000000       0.12500000000000000        0.0000000000000000     
  0.93750000000000000       0.12500000000000000        0.0000000000000000     
  0.96875000000000000       0.12500000000000000        0.0000000000000000     
   1.0000000000000000       0.12500000000000000        0.0000000000000000     
  0.87500000000000000       0.15625000000000000        0.0000000000000000     
  0.90625000000000000       0.15625000000000000        0.0000000000000000     
  0.93750000000000000       0.15625000000000000        0.0000000000000000     
  0.96875000000000000       0.15625000000000000        0.0000000000000000     
   1.0000000000000000       0.15625000000000000        0.0000000000000000     
  0.87500000000000000       0.18750000000000000        0.0000000000000000     
  0.90625000000000000       0.18750000000000000        0.0000000000000000     
  0.93750000000000000       0.18750000000000000        0.0000000000000000     
  0.96875000000000000       0.18750000000000000        0.0000000000000000     
   1.0000000000000000       0.18750000000000000        0.0000000000000000     
  0.87500000000000000       0.21875000000000000        0.0000000000000000     
  0.90625000000000000       0.21875000000000000        0.0000000000000000     
  0.93750000000000000       0.21875000000000000        0.0000000000000000     
  0.96875000000000000       0.21875000000000000        0.0000000000000000     
   1.0000000000000000       0.21875000000000000        0.0000000000000000     
  0.87500000000000000       0.25000000000000000        0.0000000000000000     
  0.90625000000000000       0.25000000000000000        0.0000000000000000     
  0.93750000000000000       0.25000000000000000        0.0000000000000000     
  0.96875000000000000       0.25000000000000000        0.0000000000000000     
   1.0000000000000000       0.25000000000000000        0.0000000000000000     
   1.0000000000000000       0.12500000000000000        0.0000000000000000     
   1.0312500000000000       0.12500000000000000        0.0000000000000000     
   1.0625000000000000       0.12500000000000000        0.0000000000000000     
   1.0937500000000000       0.12500000000000000        0.0000000000000000     
   1.1250000000000000       0.12500000000000000        0.0000000000000000     
   1.0000000000000000       0.15625000000000000        0.0000000000000000     
   1.0312500000000000       0.15625000000000000        0.0000000000000000     
   1.0625000000000000       0.15625000000000000        0.0000000000000000     
   1.0937500000000000       0.15625000000000000        0.0000000000000000     
   1.1250000000000000       0.15625000000000000        0.0000000000000000     
   1.0000000000000000       0.18750000000000000        0.0000000000000000     
   1.0312500000000000       0.18750000000000000        0.0000000000000000     
   1.0625000000000000       0.18750000000000000        0.0000000000000000     
   1.0937500000000000       0.18750000000000000        0.0000000000000000     
   1.1250000000000000       0.18750000000000000        0.0000000000000000     
   1.0000000000000000       0.21875000000000000        0.0000000000000000     
   1.0312500000000000       0.21875000000000000        0.0000000000000000     
   1.0625000000000000       0.21875000000000000        0.0000000000000000     
   1.0937500000000000       0.21875000000000000        0.0000000000000000     
   1.1250000000000000       0.21875000000000000        0.0000000000000000     
   1.0000000000000000       0.25000000000000000        0.0000000000000000     
   1.0312500000000000       0.25000000000000000        0.0000000000000000     
   1.0625000000000000       0.25000000000000000        0.0000000000000000     
   1.0937500000000000       0.25000000000000000        0.0000000000000000     
   1.1250000000000000       0.25000000000000000        0.0000000000000000     
   1.1250000000000000       0.12500000000000000        0.0000000000000000     
   1.1562500000000000       0.12500000000000000        0.0000000000000000     
   1.1875000000000000       0.12500000000000000        0.0000000000000000     
   1.2187500000000000       0.12500000000000000        0.0000000000000000     
   1.2500000000000000       0.12500000000000000        0.0000000000000000     
   1.1250000000000000       0.15625000000000000        0.0000000000000000     
   1.1562500000000000       0.15625000000000000        0.0000000000000000     
   1.1875000000000000       0.15625000000000000        0.0000000000000000     
   1.2187500000000000       0.15625000000000000        0.0000000000000000     
   1.2500000000000000       0.15625000000000000        0.0000000000000000     
   1.1250000000000000       0.18750000000000000        0.0000000000000000     
   1.1562500000000000       0.18750000000000000        0.0000000000000000     
   1.1875000000000000       0.18750000000000000        0.0000000000000000     
   1.2187500000000000       0.18750000000000000        0.0000000000000000     
   1.2500000000000000       0.18750000000000000        0.0000000000000000     
   1.1250000000000000       0.21875000000000000        0.0000000000000000     
   1.1562500000000000       0.21875000000000000        0.0000000000000000     
   1.1875000000000000       0.21875000000000000        0.0000000000000000     
   1.2187500000000000       0.21875000000000000        0.0000000000000000     
   1.2500000000000000       0.21875000000000000        0.0000000000000000     
   1.1250000000000000       0.25000000000000000        0.0000000000000000     
   1.1562500000000000       0.25000000000000000        0.0000000000000000     
   1.1875000000000000       0.25000000000000000        0.0000000000000000     
   1.2187500000000000       0.25000000000000000        0.0000000000000000     
   1.2500000000000000       0.25000000000000000        0.0000000000000000     
   1.2500000000000000       0.12500000000000000        0.0000000000000000     
   1.2812500000000000       0.12500000000000000        0.0000000000000000     
   1.3125000000000000       0.12500000000000000        0.0000000000000000     
   1.3437500000000000       0.12500000000000000        0.0000000000000000     
   1.3750000000000000       0.12500000000000000        0.0000000000000000     
   1.2500000000000000       0.15625000000000000        0.0000000000000000     
   1.2812500000000000       0.15625000000000000        0.0000000000000000     
   1.3125000000000000       0.15625000000000000        0.0000000000000000     
   1.3437500000000000       0.15625000000000000        0.0000000000000000     
   1.3750000000000000       0.15625000000000000        0.0000000000000000     
   1.2500000000000000       0.18750000000000000        0.0000000000000000     
   1.2812500000000000       0.18750000000000000        0.0000000000000000     
   1.3125000000000000       0.18750000000000000        0.0000000000000000     
   1.3437500000000000       0.18750000000000000        0.0000000000000000     
   1.3750000000000000       0.18750000000000000        0.0000000000000000     
   1.2500000000000000       0.21875000000000000        0.0000000000000000     
   1.2812500000000000       0.21875000000000000        0.0000000000000000     
   1.3125000000000000       0.21875000000000000        0.0000000000000000     
   1.3437500000000000       0.21875000000000000        0.0000000000000000     
   1.3750000000000000       0.21875000000000000        0.0000000000000000     
   1.2500000000000000       0.25000000000000000        0.0000000000000000     
   1.2812500000000000       0.25000000000000000        0.0000000000000000     
   1.3125000000000000       0.25000000000000000        0.0000000000000000     
   1.3437500000000000       0.25000000000000000        0.0000000000000000     
   1.3750000000000000       0.25000000000000000        0.0000000000000000     
   1.3750000000000000       0.12500000000000000        0.0000000000000000     
   1.4062500000000000       0.12500000000000000        0.0000000000000000     
   1.4375000000000000       0.12500000000000000        0.0000000000000000     
   1.4687500000000000       0.12500000000000000        0.0000000000000000     
   1.5000000000000000       0.12500000000000000        0.0000000000000000     
   1.3750000000000000       0.15625000000000000        0.0000000000000000     
   1.4062500000000000       0.15625000000000000        0.0000000000000000     
   1.4375000000000000       0.15625000000000000        0.0000000000000000     
   1.4687500000000000       0.15625000000000000        0.0000000000000000     
   1.5000000000000000       0.15625000000000000        0.0000000000000000     
   1.3750000000000000       0.18750000000000000        0.0000000000000000     
   1.4062500000000000       0.18750000000000000        0.0000000000000000     
   1.4375000000000000       0.18750000000000000        0.0000000000000000     
   1.4687500000000000       0.18750000000000000        0.0000000000000000     
   1.5000000000000000       0.18750000000000000        0.0000000000000000     
   1.3750000000000000       0.21875000000000000        0.0000000000000000     
   1.4062500000000000       0.21875000000000000        0.0000000000000000     
   1.4375000000000000       0.21875000000000000        0.0000000000000000     
   1.4687500000000000       0.21875000000000000        0.0000000000000000     
   1.5000000000000000       0.21875000000000000        0.0000000000000000     
   1.3750000000000000       0.25000000000000000        0.0000000000000000     
   1.4062500000000000       0.25000000000000000        0.0000000000000000     
   1.4375000000000000       0.25000000000000000        0.0000000000000000     
   1.4687500000000000       0.25000000000000000        0.0000000000000000     
   1.5000000000000000       0.25000000000000000        0.0000000000000000     
  0.50000000000000000       0.25000000000000000        0.0000000000000000     
  0.53125000000000000       0.25000000000000000        0.0000000000000000     
  0.56250000000000000       0.25000000000000000        0.0000000000000000     
  0.59375000000000000       0.25000000000000000        0.0000000000000000     
  0.62500000000000000       0.25000000000000000        0.0000000000000000     
  0.50000000000000000       0.28125000000000000        0.0000000000000000     
  0.53125000000000000       0.28125000000000000        0.0000000000000000     
  0.56250000000000000       0.28125000000000000        0.0000000000000000     
  0.59375000000000000       0.28125000000000000        0.0000000000000000     
  0.62500000000000000       0.28125000000000000        0.0000000000000000     
  0.50000000000000000       0.31250000000000000        0.0000000000000000     
  0.53125000000000000       0.31250000000000000        0.0000000000000000     
  0.56250000000000000       0.31250000000000000        0.0000000000000000     
  0.59375000000000000       0.31250000000000000        0.0000000000000000     
  0.62500000000000000       0.31250000000000000        0.0000000000000000     
  0.50000000000000000       0.34375000000000000        0.0000000000000000     
  0.53125000000000000       0.34375000000000000        0.0000000000000000     
  0.56250000000000000       0.34375000000000000        0.0000000000000000     
  0.59375000000000000       0.34375000000000000        0.0000000000000000     
  0.62500000000000000       0.34375000000000000        0.0000000000000000     
  0.50000000000000000       0.37500000000000000        0.0000000000000000     
  0.53125000000000000       0.37500000000000000        0.0000000000000000     
  0.56250000000000000       0.37500000000000000        0.0000000000000000     
  0.59375000000000000       0.37500000000000000        0.0000000000000000     
  0.62500000000000000       0.37500000000000000        0.0000000000000000     
  0.62500000000000000       0.25000000000000000        0.0000000000000000     
  0.65625000000000000       0.25000000000000000        0.0000000000000000     
  0.68750000000000000       0.25000000000000000        0.0000000000000000     
  0.71875000000000000       0.25000000000000000        0.0000000000000000     
  0.75000000000000000       0.25000000000000000        0.0000000000000000     
  0.62500000000000000       0.28125000000000000        0.0000000000000000     
  0.65625000000000000       0.28125000000000000        0.0000000000000000     
  0.68750000000000000       0.28125000000000000        0.0000000000000000     
  0.71875000000000000       0.28125000000000000        0.0000000000000000     
  0.75000000000000000       0.28125000000000000        0.0000000000000000     
  0.62500000000000000       0.31250000000000000        0.0000000000000000     
  0.65625000000000000       0.31250000000000000        0.0000000000000000     
  0.68750000000000000       0.31250000000000000        0.0000000000000000     
  0.71875000000000000       0.31250000000000000        0.0000000000000000     
  0.75000000000000000       0.31250000000000000        0.0000000000000000     
  0.62500000000000000       0.34375000000000000        0.0000000000000000     
  0.65625000000000000       0.34375000000000000        0.0000000000000000     
  0.68750000000000000       0.34375000000000000        0.0000000000000000     
  0.71875000000000000       0.34375000000000000        0.0000000000000000     
  0.75000000000000000       0.34375000000000000        0.0000000000000000     
  0.62500000000000000       0.37500000000000000        0.0000000000000000     
  0.65625000000000000       0.37500000000000000        0.0000000000000000     
  0.68750000000000000       0.37500000000000000        0.0000000000000000     
  0.71875000000000000       0.37500000000000000        0.0000000000000000     
  0.75000000000000000       0.37500000000000000        0.0000000000000000     
  0.75000000000000000       0.25000000000000000        0.0000000000000000     
  0.78125000000000000       0.25000000000000000        0.0000000000000000     
  0.81250000000000000       0.25000000000000000        0.0000000000000000     
  0.84375000000000000       0.25000000000000000        0.0000000000000000     
  0.87500000000000000       0.25000000000000000        0.0000000000000000     
  0.75000000000000000       0.28125000000000000        0.0000000000000000     
  0.78125000000000000       0.28125000000000000        0.0000000000000000     
  0.81250000000000000       0.28125000000000000        0.0000000000000000     
  0.84375000000000000       0.28125000000000000        0.0000000000000000     
  0.87500000000000000       0.28125000000000000        0.0000000000000000     
  0.75000000000000000       0.31250000000000000        0.0000000000000000     
  0.78125000000000000       0.31250000000000000        0.0000000000000000     
  0.81250000000000000       0.31250000000000000        0.0000000000000000     
  0.84375000000000000       0.31250000000000000        0.0000000000000000     
  0.87500000000000000       0.31250000000000000        0.0000000000000000     
  0.75000000000000000       0.34375000000000000        0.0000000000000000     
  0.78125000000000000       0.34375000000000000        0.0000000000000000     
  0.81250000000000000       0.34375000000000000        0.0000000000000000     
  0.84375000000000000       0.34375000000000000        0.0000000000000000     
  0.87500000000000000       0.34375000000000000        0.0000000000000000     
  0.75000000000000000       0.37500000000000000        0.0000000000000000     
  0.78125000000000000       0.37500000000000000        0.0000000000000000     
  0.81250000000000000       0.37500000000000000        0.0000000000000000     
  0.84375000000000000       0.37500000000000000        0.0000000000000000     
  0.87500000000000000       0.37500000000000000        0.0000000000000000     
  0.87500000000000000       0.25000000000000000        0.0000000000000000     
  0.90625000000000000       0.25000000000000000        0.0000000000000000     
  0.93750000000000000       0.25000000000000000        0.0000000000000000     
  0.96875000000000000       0.25000000000000000        0.0000000000000000     
   1.0000000000000000       0.25000000000000000        0.0000000000000000     
  0.87500000000000000       0.28125000000000000        0.0000000000000000     
  0.90625000000000000       0.28125000000000000        0.0000000000000000     
  0.93750000000000000       0.28125000000000000        0.0000000000000000     
  0.96875000000000000       0.28125000000000000        0.0000000000000000     
   1.0000000000000000       0.28125000000000000        0.0000000000000000     
  0.87500000000000000       0.31250000000000000        0.0000000000000000     
  0.90625000000000000       0.31250000000000000        0.0000000000000000     
  0.93750000000000000       0.31250000000000000        0.0000000000000000     
  0.96875000000000000       0.31250000000000000        0.0000000000000000     
   1.0000000000000000       0.31250000000000000        0.0000000000000000     
  0.87500000000000000       0.34375000000000000        0.0000000000000000     
  0.90625000000000000       0.34375000000000000        0.0000000000000000     
  0.93750000000000000       0.34375000000000000        0.0000000000000000     
  0.96875000000000000       0.34375000000000000        0.0000000000000000     
   1.0000000000000000       0.34375000000000000        0.0000000000000000     
  0.87500000000000000       0.37500000000000000        0.0000000000000000     
  0.90625000000000000       0.37500000000000000        0.0000000000000000     
  0.93750000000000000       0.37500000000000000        0.0000000000000000     
  0.96875000000000000       0.37500000000000000        0.0000000000000000     
   1.0000000000000000       0.37500000000000000        0.0000000000000000     
   1.0000000000000000       0.25000000000000000        0.0000000000000000     
   1.0312500000000000       0.25000000000000000        0.0000000000000000     
   1.0625000000000000       0.25000000000000000        0.0000000000000000     
   1.0937500000000000       0.25000000000000000        0.0000000000000000     
   1.1250000000000000       0.25000000000000000        0.0000000000000000     
   1.0000000000000000       0.28125000000000000        0.0000000000000000     
   1.0312500000000000       0.28125000000000000        0.0000000000000000     
   1.0625000000000000       0.28125000000000000        0.0000000000000000     
   1.0937500000000000       0.28125000000000000        0.0000000000000000     
   1.1250000000000000       0.28125000000000000        0.0000000000000000     
   1.0000000000000000       0.31250000000000000        0.0000000000000000     
   1.0312500000000000       0.31250000000000000        0.0000000000000000     
   1.0625000000000000       0.31250000000000000        0.0000000000000000     
   1.0937500000000000       0.31250000000000000        0.0000000000000000     
   1.1250000000000000       0.31250000000000000        0.0000000000000000     
   1.0000000000000000       0.34375000000000000        0.0000000000000000     
   1.0312500000000000       0.34375000000000000        0.0000000000000000     
   1.0625000000000000       0.34375000000000000        0.0000000000000000     
   1.0937500000000000       0.34375000000000000        0.0000000000000000     
   1.1250000000000000       0.34375000000000000        0.0000000000000000     
   1.0000000000000000       0.37500000000000000        0.0000000000000000     
   1.0312500000000000       0.37500000000000000        0.0000000000000000     
   1.0625000000000000       0.37500000000000000        0.0000000000000000     
   1.0937500000000000       0.37500000000000000        0.0000000000000000     
   1.1250000000000000       0.37500000000000000        0.0000000000000000     
   1.1250000000000000       0.25000000000000000        0.0000000000000000     
   1.1562500000000000       0.25000000000000000        0.0000000000000000     
   1.1875000000000000       0.25000000000000000        0.0000000000000000     
   1.2187500000000000       0.25000000000000000        0.0000000000000000     
   1.2500000000000000       0.25000000000000000        0.0000000000000000     
   1.1250000000000000       0.28125000000000000        0.0000000000000000     
   1.1562500000000000       0.28125000000000000        0.0000000000000000     
   1.1875000000000000       0.28125000000000000        0.0000000000000000     
   1.2187500000000000       0.28125000000000000        0.0000000000000000     
   1.2500000000000000       0.28125000000000000        0.0000000000000000     
   1.1250000000000000       0.31250000000000000        0.0000000000000000     
   1.1562500000000000       0.31250000000000000        0.0000000000000000     
   1.1875000000000000       0.31250000000000000        0.0000000000000000     
   1.2187500000000000       0.31250000000000000        0.0000000000000000     
   1.2500000000000000       0.31250000000000000        0.0000000000000000     
   1.1250000000000000       0.34375000000000000        0.0000000000000000     
   1.1562500000000000       0.34375000000000000        0.0000000000000000     
   1.1875000000000000       0.34375000000000000        0.0000000000000000     
   1.2187500000000000       0.34375000000000000        0.0000000000000000     
   1.2500000000000000       0.34375000000000000        0.0000000000000000     
   1.1250000000000000       0.37500000000000000        0.0000000000000000     
   1.1562500000000000       0.37500000000000000        0.0000000000000000     
   1.1875000000000000       0.37500000000000000        0.0000000000000000     
   1.2187500000000000       0.37500000000000000        0.0000000000000000     
   1.2500000000000000       0.37500000000000000        0.0000000000000000     
   1.2500000000000000       0.25000000000000000        0.0000000000000000     
   1.2812500000000000       0.25000000000000000        0.0000000000000000     
   1.3125000000000000       0.25000000000000000        0.0000000000000000     
   1.3437500000000000       0.25000000000000000        0.0000000000000000     
   1.3750000000000000       0.25000000000000000        0.0000000000000000     
   1.2500000000000000       0.28125000000000000        0.0000000000000000     
   1.2812500000000000       0.28125000000000000        0.0000000000000000     
   1.3125000000000000       0.28125000000000000        0.0000000000000000     
   1.3437500000000000       0.28125000000000000        0.0000000000000000     
   1.3750000000000000       0.28125000000000000        0.0000000000000000     
   1.2500000000000000       0.31250000000000000        0.0000000000000000     
   1.2812500000000000       0.31250000000000000        0.0000000000000000     
   1.3125000000000000       0.31250000000000000        0.0000000000000000     
   1.3437500000000000       0.31250000000000000        0.0000000000000000     
   1.3750000000000000       0.31250000000000000        0.0000000000000000     
   1.2500000000000000       0.34375000000000000        0.0000000000000000     
   1.2812500000000000       0.34375000000000000        0.0000000000000000     
   1.3125000000000000       0.34375000000000000        0.0000000000000000     
   1.3437500000000000       0.34375000000000000        0.0000000000000000     
   1.3750000000000000       0.34375000000000000        0.0000000000000000     
   1.2500000000000000       0.37500000000000000        0.0000000000000000     
   1.2812500000000000       0.37500000000000000        0.0000000000000000     
   1.3125000000000000       0.37500000000000000        0.0000000000000000     
   1.3437500000000000       0.37500000000000000        0.0000000000000000     
   1.3750000000000000       0.37500000000000000        0.0000000000000000     
   1.3750000000000000       0.25000000000000000        0.0000000000000000     
   1.4062500000000000       0.25000000000000000        0.0000000000000000     
   1.4375000000000000       0.25000000000000000        0.0000000000000000     
   1.4687500000000000       0.25000000000000000        0.0000000000000000     
   1.5000000000000000       0.25000000000000000        0.0000000000000000     
   1.3750000000000000       0.28125000000000000        0.0000000000000000     
   1.4062500000000000       0.28125000000000000        0.0000000000000000     
   1.4375000000000000       0.28125000000000000        0.0000000000000000     
   1.4687500000000000       0.28125000000000000        0.0000000000000000     
   1.5000000000000000       0.28125000000000000        0.0000000000000000     
   1.3750000000000000       0.31250000000000000        0.0000000000000000     
   1.4062500000000000       0.31250000000000000        0.0000000000000000     
   1.4375000000000000       0.31250000000000000        0.0000000000000000     
   1.4687500000000000       0.31250000000000000        0.0000000000000000     
   1.5000000000000000       0.31250000000000000        0.0000000000000000     
   1.3750000000000000       0.34375000000000000        0.0000000000000000     
   1.4062500000000000       0.34375000000000000        0.0000000000000000     
   1.4375000000000000       0.34375000000000000        0.0000000000000000     
   1.4687500000000000       0.34375000000000000        0.0000000000000000     
   1.5000000000000000       0.34375000000000000        0.0000000000000000     
   1.3750000000000000       0.37500000000000000        0.0000000000000000     
   1.4062500000000000       0.37500000000000000        0.0000000000000000     
   1.4375000000000000       0.37500000000000000        0.0000000000000000     
   1.4687500000000000       0.37500000000000000        0.0000000000000000     
   1.5000000000000000       0.37500000000000000        0.0000000000000000     
  0.50000000000000000       0.37500000000000000        0.0000000000000000     
  0.53125000000000000       0.37500000000000000        0.0000000000000000     
  0.56250000000000000       0.37500000000000000        0.0000000000000000     
  0.59375000000000000       0.37500000000000000        0.0000000000000000     
  0.62500000000000000       0.37500000000000000        0.0000000000000000     
  0.50000000000000000       0.40625000000000000        0.0000000000000000     
  0.53125000000000000       0.40625000000000000        0.0000000000000000     
  0.56250000000000000       0.40625000000000000        0.0000000000000000     
  0.59375000000000000       0.40625000000000000        0.0000000000000000     
  0.62500000000000000       0.40625000000000000        0.0000000000000000     
  0.50000000000000000       0.43750000000000000        0.0000000000000000     
  0.53125000000000000       0.43750000000000000        0.0000000000000000     
  0.56250000000000000       0.43750000000000000        0.0000000000000000     
  0.59375000000000000       0.43750000000000000        0.0000000000000000     
  0.62500000000000000       0.43750000000000000        0.0000000000000000     
  0.50000000000000000       0.46875000000000000        0.0000000000000000     
  0.53125000000000000       0.46875000000000000        0.0000000000000000     
  0.56250000000000000       0.46875000000000000        0.0000000000000000     
  0.59375000000000000       0.46875000000000000        0.0000000000000000     
  0.62500000000000000       0.46875000000000000        0.0000000000000000     
  0.50000000000000000       0.50000000000000000        0.0000000000000000     
  0.53125000000000000       0.50000000000000000        0.0000000000000000     
  0.56250000000000000       0.50000000000000000        0.0000000000000000     
  0.59375000000000000       0.50000000000000000        0.0000000000000000     
  0.62500000000000000       0.50000000000000000        0.0000000000000000     
  0.62500000000000000       0.37500000000000000        0.0000000000000000     
  0.65625000000000000       0.37500000000000000        0.0000000000000000     
  0.68750000000000000       0.37500000000000000        0.0000000000000000     
  0.71875000000000000       0.37500000000000000        0.0000000000000000     
  0.75000000000000000       0.37500000000000000        0.0000000000000000     
  0.62500000000000000       0.40625000000000000        0.0000000000000000     
  0.65625000000000000       0.40625000000000000        0.0000000000000000     
  0.68750000000000000       0.40625000000000000        0.0000000000000000     
  0.71875000000000000       0.40625000000000000        0.0000000000000000     
  0.75000000000000000       0.40625000000000000        0.0000000000000000     
  0.62500000000000000       0.43750000000000000        0.0000000000000000     
  0.65625000000000000       0.43750000000000000        0.0000000000000000     
  0.68750000000000000       0.43750000000000000        0.0000000000000000     
  0.71875000000000000       0.43750000000000000        0.0000000000000000     
  0.75000000000000000       0.43750000000000000        0.0000000000000000     
  0.62500000000000000       0.46875000000000000        0.0000000000000000     
  0.65625000000000000       0.46875000000000000        0.0000000000000000     
  0.68750000000000000       0.46875000000000000        0.0000000000000000     
  0.71875000000000000       0.46875000000000000        0.0000000000000000     
  0.75000000000000000       0.46875000000000000        0.0000000000000000     
  0.62500000000000000       0.50000000000000000        0.0000000000000000     
  0.65625000000000000       0.50000000000000000        0.0000000000000000     
  0.68750000000000000       0.50000000000000000        0.0000000000000000     
  0.71875000000000000       0.50000000000000000        0.0000000000000000     
  0.75000000000000000       0.50000000000000000        0.0000000000000000     
  0.75000000000000000       0.37500000000000000        0.0000000000000000     
  0.78125000000000000       0.37500000000000000        0.0000000000000000     
  0.81250000000000000       0.37500000000000000        0.0000000000000000     
  0.84375000000000000       0.37500000000000000        0.0000000000000000     
  0.87500000000000000       0.37500000000000000        0.0000000000000000     
  0.75000000000000000       0.40625000000000000        0.0000000000000000     
  0.78125000000000000       0.40625000000000000        0.0000000000000000     
  0.81250000000000000       0.40625000000000000        0.0000000000000000     
  0.84375000000000000       0.40625000000000000        0.0000000000000000     
  0.87500000000000000       0.40625000000000000        0.0000000000000000     
  0.75000000000000000       0.43750000000000000        0.0000000000000000     
  0.78125000000000000       0.43750000000000000        0.0000000000000000     
  0.81250000000000000       0.43750000000000000        0.0000000000000000     
  0.84375000000000000       0.43750000000000000        0.0000000000000000     
  0.87500000000000000       0.43750000000000000        0.0000000000000000     
  0.75000000000000000       0.46875000000000000        0.0000000000000000     
  0.78125000000000000       0.46875000000000000        0.0000000000000000     
  0.81250000000000000       0.46875000000000000        0.0000000000000000     
  0.84375000000000000       0.46875000000000000        0.0000000000000000     
  0.87500000000000000       0.46875000000000000        0.0000000000000000     
  0.75000000000000000       0.50000000000000000        0.0000000000000000     
  0.78125000000000000       0.50000000000000000        0.0000000000000000     
  0.81250000000000000       0.50000000000000000        0.0000000000000000     
  0.84375000000000000       0.50000000000000000        0.0000000000000000     
  0.87500000000000000       0.50000000000000000        0.0000000000000000     
  0.87500000000000000       0.37500000000000000        0.0000000000000000     
  0.90625000000000000       0.37500000000000000        0.0000000000000000     
  0.93750000000000000       0.37500000000000000        0.0000000000000000     
  0.96875000000000000       0.37500000000000000        0.0000000000000000     
   1.0000000000000000       0.37500000000000000        0.0000000000000000     
  0.87500000000000000       0.40625000000000000        0.0000000000000000     
  0.90625000000000000       0.40625000000000000        0.0000000000000000     
  0.93750000000000000       0.40625000000000000        0.0000000000000000     
  0.96875000000000000       0.40625000000000000        0.0000000000000000     
   1.0000000000000000       0.40625000000000000        0.0000000000000000     
  0.87500000000000000       0.43750000000000000        0.0000000000000000     
  0.90625000000000000       0.43750000000000000        0.0000000000000000     
  0.93750000000000000       0.43750000000000000        0.0000000000000000     
  0.96875000000000000       0.43750000000000000        0.0000000000000000     
   1.0000000000000000       0.43750000000000000        0.0000000000000000     
  0.87500000000000000       0.46875000000000000        0.0000000000000000     
  0.90625000000000000       0.46875000000000000        0.0000000000000000     
  0.93750000000000000       0.46875000000000000        0.0000000000000000     
  0.96875000000000000       0.46875000000000000        0.0000000000000000     
   1.0000000000000000       0.46875000000000000        0.0000000000000000     
  0.87500000000000000       0.50000000000000000        0.0000000000000000     
  0.90625000000000000       0.50000000000000000        0.0000000000000000     
  0.93750000000000000       0.50000000000000000        0.0000000000000000     
  0.96875000000000000       0.50000000000000000        0.0000000000000000     
   1.0000000000000000       0.50000000000000000        0.0000000000000000     
   1.0000000000000000       0.37500000000000000        0.0000000000000000     
   1.0312500000000000       0.37500000000000000        0.0000000000000000     
   1.0625000000000000       0.37500000000000000        0.0000000000000000     
   1.0937500000000000       0.37500000000000000        0.0000000000000000     
   1.1250000000000000       0.37500000000000000        0.0000000000000000     
   1.0000000000000000       0.40625000000000000        0.0000000000000000     
   1.0312500000000000       0.40625000000000000        0.0000000000000000     
   1.0625000000000000       0.40625000000000000        0.0000000000000000     
   1.0937500000000000       0.40625000000000000        0.0000000000000000     
   1.1250000000000000       0.40625000000000000        0.0000000000000000     
   1.0000000000000000       0.43750000000000000        0.0000000000000000     
   1.0312500000000000       0.43750000000000000        0.0000000000000000     
   1.0625000000000000       0.43750000000000000        0.0000000000000000     
   1.0937500000000000       0.43750000000000000        0.0000000000000000     
   1.1250000000000000       0.43750000000000000        0.0000000000000000     
   1.0000000000000000       0.46875000000000000        0.0000000000000000     
   1.0312500000000000       0.46875000000000000        0.0000000000000000     
   1.0625000000000000       0.46875000000000000        0.0000000000000000     
   1.0937500000000000       0.46875000000000000        0.0000000000000000     
   1.1250000000000000       0.46875000000000000        0.0000000000000000     
   1.0000000000000000       0.50000000000000000        0.0000000000000000     
   1.0312500000000000       0.50000000000000000        0.0000000000000000     
   1.0625000000000000       0.50000000000000000        0.0000000000000000     
   1.0937500000000000       0.50000000000000000        0.0000000000000000     
   1.1250000000000000       0.50000000000000000        0.0000000000000000     
   1.1250000000000000       0.37500000000000000        0.0000000000000000     
   1.1562500000000000       0.37500000000000000        0.0000000000000000     
   1.1875000000000000       0.37500000000000000        0.0000000000000000     
   1.2187500000000000       0.37500000000000000        0.0000000000000000     
   1.2500000000000000       0.37500000000000000        0.0000000000000000     
   1.1250000000000000       0.40625000000000000        0.0000000000000000     
   1.1562500000000000       0.40625000000000000        0.0000000000000000     
   1.1875000000000000       0.40625000000000000        0.0000000000000000     
   1.2187500000000000       0.40625000000000000        0.0000000000000000     
   1.2500000000000000       0.40625000000000000        0.0000000000000000     
   1.1250000000000000       0.43750000000000000        0.0000000000000000     
   1.1562500000000000       0.43750000000000000        0.0000000000000000     
   1.1875000000000000       0.43750000000000000        0.0000000000000000     
   1.2187500000000000       0.43750000000000000        0.0000000000000000     
   1.2500000000000000       0.43750000000000000        0.0000000000000000     
   1.1250000000000000       0.46875000000000000        0.0000000000000000     
   1.1562500000000000       0.46875000000000000        0.0000000000000000     
   1.1875000000000000       0.46875000000000000        0.0000000000000000     
   1.2187500000000000       0.46875000000000000        0.0000000000000000     
   1.2500000000000000       0.46875000000000000        0.0000000000000000     
   1.1250000000000000       0.50000000000000000        0.0000000000000000     
   1.1562500000000000       0.50000000000000000        0.0000000000000000     
   1.1875000000000000       0.50000000000000000        0.0000000000000000     
   1.2187500000000000       0.50000000000000000        0.0000000000000000     
   1.2500000000000000       0.50000000000000000        0.0000000000000000     
   1.2500000000000000       0.37500000000000000        0.0000000000000000     
   1.2812500000000000       0.37500000000000000        0.0000000000000000     
   1.3125000000000000       0.37500000000000000        0.0000000000000000     
   1.3437500000000000       0.37500000000000000        0.0000000000000000     
   1.3750000000000000       0.37500000000000000        0.0000000000000000     
   1.2500000000000000       0.40625000000000000        0.0000000000000000     
   1.2812500000000000       0.40625000000000000        0.0000000000000000     
   1.3125000000000000       0.40625000000000000        0.0000000000000000     
   1.3437500000000000       0.40625000000000000        0.0000000000000000     
   1.3750000000000000       0.40625000000000000        0.0000000000000000     
   1.2500000000000000       0.43750000000000000        0.0000000000000000     
   1.2812500000000000       0.43750000000000000        0.0000000000000000     
   1.3125000000000000       0.43750000000000000        0.0000000000000000     
   1.3437500000000000       0.43750000000000000        0.0000000000000000     
   1.3750000000000000       0.43750000000000000        0.0000000000000000     
   1.2500000000000000       0.46875000000000000        0.0000000000000000     
   1.2812500000000000       0.46875000000000000        0.0000000000000000     
   1.3125000000000000       0.46875000000000000        0.0000000000000000     
   1.3437500000000000       0.46875000000000000        0.0000000000000000     
   1.3750000000000000       0.46875000000000000        0.0000000000000000     
   1.2500000000000000       0.50000000000000000        0.0000000000000000     
   1.2812500000000000       0.50000000000000000        0.0000000000000000     
   1.3125000000000000       0.50000000000000000        0.0000000000000000     
   1.3437500000000000       0.50000000000000000        0.0000000000000000     
   1.3750000000000000       0.50000000000000000        0.0000000000000000     
   1.3750000000000000       0.37500000000000000        0.0000000000000000     
   1.4062500000000000       0.37500000000000000        0.0000000000000000     
   1.4375000000000000       0.37500000000000000        0.0000000000000000     
   1.4687500000000000       0.37500000000000000        0.0000000000000000     
   1.5000000000000000       0.37500000000000000        0.0000000000000000     
   1.3750000000000000       0.40625000000000000        0.0000000000000000     
   1.4062500000000000       0.40625000000000000        0.0000000000000000     
   1.4375000000000000       0.40625000000000000        0.0000000000000000     
   1.4687500000000000       0.40625000000000000        0.0000000000000000     
   1.5000000000000000       0.40625000000000000        0.0000000000000000     
   1.3750000000000000       0.43750000000000000        0.0000000000000000     
   1.4062500000000000       0.43750000000000000        0.0000000000000000     
   1.4375000000000000       0.43750000000000000        0.0000000000000000     
   1.4687500000000000       0.43750000000000000        0.0000000000000000     
   1.5000000000000000       0.43750000000000000        0.0000000000000000     
   1.3750000000000000       0.46875000000000000        0.0000000000000000     
   1.4062500000000000       0.46875000000000000        0.0000000000000000     
   1.4375000000000000       0.46875000000000000        0.0000000000000000     
   1.4687500000000000       0.46875000000000000        0.0000000000000000     
   1.5000000000000000       0.46875000000000000        0.0000000000000000     
   1.3750000000000000       0.50000000000000000        0.0000000000000000     
   1.4062500000000000       0.50000000000000000        0.0000000000000000     
   1.4375000000000000       0.50000000000000000        0.0000000000000000     
   1.4687500000000000       0.50000000000000000        0.0000000000000000     
   1.5000000000000000       0.50000000000000000        0.0000000000000000     
  0.50000000000000000       0.50000000000000000        0.0000000000000000     
  0.53125000000000000       0.50000000000000000        0.0000000000000000     
  0.56250000000000000       0.50000000000000000        0.0000000000000000     
  0.59375000000000000       0.50000000000000000        0.0000000000000000     
  0.62500000000000000       0.50000000000000000        0.0000000000000000     
  0.50000000000000000       0.53125000000000000        0.0000000000000000     
  0.53125000000000000       0.53125000000000000        0.0000000000000000     
  0.56250000000000000       0.53125000000000000        0.0000000000000000     
  0.59375000000000000       0.53125000000000000        0.0000000000000000     
  0.62500000000000000       0.53125000000000000        0.0000000000000000     
  0.50000000000000000       0.56250000000000000        0.0000000000000000     
  0.53125000000000000       0.56250000000000000        0.0000000000000000     
  0.56250000000000000       0.56250000000000000        0.0000000000000000     
  0.59375000000000000       0.56250000000000000        0.0000000000000000     
  0.62500000000000000       0.56250000000000000        0.0000000000000000     
  0.50000000000000000       0.59375000000000000        0.0000000000000000     
  0.53125000000000000       0.59375000000000000        0.0000000000000000     
  0.56250000000000000       0.59375000000000000        0.0000000000000000     
  0.59375000000000000       0.59375000000000000        0.0000000000000000     
  0.62500000000000000       0.59375000000000000        0.0000000000000000     
  0.50000000000000000       0.62500000000000000        0.0000000000000000     
  0.53125000000000000       0.62500000000000000        0.0000000000000000     
  0.56250000000000000       0.62500000000000000        0.0000000000000000     
  0.59375000000000000       0.62500000000000000        0.0000000000000000     
  0.62500000000000000       0.62500000000000000        0.0000000000000000     
  0.62500000000000000       0.50000000000000000        0.0000000000000000     
  0.65625000000000000       0.50000000000000000        0.0000000000000000     
  0.68750000000000000       0.50000000000000000        0.0000000000000000     
  0.71875000000000000       0.50000000000000000        0.0000000000000000     
  0.75000000000000000       0.50000000000000000        0.0000000000000000     
  0.62500000000000000       0.53125000000000000        0.0000000000000000     
  0.65625000000000000       0.53125000000000000        0.0000000000000000     
  0.68750000000000000       0.53125000000000000        0.0000000000000000     
  0.71875000000000000       0.53125000000000000        0.0000000000000000     
  0.75000000000000000       0.53125000000000000        0.0000000000000000     
  0.62500000000000000       0.56250000000000000        0.0000000000000000     
  0.65625000000000000       0.56250000000000000        0.0000000000000000     
  0.68750000000000000       0.56250000000000000        0.0000000000000000     
  0.71875000000000000       0.56250000000000000        0.0000000000000000     
  0.75000000000000000       0.56250000000000000        0.0000000000000000     
  0.62500000000000000       0.59375000000000000        0.0000000000000000     
  0.65625000000000000       0.59375000000000000        0.0000000000000000     
  0.68750000000000000       0.59375000000000000        0.0000000000000000     
  0.71875000000000000       0.59375000000000000        0.0000000000000000     
  0.75000000000000000       0.59375000000000000        0.0000000000000000     
  0.62500000000000000       0.62500000000000000        0.0000000000000000     
  0.65625000000000000       0.62500000000000000        0.0000000000000000     
  0.68750000000000000       0.62500000000000000        0.0000000000000000     
  0.71875000000000000       0.62500000000000000        0.0000000000000000     
  0.75000000000000000       0.62500000000000000        0.0000000000000000     
  0.75000000000000000       0.50000000000000000        0.0000000000000000     
  0.78125000000000000       0.50000000000000000        0.0000000000000000     
  0.81250000000000000       0.50000000000000000        0.0000000000000000     
  0.84375000000000000       0.50000000000000000        0.0000000000000000     
  0.87500000000000000       0.50000000000000000        0.0000000000000000     
  0.75000000000000000       0.53125000000000000        0.0000000000000000     
  0.78125000000000000       0.53125000000000000        0.0000000000000000     
  0.81250000000000000       0.53125000000000000        0.0000000000000000     
  0.84375000000000000       0.53125000000000000        0.0000000000000000     
  0.87500000000000000       0.53125000000000000        0.0000000000000000     
  0.75000000000000000       0.56250000000000000        0.0000000000000000     
  0.78125000000000000       0.56250000000000000        0.0000000000000000     
  0.81250000000000000       0.56250000000000000        0.0000000000000000     
  0.84375000000000000       0.56250000000000000        0.0000000000000000     
  0.87500000000000000       0.56250000000000000        0.0000000000000000     
  0.75000000000000000       0.59375000000000000        0.0000000000000000     
  0.78125000000000000       0.59375000000000000        0.0000000000000000     
  0.81250000000000000       0.59375000000000000        0.0000000000000000     
  0.84375000000000000       0.59375000000000000        0.0000000000000000     
  0.87500000000000000       0.59375000000000000        0.0000000000000000     
  0.75000000000000000       0.62500000000000000        0.0000000000000000     
  0.78125000000000000       0.62500000000000000        0.0000000000000000     
  0.81250000000000000       0.62500000000000000        0.0000000000000000     
  0.84375000000000000       0.62500000000000000        0.0000000000000000     
  0.87500000000000000       0.62500000000000000        0.0000000000000000     
  0.87500000000000000       0.50000000000000000        0.0000000000000000     
  0.90625000000000000       0.50000000000000000        0.0000000000000000     
  0.93750000000000000       0.50000000000000000        0.0000000000000000     
  0.96875000000000000       0.50000000000000000        0.0000000000000000     
   1.0000000000000000       0.50000000000000000        0.0000000000000000     
  0.87500000000000000       0.53125000000000000        0.0000000000000000     
  0.90625000000000000       0.53125000000000000        0.0000000000000000     
  0.93750000000000000       0.53125000000000000        0.0000000000000000     
  0.96875000000000000       0.53125000000000000        0.0000000000000000     
   1.0000000000000000       0.53125000000000000        0.0000000000000000     
  0.87500000000000000       0.56250000000000000        0.0000000000000000     
  0.90625000000000000       0.56250000000000000        0.0000000000000000     
  0.93750000000000000       0.56250000000000000        0.0000000000000000     
  0.96875000000000000       0.56250000000000000        0.0000000000000000     
   1.0000000000000000       0.56250000000000000        0.0000000000000000     
  0.87500000000000000       0.59375000000000000        0.0000000000000000     
  0.90625000000000000       0.59375000000000000        0.0000000000000000     
  0.93750000000000000       0.59375000000000000        0.0000000000000000     
  0.96875000000000000       0.59375000000000000        0.0000000000000000     
   1.0000000000000000       0.59375000000000000        0.0000000000000000     
  0.87500000000000000       0.62500000000000000        0.0000000000000000     
  0.90625000000000000       0.62500000000000000        0.0000000000000000     
  0.93750000000000000       0.62500000000000000        0.0000000000000000     
  0.96875000000000000       0.62500000000000000        0.0000000000000000     
   1.0000000000000000       0.62500000000000000        0.0000000000000000     
   1.0000000000000000       0.50000000000000000        0.0000000000000000     
   1.0312500000000000       0.50000000000000000        0.0000000000000000     
   1.0625000000000000       0.50000000000000000        0.0000000000000000     
   1.0937500000000000       0.50000000000000000        0.0000000000000000     
   1.1250000000000000       0.50000000000000000        0.0000000000000000     
   1.0000000000000000       0.53125000000000000        0.0000000000000000     
   1.0312500000000000       0.53125000000000000        0.0000000000000000     
   1.0625000000000000       0.53125000000000000        0.0000000000000000     
   1.0937500000000000       0.53125000000000000        0.0000000000000000     
   1.1250000000000000       0.53125000000000000        0.0000000000000000     
   1.0000000000000000       0.56250000000000000        0.0000000000000000     
   1.0312500000000000       0.56250000000000000        0.0000000000000000     
   1.0625000000000000       0.56250000000000000        0.0000000000000000     
   1.0937500000000000       0.56250000000000000        0.0000000000000000     
   1.1250000000000000       0.56250000000000000        0.0000000000000000     
   1.0000000000000000       0.59375000000000000        0.0000000000000000     
   1.0312500000000000       0.59375000000000000        0.0000000000000000     
   1.0625000000000000       0.59375000000000000        0.0000000000000000     
   1.0937500000000000       0.59375000000000000        0.0000000000000000     
   1.1250000000000000       0.59375000000000000        0.0000000000000000     
   1.0000000000000000       0.62500000000000000        0.0000000000000000     
   1.0312500000000000       0.62500000000000000        0.0000000000000000     
   1.0625000000000000       0.62500000000000000        0.0000000000000000     
   1.0937500000000000       0.62500000000000000        0.0000000000000000     
   1.1250000000000000       0.62500000000000000        0.0000000000000000     
   1.1250000000000000       0.50000000000000000        0.0000000000000000     
   1.1562500000000000       0.50000000000000000        0.0000000000000000     
   1.1875000000000000       0.50000000000000000        0.0000000000000000     
   1.2187500000000000       0.50000000000000000        0.0000000000000000     
   1.2500000000000000       0.50000000000000000        0.0000000000000000     
   1.1250000000000000       0.53125000000000000        0.0000000000000000     
   1.1562500000000000       0.53125000000000000        0.0000000000000000     
   1.1875000000000000       0.53125000000000000        0.0000000000000000     
   1.2187500000000000       0.53125000000000000        0.0000000000000000     
   1.2500000000000000       0.53125000000000000        0.0000000000000000     
   1.1250000000000000       0.56250000000000000        0.0000000000000000     
   1.1562500000000000       0.56250000000000000        0.0000000000000000     
   1.1875000000000000       0.56250000000000000        0.0000000000000000     
   1.2187500000000000       0.56250000000000000        0.0000000000000000     
   1.2500000000000000       0.56250000000000000        0.0000000000000000     
   1.1250000000000000       0.59375000000000000        0.0000000000000000     
   1.1562500000000000       0.59375000000000000        0.0000000000000000     
   1.1875000000000000       0.59375000000000000        0.0000000000000000     
   1.2187500000000000       0.59375000000000000        0.0000000000000000     
   1.2500000000000000       0.59375000000000000        0.0000000000000000     
   1.1250000000000000       0.62500000000000000        0.0000000000000000     
   1.1562500000000000       0.62500000000000000        0.0000000000000000     
   1.1875000000000000       0.62500000000000000        0.0000000000000000     
   1.2187500000000000       0.62500000000000000        0.0000000000000000     
   1.2500000000000000       0.62500000000000000        0.0000000000000000     
   1.2500000000000000       0.50000000000000000        0.0000000000000000     
   1.2812500000000000       0.50000000000000000        0.0000000000000000     
   1.3125000000000000       0.50000000000000000        0.0000000000000000     
   1.3437500000000000       0.50000000000000000        0.0000000000000000     
   1.3750000000000000       0.50000000000000000        0.0000000000000000     
   1.2500000000000000       0.53125000000000000        0.0000000000000000     
   1.2812500000000000       0.53125000000000000        0.0000000000000000     
   1.3125000000000000       0.53125000000000000        0.0000000000000000     
   1.3437500000000000       0.53125000000000000        0.0000000000000000     
   1.3750000000000000       0.53125000000000000        0.0000000000000000     
   1.2500000000000000       0.56250000000000000        0.0000000000000000     
   1.2812500000000000       0.56250000000000000        0.0000000000000000     
   1.3125000000000000       0.56250000000000000        0.0000000000000000     
   1.3437500000000000       0.56250000000000000        0.0000000000000000     
   1.3750000000000000       0.56250000000000000        0.0000000000000000     
   1.2500000000000000       0.59375000000000000        0.0000000000000000     
   1.2812500000000000       0.59375000000000000        0.0000000000000000     
   1.3125000000000000       0.59375000000000000        0.0000000000000000     
   1.3437500000000000       0.59375000000000000        0.0000000000000000     
   1.3750000000000000       0.59375000000000000        0.0000000000000000     
   1.2500000000000000       0.62500000000000000        0.0000000000000000     
   1.2812500000000000       0.62500000000000000        0.0000000000000000     
   1.3125000000000000       0.62500000000000000        0.0000000000000000     
   1.3437500000000000       0.62500000000000000        0.0000000000000000     
   1.3750000000000000       0.62500000000000000        0.0000000000000000     
   1.3750000000000000       0.50000000000000000        0.0000000000000000     
   1.4062500000000000       0.50000000000000000        0.0000000000000000     
   1.4375000000000000       0.50000000000000000        0.0000000000000000     
   1.4687500000000000       0.50000000000000000        0.0000000000000000     
   1.5000000000000000       0.50000000000000000        0.0000000000000000     
   1.3750000000000000       0.53125000000000000        0.0000000000000000     
   1.4062500000000000       0.53125000000000000        0.0000000000000000     
   1.4375000000000000       0.53125000000000000        0.0000000000000000     
   1.4687500000000000       0.53125000000000000        0.0000000000000000     
   1.5000000000000000       0.53125000000000000        0.0000000000000000     
   1.3750000000000000       0.56250000000000000        0.0000000000000000     
   1.4062500000000000       0.56250000000000000        0.0000000000000000     
   1.4375000000000000       0.56250000000000000        0.0000000000000000     
   1.4687500000000000       0.56250000000000000        0.0000000000000000     
   1.5000000000000000       0.56250000000000000        0.0000000000000000     
   1.3750000000000000       0.59375000000000000        0.0000000000000000     
   1.4062500000000000       0.59375000000000000        0.0000000000000000     
   1.4375000000000000       0.59375000000000000        0.0000000000000000     
   1.4687500000000000       0.59375000000000000        0.0000000000000000     
   1.5000000000000000       0.59375000000000000        0.0000000000000000     
   1.3750000000000000       0.62500000000000000        0.0000000000000000     
   1.4062500000000000       0.62500000000000000        0.0000000000000000     
   1.4375000000000000       0.62500000000000000        0.0000000000000000     
   1.4687500000000000       0.62500000000000000        0.0000000000000000     
   1.5000000000000000       0.62500000000000000        0.0000000000000000     
  0.50000000000000000       0.62500000000000000        0.0000000000000000     
  0.53125000000000000       0.62500000000000000        0.0000000000000000     
  0.56250000000000000       0.62500000000000000        0.0000000000000000     
  0.59375000000000000       0.62500000000000000        0.0000000000000000     
  0.62500000000000000       0.62500000000000000        0.0000000000000000     
  0.50000000000000000       0.65625000000000000        0.0000000000000000     
  0.53125000000000000       0.65625000000000000        0.0000000000000000     
  0.56250000000000000       0.65625000000000000        0.0000000000000000     
  0.59375000000000000       0.65625000000000000        0.0000000000000000     
  0.62500000000000000       0.65625000000000000        0.0000000000000000     
  0.50000000000000000       0.68750000000000000        0.0000000000000000     
  0.53125000000000000       0.68750000000000000        0.0000000000000000     
  0.56250000000000000       0.68750000000000000        0.0000000000000000     
  0.59375000000000000       0.68750000000000000        0.0000000000000000     
  0.62500000000000000       0.68750000000000000        0.0000000000000000     
  0.50000000000000000       0.71875000000000000        0.0000000000000000     
  0.53125000000000000       0.71875000000000000        0.0000000000000000     
  0.56250000000000000       0.71875000000000000        0.0000000000000000     
  0.59375000000000000       0.71875000000000000        0.0000000000000000     
  0.62500000000000000       0.71875000000000000        0.0000000000000000     
  0.50000000000000000       0.75000000000000000        0.0000000000000000     
  0.53125000000000000       0.75000000000000000        0.0000000000000000     
  0.56250000000000000       0.75000000000000000        0.0000000000000000     
  0.59375000000000000       0.75000000000000000        0.0000000000000000     
  0.62500000000000000       0.75000000000000000        0.0000000000000000     
  0.62500000000000000       0.62500000000000000        0.0000000000000000     
  0.65625000000000000       0.62500000000000000        0.0000000000000000     
  0.68750000000000000       0.62500000000000000        0.0000000000000000     
  0.71875000000000000       0.62500000000000000        0.0000000000000000     
  0.75000000000000000       0.62500000000000000        0.0000000000000000     
  0.62500000000000000       0.65625000000000000        0.0000000000000000     
  0.65625000000000000       0.65625000000000000        0.0000000000000000     
  0.68750000000000000       0.65625000000000000        0.0000000000000000     
  0.71875000000000000       0.65625000000000000        0.0000000000000000     
  0.75000000000000000       0.65625000000000000        0.0000000000000000     
  0.62500000000000000       0.68750000000000000        0.0000000000000000     
  0.65625000000000000       0.68750000000000000        0.0000000000000000     
  0.68750000000000000       0.68750000000000000        0.0000000000000000     
  0.71875000000000000       0.68750000000000000        0.0000000000000000     
  0.75000000000000000       0.68750000000000000        0.0000000000000000     
  0.62500000000000000       0.71875000000000000        0.0000000000000000     
  0.65625000000000000       0.71875000000000000        0.0000000000000000     
  0.68750000000000000       0.71875000000000000        0.0000000000000000     
  0.71875000000000000       0.71875000000000000        0.0000000000000000     
  0.75000000000000000       0.71875000000000000        0.0000000000000000     
  0.62500000000000000       0.75000000000000000        0.0000000000000000     
  0.65625000000000000       0.75000000000000000        0.0000000000000000     
  0.68750000000000000       0.75000000000000000        0.0000000000000000     
  0.71875000000000000       0.75000000000000000        0.0000000000000000     
  0.75000000000000000       0.75000000000000000        0.0000000000000000     
  0.75000000000000000       0.62500000000000000        0.0000000000000000     
  0.78125000000000000       0.62500000000000000        0.0000000000000000     
  0.81250000000000000       0.62500000000000000        0.0000000000000000     
  0.84375000000000000       0.62500000000000000        0.0000000000000000     
  0.87500000000000000       0.62500000000000000        0.0000000000000000     
  0.75000000000000000       0.65625000000000000        0.0000000000000000     
  0.78125000000000000       0.65625000000000000        0.0000000000000000     
  0.81250000000000000       0.65625000000000000        0.0000000000000000     
  0.84375000000000000       0.65625000000000000        0.0000000000000000     
  0.87500000000000000       0.65625000000000000        0.0000000000000000     
  0.75000000000000000       0.68750000000000000        0.0000000000000000     
  0.78125000000000000       0.68750000000000000        0.0000000000000000     
  0.81250000000000000       0.68750000000000000        0.0000000000000000     
  0.84375000000000000       0.68750000000000000        0.0000000000000000     
  0.87500000000000000       0.68750000000000000        0.0000000000000000     
  0.75000000000000000       0.71875000000000000        0.0000000000000000     
  0.78125000000000000       0.71875000000000000        0.0000000000000000     
  0.81250000000000000       0.71875000000000000        0.0000000000000000     
  0.84375000000000000       0.71875000000000000        0.0000000000000000     
  0.87500000000000000       0.71875000000000000        0.0000000000000000     
  0.75000000000000000       0.75000000000000000        0.0000000000000000     
  0.78125000000000000       0.75000000000000000        0.0000000000000000     
  0.81250000000000000       0.75000000000000000        0.0000000000000000     
  0.84375000000000000       0.75000000000000000        0.0000000000000000     
  0.87500000000000000       0.75000000000000000        0.0000000000000000     
  0.87500000000000000       0.62500000000000000        0.0000000000000000     
  0.90625000000000000       0.62500000000000000        0.0000000000000000     
  0.93750000000000000       0.62500000000000000        0.0000000000000000     
  0.96875000000000000       0.62500000000000000        0.0000000000000000     
   1.0000000000000000       0.62500000000000000        0.0000000000000000     
  0.87500000000000000       0.65625000000000000        0.0000000000000000     
  0.90625000000000000       0.65625000000000000        0.0000000000000000     
  0.93750000000000000       0.65625000000000000        0.0000000000000000     
  0.96875000000000000       0.65625000000000000        0.0000000000000000     
   1.0000000000000000       0.65625000000000000        0.0000000000000000     
  0.87500000000000000       0.68750000000000000        0.0000000000000000     
  0.90625000000000000       0.68750000000000000        0.0000000000000000     
  0.93750000000000000       0.68750000000000000        0.0000000000000000     
  0.96875000000000000       0.68750000000000000        0.0000000000000000     
   1.0000000000000000       0.68750000000000000        0.0000000000000000     
  0.87500000000000000       0.71875000000000000        0.0000000000000000     
  0.90625000000000000       0.71875000000000000        0.0000000000000000     
  0.93750000000000000       0.71875000000000000        0.0000000000000000     
  0.96875000000000000       0.71875000000000000        0.0000000000000000     
   1.0000000000000000       0.71875000000000000        0.0000000000000000     
  0.87500000000000000       0.75000000000000000        0.0000000000000000     
  0.90625000000000000       0.75000000000000000        0.0000000000000000     
  0.93750000000000000       0.75000000000000000        0.0000000000000000     
  0.96875000000000000       0.75000000000000000        0.0000000000000000     
   1.0000000000000000       0.75000000000000000        0.0000000000000000     
   1.0000000000000000       0.62500000000000000        0.0000000000000000     
   1.0312500000000000       0.62500000000000000        0.0000000000000000     
   1.0625000000000000       0.62500000000000000        0.0000000000000000     
   1.0937500000000000       0.62500000000000000        0.0000000000000000     
   1.1250000000000000       0.62500000000000000        0.0000000000000000     
   1.0000000000000000       0.65625000000000000        0.0000000000000000     
   1.0312500000000000       0.65625000000000000        0.0000000000000000     
   1.0625000000000000       0.65625000000000000        0.0000000000000000     
   1.0937500000000000       0.65625000000000000        0.0000000000000000     
   1.1250000000000000       0.65625000000000000        0.0000000000000000     
   1.0000000000000000       0.68750000000000000        0.0000000000000000     
   1.0312500000000000       0.68750000000000000        0.0000000000000000     
   1.0625000000000000       0.68750000000000000        0.0000000000000000     
   1.0937500000000000       0.68750000000000000        0.0000000000000000     
   1.1250000000000000       0.68750000000000000        0.0000000000000000     
   1.0000000000000000       0.71875000000000000        0.0000000000000000     
   1.0312500000000000       0.71875000000000000        0.0000000000000000     
   1.0625000000000000       0.71875000000000000        0.0000000000000000     
   1.0937500000000000       0.71875000000000000        0.0000000000000000     
   1.1250000000000000       0.71875000000000000        0.0000000000000000     
   1.0000000000000000       0.75000000000000000        0.0000000000000000     
   1.0312500000000000       0.75000000000000000        0.0000000000000000     
   1.0625000000000000       0.75000000000000000        0.0000000000000000     
   1.0937500000000000       0.75000000000000000        0.0000000000000000     
   1.1250000000000000       0.75000000000000000        0.0000000000000000     
   1.1250000000000000       0.62500000000000000        0.0000000000000000     
   1.1562500000000000       0.62500000000000000        0.0000000000000000     
   1.1875000000000000       0.62500000000000000        0.0000000000000000     
   1.2187500000000000       0.62500000000000000        0.0000000000000000     
   1.2500000000000000       0.62500000000000000        0.0000000000000000     
   1.1250000000000000       0.65625000000000000        0.0000000000000000     
   1.1562500000000000       0.65625000000000000        0.0000000000000000     
   1.1875000000000000       0.65625000000000000        0.0000000000000000     
   1.2187500000000000       0.65625000000000000        0.0000000000000000     
   1.2500000000000000       0.65625000000000000        0.0000000000000000     
   1.1250000000000000       0.68750000000000000        0.0000000000000000     
   1.1562500000000000       0.68750000000000000        0.0000000000000000     
   1.1875000000000000       0.68750000000000000        0.0000000000000000     
   1.2187500000000000       0.68750000000000000        0.0000000000000000     
   1.2500000000000000       0.68750000000000000        0.0000000000000000     
   1.1250000000000000       0.71875000000000000        0.0000000000000000     
   1.1562500000000000       0.71875000000000000        0.0000000000000000     
   1.1875000000000000       0.71875000000000000        0.0000000000000000     
   1.2187500000000000       0.71875000000000000        0.0000000000000000     
   1.2500000000000000       0.71875000000000000        0.0000000000000000     
   1.1250000000000000       0.75000000000000000        0.0000000000000000     
   1.1562500000000000       0.75000000000000000        0.0000000000000000     
   1.1875000000000000       0.75000000000000000        0.0000000000000000     
   1.2187500000000000       0.75000000000000000        0.0000000000000000     
   1.2500000000000000       0.75000000000000000        0.0000000000000000     
   1.2500000000000000       0.62500000000000000        0.0000000000000000     
   1.2812500000000000       0.62500000000000000        0.0000000000000000     
   1.3125000000000000       0.62500000000000000        0.0000000000000000     
   1.3437500000000000       0.62500000000000000        0.0000000000000000     
   1.3750000000000000       0.62500000000000000        0.0000000000000000     
   1.2500000000000000       0.65625000000000000        0.0000000000000000     
   1.2812500000000000       0.65625000000000000        0.0000000000000000     
   1.3125000000000000       0.65625000000000000        0.0000000000000000     
   1.3437500000000000       0.65625000000000000        0.0000000000000000     
   1.3750000000000000       0.65625000000000000        0.0000000000000000     
   1.2500000000000000       0.68750000000000000        0.0000000000000000     
   1.2812500000000000       0.68750000000000000        0.0000000000000000     
   1.3125000000000000       0.68750000000000000        0.0000000000000000     
   1.3437500000000000       0.68750000000000000        0.0000000000000000     
   1.3750000000000000       0.68750000000000000        0.0000000000000000     
   1.2500000000000000       0.71875000000000000        0.0000000000000000     
   1.2812500000000000       0.71875000000000000        0.0000000000000000     
   1.3125000000000000       0.71875000000000000        0.0000000000000000     
   1.3437500000000000       0.71875000000000000        0.0000000000000000     
   1.3750000000000000       0.71875000000000000        0.0000000000000000     
   1.2500000000000000       0.75000000000000000        0.0000000000000000     
   1.2812500000000000       0.75000000000000000        0.0000000000000000     
   1.3125000000000000       0.75000000000000000        0.0000000000000000     
   1.3437500000000000       0.75000000000000000        0.0000000000000000     
   1.3750000000000000       0.75000000000000000        0.0000000000000000     
   1.3750000000000000       0.62500000000000000        0.0000000000000000     
   1.4062500000000000       0.62500000000000000        0.0000000000000000     
   1.4375000000000000       0.62500000000000000        0.0000000000000000     
   1.4687500000000000       0.62500000000000000        0.0000000000000000     
   1.5000000000000000       0.62500000000000000        0.0000000000000000     
   1.3750000000000000       0.65625000000000000        0.0000000000000000     
   1.4062500000000000       0.65625000000000000        0.0000000000000000     
   1.4375000000000000       0.65625000000000000        0.0000000000000000     
   1.4687500000000000       0.65625000000000000        0.0000000000000000     
   1.5000000000000000       0.65625000000000000        0.0000000000000000     
   1.3750000000000000       0.68750000000000000        0.0000000000000000     
   1.4062500000000000       0.68750000000000000        0.0000000000000000     
   1.4375000000000000       0.68750000000000000        0.0000000000000000     
   1.4687500000000000       0.68750000000000000        0.0000000000000000     
   1.5000000000000000       0.68750000000000000        0.0000000000000000     
   1.3750000000000000       0.71875000000000000        0.0000000000000000     
   1.4062500000000000       0.71875000000000000        0.0000000000000000     
   1.4375000000000000       0.71875000000000000        0.0000000000000000     
   1.4687500000000000       0.71875000000000000        0.0000000000000000     
   1.5000000000000000       0.71875000000000000        0.0000000000000000     
   1.3750000000000000       0.75000000000000000        0.0000000000000000     
   1.4062500000000000       0.75000000000000000        0.0000000000000000     
   1.4375000000000000       0.75000000000000000        0.0000000000000000     
   1.4687500000000000       0.75000000000000000        0.0000000000000000     
   1.5000000000000000       0.75000000000000000        0.0000000000000000     
  0.50000000000000000       0.75000000000000000        0.0000000000000000     
  0.53125000000000000       0.75000000000000000        0.0000000000000000     
  0.56250000000000000       0.75000000000000000        0.0000000000000000     
  0.59375000000000000       0.75000000000000000        0.0000000000000000     
  0.62500000000000000       0.75000000000000000        0.0000000000000000     
  0.50000000000000000       0.78125000000000000        0.0000000000000000     
  0.53125000000000000       0.78125000000000000        0.0000000000000000     
  0.56250000000000000       0.78125000000000000        0.0000000000000000     
  0.59375000000000000       0.78125000000000000        0.0000000000000000     
  0.62500000000000000       0.78125000000000000        0.0000000000000000     
  0.50000000000000000       0.81250000000000000        0.0000000000000000     
  0.53125000000000000       0.81250000000000000        0.0000000000000000     
  0.56250000000000000       0.81250000000000000        0.0000000000000000     
  0.59375000000000000       0.81250000000000000        0.0000000000000000     
  0.62500000000000000       0.81250000000000000        0.0000000000000000     
  0.50000000000000000       0.84375000000000000        0.0000000000000000     
  0.53125000000000000       0.84375000000000000        0.0000000000000000     
  0.56250000000000000       0.84375000000000000        0.0000000000000000     
  0.59375000000000000       0.84375000000000000        0.0000000000000000     
  0.62500000000000000       0.84375000000000000        0.0000000000000000     
  0.50000000000000000       0.87500000000000000        0.0000000000000000     
  0.53125000000000000       0.87500000000000000        0.0000000000000000     
  0.56250000000000000       0.87500000000000000        0.0000000000000000     
  0.59375000000000000       0.87500000000000000        0.0000000000000000     
  0.62500000000000000       0.87500000000000000        0.0000000000000000     
  0.62500000000000000       0.75000000000000000        0.0000000000000000     
  0.65625000000000000       0.75000000000000000        0.0000000000000000     
  0.68750000000000000       0.75000000000000000        0.0000000000000000     
  0.71875000000000000       0.75000000000000000        0.0000000000000000     
  0.75000000000000000       0.75000000000000000        0.0000000000000000     
  0.62500000000000000       0.78125000000000000        0.0000000000000000     
  0.65625000000000000       0.78125000000000000        0.0000000000000000     
  0.68750000000000000       0.78125000000000000        0.0000000000000000     
  0.71875000000000000       0.78125000000000000        0.0000000000000000     
  0.75000000000000000       0.78125000000000000        0.0000000000000000     
  0.62500000000000000       0.81250000000000000        0.0000000000000000     
  0.65625000000000000       0.81250000000000000        0.0000000000000000     
  0.68750000000000000       0.81250000000000000        0.0000000000000000     
  0.71875000000000000       0.81250000000000000        0.0000000000000000     
  0.75000000000000000       0.81250000000000000        0.0000000000000000     
  0.62500000000000000       0.84375000000000000        0.0000000000000000     
  0.65625000000000000       0.84375000000000000        0.0000000000000000     
  0.68750000000000000       0.84375000000000000        0.0000000000000000     
  0.71875000000000000       0.84375000000000000        0.0000000000000000     
  0.75000000000000000       0.84375000000000000        0.0000000000000000     
  0.62500000000000000       0.87500000000000000        0.0000000000000000     
  0.65625000000000000       0.87500000000000000        0.0000000000000000     
  0.68750000000000000       0.87500000000000000        0.0000000000000000     
  0.71875000000000000       0.87500000000000000        0.0000000000000000     
  0.75000000000000000       0.87500000000000000        0.0000000000000000     
  0.75000000000000000       0.75000000000000000        0.0000000000000000     
  0.78125000000000000       0.75000000000000000        0.0000000000000000     
  0.81250000000000000       0.75000000000000000        0.0000000000000000     
  0.84375000000000000       0.75000000000000000        0.0000000000000000     
  0.87500000000000000       0.75000000000000000        0.0000000000000000     
  0.75000000000000000       0.78125000000000000        0.0000000000000000     
  0.78125000000000000       0.78125000000000000        0.0000000000000000     
  0.81250000000000000       0.78125000000000000        0.0000000000000000     
  0.84375000000000000       0.78125000000000000        0.0000000000000000     
  0.87500000000000000       0.78125000000000000        0.0000000000000000     
  0.75000000000000000       0.81250000000000000        0.0000000000000000     
  0.78125000000000000       0.81250000000000000        0.0000000000000000     
  0.81250000000000000       0.81250000000000000        0.0000000000000000     
  0.84375000000000000       0.81250000000000000        0.0000000000000000     
  0.87500000000000000       0.81250000000000000        0.0000000000000000     
  0.75000000000000000       0.84375000000000000        0.0000000000000000     
  0.78125000000000000       0.84375000000000000        0.0000000000000000     
  0.81250000000000000       0.84375000000000000        0.0000000000000000     
  0.84375000000000000       0.84375000000000000        0.0000000000000000     
  0.87500000000000000       0.84375000000000000        0.0000000000000000     
  0.75000000000000000       0.87500000000000000        0.0000000000000000     
  0.78125000000000000       0.87500000000000000        0.0000000000000000     
  0.81250000000000000       0.87500000000000000        0.0000000000000000     
  0.84375000000000000       0.87500000000000000        0.0000000000000000     
  0.87500000000000000       0.87500000000000000        0.0000000000000000     
  0.87500000000000000       0.75000000000000000        0.0000000000000000     
  0.90625000000000000       0.75000000000000000        0.0000000000000000     
  0.93750000000000000       0.75000000000000000        0.0000000000000000     
  0.96875000000000000       0.75000000000000000        0.0000000000000000     
   1.0000000000000000       0.75000000000000000        0.0000000000000000     
  0.87500000000000000       0.78125000000000000        0.0000000000000000     
  0.90625000000000000       0.78125000000000000        0.0000000000000000     
  0.93750000000000000       0.78125000000000000        0.0000000000000000     
  0.96875000000000000       0.78125000000000000        0.0000000000000000     
   1.0000000000000000       0.78125000000000000        0.0000000000000000     
  0.87500000000000000       0.81250000000000000        0.0000000000000000     
  0.90625000000000000       0.81250000000000000        0.0000000000000000     
  0.93750000000000000       0.81250000000000000        0.0000000000000000     
  0.96875000000000000       0.81250000000000000        0.0000000000000000     
   1.0000000000000000       0.81250000000000000        0.0000000000000000     
  0.87500000000000000       0.84375000000000000        0.0000000000000000     
  0.90625000000000000       0.84375000000000000        0.0000000000000000     
  0.93750000000000000       0.84375000000000000        0.0000000000000000     
  0.96875000000000000       0.84375000000000000        0.0000000000000000     
   1.0000000000000000       0.84375000000000000        0.0000000000000000     
  0.87500000000000000       0.87500000000000000        0.0000000000000000     
  0.90625000000000000       0.87500000000000000        0.0000000000000000     
  0.93750000000000000       0.87500000000000000        0.0000000000000000     
  0.96875000000000000       0.87500000000000000        0.0000000000000000     
   1.0000000000000000       0.87500000000000000        0.0000000000000000     
   1.0000000000000000       0.75000000000000000        0.0000000000000000     
   1.0312500000000000       0.75000000000000000        0.0000000000000000     
   1.0625000000000000       0.75000000000000000        0.0000000000000000     
   1.0937500000000000       0.75000000000000000        0.0000000000000000     
   1.1250000000000000       0.75000000000000000        0.0000000000000000     
   1.0000000000000000       0.78125000000000000        0.0000000000000000     
   1.0312500000000000       0.78125000000000000        0.0000000000000000     
   1.0625000000000000       0.78125000000000000        0.0000000000000000     
   1.0937500000000000       0.78125000000000000        0.0000000000000000     
   1.1250000000000000       0.78125000000000000        0.0000000000000000     
   1.0000000000000000       0.81250000000000000        0.0000000000000000     
   1.0312500000000000       0.81250000000000000        0.0000000000000000     
   1.0625000000000000       0.81250000000000000        0.0000000000000000     
   1.0937500000000000       0.81250000000000000        0.0000000000000000     
   1.1250000000000000       0.81250000000000000        0.0000000000000000     
   1.0000000000000000       0.84375000000000000        0.0000000000000000     
   1.0312500000000000       0.84375000000000000        0.0000000000000000     
   1.0625000000000000       0.84375000000000000        0.0000000000000000     
   1.0937500000000000       0.84375000000000000        0.0000000000000000     
   1.1250000000000000       0.84375000000000000        0.0000000000000000     
   1.0000000000000000       0.87500000000000000        0.0000000000000000     
   1.0312500000000000       0.87500000000000000        0.0000000000000000     
   1.0625000000000000       0.87500000000000000        0.0000000000000000     
   1.0937500000000000       0.87500000000000000        0.0000000000000000     
   1.1250000000000000       0.87500000000000000        0.0000000000000000     
   1.1250000000000000       0.75000000000000000        0.0000000000000000     
   1.1562500000000000       0.75000000000000000        0.0000000000000000     
   1.1875000000000000       0.75000000000000000        0.0000000000000000     
   1.2187500000000000       0.75000000000000000        0.0000000000000000     
   1.2500000000000000       0.75000000000000000        0.0000000000000000     
   1.1250000000000000       0.78125000000000000        0.0000000000000000     
   1.1562500000000000       0.78125000000000000        0.0000000000000000     
   1.1875000000000000       0.78125000000000000        0.0000000000000000     
   1.2187500000000000       0.78125000000000000        0.0000000000000000     
   1.2500000000000000       0.78125000000000000        0.0000000000000000     
   1.1250000000000000       0.81250000000000000        0.0000000000000000     
   1.1562500000000000       0.81250000000000000        0.0000000000000000     
   1.1875000000000000       0.81250000000000000        0.0000000000000000     
   1.2187500000000000       0.81250000000000000        0.0000000000000000     
   1.2500000000000000       0.81250000000000000        0.0000000000000000     
   1.1250000000000000       0.84375000000000000        0.0000000000000000     
   1.1562500000000000       0.84375000000000000        0.0000000000000000     
   1.1875000000000000       0.84375000000000000        0.0000000000000000     
   1.2187500000000000       0.84375000000000000        0.0000000000000000     
   1.2500000000000000       0.84375000000000000        0.0000000000000000     
   1.1250000000000000       0.87500000000000000        0.0000000000000000     
   1.1562500000000000       0.87500000000000000        0.0000000000000000     
   1.1875000000000000       0.87500000000000000        0.0000000000000000     
   1.2187500000000000       0.87500000000000000        0.0000000000000000     
   1.2500000000000000       0.87500000000000000        0.0000000000000000     
   1.2500000000000000       0.75000000000000000        0.0000000000000000     
   1.2812500000000000       0.75000000000000000        0.0000000000000000     
   1.3125000000000000       0.75000000000000000        0.0000000000000000     
   1.3437500000000000       0.75000000000000000        0.0000000000000000     
   1.3750000000000000       0.75000000000000000        0.0000000000000000     
   1.2500000000000000       0.78125000000000000        0.0000000000000000     
   1.2812500000000000       0.78125000000000000        0.0000000000000000     
   1.3125000000000000       0.78125000000000000        0.0000000000000000     
   1.3437500000000000       0.78125000000000000        0.0000000000000000     
   1.3750000000000000       0.78125000000000000        0.0000000000000000     
   1.2500000000000000       0.81250000000000000        0.0000000000000000     
   1.2812500000000000       0.81250000000000000        0.0000000000000000     
   1.3125000000000000       0.81250000000000000        0.0000000000000000     
   1.3437500000000000       0.81250000000000000        0.0000000000000000     
   1.3750000000000000       0.81250000000000000        0.0000000000000000     
   1.2500000000000000       0.84375000000000000        0.0000000000000000     
   1.2812500000000000       0.84375000000000000        0.0000000000000000     
   1.3125000000000000       0.84375000000000000        0.0000000000000000     
   1.3437500000000000       0.84375000000000000        0.0000000000000000     
   1.3750000000000000       0.84375000000000000        0.0000000000000000     
   1.2500000000000000       0.87500000000000000        0.0000000000000000     
   1.2812500000000000       0.87500000000000000        0.0000000000000000     
   1.3125000000000000       0.87500000000000000        0.0000000000000000     
   1.3437500000000000       0.87500000000000000        0.0000000000000000     
   1.3750000000000000       0.87500000000000000        0.0000000000000000     
   1.3750000000000000       0.75000000000000000        0.0000000000000000     
   1.4062500000000000       0.75000000000000000        0.0000000000000000     
   1.4375000000000000       0.75000000000000000        0.0000000000000000     
   1.4687500000000000       0.75000000000000000        0.0000000000000000     
   1.5000000000000000       0.75000000000000000        0.0000000000000000     
   1.3750000000000000       0.78125000000000000        0.0000000000000000     
   1.4062500000000000       0.78125000000000000        0.0000000000000000     
   1.4375000000000000       0.78125000000000000        0.0000000000000000     
   1.4687500000000000       0.78125000000000000        0.0000000000000000     
   1.5000000000000000       0.78125000000000000        0.0000000000000000     
   1.3750000000000000       0.81250000000000000        0.0000000000000000     
   1.4062500000000000       0.81250000000000000        0.0000000000000000     
   1.4375000000000000       0.81250000000000000        0.0000000000000000     
   1.4687500000000000       0.81250000000000000        0.0000000000000000     
   1.5000000000000000       0.81250000000000000        0.0000000000000000     
   1.3750000000000000       0.84375000000000000        0.0000000000000000     
   1.4062500000000000       0.84375000000000000        0.0000000000000000     
   1.4375000000000000       0.84375000000000000        0.0000000000000000     
   1.4687500000000000       0.84375000000000000        0.0000000000000000     
   1.5000000000000000       0.84375000000000000        0.0000000000000000     
   1.3750000000000000       0.87500000000000000        0.0000000000000000     
   1.4062500000000000       0.87500000000000000        0.0000000000000000     
   1.4375000000000000       0.87500000000000000        0.0000000000000000     
   1.4687500000000000       0.87500000000000000        0.0000000000000000     
   1.5000000000000000       0.87500000000000000        0.0000000000000000     
  0.50000000000000000       0.87500000000000000        0.0000000000000000     
  0.53125000000000000       0.87500000000000000        0.0000000000000000     
  0.56250000000000000       0.87500000000000000        0.0000000000000000     
  0.59375000000000000       0.87500000000000000        0.0000000000000000     
  0.62500000000000000       0.87500000000000000        0.0000000000000000     
  0.50000000000000000       0.90625000000000000        0.0000000000000000     
  0.53125000000000000       0.90625000000000000        0.0000000000000000     
  0.56250000000000000       0.90625000000000000        0.0000000000000000     
  0.59375000000000000       0.90625000000000000        0.0000000000000000     
  0.62500000000000000       0.90625000000000000        0.0000000000000000     
  0.50000000000000000       0.93750000000000000        0.0000000000000000     
  0.53125000000000000       0.93750000000000000        0.0000000000000000     
  0.56250000000000000       0.93750000000000000        0.0000000000000000     
  0.59375000000000000       0.93750000000000000        0.0000000000000000     
  0.62500000000000000       0.93750000000000000        0.0000000000000000     
  0.50000000000000000       0.96875000000000000        0.0000000000000000     
  0.53125000000000000       0.96875000000000000        0.0000000000000000     
  0.56250000000000000       0.96875000000000000        0.0000000000000000     
  0.59375000000000000       0.96875000000000000        0.0000000000000000     
  0.62500000000000000       0.96875000000000000        0.0000000000000000     
  0.50000000000000000        1.0000000000000000        0.0000000000000000     
  0.53125000000000000        1.0000000000000000        0.0000000000000000     
  0.56250000000000000        1.0000000000000000        0.0000000000000000     
  0.59375000000000000        1.0000000000000000        0.0000000000000000     
  0.62500000000000000        1.0000000000000000        0.0000000000000000     
  0.62500000000000000       0.87500000000000000        0.0000000000000000     
  0.65625000000000000       0.87500000000000000        0.0000000000000000     
  0.68750000000000000       0.87500000000000000        0.0000000000000000     
  0.71875000000000000       0.87500000000000000        0.0000000000000000     
  0.75000000000000000       0.87500000000000000        0.0000000000000000     
  0.62500000000000000       0.90625000000000000        0.0000000000000000     
  0.65625000000000000       0.90625000000000000        0.0000000000000000     
  0.68750000000000000       0.90625000000000000        0.0000000000000000     
  0.71875000000000000       0.90625000000000000        0.0000000000000000     
  0.75000000000000000       0.90625000000000000        0.0000000000000000     
  0.62500000000000000       0.93750000000000000        0.0000000000000000     
  0.65625000000000000       0.93750000000000000        0.0000000000000000     
  0.68750000000000000       0.93750000000000000        0.0000000000000000     
  0.71875000000000000       0.93750000000000000        0.0000000000000000     
  0.75000000000000000       0.93750000000000000        0.0000000000000000     
  0.62500000000000000       0.96875000000000000        0.0000000000000000     
  0.65625000000000000       0.96875000000000000        0.0000000000000000     
  0.68750000000000000       0.96875000000000000        0.0000000000000000     
  0.71875000000000000       0.96875000000000000        0.0000000000000000     
  0.75000000000000000       0.96875000000000000        0.0000000000000000     
  0.62500000000000000        1.0000000000000000        0.0000000000000000     
  0.65625000000000000        1.0000000000000000        0.0000000000000000     
  0.68750000000000000        1.0000000000000000        0.0000000000000000     
  0.71875000000000000        1.0000000000000000        0.0000000000000000     
  0.75000000000000000        1.0000000000000000        0.0000000000000000     
  0.75000000000000000       0.87500000000000000        0.0000000000000000     
  0.78125000000000000       0.87500000000000000        0.0000000000000000     
  0.81250000000000000       0.87500000000000000        0.0000000000000000     
  0.84375000000000000       0.87500000000000000        0.0000000000000000     
  0.87500000000000000       0.87500000000000000        0.0000000000000000     
  0.75000000000000000       0.90625000000000000        0.0000000000000000     
  0.78125000000000000       0.90625000000000000        0.0000000000000000     
  0.81250000000000000       0.90625000000000000        0.0000000000000000     
  0.84375000000000000       0.90625000000000000        0.0000000000000000     
  0.87500000000000000       0.90625000000000000        0.0000000000000000     
  0.75000000000000000       0.93750000000000000        0.0000000000000000     
  0.78125000000000000       0.93750000000000000        0.0000000000000000     
  0.81250000000000000       0.93750000000000000        0.0000000000000000     
  0.84375000000000000       0.93750000000000000        0.0000000000000000     
  0.87500000000000000       0.93750000000000000        0.0000000000000000     
  0.75000000000000000       0.96875000000000000        0.0000000000000000     
  0.78125000000000000       0.96875000000000000        0.0000000000000000     
  0.81250000000000000       0.96875000000000000        0.0000000000000000     
  0.84375000000000000       0.96875000000000000        0.0000000000000000     
  0.87500000000000000       0.96875000000000000        0.0000000000000000     
  0.75000000000000000        1.0000000000000000        0.0000000000000000     
  0.78125000000000000        1.0000000000000000        0.0000000000000000     
  0.81250000000000000        1.0000000000000000        0.0000000000000000     
  0.84375000000000000        1.0000000000000000        0.0000000000000000     
  0.87500000000000000        1.0000000000000000        0.0000000000000000     
  0.87500000000000000       0.87500000000000000        0.0000000000000000     
  0.90625000000000000       0.87500000000000000        0.0000000000000000     
  0.93750000000000000       0.87500000000000000        0.0000000000000000     
  0.96875000000000000       0.87500000000000000        0.0000000000000000     
   1.0000000000000000       0.87500000000000000        0.0000000000000000     
  0.87500000000000000       0.90625000000000000        0.0000000000000000     
  0.90625000000000000       0.90625000000000000        0.0000000000000000     
  0.93750000000000000       0.90625000000000000        0.0000000000000000     
  0.96875000000000000       0.90625000000000000        0.0000000000000000     
   1.0000000000000000       0.90625000000000000        0.0000000000000000     
  0.87500000000000000       0.93750000000000000        0.0000000000000000     
  0.90625000000000000       0.93750000000000000        0.0000000000000000     
  0.93750000000000000       0.93750000000000000        0.0000000000000000     
  0.96875000000000000       0.93750000000000000        0.0000000000000000     
   1.0000000000000000       0.93750000000000000        0.0000000000000000     
  0.87500000000000000       0.96875000000000000        0.0000000000000000     
  0.90625000000000000       0.96875000000000000        0.0000000000000000     
  0.93750000000000000       0.96875000000000000        0.0000000000000000     
  0.96875000000000000       0.96875000000000000        0.0000000000000000     
   1.0000000000000000       0.96875000000000000        0.0000000000000000     
  0.87500000000000000        1.0000000000000000        0.0000000000000000     
  0.90625000000000000        1.0000000000000000        0.0000000000000000     
  0.93750000000000000        1.0000000000000000        0.0000000000000000     
  0.96875000000000000        1.0000000000000000        0.0000000000000000     
   1.0000000000000000        1.0000000000000000        0.0000000000000000     
   1.0000000000000000       0.87500000000000000        0.0000000000000000     
   1.0312500000000000       0.87500000000000000        0.0000000000000000     
   1.0625000000000000       0.87500000000000000        0.0000000000000000     
   1.0937500000000000       0.87500000000000000        0.0000000000000000     
   1.1250000000000000       0.87500000000000000        0.0000000000000000     
   1.0000000000000000       0.90625000000000000        0.0000000000000000     
   1.0312500000000000       0.90625000000000000        0.0000000000000000     
   1.0625000000000000       0.90625000000000000        0.0000000000000000     
   1.0937500000000000       0.90625000000000000        0.0000000000000000     
   1.1250000000000000       0.90625000000000000        0.0000000000000000     
   1.0000000000000000       0.93750000000000000        0.0000000000000000     
   1.0312500000000000       0.93750000000000000        0.0000000000000000     
   1.0625000000000000       0.93750000000000000        0.0000000000000000     
   1.0937500000000000       0.93750000000000000        0.0000000000000000     
   1.1250000000000000       0.93750000000000000        0.0000000000000000     
   1.0000000000000000       0.96875000000000000        0.0000000000000000     
   1.0312500000000000       0.96875000000000000        0.0000000000000000     
   1.0625000000000000       0.96875000000000000        0.0000000000000000     
   1.0937500000000000       0.96875000000000000        0.0000000000000000     
   1.1250000000000000       0.96875000000000000        0.0000000000000000     
   1.0000000000000000        1.0000000000000000        0.0000000000000000     
   1.0312500000000000        1.0000000000000000        0.0000000000000000     
   1.0625000000000000        1.0000000000000000        0.0000000000000000     
   1.0937500000000000        1.0000000000000000        0.0000000000000000     
   1.1250000000000000        1.0000000000000000        0.0000000000000000     
   1.1250000000000000       0.87500000000000000        0.0000000000000000     
   1.1562500000000000       0.87500000000000000        0.0000000000000000     
   1.1875000000000000       0.87500000000000000        0.0000000000000000     
   1.2187500000000000       0.87500000000000000        0.0000000000000000     
   1.2500000000000000       0.87500000000000000        0.0000000000000000     
   1.1250000000000000       0.90625000000000000        0.0000000000000000     
   1.1562500000000000       0.90625000000000000        0.0000000000000000     
   1.1875000000000000       0.90625000000000000        0.0000000000000000     
   1.2187500000000000       0.90625000000000000        0.0000000000000000     
   1.2500000000000000       0.90625000000000000        0.0000000000000000     
   1.1250000000000000       0.93750000000000000        0.0000000000000000     
   1.1562500000000000       0.93750000000000000        0.0000000000000000     
   1.1875000000000000       0.93750000000000000        0.0000000000000000     
   1.2187500000000000       0.93750000000000000        0.0000000000000000     
   1.2500000000000000       0.93750000000000000        0.0000000000000000     
   1.1250000000000000       0.96875000000000000        0.0000000000000000     
   1.1562500000000000       0.96875000000000000        0.0000000000000000     
   1.1875000000000000       0.96875000000000000        0.0000000000000000     
   1.2187500000000000       0.96875000000000000        0.0000000000000000     
   1.2500000000000000       0.96875000000000000        0.0000000000000000     
   1.1250000000000000        1.0000000000000000        0.0000000000000000     
   1.1562500000000000        1.0000000000000000        0.0000000000000000     
   1.1875000000000000        1.0000000000000000        0.0000000000000000     
   1.2187500000000000        1.0000000000000000        0.0000000000000000     
   1.2500000000000000        1.0000000000000000        0.0000000000000000     
   1.2500000000000000       0.87500000000000000        0.0000000000000000     
   1.2812500000000000       0.87500000000000000        0.0000000000000000     
   1.3125000000000000       0.87500000000000000        0.0000000000000000     
   1.3437500000000000       0.87500000000000000        0.0000000000000000     
   1.3750000000000000       0.87500000000000000        0.0000000000000000     
   1.2500000000000000       0.90625000000000000        0.0000000000000000     
   1.2812500000000000       0.90625000000000000        0.0000000000000000     
   1.3125000000000000       0.90625000000000000        0.0000000000000000     
   1.3437500000000000       0.90625000000000000        0.0000000000000000     
   1.3750000000000000       0.90625000000000000        0.0000000000000000     
   1.2500000000000000       0.93750000000000000        0.0000000000000000     
   1.2812500000000000       0.93750000000000000        0.0000000000000000     
   1.3125000000000000       0.93750000000000000        0.0000000000000000     
   1.3437500000000000       0.93750000000000000        0.0000000000000000     
   1.3750000000000000       0.93750000000000000        0.0000000000000000     
   1.2500000000000000       0.96875000000000000        0.0000000000000000     
   1.2812500000000000       0.96875000000000000        0.0000000000000000     
   1.3125000000000000       0.96875000000000000        0.0000000000000000     
   1.3437500000000000       0.96875000000000000        0.0000000000000000     
   1.3750000000000000       0.96875000000000000        0.0000000000000000     
   1.2500000000000000        1.0000000000000000        0.0000000000000000     
   1.2812500000000000        1.0000000000000000        0.0000000000000000     
   1.3125000000000000        1.0000000000000000        0.0000000000000000     
   1.3437500000000000        1.0000000000000000        0.0000000000000000     
   1.3750000000000000        1.0000000000000000        0.0000000000000000     
   1.3750000000000000       0.87500000000000000        0.0000000000000000     
   1.4062500000000000       0.87500000000000000        0.0000000000000000     
   1.4375000000000000       0.87500000000000000        0.0000000000000000     
   1.4687500000000000       0.87500000000000000        0.0000000000000000     
   1.5000000000000000       0.87500000000000000        0.0000000000000000     
   1.3750000000000000       0.90625000000000000        0.0000000000000000     
   1.4062500000000000       0.90625000000000000        0.0000000000000000     
   1.4375000000000000       0.90625000000000000        0.0000000000000000     
   1.4687500000000000       0.90625000000000000        0.0000000000000000     
   1.5000000000000000       0.90625000000000000        0.0000000000000000     
   1.3750000000000000       0.93750000000000000        0.0000000000000000     
   1.4062500000000000       0.93750000000000000        0.0000000000000000     
   1.4375000000000000       0.93750000000000000        0.0000000000000000     
   1.4687500000000000       0.93750000000000000        0.0000000000000000     
   1.5000000000000000       0.93750000000000000        0.0000000000000000     
   1.3750000000000000       0.96875000000000000        0.0000000000000000     
   1.4062500000000000       0.96875000000000000        0.0000000000000000     
   1.4375000000000000       0.96875000000000000        0.0000000000000000     
   1.4687500000000000       0.96875000000000000        0.0000000000000000     
   1.5000000000000000       0.96875000000000000        0.0000000000000000     
   1.3750000000000000        1.0000000000000000        0.0000000000000000     
   1.4062500000000000        1.0000000000000000        0.0000000000000000     
   1.4375000000000000        1.0000000000000000        0.0000000000000000     
   1.4687500000000000        1.0000000000000000        0.0000000000000000     
   1.5000000000000000        1.0000000000000000        0.0000000000000000     
 </DataArray>
 </Points>
 <Cells>
 <DataArray  type="Int32"  Name="connectivity"  format="ascii">
           0           1           6           5
           1           2           7           6
           2           3           8           7
           3           4           9           8
           5           6          11          10
           6           7          12          11
           7           8          13          12
           8           9          14          13
          10          11          16          15
          11          12          17          16
          12          13          18          17
          13          14          19          18
          15          16          21          20
          16          17          22          21
          17          18          23          22
          18          19          24          23
          25          26          31          30
          26          27          32          31
          27          28          33          32
          28          29          34          33
          30          31          36          35
          31          32          37          36
          32          33          38          37
          33          34          39          38
          35          36          41          40
          36          37          42          41
          37          38          43          42
          38          39          44          43
          40          41          46          45
          41          42          47          46
          42          43          48          47
          43          44          49          48
          50          51          56          55
          51          52          57          56
          52          53          58          57
          53          54          59          58
          55          56          61          60
          56          57          62          61
          57          58          63          62
          58          59          64          63
          60          61          66          65
          61          62          67          66
          62          63          68          67
          63          64          69          68
          65          66          71          70
          66          67          72          71
          67          68          73          72
          68          69          74          73
          75          76          81          80
          76          77          82          81
          77          78          83          82
          78          79          84          83
          80          81          86          85
          81          82          87          86
          82          83          88          87
          83          84          89          88
          85          86          91          90
          86          87          92          91
          87          88          93          92
          88          89          94          93
          90          91          96          95
          91          92          97          96
          92          93          98          97
          93          94          99          98
         100         101         106         105
         101         102         107         106
         102         103         108         107
         103         104         109         108
         105         106         111         110
         106         107         112         111
         107         108         113         112
         108         109         114         113
         110         111         116         115
         111         112         117         116
         112         113         118         117
         113         114         119         118
         115         116         121         120
         116         117         122         121
         117         118         123         122
         118         119         124         123
         125         126         131         130
         126         127         132         131
         127         128         133         132
         128         129         134         133
         130         131         136         135
         131         132         137         136
         132         133         138         137
         133         134         139         138
         135         136         141         140
         136         137         142         141
         137         138         143         142
         138         139         144         143
         140         141         146         145
         141         142         147         146
         142         143         148         147
         143         144         149         148
         150         151         156         155
         151         152         157         156
         152         153         158         157
         153         154         159         158
         155         156         161         160
         156         157         162         161
         157         158         163         162
         158         159         164         163
         160         161         166         165
         161         162         167         166
         162         163         168         167
         163         164         169         168
         165         166         171         170
         166         167         172         171
         167         168         173         172
         168         169         174         173
         175         176         181         180
         176         177         182         181
         177         178         183         182
         178         179         184         183
         180         181         186         185
         181         182         187         186
         182         183         188         187
         183         184         189         188
         185         186         191         190
         186         187         192         191
         187         188         193         192
         188         189         194         193
         190         191         196         195
         191         192         197         196
         192         193         198         197
         193         194         199         198
         200         201         206         205
         201         202         207         206
         202         203         208         207
         203         204         209         208
         205         206         211         210
         206         207         212         211
         207         208         213         212
         208         209         214         213
         210         211         216         215
         211         212         217         216
         212         213         218         217
         213         214         219         218
         215         216         221         220
         216         217         222         221
         217         218         223         222
         218         219         224         223
         225         226         231         230
         226         227         232         231
         227         228         233         232
         228         229         234         233
         230         231         236         235
         231         232         237         236
         232         233         238         237
         233         234         239         238
         235         236         241         240
         236         237         242         241
         237         238         243         242
         238         239         244         243
         240         241         246         245
         241         242         247         246
         242         243         248         247
         243         244         249         248
         250         251         256         255
         251         252         257         256
         252         253         258         257
         253         254         259         258
         255         256         261         260
         256         257         262         261
         257         258         263         262
         258         259         264         263
         260         261         266         265
         261         262         267         266
         262         263         268         267
         263         264         269         268
         265         266         271         270
         266         267         272         271
         267         268         273         272
         268         269         274         273
         275         276         281         280
         276         277         282         281
         277         278         283         282
         278         279         284         283
         280         281         286         285
         281         282         287         286
         282         283         288         287
         283         284         289         288
         285         286         291         290
         286         287         292         291
         287         288         293         292
         288         289         294         293
         290         291         296         295
         291         292         297         296
         292         293         298         297
         293         294         299         298
         300         301         306         305
         301         302         307         306
         302         303         308         307
         303         304         309         308
         305         306         311         310
         306         307         312         311
         307         308         313         312
         308         309         314         313
         310         311         316         315
         311         312         317         316
         312         313         318         317
         313         314         319         318
         315         316         321         320
         316         317         322         321
         317         318         323         322
         318         319         324         323
         325         326         331         330
         326         327         332         331
         327         328         333         332
         328         329         334         333
         330         331         336         335
         331         332         337         336
         332         333         338         337
         333         334         339         338
         335         336         341         340
         336         337         342         341
         337         338         343         342
         338         339         344         343
         340         341         346         345
         341         342         347         346
         342         343         348         347
         343         344         349         348
         350         351         356         355
         351         352         357         356
         352         353         358         357
         353         354         359         358
         355         356         361         360
         356         357         362         361
         357         358         363         362
         358         359         364         363
         360         361         366         365
         361         362         367         366
         362         363         368         367
         363         364         369         368
         365         366         371         370
         366         367         372         371
         367         368         373         372
         368         369         374         373
         375         376         381         380
         376         377         382         381
         377         378         383         382
         378         379         384         383
         380         381         386         385
         381         382         387         386
         382         383         388         387
         383         384         389         388
         385         386         391         390
         386         387         392         391
         387         388         393         392
         388         389         394         393
         390         391         396         395
         391         392         397         396
         392         393         398         397
         393         394         399         398
         400         401         406         405
         401         402         407         406
         402         403         408         407
         403         404         409         408
         405         406         411         410
         406         407         412         411
         407         408         413         412
         408         409         414         413
         410         411         416         415
         411         412         417         416
         412         413         418         417
         413         414         419         418
         415         416         421         420
         416         417         422         421
         417         418         423         422
         418         419         424         423
         425         426         431         430
         426         427         432         431
         427         428         433         432
         428         429         434         433
         430         431         436         435
         431         432         437         436
         432         433         438         437
         433         434         439         438
         435         436         441         440
         436         437         442         441
         437         438         443         442
         438         439         444         443
         440         441         446         445
         441         442         447         446
         442         443         448         447
         443         444         449         448
         450         451         456         455
         451         452         457         456
         452         453         458         457
         453         454         459         458
         455         456         461         460
         456         457         462         461
         457         458         463         462
         458         459         464         463
         460         461         466         465
         461         462         467         466
         462         463         468         467
         463         464         469         468
         465         466         471         470
         466         467         472         471
         467         468         473         472
         468         469         474         473
         475         476         481         480
         476         477         482         481
         477         478         483         482
         478         479         484         483
         480         481         486         485
         481         482         487         486
         482         483         488         487
         483         484         489         488
         485         486         491         490
         486         487         492         491
         487         488         493         492
         488         489         494         493
         490         491         496         495
         491         492         497         496
         492         493         498         497
         493         494         499         498
         500         501         506         505
         501         502         507         506
         502         503         508         507
         503         504         509         508
         505         506         511         510
         506         507         512         511
         507         508         513         512
         508         509         514         513
         510         511         516         515
         511         512         517         516
         512         513         518         517
         513         514         519         518
         515         516         521         520
         516         517         522         521
         517         518         523         522
         518         519         524         523
         525         526         531         530
         526         527         532         531
         527         528         533         532
         528         529         534         533
         530         531         536         535
         531         532         537         536
         532         533         538         537
         533         534         539         538
         535         536         541         540
         536         537         542         541
         537         538         543         542
         538         539         544         543
         540         541         546         545
         541         542         547         546
         542         543         548         547
         543         544         549         548
         550         551         556         555
         551         552         557         556
         552         553         558         557
         553         554         559         558
         555         556         561         560
         556         557         562         561
         557         558         563         562
         558         559         564         563
         560         561         566         565
         561         562         567         566
         562         563         568         567
         563         564         569         568
         565         566         571         570
         566         567         572         571
         567         568         573         572
         568         569         574         573
         575         576         581         580
         576         577         582         581
         577         578         583         582
         578         579         584         583
         580         581         586         585
         581         582         587         586
         582         583         588         587
         583         584         589         588
         585         586         591         590
         586         587         592         591
         587         588         593         592
         588         589         594         593
         590         591         596         595
         591         592         597         596
         592         593         598         597
         593         594         599         598
         600         601         606         605
         601         602         607         606
         602         603         608         607
         603         604         609         608
         605         606         611         610
         606         607         612         611
         607         608         613         612
         608         609         614         613
         610         611         616         615
         611         612         617         616
         612         613         618         617
         613         614         619         618
         615         616         621         620
         616         617         622         621
         617         618         623         622
         618         619         624         623
         625         626         631         630
         626         627         632         631
         627         628         633         632
         628         629         634         633
         630         631         636         635
         631         632         637         636
         632         633         638         637
         633         634         639         638
         635         636         641         640
         636         637         642         641
         637         638         643         642
         638         639         644         643
         640         641         646         645
         641         642         647         646
         642         643         648         647
         643         644         649         648
         650         651         656         655
         651         652         657         656
         652         653         658         657
         653         654         659         658
         655         656         661         660
         656         657         662         661
         657         658         663         662
         658         659         664         663
         660         661         666         665
         661         662         667         666
         662         663         668         667
         663         664         669         668
         665         666         671         670
         666         667         672         671
         667         668         673         672
         668         669         674         673
         675         676         681         680
         676         677         682         681
         677         678         683         682
         678         679         684         683
         680         681         686         685
         681         682         687         686
         682         683         688         687
         683         684         689         688
         685         686         691         690
         686         687         692         691
         687         688         693         692
         688         689         694         693
         690         691         696         695
         691         692         697         696
         692         693         698         697
         693         694         699         698
         700         701         706         705
         701         702         707         706
         702         703         708         707
         703         704         709         708
         705         706         711         710
         706         707         712         711
         707         708         713         712
         708         709         714         713
         710         711         716         715
         711         712         717         716
         712         713         718         717
         713         714         719         718
         715         716         721         720
         716         717         722         721
         717         718         723         722
         718         719         724         723
         725         726         731         730
         726         727         732         731
         727         728         733         732
         728         729         734         733
         730         731         736         735
         731         732         737         736
         732         733         738         737
         733         734         739         738
         735         736         741         740
         736         737         742         741
         737         738         743         742
         738         739         744         743
         740         741         746         745
         741         742         747         746
         742         743         748         747
         743         744         749         748
         750         751         756         755
         751         752         757         756
         752         753         758         757
         753         754         759         758
         755         756         761         760
         756         757         762         761
         757         758         763         762
         758         759         764         763
         760         761         766         765
         761         762         767         766
         762         763         768         767
         763         764         769         768
         765         766         771         770
         766         767         772         771
         767         768         773         772
         768         769         774         773
         775         776         781         780
         776         777         782         781
         777         778         783         782
         778         779         784         783
         780         781         786         785
         781         782         787         786
         782         783         788         787
         783         784         789         788
         785         786         791         790
         786         787         792         791
         787         788         793         792
         788         789         794         793
         790         791         796         795
         791         792         797         796
         792         793         798         797
         793         794         799         798
         800         801         806         805
         801         802         807         806
         802         803         808         807
         803         804         809         808
         805         806         811         810
         806         807         812         811
         807         808         813         812
         808         809         814         813
         810         811         816         815
         811         812         817         816
         812         813         818         817
         813         814         819         818
         815         816         821         820
         816         817         822         821
         817         818         823         822
         818         819         824         823
         825         826         831         830
         826         827         832         831
         827         828         833         832
         828         829         834         833
         830         831         836         835
         831         832         837         836
         832         833         838         837
         833         834         839         838
         835         836         841         840
         836         837         842         841
         837         838         843         842
         838         839         844         843
         840         841         846         845
         841         842         847         846
         842         843         848         847
         843         844         849         848
         850         851         856         855
         851         852         857         856
         852         853         858         857
         853         854         859         858
         855         856         861         860
         856         857         862         861
         857         858         863         862
         858         859         864         863
         860         861         866         865
         861         862         867         866
         862         863         868         867
         863         864         869         868
         865         866         871         870
         866         867         872         871
         867         868         873         872
         868         869         874         873
         875         876         881         880
         876         877         882         881
         877         878         883         882
         878         879         884         883
         880         881         886         885
         881         882         887         886
         882         883         888         887
         883         884         889         888
         885         886         891         890
         886         887         892         891
         887         888         893         892
         888         889         894         893
         890         891         896         895
         891         892         897         896
         892         893         898         897
         893         894         899         898
         900         901         906         905
         901         902         907         906
         902         903         908         907
         903         904         909         908
         905         906         911         910
         906         907         912         911
         907         908         913         912
         908         909         914         913
         910         911         916         915
         911         912         917         916
         912         913         918         917
         913         914         919         918
         915         916         921         920
         916         917         922         921
         917         918         923         922
         918         919         924         923
         925         926         931         930
         926         927         932         931
         927         928         933         932
         928         929         934         933
         930         931         936         935
         931         932         937         936
         932         933         938         937
         933         934         939         938
         935         936         941         940
         936         937         942         941
         937         938         943         942
         938         939         944         943
         940         941         946         945
         941         942         947         946
         942         943         948         947
         943         944         949         948
         950         951         956         955
         951         952         957         956
         952         953         958         957
         953         954         959         958
         955         956         961         960
         956         957         962         961
         957         958         963         962
         958         959         964         963
         960         961         966         965
         961         962         967         966
         962         963         968         967
         963         964         969         968
         965         966         971         970
         966         967         972         971
         967         968         973         972
         968         969         974         973
         975         976         981         980
         976         977         982         981
         977         978         983         982
         978         979         984         983
         980         981         986         985
         981         982         987         986
         982         983         988         987
         983         984         989         988
         985         986         991         990
         986         987         992         991
         987         988         993         992
         988         989         994         993
         990         991         996         995
         991         992         997         996
         992         993         998         997
         993         994         999         998
        1000        1001        1006        1005
        1001        1002        1007        1006
        1002        1003        1008        1007
        1003        1004        1009        1008
        1005        1006        1011        1010
        1006        1007        1012        1011
        1007        1008        1013        1012
        1008        1009        1014        1013
        1010        1011        1016        1015
        1011        1012        1017        1016
        1012        1013        1018        1017
        1013        1014        1019        1018
        1015        1016        1021        1020
        1016        1017        1022        1021
        1017        1018        1023        1022
        1018        1019        1024        1023
        1025        1026        1031        1030
        1026        1027        1032        1031
        1027        1028        1033        1032
        1028        1029        1034        1033
        1030        1031        1036        1035
        1031        1032        1037        1036
        1032        1033        1038        1037
        1033        1034        1039        1038
        1035        1036        1041        1040
        1036        1037        1042        1041
        1037        1038        1043        1042
        1038        1039        1044        1043
        1040        1041        1046        1045
        1041        1042        1047        1046
        1042        1043        1048        1047
        1043        1044        1049        1048
        1050        1051        1056        1055
        1051        1052        1057        1056
        1052        1053        1058        1057
        1053        1054        1059        1058
        1055        1056        1061        1060
        1056        1057        1062        1061
        1057        1058        1063        1062
        1058        1059        1064        1063
        1060        1061        1066        1065
        1061        1062        1067        1066
        1062        1063        1068        1067
        1063        1064        1069        1068
        1065        1066        1071        1070
        1066        1067        1072        1071
        1067        1068        1073        1072
        1068        1069        1074        1073
        1075        1076        1081        1080
        1076        1077        1082        1081
        1077        1078        1083        1082
        1078        1079        1084        1083
        1080        1081        1086        1085
        1081        1082        1087        1086
        1082        1083        1088        1087
        1083        1084        1089        1088
        1085        1086        1091        1090
        1086        1087        1092        1091
        1087        1088        1093        1092
        1088        1089        1094        1093
        1090        1091        1096        1095
        1091        1092        1097        1096
        1092        1093        1098        1097
        1093        1094        1099        1098
        1100        1101        1106        1105
        1101        1102        1107        1106
        1102        1103        1108        1107
        1103        1104        1109        1108
        1105        1106        1111        1110
        1106        1107        1112        1111
        1107        1108        1113        1112
        1108        1109        1114        1113
        1110        1111        1116        1115
        1111        1112        1117        1116
        1112        1113        1118        1117
        1113        1114        1119        1118
        1115        1116        1121        1120
        1116        1117        1122        1121
        1117        1118        1123        1122
        1118        1119        1124        1123
        1125        1126        1131        1130
        1126        1127        1132        1131
        1127        1128        1133        1132
        1128        1129        1134        1133
        1130        1131        1136        1135
        1131        1132        1137        1136
        1132        1133        1138        1137
        1133        1134        1139        1138
        1135        1136        1141        1140
        1136        1137        1142        1141
        1137        1138        1143        1142
        1138        1139        1144        1143
        1140        1141        1146        1145
        1141        1142        1147        1146
        1142        1143        1148        1147
        1143        1144        1149        1148
        1150        1151        1156        1155
        1151        1152        1157        1156
        1152        1153        1158        1157
        1153        1154        1159        1158
        1155        1156        1161        1160
        1156        1157        1162        1161
        1157        1158        1163        1162
        1158        1159        1164        1163
        1160        1161        1166        1165
        1161        1162        1167        1166
        1162        1163        1168        1167
        1163        1164        1169        1168
        1165        1166        1171        1170
        1166        1167        1172        1171
        1167        1168        1173        1172
        1168        1169        1174        1173
        1175        1176        1181        1180
        1176        1177        1182        1181
        1177        1178        1183        1182
        1178        1179        1184        1183
        1180        1181        1186        1185
        1181        1182        1187        1186
        1182        1183        1188        1187
        1183        1184        1189        1188
        1185        1186        1191        1190
        1186        1187        1192        1191
        1187        1188        1193        1192
        1188        1189        1194        1193
        1190        1191        1196        1195
        1191        1192        1197        1196
        1192        1193        1198        1197
        1193        1194        1199        1198
        1200        1201        1206        1205
        1201        1202        1207        1206
        1202        1203        1208        1207
        1203        1204        1209        1208
        1205        1206        1211        1210
        1206        1207        1212        1211
        1207        1208        1213        1212
        1208        1209        1214        1213
        1210        1211        1216        1215
        1211        1212        1217        1216
        1212        1213        1218        1217
        1213        1214        1219        1218
        1215        1216        1221        1220
        1216        1217        1222        1221
        1217        1218        1223        1222
        1218        1219        1224        1223
        1225        1226        1231        1230
        1226        1227        1232        1231
        1227        1228        1233        1232
        1228        1229        1234        1233
        1230        1231        1236        1235
        1231        1232        1237        1236
        1232        1233        1238        1237
        1233        1234        1239        1238
        1235        1236        1241        1240
        1236        1237        1242        1241
        1237        1238        1243        1242
        1238        1239        1244        1243
        1240        1241        1246        1245
        1241        1242        1247        1246
        1242        1243        1248        1247
        1243        1244        1249        1248
        1250        1251        1256        1255
        1251        1252        1257        1256
        1252        1253        1258        1257
        1253        1254        1259        1258
        1255        1256        1261        1260
        1256        1257        1262        1261
        1257        1258        1263        1262
        1258        1259        1264        1263
        1260        1261        1266        1265
        1261        1262        1267        1266
        1262        1263        1268        1267
        1263        1264        1269        1268
        1265        1266        1271        1270
        1266        1267        1272        1271
        1267        1268        1273        1272
        1268        1269        1274        1273
        1275        1276        1281        1280
        1276        1277        1282        1281
        1277        1278        1283        1282
        1278        1279        1284        1283
        1280        1281        1286        1285
        1281        1282        1287        1286
        1282        1283        1288        1287
        1283        1284        1289        1288
        1285        1286        1291        1290
        1286        1287        1292        1291
        1287        1288        1293        1292
        1288        1289        1294        1293
        1290        1291        1296        1295
        1291        1292        1297        1296
        1292        1293        1298        1297
        1293        1294        1299        1298
        1300        1301        1306        1305
        1301        1302        1307        1306
        1302        1303        1308        1307
        1303        1304        1309        1308
        1305        1306        1311        1310
        1306        1307        1312        1311
        1307        1308        1313        1312
        1308        1309        1314        1313
        1310        1311        1316        1315
        1311        1312        1317        1316
        1312        1313        1318        1317
        1313        1314        1319        1318
        1315        1316        1321        1320
        1316        1317        1322        1321
        1317        1318        1323        1322
        1318        1319        1324        1323
        1325        1326        1331        1330
        1326        1327        1332        1331
        1327        1328        1333        1332
        1328        1329        1334        1333
        1330        1331        1336        1335
        1331        1332        1337        1336
        1332        1333        1338        1337
        1333        1334        1339        1338
        1335        1336        1341        1340
        1336        1337        1342        1341
        1337        1338        1343        1342
        1338        1339        1344        1343
        1340        1341        1346        1345
        1341        1342        1347        1346
        1342        1343        1348        1347
        1343        1344        1349        1348
        1350        1351        1356        1355
        1351        1352        1357        1356
        1352        1353        1358        1357
        1353        1354        1359        1358
        1355        1356        1361        1360
        1356        1357        1362        1361
        1357        1358        1363        1362
        1358        1359        1364        1363
        1360        1361        1366        1365
        1361        1362        1367        1366
        1362        1363        1368        1367
        1363        1364        1369        1368
        1365        1366        1371        1370
        1366        1367        1372        1371
        1367        1368        1373        1372
        1368        1369        1374        1373
        1375        1376        1381        1380
        1376        1377        1382        1381
        1377        1378        1383        1382
        1378        1379        1384        1383
        1380        1381        1386        1385
        1381        1382        1387        1386
        1382        1383        1388        1387
        1383        1384        1389        1388
        1385        1386        1391        1390
        1386        1387        1392        1391
        1387        1388        1393        1392
        1388        1389        1394        1393
        1390        1391        1396        1395
        1391        1392        1397        1396
        1392        1393        1398        1397
        1393        1394        1399        1398
        1400        1401        1406        1405
        1401        1402        1407        1406
        1402        1403        1408        1407
        1403        1404        1409        1408
        1405        1406        1411        1410
        1406        1407        1412        1411
        1407        1408        1413        1412
        1408        1409        1414        1413
        1410        1411        1416        1415
        1411        1412        1417        1416
        1412        1413        1418        1417
        1413        1414        1419        1418
        1415        1416        1421        1420
        1416        1417        1422        1421
        1417        1418        1423        1422
        1418        1419        1424        1423
        1425        1426        1431        1430
        1426        1427        1432        1431
        1427        1428        1433        1432
        1428        1429        1434        1433
        1430        1431        1436        1435
        1431        1432        1437        1436
        1432        1433        1438        1437
        1433        1434        1439        1438
        1435        1436        1441        1440
        1436        1437        1442        1441
        1437        1438        1443        1442
        1438        1439        1444        1443
        1440        1441        1446        1445
        1441        1442        1447        1446
        1442        1443        1448        1447
        1443        1444        1449        1448
        1450        1451        1456        1455
        1451        1452        1457        1456
        1452        1453        1458        1457
        1453        1454        1459        1458
        1455        1456        1461        1460
        1456        1457        1462        1461
        1457        1458        1463        1462
        1458        1459        1464        1463
        1460        1461        1466        1465
        1461        1462        1467        1466
        1462        1463        1468        1467
        1463        1464        1469        1468
        1465        1466        1471        1470
        1466        1467        1472        1471
        1467        1468        1473        1472
        1468        1469        1474        1473
        1475        1476        1481        1480
        1476        1477        1482        1481
        1477        1478        1483        1482
        1478        1479        1484        1483
        1480        1481        1486        1485
        1481        1482        1487        1486
        1482        1483        1488        1487
        1483        1484        1489        1488
        1485        1486        1491        1490
        1486        1487        1492        1491
        1487        1488        1493        1492
        1488        1489        1494        1493
        1490        1491        1496        1495
        1491        1492        1497        1496
        1492        1493        1498        1497
        1493        1494        1499        1498
        1500        1501        1506        1505
        1501        1502        1507        1506
        1502        1503        1508        1507
        1503        1504        1509        1508
        1505        1506        1511        1510
        1506        1507        1512        1511
        1507        1508        1513        1512
        1508        1509        1514        1513
        1510        1511        1516        1515
        1511        1512        1517        1516
        1512        1513        1518        1517
        1513        1514        1519        1518
        1515        1516        1521        1520
        1516        1517        1522        1521
        1517        1518        1523        1522
        1518        1519        1524        1523
        1525        1526        1531        1530
        1526        1527        1532        1531
        1527        1528        1533        1532
        1528        1529        1534        1533
        1530        1531        1536        1535
        1531        1532        1537        1536
        1532        1533        1538        1537
        1533        1534        1539        1538
        1535        1536        1541        1540
        1536        1537        1542        1541
        1537        1538        1543        1542
        1538        1539        1544        1543
        1540        1541        1546        1545
        1541        1542        1547        1546
        1542        1543        1548        1547
        1543        1544        1549        1548
        1550        1551        1556        1555
        1551        1552        1557        1556
        1552        1553        1558        1557
        1553        1554        1559        1558
        1555        1556        1561        1560
        1556        1557        1562        1561
        1557        1558        1563        1562
        1558        1559        1564        1563
        1560        1561        1566        1565
        1561        1562        1567        1566
        1562        1563        1568        1567
        1563        1564        1569        1568
        1565        1566        1571        1570
        1566        1567        1572        1571
        1567        1568        1573        1572
        1568        1569        1574        1573
        1575        1576        1581        1580
        1576        1577        1582        1581
        1577        1578        1583        1582
        1578        1579        1584        1583
        1580        1581        1586        1585
        1581        1582        1587        1586
        1582        1583        1588        1587
        1583        1584        1589        1588
        1585        1586        1591        1590
        1586        1587        1592        1591
        1587        1588        1593        1592
        1588        1589        1594        1593
        1590        1591        1596        1595
        1591        1592        1597        1596
        1592        1593        1598        1597
        1593        1594        1599        1598
 </DataArray>
 <DataArray  type="Int32"  Name="offsets"  format="ascii"> 
           4
           8
          12
          16
          20
          24
          28
          32
          36
          40
          44
          48
          52
          56
          60
          64
          68
          72
          76
          80
          84
          88
          92
          96
         100
         104
         108
         112
         116
         120
         124
         128
         132
         136
         140
         144
         148
         152
         156
         160
         164
         168
         172
         176
         180
         184
         188
         192
         196
         200
         204
         208
         212
         216
         220
         224
         228
         232
         236
         240
         244
         248
         252
         256
         260
         264
         268
         272
         276
         280
         284
         288
         292
         296
         300
         304
         308
         312
         316
         320
         324
         328
         332
         336
         340
         344
         348
         352
         356
         360
         364
         368
         372
         376
         380
         384
         388
         392
         396
         400
         404
         408
         412
         416
         420
         424
         428
         432
         436
         440
         444
         448
         452
         456
         460
         464
         468
         472
         476
         480
         484
         488
         492
         496
         500
         504
         508
         512
         516
         520
         524
         528
         532
         536
         540
         544
         548
         552
         556
         560
         564
         568
         572
         576
         580
         584
         588
         592
         596
         600
         604
         608
         612
         616
         620
         624
         628
         632
         636
         640
         644
         648
         652
         656
         660
         664
         668
         672
         676
         680
         684
         688
         692
         696
         700
         704
         708
         712
         716
         720
         724
         728
         732
         736
         740
         744
         748
         752
         756
         760
         764
         768
         772
         776
         780
         784
         788
         792
         796
         800
         804
         808
         812
         816
         820
         824
         828
         832
         836
         840
         844
         848
         852
         856
         860
         864
         868
         872
         876
         880
         884
         888
         892
         896
         900
         904
         908
         912
         916
         920
         924
         928
         932
         936
         940
         944
         948
         952
         956
         960
         964
         968
         972
         976
         980
         984
         988
         992
         996
        1000
        1004
        1008
        1012
        1016
        1020
        1024
        1028
        1032
        1036
        1040
        1044
        1048
        1052
        1056
        1060
        1064
        1068
        1072
        1076
        1080
        1084
        1088
        1092
        1096
        1100
        1104
        1108
        1112
        1116
        1120
        1124
        1128
        1132
        1136
        1140
        1144
        1148
        1152
        1156
        1160
        1164
        1168
        1172
        1176
        1180
        1184
        1188
        1192
        1196
        1200
        1204
        1208
        1212
        1216
        1220
        1224
        1228
        1232
        1236
        1240
        1244
        1248
        1252
        1256
        1260
        1264
        1268
        1272
        1276
        1280
        1284
        1288
        1292
        1296
        1300
        1304
        1308
        1312
        1316
        1320
        1324
        1328
        1332
        1336
        1340
        1344
        1348
        1352
        1356
        1360
        1364
        1368
        1372
        1376
        1380
        1384
        1388
        1392
        1396
        1400
        1404
        1408
        1412
        1416
        1420
        1424
        1428
        1432
        1436
        1440
        1444
        1448
        1452
        1456
        1460
        1464
        1468
        1472
        1476
        1480
        1484
        1488
        1492
        1496
        1500
        1504
        1508
        1512
        1516
        1520
        1524
        1528
        1532
        1536
        1540
        1544
        1548
        1552
        1556
        1560
        1564
        1568
        1572
        1576
        1580
        1584
        1588
        1592
        1596
        1600
        1604
        1608
        1612
        1616
        1620
        1624
        1628
        1632
        1636
        1640
        1644
        1648
        1652
        1656
        1660
        1664
        1668
        1672
        1676
        1680
        1684
        1688
        1692
        1696
        1700
        1704
        1708
        1712
        1716
        1720
        1724
        1728
        1732
        1736
        1740
        1744
        1748
        1752
        1756
        1760
        1764
        1768
        1772
        1776
        1780
        1784
        1788
        1792
        1796
        1800
        1804
        1808
        1812
        1816
        1820
        1824
        1828
        1832
        1836
        1840
        1844
        1848
        1852
        1856
        1860
        1864
        1868
        1872
        1876
        1880
        1884
        1888
        1892
        1896
        1900
        1904
        1908
        1912
        1916
        1920
        1924
        1928
        1932
        1936
        1940
        1944
        1948
        1952
        1956
        1960
        1964
        1968
        1972
        1976
        1980
        1984
        1988
        1992
        1996
        2000
        2004
        2008
        2012
        2016
        2020
        2024
        2028
        2032
        2036
        2040
        2044
        2048
        2052
        2056
        2060
        2064
        2068
        2072
        2076
        2080
        2084
        2088
        2092
        2096
        2100
        2104
        2108
        2112
        2116
        2120
        2124
        2128
        2132
        2136
        2140
        2144
        2148
        2152
        2156
        2160
        2164
        2168
        2172
        2176
        2180
        2184
        2188
        2192
        2196
        2200
        2204
        2208
        2212
        2216
        2220
        2224
        2228
        2232
        2236
        2240
        2244
        2248
        2252
        2256
        2260
        2264
        2268
        2272
        2276
        2280
        2284
        2288
        2292
        2296
        2300
        2304
        2308
        2312
        2316
        2320
        2324
        2328
        2332
        2336
        2340
        2344
        2348
        2352
        2356
        2360
        2364
        2368
        2372
        2376
        2380
        2384
        2388
        2392
        2396
        2400
        2404
        2408
        2412
        2416
        2420
        2424
        2428
        2432
        2436
        2440
        2444
        2448
        2452
        2456
        2460
        2464
        2468
        2472
        2476
        2480
        2484
        2488
        2492
        2496
        2500
        2504
        2508
        2512
        2516
        2520
        2524
        2528
        2532
        2536
        2540
        2544
        2548
        2552
        2556
        2560
        2564
        2568
        2572
        2576
        2580
        2584
        2588
        2592
        2596
        2600
        2604
        2608
        2612
        2616
        2620
        2624
        2628
        2632
        2636
        2640
        2644
        2648
        2652
        2656
        2660
        2664
        2668
        2672
        2676
        2680
        2684
        2688
        2692
        2696
        2700
        2704
        2708
        2712
        2716
        2720
        2724
        2728
        2732
        2736
        2740
        2744
        2748
        2752
        2756
        2760
        2764
        2768
        2772
        2776
        2780
        2784
        2788
        2792
        2796
        2800
        2804
        2808
        2812
        2816
        2820
        2824
        2828
        2832
        2836
        2840
        2844
        2848
        2852
        2856
        2860
        2864
        2868
        2872
        2876
        2880
        2884
        2888
        2892
        2896
        2900
        2904
        2908
        2912
        2916
        2920
        2924
        2928
        2932
        2936
        2940
        2944
        2948
        2952
        2956
        2960
        2964
        2968
        2972
        2976
        2980
        2984
        2988
        2992
        2996
        3000
        3004
        3008
        3012
        3016
        3020
        3024
        3028
        3032
        3036
        3040
        3044
        3048
        3052
        3056
        3060
        3064
        3068
        3072
        3076
        3080
        3084
        3088
        3092
        3096
        3100
        3104
        3108
        3112
        3116
        3120
        3124
        3128
        3132
        3136
        3140
        3144
        3148
        3152
        3156
        3160
        3164
        3168
        3172
        3176
        3180
        3184
        3188
        3192
        3196
        3200
        3204
        3208
        3212
        3216
        3220
        3224
        3228
        3232
        3236
        3240
        3244
        3248
        3252
        3256
        3260
        3264
        3268
        3272
        3276
        3280
        3284
        3288
        3292
        3296
        3300
        3304
        3308
        3312
        3316
        3320
        3324
        3328
        3332
        3336
        3340
        3344
        3348
        3352
        3356
        3360
        3364
        3368
        3372
        3376
        3380
        3384
        3388
        3392
        3396
        3400
        3404
        3408
        3412
        3416
        3420
        3424
        3428
        3432
        3436
        3440
        3444
        3448
        3452
        3456
        3460
        3464
        3468
        3472
        3476
        3480
        3484
        3488
        3492
        3496
        3500
        3504
        3508
        3512
        3516
        3520
        3524
        3528
        3532
        3536
        3540
        3544
        3548
        3552
        3556
        3560
        3564
        3568
        3572
        3576
        3580
        3584
        3588
        3592
        3596
        3600
        3604
        3608
        3612
        3616
        3620
        3624
        3628
        3632
        3636
        3640
        3644
        3648
        3652
        3656
        3660
        3664
        3668
        3672
        3676
        3680
        3684
        3688
        3692
        3696
        3700
        3704
        3708
        3712
        3716
        3720
        3724
        3728
        3732
        3736
        3740
        3744
        3748
        3752
        3756
        3760
        3764
        3768
        3772
        3776
        3780
        3784
        3788
        3792
        3796
        3800
        3804
        3808
        3812
        3816
        3820
        3824
        3828
        3832
        3836
        3840
        3844
        3848
        3852
        3856
        3860
        3864
        3868
        3872
        3876
        3880
        3884
        3888
        3892
        3896
        3900
        3904
        3908
        3912
        3916
        3920
        3924
        3928
        3932
        3936
        3940
        3944
        3948
        3952
        3956
        3960
        3964
        3968
        3972
        3976
        3980
        3984
        3988
        3992
        3996
        4000
        4004
        4008
        4012
        4016
        4020
        4024
        4028
        4032
        4036
        4040
        4044
        4048
        4052
        4056
        4060
        4064
        4068
        4072
        4076
        4080
        4084
        4088
        4092
        4096
 </DataArray>
 <DataArray  type="UInt8"  Name="types"  format="ascii">
 9
 9
 9
 9
 9
 9
 9
 9
 9
 9
 9
 9
 9
 9
 9
 9
 9
 9
 9
 9
 9
 9
 9
 9
 9
 9
 9
 9
 9
 9
 9
 9
 9
 9
 9
 9
 9
 9
 9
 9
 9
 9
 9
 9
 9
 9
 9
 9
 9
 9
 9
 9
 9
 9
 9
 9
 9
 9
 9
 9
 9
 9
 9
 9
 9
 9
 9
 9
 9
 9
 9
 9
 9
 9
 9
 9
 9
 9
 9
 9
 9
 9
 9
 9
 9
 9
 9
 9
 9
 9
 9
 9
 9
 9
 9
 9
 9
 9
 9
 9
 9
 9
 9
 9
 9
 9
 9
 9
 9
 9
 9
 9
 9
 9
 9
 9
 9
 9
 9
 9
 9
 9
 9
 9
 9
 9
 9
 9
 9
 9
 9
 9
 9
 9
 9
 9
 9
 9
 9
 9
 9
 9
 9
 9
 9
 9
 9
 9
 9
 9
 9
 9
 9
 9
 9
 9
 9
 9
 9
 9
 9
 9
 9
 9
 9
 9
 9
 9
 9
 9
 9
 9
 9
 9
 9
 9
 9
 9
 9
 9
 9
 9
 9
 9
 9
 9
 9
 9
 9
 9
 9
 9
 9
 9
 9
 9
 9
 9
 9
 9
 9
 9
 9
 9
 9
 9
 9
 9
 9
 9
 9
 9
 9
 9
 9
 9
 9
 9
 9
 9
 9
 9
 9
 9
 9
 9
 9
 9
 9
 9
 9
 9
 9
 9
 9
 9
 9
 9
 9
 9
 9
 9
 9
 9
 9
 9
 9
 9
 9
 9
 9
 9
 9
 9
 9
 9
 9
 9
 9
 9
 9
 9
 9
 9
 9
 9
 9
 9
 9
 9
 9
 9
 9
 9
 9
 9
 9
 9
 9
 9
 9
 9
 9
 9
 9
 9
 9
 9
 9
 9
 9
 9
 9
 9
 9
 9
 9
 9
 9
 9
 9
 9
 9
 9
 9
 9
 9
 9
 9
 9
 9
 9
 9
 9
 9
 9
 9
 9
 9
 9
 9
 9
 9
 9
 9
 9
 9
 9
 9
 9
 9
 9
 9
 9
 9
 9
 9
 9
 9
 9
 9
 9
 9
 9
 9
 9
 9
 9
 9
 9
 9
 9
 9
 9
 9
 9
 9
 9
 9
 9
 9
 9
 9
 9
 9
 9
 9
 9
 9
 9
 9
 9
 9
 9
 9
 9
 9
 9
 9
 9
 9
 9
 9
 9
 9
 9
 9
 9
 9
 9
 9
 9
 9
 9
 9
 9
 9
 9
 9
 9
 9
 9
 9
 9
 9
 9
 9
 9
 9
 9
 9
 9
 9
 9
 9
 9
 9
 9
 9
 9
 9
 9
 9
 9
 9
 9
 9
 9
 9
 9
 9
 9
 9
 9
 9
 9
 9
 9
 9
 9
 9
 9
 9
 9
 9
 9
 9
 9
 9
 9
 9
 9
 9
 9
 9
 9
 9
 9
 9
 9
 9
 9
 9
 9
 9
 9
 9
 9
 9
 9
 9
 9
 9
 9
 9
 9
 9
 9
 9
 9
 9
 9
 9
 9
 9
 9
 9
 9
 9
 9
 9
 9
 9
 9
 9
 9
 9
 9
 9
 9
 9
 9
 9
 9
 9
 9
 9
 9
 9
 9
 9
 9
 9
 9
 9
 9
 9
 9
 9
 9
 9
 9
 9
 9
 9
 9
 9
 9
 9
 9
 9
 9
 9
 9
 9
 9
 9
 9
 9
 9
 9
 9
 9
 9
 9
 9
 9
 9
 9
 9
 9
 9
 9
 9
 9
 9
 9
 9
 9
 9
 9
 9
 9
 9
 9
 9
 9
 9
 9
 9
 9
 9
 9
 9
 9
 9
 9
 9
 9
 9
 9
 9
 9
 9
 9
 9
 9
 9
 9
 9
 9
 9
 9
 9
 9
 9
 9
 9
 9
 9
 9
 9
 9
 9
 9
 9
 9
 9
 9
 9
 9
 9
 9
 9
 9
 9
 9
 9
 9
 9
 9
 9
 9
 9
 9
 9
 9
 9
 9
 9
 9
 9
 9
 9
 9
 9
 9
 9
 9
 9
 9
 9
 9
 9
 9
 9
 9
 9
 9
 9
 9
 9
 9
 9
 9
 9
 9
 9
 9
 9
 9
 9
 9
 9
 9
 9
 9
 9
 9
 9
 9
 9
 9
 9
 9
 9
 9
 9
 9
 9
 9
 9
 9
 9
 9
 9
 9
 9
 9
 9
 9
 9
 9
 9
 9
 9
 9
 9
 9
 9
 9
 9
 9
 9
 9
 9
 9
 9
 9
 9
 9
 9
 9
 9
 9
 9
 9
 9
 9
 9
 9
 9
 9
 9
 9
 9
 9
 9
 9
 9
 9
 9
 9
 9
 9
 9
 9
 9
 9
 9
 9
 9
 9
 9
 9
 9
 9
 9
 9
 9
 9
 9
 9
 9
 9
 9
 9
 9
 9
 9
 9
 9
 9
 9
 9
 9
 9
 9
 9
 9
 9
 9
 9
 9
 9
 9
 9
 9
 9
 9
 9
 9
 9
 9
 9
 9
 9
 9
 9
 9
 9
 9
 9
 9
 9
 9
 9
 9
 9
 9
 9
 9
 9
 9
 9
 9
 9
 9
 9
 9
 9
 9
 9
 9
 9
 9
 9
 9
 9
 9
 9
 9
 9
 9
 9
 9
 9
 9
 9
 9
 9
 9
 9
 9
 9
 9
 9
 9
 9
 9
 9
 9
 9
 9
 9
 9
 9
 9
 9
 9
 9
 9
 9
 9
 9
 9
 9
 9
 9
 9
 9
 9
 9
 9
 9
 9
 9
 9
 9
 9
 9
 9
 9
 9
 9
 9
 9
 9
 9
 9
 9
 9
 9
 9
 9
 9
 9
 9
 9
 9
 9
 9
 9
 9
 9
 9
 9
 9
 9
 9
 9
 9
 9
 9
 9
 9
 9
 9
 9
 9
 9
 9
 9
 9
 9
 9
 9
 9
 9
 9
 9
 9
 9
 9
 9
 9
 9
 9
 9
 9
 9
 9
 9
 9
 9
 9
 9
 9
 9
 9
 9
 9
 9
 9
 9
 9
 9
 9
 9
 9
 9
 9
 9
 9
 9
 9
 9
 9
 9
 9
 9
 9
 9
 9
 9
 9
 9
 9
 9
 9
 9
 9
 9
 9
 9
 9
 9
 9
 9
 9
 9
 9
 9
 9
 9
 9
 9
 9
 9
 9
 9
 9
 9
 9
 9
 9
 9
 9
 9
 9
 9
 9
 9
 9
 9
 9
 9
 9
 9
 9
 9
 9
 9
 9
 9
 9
 9
 9
 9
 9
 9
 9
 9
 9
 </DataArray>
 </Cells> 
 <PointData>
 <DataArray  type="Float64" Name="disp" NumberOfComponents="3" format="ascii">
   6.5563976639866198E-002   6.2280781673664708E-002   0.0000000000000000     
   6.8535631458400872E-002   6.7868832903121817E-002   0.0000000000000000     
   7.1435084991411379E-002   7.3579663935389880E-002   0.0000000000000000     
   7.4262337238897747E-002   7.9413274770468903E-002   0.0000000000000000     
   7.7017388200859960E-002   8.5369665408358858E-002   0.0000000000000000     
   6.0213362945071527E-002   6.1733336042457558E-002   0.0000000000000000     
   6.3054838431549715E-002   6.7206876156928066E-002   0.0000000000000000     
   6.5815499456963314E-002   7.2843800900685568E-002   0.0000000000000000     
   6.8495346021312312E-002   7.8644110273730111E-002   0.0000000000000000     
   7.1094378124596694E-002   8.4607804276061641E-002   0.0000000000000000     
   5.5123380732581620E-002   6.1114371901488329E-002   0.0000000000000000     
   5.7814096006695861E-002   6.6523343016322997E-002   0.0000000000000000     
   6.0420107795560250E-002   7.2121536103939066E-002   0.0000000000000000     
   6.2941416099174793E-002   7.7908951164336437E-002   0.0000000000000000     
   6.5378020917539512E-002   8.3885588197515182E-002   0.0000000000000000     
   5.0294030002396510E-002   6.0423889250757014E-002   0.0000000000000000     
   5.2813404183839271E-002   6.5818233481306637E-002   0.0000000000000000     
   5.5248910007202189E-002   7.1412869545150276E-002   0.0000000000000000     
   5.7600547472485233E-002   7.7207797442287909E-002   0.0000000000000000     
   5.9868316579688399E-002   8.3203017172719537E-002   0.0000000000000000     
   4.5725310754516163E-002   5.9661888090263640E-002   0.0000000000000000     
   4.8052762962979986E-002   6.5091547551878959E-002   0.0000000000000000     
   5.0301906091889136E-002   7.0717801224319241E-002   0.0000000000000000     
   5.2472740141243590E-002   7.6540649107584471E-002   0.0000000000000000     
   5.4565265111043357E-002   8.2560091201674651E-002   0.0000000000000000     
   7.7017388200859960E-002   8.5369665408358858E-002   0.0000000000000000     
   7.9688919606523009E-002   9.1466855962218846E-002   0.0000000000000000     
   8.2265613185111872E-002   9.7722866545207954E-002   0.0000000000000000     
   8.4747468936626519E-002  0.10413769715732618        0.0000000000000000     
   8.7134486861066993E-002  0.11071134779857351        0.0000000000000000     
   7.1094378124596694E-002   8.4607804276061641E-002   0.0000000000000000     
   7.3607551520303044E-002   9.0732085669191234E-002   0.0000000000000000     
   7.6029821961917918E-002   9.7014157214629915E-002   0.0000000000000000     
   7.8361189449441274E-002  0.10345401891237771        0.0000000000000000     
   8.0601653982873153E-002  0.11005167076243462        0.0000000000000000     
   6.5378020917539512E-002   8.3885588197515182E-002   0.0000000000000000     
   6.7729228504479072E-002   9.0035450013410318E-002   0.0000000000000000     
   6.9994345113818121E-002   9.6342539421956794E-002   0.0000000000000000     
   7.2173370745556700E-002  0.10280685642315462        0.0000000000000000     
   7.4266305399694810E-002  0.10942840101700382        0.0000000000000000     
   5.9868316579688399E-002   8.3203017172719537E-002   0.0000000000000000     
   6.2053950559051038E-002   8.9376948994876124E-002   0.0000000000000000     
   6.4159182640812523E-002   9.5708013167188591E-002   0.0000000000000000     
   6.6184012824972827E-002  0.10219620968965692        0.0000000000000000     
   6.8128441111531962E-002  0.10884153856228114        0.0000000000000000     
   5.4565265111043357E-002   8.2560091201674651E-002   0.0000000000000000     
   5.6581717684019005E-002   8.8756582613588639E-002   0.0000000000000000     
   5.8524334542901096E-002   9.5110578450325292E-002   0.0000000000000000     
   6.0393115687689618E-002  0.10162207871188458        0.0000000000000000     
   6.2188061118384597E-002  0.10829108339826654        0.0000000000000000     
   8.7134486861066993E-002  0.11071134779857351        0.0000000000000000     
   8.9426633861711138E-002  0.11743045719560706        0.0000000000000000     
   9.1623876841836843E-002  0.12428166407508394        0.0000000000000000     
   9.3726215801444093E-002  0.13126496843700411        0.0000000000000000     
   9.5733650740532888E-002  0.13838037028136765        0.0000000000000000     
   8.0601653982873153E-002  0.11005167076243462        0.0000000000000000     
   8.2752060770951694E-002  0.11679480366337879        0.0000000000000000     
   8.4813255022415046E-002  0.12367110851378843        0.0000000000000000     
   8.6785236737263224E-002  0.13068058531366347        0.0000000000000000     
   8.8668005915496201E-002  0.13782323406300398        0.0000000000000000     
   7.4266305399694810E-002  0.10942840101700382        0.0000000000000000     
   7.6274365892820009E-002  0.11619546415051674        0.0000000000000000     
   7.8198769041519955E-002  0.12309633677070568        0.0000000000000000     
   8.0039514845794565E-002  0.13013101887757067        0.0000000000000000     
   8.1796603305643922E-002  0.13729951047111172        0.0000000000000000     
   6.8128441111531962E-002  0.10884153856228114        0.0000000000000000     
   6.9993549227316113E-002  0.11563243865702087        0.0000000000000000     
   7.1780418899151530E-002  0.12255734884583570        0.0000000000000000     
   7.3489050127038158E-002  0.12961626912872570        0.0000000000000000     
   7.5119442910976039E-002  0.13680919950569082        0.0000000000000000     
   6.2188061118384597E-002  0.10829108339826654        0.0000000000000000     
   6.3909610774439976E-002  0.11510572718289117        0.0000000000000000     
   6.5558204595309783E-002  0.12205414473917851        0.0000000000000000     
   6.7133842580993988E-002  0.12913633606712852        0.0000000000000000     
   6.8636524731492579E-002  0.13635230116674130        0.0000000000000000     
   9.5733650740532888E-002  0.13838037028136765        0.0000000000000000     
   9.7646906759578961E-002  0.14561733329969595        0.0000000000000000     
   9.9466708959058042E-002  0.15296532118351050        0.0000000000000000     
  0.10119305733897010       0.16042433393281125        0.0000000000000000     
  0.10282595189931518       0.16799437154759828        0.0000000000000000     
   8.8668005915496201E-002  0.13782323406300398        0.0000000000000000     
   9.0462324909208067E-002  0.14508719171320467        0.0000000000000000     
   9.2168956070492872E-002  0.15246059521566019        0.0000000000000000     
   9.3787899399350630E-002  0.15994344457037060        0.0000000000000000     
   9.5319154895781355E-002  0.16753573977733588        0.0000000000000000     
   8.1796603305643922E-002  0.13729951047111172        0.0000000000000000     
   8.3470680681306267E-002  0.14458919830820807        0.0000000000000000     
   8.5062393233019964E-002  0.15198746914573905        0.0000000000000000     
   8.6571740960785015E-002  0.15949432298370453        0.0000000000000000     
   8.7998723864601378E-002  0.16710975982210471        0.0000000000000000     
   7.5119442910976039E-002  0.13680919950569082        0.0000000000000000     
   7.6671974075873617E-002  0.14412335308470620        0.0000000000000000     
   7.8147020446639348E-002  0.15154594297374693        0.0000000000000000     
   7.9544582023273205E-002  0.15907696917281317        0.0000000000000000     
   8.0864658805775216E-002  0.16671643168190467        0.0000000000000000     
   6.8636524731492579E-002  0.13635230116674130        0.0000000000000000     
   7.0066205092910075E-002  0.14368965604269901        0.0000000000000000     
   7.1422837711350967E-002  0.15113601669968402        0.0000000000000000     
   7.2706422586815242E-002  0.15869138313769629        0.0000000000000000     
   7.3916959719302899E-002  0.16635575535673588        0.0000000000000000     
  0.10282595189931518       0.16799437154759828        0.0000000000000000     
  0.10436968618793166       0.17566396017792496        0.0000000000000000     
  0.10582855375265797       0.18342162597384468        0.0000000000000000     
  0.10720255459349415       0.19126736893535753        0.0000000000000000     
  0.10849168871044015       0.19920118906246345        0.0000000000000000     
   9.5319154895781355E-002  0.16753573977733588        0.0000000000000000     
   9.6764968757025338E-002  0.17522764139162111        0.0000000000000000     
   9.8127587180322884E-002  0.18300930996829129        0.0000000000000000     
   9.9407010165674006E-002  0.19088074550734646        0.0000000000000000     
  0.10060323771307871       0.19884194800878663        0.0000000000000000     
   8.7998723864601378E-002  0.16710975982210471        0.0000000000000000     
   8.9344091467315229E-002  0.17482480580732818        0.0000000000000000     
   9.0608593291772677E-002  0.18263048708576379        0.0000000000000000     
   9.1792229337973735E-002  0.19052680365741159        0.0000000000000000     
   9.2894999605918432E-002  0.19851375552227146        0.0000000000000000     
   8.0864658805775216E-002  0.16671643168190467        0.0000000000000000     
   8.2107054318801276E-002  0.17445545342504618        0.0000000000000000     
   8.3271572087007362E-002  0.18228515732626227        0.0000000000000000     
   8.4358212110393335E-002  0.19020554338555284        0.0000000000000000     
   8.5366974388959321E-002  0.19821661160291792        0.0000000000000000     
   7.3916959719302899E-002  0.16635575535673588        0.0000000000000000     
   7.5053857311483563E-002  0.17411958424477517        0.0000000000000000     
   7.6116523566026870E-002  0.18197332068978661        0.0000000000000000     
   7.7104958482932806E-002  0.18991696469177022        0.0000000000000000     
   7.8019162062201386E-002  0.19795051625072604        0.0000000000000000     
  0.10849168871044015       0.19920118906246345        0.0000000000000000     
  0.10970056475487157       0.20722000818177316        0.0000000000000000     
  0.11083379137816399       0.21532074811989738        0.0000000000000000     
  0.11189136858031740       0.22350340887683606        0.0000000000000000     
  0.11287329636133182       0.23176799045258922        0.0000000000000000     
  0.10060323771307871       0.19884194800878663        0.0000000000000000     
  0.10172114458153809       0.20688680996199946        0.0000000000000000     
  0.10276560553005326       0.21500922385637261        0.0000000000000000     
  0.10373662055862429       0.22320918969190615        0.0000000000000000     
  0.10463418966725110       0.23148670746860001        0.0000000000000000     
   9.2894999605918432E-002  0.19851375552227146        0.0000000000000000     
   9.3921170284536920E-002  0.20658352246379769        0.0000000000000000     
   9.4875007562759489E-002  0.21472828426544455        0.0000000000000000     
   9.5756511440586140E-002  0.22294804092721190        0.0000000000000000     
   9.6565681918016788E-002  0.23124279244909990        0.0000000000000000     
   8.5366974388959321E-002  0.19821661160291792        0.0000000000000000     
   8.6300641863868155E-002  0.20631014568716793        0.0000000000000000     
   8.7161997476282671E-002  0.21447792934711307        0.0000000000000000     
   8.7951041226202925E-002  0.22271996258275339        0.0000000000000000     
   8.8667773113628931E-002  0.23103624539408890        0.0000000000000000     
   7.8019162062201386E-002  0.19795051625072604        0.0000000000000000     
   7.8859559319531675E-002  0.20606667963211001        0.0000000000000000     
   7.9626575270622793E-002  0.21425815910137819        0.0000000000000000     
   8.0320209915474741E-002  0.22252495465853050        0.0000000000000000     
   8.0940463254087505E-002  0.23086706630356701        0.0000000000000000     
  0.11287329636133182       0.23176799045258922        0.0000000000000000     
  0.11380791695156962       0.24013095785701746        0.0000000000000000     
  0.11472357258139319       0.24860877609998128        0.0000000000000000     
  0.11562026325080255       0.25720144518148075        0.0000000000000000     
  0.11649798895979765       0.26590896510151574        0.0000000000000000     
  0.10463418966725110       0.23148670746860001        0.0000000000000000     
  0.10546349525036293       0.23986526603301772        0.0000000000000000     
  0.10622971970238899       0.24836835423172282        0.0000000000000000     
  0.10693286302332931       0.25699597206471531        0.0000000000000000     
  0.10757292521318387       0.26574811953199518        0.0000000000000000     
   9.6565681918016788E-002  0.23124279244909990        0.0000000000000000     
   9.7293502567645226E-002  0.23963906043715888        0.0000000000000000     
   9.7930956962065163E-002  0.24816336649743936        0.0000000000000000     
   9.8478045101276612E-002  0.25681571062994135        0.0000000000000000     
   9.8934766985279518E-002  0.26559609283466479        0.0000000000000000     
   8.8667773113628931E-002  0.23103624539408890        0.0000000000000000     
   8.9297938903416529E-002  0.23945234106944097        0.0000000000000000     
   8.9827284360421700E-002  0.24799381289713093        0.0000000000000000     
   9.0255809484644373E-002  0.25666066087715877        0.0000000000000000     
   9.0583514276084617E-002  0.26545288500952452        0.0000000000000000     
   8.0940463254087505E-002  0.23086706630356701        0.0000000000000000     
   8.1476804257676866E-002  0.23930510792986395        0.0000000000000000     
   8.1918701897458576E-002  0.24785969343079747        0.0000000000000000     
   8.2266156173432664E-002  0.25653082280636769        0.0000000000000000     
   8.2519167085599102E-002  0.26531849605657448        0.0000000000000000     
  0.11649798895979765       0.26590896510151574        0.0000000000000000     
  0.11729704596615084       0.27489593658225020        0.0000000000000000     
  0.11795773052763443       0.28432696034584781        0.0000000000000000     
  0.11848004264424838       0.29420203639230869        0.0000000000000000     
  0.11886398231599274       0.30452116472163265        0.0000000000000000     
  0.10757292521318387       0.26574811953199518        0.0000000000000000     
  0.10813088633120257       0.27475690977449058        0.0000000000000000     
  0.10858772643663533       0.28415445593312977        0.0000000000000000     
  0.10894344552948214       0.29394075800791264        0.0000000000000000     
  0.10919804360974300       0.30411581599883930        0.0000000000000000     
   9.8934766985279518E-002  0.26559609283466479        0.0000000000000000     
   9.9312108775639132E-002  0.27460276164815162        0.0000000000000000     
   9.9621056633920568E-002  0.28393396560694378        0.0000000000000000     
   9.9861610560123854E-002  0.29358970471104123        0.0000000000000000     
  0.10003377055424897       0.30356997896044419        0.0000000000000000     
   9.0583514276084617E-002  0.26545288500952452        0.0000000000000000     
   9.0840713299460488E-002  0.27443349220323321        0.0000000000000000     
   9.1057721119490093E-002  0.28366548936728991        0.0000000000000000     
   9.1234537736173488E-002  0.29314887650169469        0.0000000000000000     
   9.1371163149510631E-002  0.30288365360644731        0.0000000000000000     
   8.2519167085599102E-002  0.26531849605657448        0.0000000000000000     
   8.2716699902666627E-002  0.27424910143973547        0.0000000000000000     
   8.2897719893343949E-002  0.28334902721416810        0.0000000000000000     
   8.3062227057631083E-002  0.29261827337987262        0.0000000000000000     
   8.3210221395528000E-002  0.30205683993684873        0.0000000000000000     
   4.5725310754516163E-002   5.9661888090263640E-002   0.0000000000000000     
   4.8052762962979986E-002   6.5091547551878959E-002   0.0000000000000000     
   5.0301906091889136E-002   7.0717801224319241E-002   0.0000000000000000     
   5.2472740141243590E-002   7.6540649107584471E-002   0.0000000000000000     
   5.4565265111043357E-002   8.2560091201674651E-002   0.0000000000000000     
   4.1345578057999322E-002   5.8906898533501645E-002   0.0000000000000000     
   4.3473326044369646E-002   6.4390184580546045E-002   0.0000000000000000     
   4.5530304616191342E-002   7.0060697072898803E-002   0.0000000000000000     
   4.7516513773464414E-002   7.5918436010559906E-002   0.0000000000000000     
   4.9431953516188870E-002   8.1963401393529395E-002   0.0000000000000000     
   3.7083186981904735E-002   5.8237450693964479E-002   0.0000000000000000     
   3.9016247128259914E-002   6.3761043919813923E-002   0.0000000000000000     
   4.0885314146679085E-002   6.9465923022341766E-002   0.0000000000000000     
   4.2690388037162255E-002   7.5352088001548009E-002   0.0000000000000000     
   4.4431468799709412E-002   8.1419538857432666E-002   0.0000000000000000     
   3.2938137526232383E-002   5.7653544571652136E-002   0.0000000000000000     
   3.4681526214650794E-002   6.3204125569682620E-002   0.0000000000000000     
   3.6366934683352364E-002   6.8933479072648157E-002   0.0000000000000000     
   3.7994362932337079E-002   7.4841605080548768E-002   0.0000000000000000     
   3.9563810961604974E-002   8.0928503593384410E-002   0.0000000000000000     
   2.8910429690982280E-002   5.7155180166564630E-002   0.0000000000000000     
   3.0469163303542279E-002   6.2719429530152110E-002   0.0000000000000000     
   3.1975166226211160E-002   6.8463365223817935E-002   0.0000000000000000     
   3.3428438458988921E-002   7.4386987247562139E-002   0.0000000000000000     
   3.4828980001875565E-002   8.0490295601384668E-002   0.0000000000000000     
   5.4565265111043357E-002   8.2560091201674651E-002   0.0000000000000000     
   5.6581717684019005E-002   8.8756582613588639E-002   0.0000000000000000     
   5.8524334542901096E-002   9.5110578450325292E-002   0.0000000000000000     
   6.0393115687689618E-002  0.10162207871188458        0.0000000000000000     
   6.2188061118384597E-002  0.10829108339826654        0.0000000000000000     
   4.9431953516188870E-002   8.1963401393529395E-002   0.0000000000000000     
   5.1278455667997422E-002   8.8180983683944961E-002   0.0000000000000000     
   5.3057852052522773E-002   9.4556573343944239E-002   0.0000000000000000     
   5.4770142669764939E-002  0.10109017037352726        0.0000000000000000     
   5.6415327519723911E-002  0.10778177477269398        0.0000000000000000     
   4.4431468799709412E-002   8.1419538857432666E-002   0.0000000000000000     
   4.6110090299600753E-002   8.7656785020342104E-002   0.0000000000000000     
   4.7727786402116487E-002   9.4052335920622690E-002   0.0000000000000000     
   4.9284557107256599E-002  0.10060619155827445        0.0000000000000000     
   5.0780402415021096E-002  0.10731835193329738        0.0000000000000000     
   3.9563810961604974E-002   8.0928503593384410E-002   0.0000000000000000     
   4.1076621578829034E-002   8.7183986622780096E-002   0.0000000000000000     
   4.2534137591682245E-002   9.3597866180360700E-002   0.0000000000000000     
   4.3936359000164633E-002  0.10017014226612625        0.0000000000000000     
   4.5283285804276173E-002  0.10690081488007674        0.0000000000000000     
   3.4828980001875565E-002   8.0490295601384668E-002   0.0000000000000000     
   3.6178049505682229E-002   8.6762588491258910E-002   0.0000000000000000     
   3.7476905621220039E-002   9.3193164123158229E-002   0.0000000000000000     
   3.8725548348489007E-002   9.9782022497082623E-002   0.0000000000000000     
   3.9923977687489121E-002  0.10652916361303204        0.0000000000000000     
   6.2188061118384597E-002  0.10829108339826654        0.0000000000000000     
   6.3909610774439976E-002  0.11510572718289117        0.0000000000000000     
   6.5558204595309783E-002  0.12205414473917851        0.0000000000000000     
   6.7133842580993988E-002  0.12913633606712852        0.0000000000000000     
   6.8636524731492579E-002  0.13635230116674130        0.0000000000000000     
   5.6415327519723911E-002  0.10778177477269398        0.0000000000000000     
   5.7993116892411399E-002  0.11461911343343346        0.0000000000000000     
   5.9503221077839126E-002  0.12158991324773469        0.0000000000000000     
   6.0945640076007078E-002  0.12869417421559767        0.0000000000000000     
   6.2320373886915276E-002  0.13593189633702238        0.0000000000000000     
   5.0780402415021096E-002  0.10731835193329738        0.0000000000000000     
   5.2214633939450167E-002  0.11417638111395351        0.0000000000000000     
   5.3586563294583979E-002  0.12116784316850487        0.0000000000000000     
   5.4896190480422546E-002  0.12829273809695144        0.0000000000000000     
   5.6143515496965862E-002  0.13555106589929328        0.0000000000000000     
   4.5283285804276173E-002  0.10690081488007674        0.0000000000000000     
   4.6574161915556279E-002  0.11377753022445129        0.0000000000000000     
   4.7808231245544348E-002  0.12078793450148900        0.0000000000000000     
   4.8985493794240380E-002  0.12793202771118992        0.0000000000000000     
   5.0105949561644346E-002  0.13520980985355396        0.0000000000000000     
   3.9923977687489121E-002  0.10652916361303204        0.0000000000000000     
   4.1071700820729751E-002  0.11342256076492681        0.0000000000000000     
   4.2168224930720220E-002  0.12045018724668713        0.0000000000000000     
   4.3213550017460550E-002  0.12761204305831306        0.0000000000000000     
   4.4207676080950734E-002  0.13490812819980455        0.0000000000000000     
   6.8636524731492579E-002  0.13635230116674130        0.0000000000000000     
   7.0066205092910075E-002  0.14368965604269901        0.0000000000000000     
   7.1422837711350967E-002  0.15113601669968402        0.0000000000000000     
   7.2706422586815242E-002  0.15869138313769629        0.0000000000000000     
   7.3916959719302899E-002  0.16635575535673588        0.0000000000000000     
   6.2320373886915276E-002  0.13593189633702238        0.0000000000000000     
   6.3626949671055630E-002  0.14329125917723984        0.0000000000000000     
   6.4864894588920100E-002  0.15076044230148106        0.0000000000000000     
   6.6034208640508685E-002  0.15833944570974612        0.0000000000000000     
   6.7134891825821386E-002  0.16602826940203491        0.0000000000000000     
   5.6143515496965862E-002  0.13555106589929328        0.0000000000000000     
   5.7327783748950235E-002  0.14293131448338192        0.0000000000000000     
   5.8448240641111995E-002  0.15042197175706901        0.0000000000000000     
   5.9504886173451128E-002  0.15802303772035459        0.0000000000000000     
   6.0497720345967648E-002  0.16573451237323852        0.0000000000000000     
   5.0105949561644346E-002  0.13520980985355396        0.0000000000000000     
   5.1168707326593899E-002  0.14260982196112529        0.0000000000000000     
   5.2172875867926641E-002  0.15012060506644784        0.0000000000000000     
   5.3118455185642580E-002  0.15774215916952161        0.0000000000000000     
   5.4005445279741708E-002  0.16547448427034664        0.0000000000000000     
   4.4207676080950734E-002  0.13490812819980455        0.0000000000000000     
   4.5149720403986619E-002  0.14232678161046991        0.0000000000000000     
   4.6038800269364050E-002  0.14985634222961755        0.0000000000000000     
   4.6874915677083025E-002  0.15749681005724733        0.0000000000000000     
   4.7658066627143544E-002  0.16524818509335934        0.0000000000000000     
   7.3916959719302899E-002  0.16635575535673588        0.0000000000000000     
   7.5053857311483563E-002  0.17411958424477517        0.0000000000000000     
   7.6116523566026870E-002  0.18197332068978661        0.0000000000000000     
   7.7104958482932806E-002  0.18991696469177022        0.0000000000000000     
   7.8019162062201386E-002  0.19795051625072604        0.0000000000000000     
   6.7134891825821386E-002  0.16602826940203491        0.0000000000000000     
   6.8166208096533371E-002  0.17381646351799429        0.0000000000000000     
   6.9127421404319878E-002  0.18169357819727100        0.0000000000000000     
   7.0018531749180879E-002  0.18965961343986501        0.0000000000000000     
   7.0839539131116361E-002  0.19771456924577635        0.0000000000000000     
   6.0497720345967648E-002  0.16573451237323852        0.0000000000000000     
   6.1425814325122077E-002  0.17354535649618286        0.0000000000000000     
   6.2288239277374945E-002  0.18144453086964940        0.0000000000000000     
   6.3084995202726271E-002  0.18943203549363830        0.0000000000000000     
   6.3816082101176036E-002  0.19750787036814946        0.0000000000000000     
   5.4005445279741708E-002  0.16547448427034664        0.0000000000000000     
   5.4832675997249655E-002  0.17330626317934081        0.0000000000000000     
   5.5598977185192092E-002  0.18122617870692198        0.0000000000000000     
   5.6304348843569010E-002  0.18923423085309016        0.0000000000000000     
   5.6948790972380398E-002  0.19733041961784528        0.0000000000000000     
   4.7658066627143544E-002  0.16524818509335934        0.0000000000000000     
   4.8386793112916132E-002  0.17309918356746820        0.0000000000000000     
   4.9059635127771319E-002  0.18103852170908863        0.0000000000000000     
   4.9676592671709083E-002  0.18906619951822051        0.0000000000000000     
   5.0237665744729439E-002  0.19718221699486396        0.0000000000000000     
   7.8019162062201386E-002  0.19795051625072604        0.0000000000000000     
   7.8859559319531675E-002  0.20606667963211001        0.0000000000000000     
   7.9626575270622793E-002  0.21425815910137819        0.0000000000000000     
   8.0320209915474741E-002  0.22252495465853050        0.0000000000000000     
   8.0940463254087505E-002  0.23086706630356701        0.0000000000000000     
   7.0839539131116361E-002  0.19771456924577635        0.0000000000000000     
   7.1588594199005956E-002  0.20585227153858415        0.0000000000000000     
   7.2263847601729228E-002  0.21406654624186755        0.0000000000000000     
   7.2865299339286219E-002  0.22235739335562660        0.0000000000000000     
   7.3392949411676872E-002  0.23072481287986116        0.0000000000000000     
   6.3816082101176036E-002  0.19750787036814946        0.0000000000000000     
   6.4478418049769365E-002  0.20566606864655043        0.0000000000000000     
   6.5068921125551363E-002  0.21390066348220890        0.0000000000000000     
   6.5587591328522057E-002  0.22221165487512479        0.0000000000000000     
   6.6034428658681407E-002  0.23059904282529817        0.0000000000000000     
   5.6948790972380398E-002  0.19733041961784528        0.0000000000000000     
   5.7529030871821908E-002  0.20550807095600890        0.0000000000000000     
   5.8041795842089197E-002  0.21376051082240216        0.0000000000000000     
   5.8487085883182258E-002  0.22208773921702527        0.0000000000000000     
   5.8864900995101083E-002  0.23048975613987804        0.0000000000000000     
   5.0237665744729439E-002  0.19718221699486396        0.0000000000000000     
   5.0740432665163579E-002  0.20537827846695944        0.0000000000000000     
   5.1182471751342710E-002  0.21364608826244741        0.0000000000000000     
   5.1563783003266826E-002  0.22198564638132789        0.0000000000000000     
   5.1884366420935933E-002  0.23039695282360087        0.0000000000000000     
   8.0940463254087505E-002  0.23086706630356701        0.0000000000000000     
   8.1476804257676866E-002  0.23930510792986395        0.0000000000000000     
   8.1918701897458576E-002  0.24785969343079747        0.0000000000000000     
   8.2266156173432664E-002  0.25653082280636769        0.0000000000000000     
   8.2519167085599102E-002  0.26531849605657448        0.0000000000000000     
   7.3392949411676872E-002  0.23072481287986116        0.0000000000000000     
   7.3843587972916319E-002  0.23918239372296560        0.0000000000000000     
   7.4214005177019607E-002  0.24774372479333412        0.0000000000000000     
   7.4504201023986735E-002  0.25640880609096672        0.0000000000000000     
   7.4714175513817732E-002  0.26517763761586344        0.0000000000000000     
   6.6034428658681407E-002  0.23059904282529817        0.0000000000000000     
   6.6411779391625042E-002  0.23906923115328360        0.0000000000000000     
   6.6721989802948550E-002  0.24762862367963573        0.0000000000000000     
   6.6965059892651918E-002  0.25627722040435458        0.0000000000000000     
   6.7140989660735159E-002  0.26501502132744015        0.0000000000000000     
   5.8864900995101083E-002  0.23048975613987804        0.0000000000000000     
   5.9181378513803028E-002  0.23896562022081805        0.0000000000000000     
   5.9442655775245393E-002  0.24751439008970241        0.0000000000000000     
   5.9648732779428185E-002  0.25613606574653119        0.0000000000000000     
   5.9799609526351424E-002  0.26483064719130456        0.0000000000000000     
   5.1884366420935933E-002  0.23039695282360087        0.0000000000000000     
   5.2152385339450290E-002  0.23887156092556877        0.0000000000000000     
   5.2376003093910169E-002  0.24740102402353409        0.0000000000000000     
   5.2555219684315570E-002  0.25598534211749674        0.0000000000000000     
   5.2690035110666486E-002  0.26462451520745678        0.0000000000000000     
   8.2519167085599102E-002  0.26531849605657448        0.0000000000000000     
   8.2716699902666627E-002  0.27424910143973547        0.0000000000000000     
   8.2897719893343949E-002  0.28334902721416810        0.0000000000000000     
   8.3062227057631083E-002  0.29261827337987262        0.0000000000000000     
   8.3210221395528000E-002  0.30205683993684873        0.0000000000000000     
   7.4714175513817732E-002  0.26517763761586344        0.0000000000000000     
   7.4884868198338797E-002  0.27404390327917683        0.0000000000000000     
   7.5057218629376199E-002  0.28300128699205945        0.0000000000000000     
   7.5231226806929938E-002  0.29204978875451137        0.0000000000000000     
   7.5406892730999986E-002  0.30118940856653259        0.0000000000000000     
   6.7140989660735159E-002  0.26501502132744015        0.0000000000000000     
   6.7290017799558191E-002  0.27381221164307573        0.0000000000000000     
   6.7452383001480917E-002  0.28263897654544484        0.0000000000000000     
   6.7628085266503338E-002  0.29149531603454731        0.0000000000000000     
   6.7817124594625453E-002  0.30038123011038331        0.0000000000000000     
   5.9799609526351424E-002  0.26483064719130456        0.0000000000000000     
   5.9932148706324809E-002  0.27355402653143224        0.0000000000000000     
   6.0083213009658118E-002  0.28226209587432416        0.0000000000000000     
   6.0252802436351324E-002  0.29095485521998032        0.0000000000000000     
   6.0440916986404435E-002  0.29963230456840068        0.0000000000000000     
   5.2690035110666486E-002  0.26462451520745678        0.0000000000000000     
   5.2811260918638657E-002  0.27326934794424623        0.0000000000000000     
   5.2949708653907787E-002  0.28187064497869746        0.0000000000000000     
   5.3105378316473877E-002  0.29042840631081035        0.0000000000000000     
   5.3278269906336925E-002  0.29894263194058485        0.0000000000000000     
   2.8910429690982280E-002   5.7155180166564630E-002   0.0000000000000000     
   3.0469163303542279E-002   6.2719429530152110E-002   0.0000000000000000     
   3.1975166226211160E-002   6.8463365223817935E-002   0.0000000000000000     
   3.3428438458988921E-002   7.4386987247562139E-002   0.0000000000000000     
   3.4828980001875565E-002   8.0490295601384668E-002   0.0000000000000000     
   2.5008520535943483E-002   5.6727682836422141E-002   0.0000000000000000     
   2.6380292592233727E-002   6.2298927708667226E-002   0.0000000000000000     
   2.7704975757403060E-002   6.8052150999773312E-002   0.0000000000000000     
   2.8982570031451486E-002   7.3987352709740412E-002   0.0000000000000000     
   3.0213075414379002E-002   8.0104532838568554E-002   0.0000000000000000     
   2.1240867120905078E-002   5.6356377938944879E-002   0.0000000000000000     
   2.2416048278024472E-002   6.1934592012672769E-002   0.0000000000000000     
   2.3551330259075610E-002   6.7696405924436445E-002   0.0000000000000000     
   2.4646713064058492E-002   7.3641819674235928E-002   0.0000000000000000     
   2.5702196692973106E-002   7.9770833262071184E-002   0.0000000000000000     
   1.7607469445867052E-002   5.6041265474132823E-002   0.0000000000000000     
   1.8576430360914522E-002   6.1626422442168739E-002   0.0000000000000000     
   1.9514229731228818E-002   6.7396129997807336E-002   0.0000000000000000     
   2.0420867556809937E-002   7.3350388141048592E-002   0.0000000000000000     
   2.1296343837657883E-002   7.9489196871892556E-002   0.0000000000000000     
   1.4108327510829410E-002   5.5782345441985993E-002   0.0000000000000000     
   1.4861438840903868E-002   6.1374418997155129E-002   0.0000000000000000     
   1.5593674173862676E-002   6.7151323219885969E-002   0.0000000000000000     
   1.6305033509705830E-002   7.3113058110178486E-002   0.0000000000000000     
   1.6995516848433326E-002   7.9259623668032700E-002   0.0000000000000000     
   3.4828980001875565E-002   8.0490295601384668E-002   0.0000000000000000     
   3.6178049505682229E-002   8.6762588491258910E-002   0.0000000000000000     
   3.7476905621220039E-002   9.3193164123158229E-002   0.0000000000000000     
   3.8725548348489007E-002   9.9782022497082623E-002   0.0000000000000000     
   3.9923977687489121E-002  0.10652916361303204        0.0000000000000000     
   3.0213075414379002E-002   8.0104532838568554E-002   0.0000000000000000     
   3.1397533421735929E-002   8.6391785628998963E-002   0.0000000000000000     
   3.2536985569072578E-002   9.2837205323773028E-002   0.0000000000000000     
   3.3631431856388942E-002   9.9440791922890640E-002   0.0000000000000000     
   3.4680872283685021E-002  0.10620254542635184        0.0000000000000000     
   2.5702196692973106E-002   7.9770833262071184E-002   0.0000000000000000     
   2.6718232668565722E-002   8.6070773039220658E-002   0.0000000000000000     
   2.7695272513582569E-002   9.2528965356962742E-002   0.0000000000000000     
   2.8633316228023651E-002   9.9145410215297408E-002   0.0000000000000000     
   2.9532363811888972E-002  0.10592010761422473        0.0000000000000000     
   2.1296343837657883E-002   7.9489196871892556E-002   0.0000000000000000     
   2.2140147246171592E-002   8.5799550721923926E-002   0.0000000000000000     
   2.2951766454750010E-002   9.2268444222727383E-002   0.0000000000000000     
   2.3731201463393133E-002   9.8895877374302971E-002   0.0000000000000000     
   2.4478452272100954E-002  0.10568185017665065        0.0000000000000000     
   1.6995516848433326E-002   7.9259623668032700E-002   0.0000000000000000     
   1.7663277154553559E-002   8.5578118677108808E-002   0.0000000000000000     
   1.8306467392574913E-002   9.2055641921066980E-002   0.0000000000000000     
   1.8925087562497386E-002   9.8692193399907258E-002   0.0000000000000000     
   1.9519137664320979E-002  0.10548777311362961        0.0000000000000000     
   3.9923977687489121E-002  0.10652916361303204        0.0000000000000000     
   4.1071700820729751E-002  0.11342256076492681        0.0000000000000000     
   4.2168224930720220E-002  0.12045018724668713        0.0000000000000000     
   4.3213550017460550E-002  0.12761204305831306        0.0000000000000000     
   4.4207676080950734E-002  0.13490812819980455        0.0000000000000000     
   3.4680872283685021E-002  0.10620254542635184        0.0000000000000000     
   3.5685119152932668E-002  0.11311079478416976        0.0000000000000000     
   3.6643984766103706E-002  0.12015386894635743        0.0000000000000000     
   3.7557469123198142E-002  0.12733176791291487        0.0000000000000000     
   3.8425572224215963E-002  0.13464449168384210        0.0000000000000000     
   2.9532363811888972E-002  0.10592010761422473        0.0000000000000000     
   3.0392285410127177E-002  0.11284155433096986        0.0000000000000000     
   3.1212951167686916E-002  0.11989824714275811        0.0000000000000000     
   3.1994361084568192E-002  0.12709018604958941        0.0000000000000000     
   3.2736515160771001E-002  0.13441737105146381        0.0000000000000000     
   2.4478452272100954E-002  0.10568185017665065        0.0000000000000000     
   2.5193199592313264E-002  0.11261483940532713        0.0000000000000000     
   2.5875124135469843E-002  0.11968332183588914        0.0000000000000000     
   2.6524225901570699E-002  0.12688729746833666        0.0000000000000000     
   2.7140504890615820E-002  0.13422676630266969        0.0000000000000000     
   1.9519137664320979E-002  0.10548777311362961        0.0000000000000000     
   2.0087861699490932E-002  0.11243065000724156        0.0000000000000000     
   2.0630503669452491E-002  0.11950909302575055        0.0000000000000000     
   2.1147063574205663E-002  0.12672310216915661        0.0000000000000000     
   2.1637541413750440E-002  0.13407267743745976        0.0000000000000000     
   4.4207676080950734E-002  0.13490812819980455        0.0000000000000000     
   4.5149720403986619E-002  0.14232678161046991        0.0000000000000000     
   4.6038800269364050E-002  0.14985634222961755        0.0000000000000000     
   4.6874915677083025E-002  0.15749681005724733        0.0000000000000000     
   4.7658066627143544E-002  0.16524818509335934        0.0000000000000000     
   3.8425572224215963E-002  0.13464449168384210        0.0000000000000000     
   3.9247475345327285E-002  0.14208011742532942        0.0000000000000000     
   4.0022359762702180E-002  0.14962672230356730        0.0000000000000000     
   4.0750225476340655E-002  0.15728430631855561        0.0000000000000000     
   4.1431072486242719E-002  0.16505286947029446        0.0000000000000000     
   3.2736515160771001E-002  0.13441737105146381        0.0000000000000000     
   3.3438624514814788E-002  0.14186775339961741        0.0000000000000000     
   3.4099900265219002E-002  0.14942928434528624        0.0000000000000000     
   3.4720342411983664E-002  0.15710196388847045        0.0000000000000000     
   3.5299950955108746E-002  0.16488579202916992        0.0000000000000000     
   2.7140504890615820E-002  0.13422676630266969        0.0000000000000000     
   2.7723167912449130E-002  0.14168968953333377        0.0000000000000000     
   2.8271421776914538E-002  0.14926402835477448        0.0000000000000000     
   2.8785266484012032E-002  0.15694978276699179        0.0000000000000000     
   2.9264702033741638E-002  0.16474695276998572        0.0000000000000000     
   2.1637541413750440E-002  0.13407267743745976        0.0000000000000000     
   2.2101105538230310E-002  0.14154592582647865        0.0000000000000000     
   2.2536924297788762E-002  0.14913095433203194        0.0000000000000000     
   2.2944997692425785E-002  0.15682776295411968        0.0000000000000000     
   2.3325325722141389E-002  0.16463635169274182        0.0000000000000000     
   4.7658066627143544E-002  0.16524818509335934        0.0000000000000000     
   4.8386793112916132E-002  0.17309918356746820        0.0000000000000000     
   4.9059635127771319E-002  0.18103852170908863        0.0000000000000000     
   4.9676592671709083E-002  0.18906619951822051        0.0000000000000000     
   5.0237665744729439E-002  0.19718221699486396        0.0000000000000000     
   4.1431072486242719E-002  0.16505286947029446        0.0000000000000000     
   4.2063224682553899E-002  0.17292122875031035        0.0000000000000000     
   4.2645005955419736E-002  0.18087820115012984        0.0000000000000000     
   4.3176416304840225E-002  0.18892378666975287        0.0000000000000000     
   4.3657455730815385E-002  0.19705798530917951        0.0000000000000000     
   3.5299950955108746E-002  0.16488579202916992        0.0000000000000000     
   3.5837029716595324E-002  0.17276950981761255        0.0000000000000000     
   3.6329882518444469E-002  0.18074185830402609        0.0000000000000000     
   3.6778509360656179E-002  0.18880283748841059        0.0000000000000000     
   3.7182910243230435E-002  0.19695244737076606        0.0000000000000000     
   2.9264702033741638E-002  0.16474695276998572        0.0000000000000000     
   2.9708208215040437E-002  0.17264402676937476        0.0000000000000000     
   3.0114264816845527E-002  0.18062949317077742        0.0000000000000000     
   3.0482871839156919E-002  0.18870335197419369        0.0000000000000000     
   3.0814029281974603E-002  0.19686560317962359        0.0000000000000000     
   2.3325325722141389E-002  0.16463635169274182        0.0000000000000000     
   2.3676760177889219E-002  0.17254477960559700        0.0000000000000000     
   2.3998152850622907E-002  0.18054110575038376        0.0000000000000000     
   2.4289503740342465E-002  0.18862533012710217        0.0000000000000000     
   2.4550812847047881E-002  0.19679745273575217        0.0000000000000000     
   5.0237665744729439E-002  0.19718221699486396        0.0000000000000000     
   5.0740432665163579E-002  0.20537827846695944        0.0000000000000000     
   5.1182471751342710E-002  0.21364608826244741        0.0000000000000000     
   5.1563783003266826E-002  0.22198564638132789        0.0000000000000000     
   5.1884366420935933E-002  0.23039695282360087        0.0000000000000000     
   4.3657455730815385E-002  0.19705798530917951        0.0000000000000000     
   4.4086911542787634E-002  0.20527050821782364        0.0000000000000000     
   4.4463571050199407E-002  0.21355106654509901        0.0000000000000000     
   4.4787434253050706E-002  0.22189966029100572        0.0000000000000000     
   4.5058501151341537E-002  0.23031628945554372        0.0000000000000000     
   3.7182910243230435E-002  0.19695244737076606        0.0000000000000000     
   3.7542755617687287E-002  0.20517857724702290        0.0000000000000000     
   3.7857715935546758E-002  0.21346911641311145        0.0000000000000000     
   3.8127791196808841E-002  0.22182406486903172        0.0000000000000000     
   3.8352981401473550E-002  0.23024342261478375        0.0000000000000000     
   3.0814029281974603E-002  0.19686560317962359        0.0000000000000000     
   3.1107964889862564E-002  0.20510248555455726        0.0000000000000000     
   3.1364906407384770E-002  0.21340023786648471        0.0000000000000000     
   3.1584853834541231E-002  0.22175886011540596        0.0000000000000000     
   3.1767807171331944E-002  0.23017835230132094        0.0000000000000000     
   2.4550812847047881E-002  0.19679745273575217        0.0000000000000000     
   2.4782539359313450E-002  0.20504223314042674        0.0000000000000000     
   2.4985142465713442E-002  0.21334443090521879        0.0000000000000000     
   2.5158622166247872E-002  0.22170404603012833        0.0000000000000000     
   2.5302978460916729E-002  0.23012107851515540        0.0000000000000000     
   5.1884366420935933E-002  0.23039695282360087        0.0000000000000000     
   5.2152385339450290E-002  0.23887156092556877        0.0000000000000000     
   5.2376003093910169E-002  0.24740102402353409        0.0000000000000000     
   5.2555219684315570E-002  0.25598534211749674        0.0000000000000000     
   5.2690035110666486E-002  0.26462451520745678        0.0000000000000000     
   4.5058501151341537E-002  0.23031628945554372        0.0000000000000000     
   4.5285675586190802E-002  0.23878562784961810        0.0000000000000000     
   4.5477861398717408E-002  0.24729234928413391        0.0000000000000000     
   4.5635058588921348E-002  0.25583645375909114        0.0000000000000000     
   4.5757267156802638E-002  0.26441794127448981        0.0000000000000000     
   3.8352981401473550E-002  0.23024342261478375        0.0000000000000000     
   3.8542124971648585E-002  0.23870639557504800        0.0000000000000000     
   3.8704060329441702E-002  0.24719218967450490        0.0000000000000000     
   3.8838787474852879E-002  0.25570080491315461        0.0000000000000000     
   3.8946306407882131E-002  0.26423224129099693        0.0000000000000000     
   3.1767807171331944E-002  0.23017835230132094        0.0000000000000000     
   3.1921733495823626E-002  0.23863386410185847        0.0000000000000000     
   3.2054599886083029E-002  0.24710054519464716        0.0000000000000000     
   3.2166406342110140E-002  0.25557839557968703        0.0000000000000000     
   3.2257152863904966E-002  0.26406741525697802        0.0000000000000000     
   2.5302978460916729E-002  0.23012107851515540        0.0000000000000000     
   2.5424501158715938E-002  0.23856803343004959        0.0000000000000000     
   2.5529480068641409E-002  0.24701741584456063        0.0000000000000000     
   2.5617915190693140E-002  0.25546922575868847        0.0000000000000000     
   2.5689806524871142E-002  0.26392346317243315        0.0000000000000000     
   5.2690035110666486E-002  0.26462451520745678        0.0000000000000000     
   5.2811260918638657E-002  0.27326934794424623        0.0000000000000000     
   5.2949708653907787E-002  0.28187064497869746        0.0000000000000000     
   5.3105378316473877E-002  0.29042840631081035        0.0000000000000000     
   5.3278269906336925E-002  0.29894263194058485        0.0000000000000000     
   4.5757267156802638E-002  0.26441794127448981        0.0000000000000000     
   4.5868592473553134E-002  0.27298688203128191        0.0000000000000000     
   4.5993139910364716E-002  0.28149334623041949        0.0000000000000000     
   4.6130909467237378E-002  0.28993733387190235        0.0000000000000000     
   4.6281901144171113E-002  0.29831884495573080        0.0000000000000000     
   3.8946306407882131E-002  0.26423224129099693        0.0000000000000000     
   3.9045381408121665E-002  0.27273533494230323        0.0000000000000000     
   3.9154776755163684E-002  0.28115892200134479        0.0000000000000000     
   3.9274492449008200E-002  0.28950300246812155        0.0000000000000000     
   3.9404528489655193E-002  0.29776757634263357        0.0000000000000000     
   3.2257152863904966E-002  0.26406741525697802        0.0000000000000000     
   3.2341627722344238E-002  0.27251470667731015        0.0000000000000000     
   3.2434619188304696E-002  0.28086737229147340        0.0000000000000000     
   3.2536127261786341E-002  0.28912541209946763        0.0000000000000000     
   3.2646151942789157E-002  0.29728882610129304        0.0000000000000000     
   2.5689806524871142E-002  0.26392346317243315        0.0000000000000000     
   2.5757331416220858E-002  0.27232499723630271        0.0000000000000000     
   2.5832667209787746E-002  0.28061869710080528        0.0000000000000000     
   2.5915813905571794E-002  0.28880456276594085        0.0000000000000000     
   2.6006771503573018E-002  0.29688259423170937        0.0000000000000000     
   1.4108327510829410E-002   5.5782345441985993E-002   0.0000000000000000     
   1.4861438840903868E-002   6.1374418997155129E-002   0.0000000000000000     
   1.5593674173862676E-002   6.7151323219885969E-002   0.0000000000000000     
   1.6305033509705830E-002   7.3113058110178486E-002   0.0000000000000000     
   1.6995516848433326E-002   7.9259623668032700E-002   0.0000000000000000     
   1.0652546492583180E-002   5.5580374603300800E-002   0.0000000000000000     
   1.1193090172212544E-002   6.1178488662759545E-002   0.0000000000000000     
   1.1722357233867010E-002   6.6961385041805849E-002   0.0000000000000000     
   1.2240347677546585E-002   7.2929063740439670E-002   0.0000000000000000     
   1.2747061503251264E-002   7.9081524758661023E-002   0.0000000000000000     
   7.1492315679193858E-003   5.5436109718873680E-002   0.0000000000000000     
   7.4934008090605589E-003   6.1038538424109577E-002   0.0000000000000000     
   7.8329725581316369E-003   6.6825714914700407E-002   0.0000000000000000     
   8.1679468151326234E-003   7.2797639190646204E-002   0.0000000000000000     
   8.4983235800635149E-003   7.8954311251946949E-002   0.0000000000000000     
   3.5983827368380296E-003   5.5349550788704627E-002   0.0000000000000000     
   3.7623707514479170E-003   6.0954568281205192E-002   0.0000000000000000     
   3.9255201466565559E-003   6.6744312838569714E-002   0.0000000000000000     
   4.0878309224639435E-003   7.2718784460798144E-002   0.0000000000000000     
   4.2493030788700844E-003   7.8877983147890490E-002   0.0000000000000000     
  -6.6089061306895402E-013   5.5320697812793633E-002   0.0000000000000000     
  -6.2537908879223281E-013   6.0926578234046430E-002   0.0000000000000000     
  -5.5823282194694679E-013   6.6717178813413713E-002   0.0000000000000000     
  -4.5945043017532605E-013   7.2692499550895448E-002   0.0000000000000000     
  -3.2903280794416290E-013   7.8852540446491634E-002   0.0000000000000000     
   1.6995516848433326E-002   7.9259623668032700E-002   0.0000000000000000     
   1.7663277154553559E-002   8.5578118677108808E-002   0.0000000000000000     
   1.8306467392574913E-002   9.2055641921066980E-002   0.0000000000000000     
   1.8925087562497386E-002   9.8692193399907258E-002   0.0000000000000000     
   1.9519137664320979E-002  0.10548777311362961        0.0000000000000000     
   1.2747061503251264E-002   7.9081524758661023E-002   0.0000000000000000     
   1.3239625512709571E-002   8.5406148882089153E-002   0.0000000000000000     
   1.3715166507650029E-002   9.1890316896343305E-002   0.0000000000000000     
   1.4173684488072637E-002   9.8534028801423423E-002   0.0000000000000000     
   1.4615179453977398E-002  0.10533728459732958        0.0000000000000000     
   8.4983235800635149E-003   7.8954311251946949E-002   0.0000000000000000     
   8.8211954396375906E-003   8.5283313314178849E-002   0.0000000000000000     
   9.1336549805681264E-003   9.1772227592918032E-002   0.0000000000000000     
   9.4357022028551223E-003   9.8421054088164567E-002   0.0000000000000000     
   9.7273371064985764E-003  0.10522979279991843        0.0000000000000000     
   4.2493030788700844E-003   7.8877983147890490E-002   0.0000000000000000     
   4.4079869353376207E-003   8.5209611973377827E-002   0.0000000000000000     
   4.5619328113292047E-003   9.1701374010791217E-002   0.0000000000000000     
   4.7111407068448352E-003   9.8353269260130660E-002   0.0000000000000000     
   4.8556106218845133E-003  0.10516529772139614        0.0000000000000000     
  -3.2903280794416290E-013   7.8852540446491634E-002   0.0000000000000000     
  -1.9034036499721019E-013   8.5185044859686157E-002   0.0000000000000000     
  -6.6736546844303746E-014   9.1677756149962833E-002   0.0000000000000000     
   4.1780489658249653E-014   9.8330674317321717E-002   0.0000000000000000     
   1.3520868452632229E-013  0.10514379936176277        0.0000000000000000     
   1.9519137664320979E-002  0.10548777311362961        0.0000000000000000     
   2.0087861699490932E-002  0.11243065000724156        0.0000000000000000     
   2.0630503669452491E-002  0.11950909302575055        0.0000000000000000     
   2.1147063574205663E-002  0.12672310216915661        0.0000000000000000     
   2.1637541413750440E-002  0.13407267743745976        0.0000000000000000     
   1.4615179453977398E-002  0.10533728459732958        0.0000000000000000     
   1.5038522395540897E-002  0.11228808920220214        0.0000000000000000     
   1.5442584302939738E-002  0.11937444753418160        0.0000000000000000     
   1.5827365176173912E-002  0.12659635959326790        0.0000000000000000     
   1.6192865015243425E-002  0.13395382537946107        0.0000000000000000     
   9.7273371064985764E-003  0.10522979279991843        0.0000000000000000     
   1.0007432344343887E-002  0.11218626005569793        0.0000000000000000     
   1.0274860569236452E-002  0.11927827218302152        0.0000000000000000     
   1.0529621781176269E-002  0.12650582918188910        0.0000000000000000     
   1.0771715980163339E-002  0.13386893105230072        0.0000000000000000     
   4.8556106218845133E-003  0.10516529772139614        0.0000000000000000     
   4.9945915458998943E-003  0.11212516256772893        0.0000000000000000     
   5.1273324683426330E-003  0.11922056697227029        0.0000000000000000     
   5.2538333892127292E-003  0.12645151093502022        0.0000000000000000     
   5.3740943085101873E-003  0.13381799445597872        0.0000000000000000     
   1.3520868452632229E-013  0.10514379936176277        0.0000000000000000     
   2.0891968710579079E-013  0.11210479673829513        0.0000000000000000     
   2.5828319517862131E-013  0.11920133190192797        0.0000000000000000     
   2.8329731139101200E-013  0.12643340485266127        0.0000000000000000     
   2.8396382467654746E-013  0.13380101559049504        0.0000000000000000     
   2.1637541413750440E-002  0.13407267743745976        0.0000000000000000     
   2.2101105538230310E-002  0.14154592582647865        0.0000000000000000     
   2.2536924297788762E-002  0.14913095433203194        0.0000000000000000     
   2.2944997692425785E-002  0.15682776295411968        0.0000000000000000     
   2.3325325722141389E-002  0.16463635169274182        0.0000000000000000     
   1.6192865015243425E-002  0.13395382537946107        0.0000000000000000     
   1.6538262496998517E-002  0.14143513890272699        0.0000000000000000     
   1.6862736298289421E-002  0.14902859417303155        0.0000000000000000     
   1.7166286419116147E-002  0.15673419119037471        0.0000000000000000     
   1.7448912859478694E-002  0.16455192995475643        0.0000000000000000     
   1.0771715980163339E-002  0.13386893105230072        0.0000000000000000     
   1.1000463893593920E-002  0.14135600538575388        0.0000000000000000     
   1.1215186248864261E-002  0.14895547977374612        0.0000000000000000     
   1.1415883045974365E-002  0.15666735421627739        0.0000000000000000     
   1.1602554284924229E-002  0.16449162871334766        0.0000000000000000     
   5.3740943085101873E-003  0.13381799445597872        0.0000000000000000     
   5.4877097280165250E-003  0.14130852527555934        0.0000000000000000     
   5.5942741495132748E-003  0.14891161113417570        0.0000000000000000     
   5.6937875730004315E-003  0.15662725203182778        0.0000000000000000     
   5.7862499984779993E-003  0.16445544796851561        0.0000000000000000     
   2.8396382467654746E-013  0.13380101559049504        0.0000000000000000     
   2.6633621523497464E-013  0.14129269857214335        0.0000000000000000     
   2.3646536118082651E-013  0.14889698825432032        0.0000000000000000     
   1.9435473196105502E-013  0.15661388463702591        0.0000000000000000     
   1.4000129180957721E-013  0.16444338772026013        0.0000000000000000     
   2.3325325722141389E-002  0.16463635169274182        0.0000000000000000     
   2.3676760177889219E-002  0.17254477960559700        0.0000000000000000     
   2.3998152850622907E-002  0.18054110575038376        0.0000000000000000     
   2.4289503740342465E-002  0.18862533012710217        0.0000000000000000     
   2.4550812847047881E-002  0.19679745273575217        0.0000000000000000     
   1.7448912859478694E-002  0.16455192995475643        0.0000000000000000     
   1.7709891688064406E-002  0.17246941653674741        0.0000000000000000     
   1.7948498973560642E-002  0.18047425700691816        0.0000000000000000     
   1.8164734715967398E-002  0.18856645136526873        0.0000000000000000     
   1.8358598915284678E-002  0.19674599961179906        0.0000000000000000     
   1.1602554284924229E-002  0.16449162871334766        0.0000000000000000     
   1.1774808828488737E-002  0.17241558577329405        0.0000000000000000     
   1.1932255539442767E-002  0.18042650790445355        0.0000000000000000     
   1.2074894417786322E-002  0.18852439510682603        0.0000000000000000     
   1.2202725463519398E-002  0.19670924738041165        0.0000000000000000     
   5.7862499984779993E-003  0.16445544796851561        0.0000000000000000     
   5.8715115991622045E-003  0.17238328731523697        0.0000000000000000     
   5.9494225482692818E-003  0.18039785844298983        0.0000000000000000     
   6.0199828457992294E-003  0.18849916135177414        0.0000000000000000     
   6.0831924917520474E-003  0.19668719604158993        0.0000000000000000     
   1.4000129180957721E-013  0.16444338772026013        0.0000000000000000     
   8.4810630740506099E-014  0.17237252116257615        0.0000000000000000     
   4.0182700916657765E-014  0.18038830862252711        0.0000000000000000     
   6.1210802052014124E-015  0.18849075010011301        0.0000000000000000     
  -1.7379327144073642E-014  0.19667984559533386        0.0000000000000000     
   2.4550812847047881E-002  0.19679745273575217        0.0000000000000000     
   2.4782539359313450E-002  0.20504223314042674        0.0000000000000000     
   2.4985142465713442E-002  0.21334443090521879        0.0000000000000000     
   2.5158622166247872E-002  0.22170404603012833        0.0000000000000000     
   2.5302978460916729E-002  0.23012107851515540        0.0000000000000000     
   1.8358598915284678E-002  0.19674599961179906        0.0000000000000000     
   1.8530573450420768E-002  0.20499644196233643        0.0000000000000000     
   1.8681140200283962E-002  0.21330131863270796        0.0000000000000000     
   1.8810299164874266E-002  0.22166062962291366        0.0000000000000000     
   1.8918050344191677E-002  0.23007437493295360        0.0000000000000000     
   1.2202725463519398E-002  0.19670924738041165        0.0000000000000000     
   1.2316161587565350E-002  0.20496373397799147        0.0000000000000000     
   1.2415615700847524E-002  0.21327052415234643        0.0000000000000000     
   1.2501087803365927E-002  0.22162961790347674        0.0000000000000000     
   1.2572577895120556E-002  0.23004101523138226        0.0000000000000000     
   6.0831924917520474E-003  0.19668719604158993        0.0000000000000000     
   6.1393037707471922E-003  0.20494410918739173        0.0000000000000000     
   6.1885689674041266E-003  0.21325204746413429        0.0000000000000000     
   6.2309880817228488E-003  0.22161101087181745        0.0000000000000000     
   6.2665611137033587E-003  0.23002099941044132        0.0000000000000000     
  -1.7379327144073642E-014  0.19667984559533386        0.0000000000000000     
  -3.3699822446497940E-014  0.20493756759053738        0.0000000000000000     
  -4.6229404852826672E-014  0.21324588856807139        0.0000000000000000     
  -5.4965987273877803E-014  0.22160480852793588        0.0000000000000000     
  -5.9910409966335010E-014  0.23001432747013079        0.0000000000000000     
   2.5302978460916729E-002  0.23012107851515540        0.0000000000000000     
   2.5424501158715938E-002  0.23856803343004959        0.0000000000000000     
   2.5529480068641409E-002  0.24701741584456063        0.0000000000000000     
   2.5617915190693140E-002  0.25546922575868847        0.0000000000000000     
   2.5689806524871142E-002  0.26392346317243315        0.0000000000000000     
   1.8918050344191677E-002  0.23007437493295360        0.0000000000000000     
   1.9008730260480486E-002  0.23851336319282124        0.0000000000000000     
   1.9086675435984975E-002  0.24694840303251001        0.0000000000000000     
   1.9151885870705151E-002  0.25537949445201991        0.0000000000000000     
   1.9204361564641011E-002  0.26380663745135102        0.0000000000000000     
   1.2572577895120556E-002  0.23004101523138226        0.0000000000000000     
   1.2632723101272258E-002  0.23847431302337324        0.0000000000000000     
   1.2684160546981883E-002  0.24689910816675989        0.0000000000000000     
   1.2726890232249440E-002  0.25531540066154224        0.0000000000000000     
   1.2760912157074917E-002  0.26372319050772020        0.0000000000000000     
   6.2665611137033587E-003  0.23002099941044132        0.0000000000000000     
   6.2964796810912544E-003  0.23845088292170569        0.0000000000000000     
   6.3219354016321372E-003  0.24686953124731040        0.0000000000000000     
   6.3429282753260062E-003  0.25527694438725540        0.0000000000000000     
   6.3594583021728606E-003  0.26367312234154072        0.0000000000000000     
  -5.9910409966335010E-014  0.23001432747013079        0.0000000000000000     
  -6.2525071925501052E-014  0.23844307288781849        0.0000000000000000     
  -6.4269444800812980E-014  0.24685967227416139        0.0000000000000000     
  -6.5147675665580551E-014  0.25526412562915951        0.0000000000000000     
  -6.5154479034212898E-014  0.26365643295281271        0.0000000000000000     
   2.5689806524871142E-002  0.26392346317243315        0.0000000000000000     
   2.5757331416220858E-002  0.27232499723630271        0.0000000000000000     
   2.5832667209787746E-002  0.28061869710080528        0.0000000000000000     
   2.5915813905571794E-002  0.28880456276594085        0.0000000000000000     
   2.6006771503573018E-002  0.29688259423170937        0.0000000000000000     
   1.9204361564641011E-002  0.26380663745135102        0.0000000000000000     
   1.9254072490480761E-002  0.27217252846091444        0.0000000000000000     
   1.9310988620912611E-002  0.28041986391112150        0.0000000000000000     
   1.9375109955936571E-002  0.28854864380197209        0.0000000000000000     
   1.9446436495552624E-002  0.29655886813346627        0.0000000000000000     
   1.2760912157074917E-002  0.26372319050772020        0.0000000000000000     
   1.2793430945853177E-002  0.27206362219277880        0.0000000000000000     
   1.2831651222979081E-002  0.28027784020420282        0.0000000000000000     
   1.2875572988452632E-002  0.28836584454199243        0.0000000000000000     
   1.2925196242273826E-002  0.29632763520614747        0.0000000000000000     
   6.3594583021728606E-003  0.26367312234154072        0.0000000000000000     
   6.3754067823381068E-003  0.27199827843189572        0.0000000000000000     
   6.3946550159871499E-003  0.28019262598004935        0.0000000000000000     
   6.4172030031199884E-003  0.28825616498600182        0.0000000000000000     
   6.4430507437366240E-003  0.29618889544975302        0.0000000000000000     
  -6.5154479034212898E-014  0.26365643295281271        0.0000000000000000     
  -6.4449313941228326E-014  0.27197649717826522        0.0000000000000000     
  -6.3184592107023985E-014  0.28016422123866108        0.0000000000000000     
  -6.1361695889369794E-014  0.28821960513400036        0.0000000000000000     
  -5.8979730821473453E-014  0.29614264886428288        0.0000000000000000     
  -6.6089061306895402E-013   5.5320697812793633E-002   0.0000000000000000     
  -6.2537908879223281E-013   6.0926578234046430E-002   0.0000000000000000     
  -5.5823282194694679E-013   6.6717178813413713E-002   0.0000000000000000     
  -4.5945043017532605E-013   7.2692499550895448E-002   0.0000000000000000     
  -3.2903280794416290E-013   7.8852540446491634E-002   0.0000000000000000     
  -3.5983827378270766E-003   5.5349550790839051E-002   0.0000000000000000     
  -3.7623707524149473E-003   6.0954568282469757E-002   0.0000000000000000     
  -3.9255201475370408E-003   6.6744312839170677E-002   0.0000000000000000     
  -4.0878309231933531E-003   7.2718784460941863E-002   0.0000000000000000     
  -4.2493030793838895E-003   7.8877983147783257E-002   0.0000000000000000     
  -7.1492315679102308E-003   5.5436109722539234E-002   0.0000000000000000     
  -7.4934008091764037E-003   6.1038538426311628E-002   0.0000000000000000     
  -7.8329725583041795E-003   6.6825714915778919E-002   0.0000000000000000     
  -8.1679468152935589E-003   7.2797639190941135E-002   0.0000000000000000     
  -8.4983235801445421E-003   7.8954311251798248E-002   0.0000000000000000     
  -1.0652546490910353E-002   5.5580374607894160E-002   0.0000000000000000     
  -1.1193090170909744E-002   6.1178488665572059E-002   0.0000000000000000     
  -1.1722357232859647E-002   6.6961385043238425E-002   0.0000000000000000     
  -1.2240347676760063E-002   7.2929063740893280E-002   0.0000000000000000     
  -1.2747061502610992E-002   7.9081524758536581E-002   0.0000000000000000     
  -1.4108327506827441E-002   5.5782345446903844E-002   0.0000000000000000     
  -1.4861438837614975E-002   6.1374419000251042E-002   0.0000000000000000     
  -1.5593674171203449E-002   6.7151323221549167E-002   0.0000000000000000     
  -1.6305033507592871E-002   7.3113058110798254E-002   0.0000000000000000     
  -1.6995516846783239E-002   7.9259623667998297E-002   0.0000000000000000     
  -3.2903280794416290E-013   7.8852540446491634E-002   0.0000000000000000     
  -1.9034036499721019E-013   8.5185044859686157E-002   0.0000000000000000     
  -6.6736546844303746E-014   9.1677756149962833E-002   0.0000000000000000     
   4.1780489658249653E-014   9.8330674317321717E-002   0.0000000000000000     
   1.3520868452632229E-013  0.10514379936176277        0.0000000000000000     
  -4.2493030793838895E-003   7.8877983147783257E-002   0.0000000000000000     
  -4.4079869356158990E-003   8.5209611973145513E-002   0.0000000000000000     
  -4.5619328113966420E-003   9.1701374010479203E-002   0.0000000000000000     
  -4.7111407067261168E-003   9.8353269259784326E-002   0.0000000000000000     
  -4.8556106216043251E-003  0.10516529772106090        0.0000000000000000     
  -8.4983235801445421E-003   7.8954311251798248E-002   0.0000000000000000     
  -8.8211954396086624E-003   8.5283313313797626E-002   0.0000000000000000     
  -9.1336549804374619E-003   9.1772227592386540E-002   0.0000000000000000     
  -9.4357022026309335E-003   9.8421054087565088E-002   0.0000000000000000     
  -9.7273371061890809E-003  0.10522979279933320        0.0000000000000000     
  -1.2747061502610992E-002   7.9081524758536581E-002   0.0000000000000000     
  -1.3239625512168632E-002   8.5406148881642455E-002   0.0000000000000000     
  -1.3715166507189189E-002   9.1890316895684929E-002   0.0000000000000000     
  -1.4173684487672663E-002   9.8534028800663961E-002   0.0000000000000000     
  -1.4615179453619053E-002  0.10533728459657961        0.0000000000000000     
  -1.6995516846783239E-002   7.9259623667998297E-002   0.0000000000000000     
  -1.7663277153295805E-002   8.5578118676680040E-002   0.0000000000000000     
  -1.8306467391651829E-002   9.2055641920374270E-002   0.0000000000000000     
  -1.8925087561851312E-002   9.8692193399080988E-002   0.0000000000000000     
  -1.9519137663894248E-002  0.10548777311280019        0.0000000000000000     
   1.3520868452632229E-013  0.10514379936176277        0.0000000000000000     
   2.0891968710579079E-013  0.11210479673829513        0.0000000000000000     
   2.5828319517862131E-013  0.11920133190192797        0.0000000000000000     
   2.8329731139101200E-013  0.12643340485266127        0.0000000000000000     
   2.8396382467654746E-013  0.13380101559049504        0.0000000000000000     
  -4.8556106216043251E-003  0.10516529772106090        0.0000000000000000     
  -4.9945915454924911E-003  0.11212516256743277        0.0000000000000000     
  -5.1273324678518389E-003  0.11922056697202378        0.0000000000000000     
  -5.2538333886823678E-003  0.12645151093483395        0.0000000000000000     
  -5.3740943079840803E-003  0.13381799445586326        0.0000000000000000     
  -9.7273371061890809E-003  0.10522979279933320        0.0000000000000000     
  -1.0007432343967795E-002  0.11218626005517811        0.0000000000000000     
  -1.0274860568822970E-002  0.11927827218258702        0.0000000000000000     
  -1.0529621780754604E-002  0.12650582918155998        0.0000000000000000     
  -1.0771715979762699E-002  0.13386893105209696        0.0000000000000000     
  -1.4615179453619053E-002  0.10533728459657961        0.0000000000000000     
  -1.5038522395216995E-002  0.11228808920153112        0.0000000000000000     
  -1.5442584302655113E-002  0.11937444753361769        0.0000000000000000     
  -1.5827365175933413E-002  0.12659635959283935        0.0000000000000000     
  -1.6192865015051891E-002  0.13395382537919612        0.0000000000000000     
  -1.9519137663894248E-002  0.10548777311280019        0.0000000000000000     
  -2.0087861699240084E-002  0.11243065000649181        0.0000000000000000     
  -2.0630503669348266E-002  0.11950909302511578        0.0000000000000000     
  -2.1147063574218791E-002  0.12672310216867208        0.0000000000000000     
  -2.1637541413851661E-002  0.13407267743716073        0.0000000000000000     
   2.8396382467654746E-013  0.13380101559049504        0.0000000000000000     
   2.6633621523497464E-013  0.14129269857214335        0.0000000000000000     
   2.3646536118082651E-013  0.14889698825432032        0.0000000000000000     
   1.9435473196105502E-013  0.15661388463702591        0.0000000000000000     
   1.4000129180957721E-013  0.16444338772026013        0.0000000000000000     
  -5.3740943079840803E-003  0.13381799445586326        0.0000000000000000     
  -5.4877097275273182E-003  0.14130852527551185        0.0000000000000000     
  -5.5942741490824302E-003  0.14891161113417978        0.0000000000000000     
  -5.6937875726494093E-003  0.15662725203186709        0.0000000000000000     
  -5.7862499982282633E-003  0.16445544796857378        0.0000000000000000     
  -1.0771715979762699E-002  0.13386893105209696        0.0000000000000000     
  -1.1000463893235104E-002  0.14135600538567072        0.0000000000000000     
  -1.1215186248559675E-002  0.14895547977375392        0.0000000000000000     
  -1.1415883045736404E-002  0.15666735421634664        0.0000000000000000     
  -1.1602554284765297E-002  0.16449162871344888        0.0000000000000000     
  -1.6192865015051891E-002  0.13395382537919612        0.0000000000000000     
  -1.6538262496857019E-002  0.14143513890261994        0.0000000000000000     
  -1.6862736298195263E-002  0.14902859417304276        0.0000000000000000     
  -1.7166286419066625E-002  0.15673419119046458        0.0000000000000000     
  -1.7448912859471099E-002  0.16455192995488549        0.0000000000000000     
  -2.1637541413851661E-002  0.13407267743716073        0.0000000000000000     
  -2.2101105538393066E-002  0.14154592582635953        0.0000000000000000     
  -2.2536924297989206E-002  0.14913095433204629        0.0000000000000000     
  -2.2944997692640072E-002  0.15682776295422099        0.0000000000000000     
  -2.3325325722345674E-002  0.16463635169288360        0.0000000000000000     
   1.4000129180957721E-013  0.16444338772026013        0.0000000000000000     
   8.4810630740506099E-014  0.17237252116257615        0.0000000000000000     
   4.0182700916657765E-014  0.18038830862252711        0.0000000000000000     
   6.1210802052014124E-015  0.18849075010011301        0.0000000000000000     
  -1.7379327144073642E-014  0.19667984559533386        0.0000000000000000     
  -5.7862499982282633E-003  0.16445544796857378        0.0000000000000000     
  -5.8715115990147114E-003  0.17238328731530245        0.0000000000000000     
  -5.9494225482044820E-003  0.18039785844305586        0.0000000000000000     
  -6.0199828457975745E-003  0.18849916135183400        0.0000000000000000     
  -6.0831924917939826E-003  0.19668719604163681        0.0000000000000000     
  -1.1602554284765297E-002  0.16449162871344888        0.0000000000000000     
  -1.1774808828407627E-002  0.17241558577340679        0.0000000000000000     
  -1.1932255539424664E-002  0.18042650790456669        0.0000000000000000     
  -1.2074894417816413E-002  0.18852439510692845        0.0000000000000000     
  -1.2202725463582869E-002  0.19670924738049225        0.0000000000000000     
  -1.7448912859471099E-002  0.16455192995488549        0.0000000000000000     
  -1.7709891688093934E-002  0.17246941653688916        0.0000000000000000     
  -1.7948498973620369E-002  0.18047425700705946        0.0000000000000000     
  -1.8164734716050401E-002  0.18856645136539649        0.0000000000000000     
  -1.8358598915384043E-002  0.19674599961190009        0.0000000000000000     
  -2.3325325722345674E-002  0.16463635169288360        0.0000000000000000     
  -2.3676760178073634E-002  0.17254477960574957        0.0000000000000000     
  -2.3998152850791592E-002  0.18054110575053436        0.0000000000000000     
  -2.4289503740499544E-002  0.18862533012723795        0.0000000000000000     
  -2.4550812847197494E-002  0.19679745273586036        0.0000000000000000     
  -1.7379327144073642E-014  0.19667984559533386        0.0000000000000000     
  -3.3699822446497940E-014  0.20493756759053738        0.0000000000000000     
  -4.6229404852826672E-014  0.21324588856807139        0.0000000000000000     
  -5.4965987273877803E-014  0.22160480852793588        0.0000000000000000     
  -5.9910409966335010E-014  0.23001432747013079        0.0000000000000000     
  -6.0831924917939826E-003  0.19668719604163681        0.0000000000000000     
  -6.1393037708194062E-003  0.20494410918742401        0.0000000000000000     
  -6.1885689674995286E-003  0.21325204746415516        0.0000000000000000     
  -6.2309880818343559E-003  0.22161101087183030        0.0000000000000000     
  -6.2665611138238847E-003  0.23002099941044940        0.0000000000000000     
  -1.2202725463582869E-002  0.19670924738049225        0.0000000000000000     
  -1.2316161587652003E-002  0.20496373397804726        0.0000000000000000     
  -1.2415615700951767E-002  0.21327052415238290        0.0000000000000000     
  -1.2501087803482162E-002  0.22162961790349908        0.0000000000000000     
  -1.2572577895243192E-002  0.23004101523139592        0.0000000000000000     
  -1.8358598915384043E-002  0.19674599961190009        0.0000000000000000     
  -1.8530573450531485E-002  0.20499644196240721        0.0000000000000000     
  -1.8681140200402926E-002  0.21330131863275459        0.0000000000000000     
  -1.8810299164998386E-002  0.22166062962294231        0.0000000000000000     
  -1.8918050344317840E-002  0.23007437493297031        0.0000000000000000     
  -2.4550812847197494E-002  0.19679745273586036        0.0000000000000000     
  -2.4782539359457852E-002  0.20504223314050374        0.0000000000000000     
  -2.4985142465853021E-002  0.21334443090527022        0.0000000000000000     
  -2.5158622166383017E-002  0.22170404603015986        0.0000000000000000     
  -2.5302978461047825E-002  0.23012107851517263        0.0000000000000000     
  -5.9910409966335010E-014  0.23001432747013079        0.0000000000000000     
  -6.2525071925501052E-014  0.23844307288781849        0.0000000000000000     
  -6.4269444800812980E-014  0.24685967227416139        0.0000000000000000     
  -6.5147675665580551E-014  0.25526412562915951        0.0000000000000000     
  -6.5154479034212898E-014  0.26365643295281271        0.0000000000000000     
  -6.2665611138238847E-003  0.23002099941044940        0.0000000000000000     
  -6.2964796812164407E-003  0.23845088292171060        0.0000000000000000     
  -6.3219354017603558E-003  0.24686953124731201        0.0000000000000000     
  -6.3429282754556273E-003  0.25527694438725373        0.0000000000000000     
  -6.3594583023022571E-003  0.26367312234153556        0.0000000000000000     
  -1.2572577895243192E-002  0.23004101523139592        0.0000000000000000     
  -1.2632723101397856E-002  0.23847431302338082        0.0000000000000000     
  -1.2684160547109139E-002  0.24689910816676125        0.0000000000000000     
  -1.2726890232377044E-002  0.25531540066153730        0.0000000000000000     
  -1.2760912157201570E-002  0.26372319050770887        0.0000000000000000     
  -1.8918050344317840E-002  0.23007437493297031        0.0000000000000000     
  -1.9008730260606767E-002  0.23851336319282909        0.0000000000000000     
  -1.9086675436110621E-002  0.24694840303250906        0.0000000000000000     
  -1.9151885870829395E-002  0.25537949445201025        0.0000000000000000     
  -1.9204361564763101E-002  0.26380663745133270        0.0000000000000000     
  -2.5302978461047825E-002  0.23012107851517263        0.0000000000000000     
  -2.5424501158843173E-002  0.23856803343005553        0.0000000000000000     
  -2.5529480068764800E-002  0.24701741584455553        0.0000000000000000     
  -2.5617915190812683E-002  0.25546922575867265        0.0000000000000000     
  -2.5689806524986838E-002  0.26392346317240689        0.0000000000000000     
  -6.5154479034212898E-014  0.26365643295281271        0.0000000000000000     
  -6.4449313941228326E-014  0.27197649717826522        0.0000000000000000     
  -6.3184592107023985E-014  0.28016422123866108        0.0000000000000000     
  -6.1361695889369794E-014  0.28821960513400036        0.0000000000000000     
  -5.8979730821473453E-014  0.29614264886428288        0.0000000000000000     
  -6.3594583023022571E-003  0.26367312234153556        0.0000000000000000     
  -6.3754067824659351E-003  0.27199827843188717        0.0000000000000000     
  -6.3946550161123519E-003  0.28019262598003791        0.0000000000000000     
  -6.4172030032415084E-003  0.28825616498598788        0.0000000000000000     
  -6.4430507438533995E-003  0.29618889544973692        0.0000000000000000     
  -1.2760912157201570E-002  0.26372319050770887        0.0000000000000000     
  -1.2793430945977794E-002  0.27206362219276131        0.0000000000000000     
  -1.2831651223100782E-002  0.28027784020417978        0.0000000000000000     
  -1.2875572988570535E-002  0.28836584454196429        0.0000000000000000     
  -1.2925196242387051E-002  0.29632763520611494        0.0000000000000000     
  -1.9204361564763101E-002  0.26380663745133270        0.0000000000000000     
  -1.9254072490600026E-002  0.27217252846088769        0.0000000000000000     
  -1.9310988621028473E-002  0.28041986391108664        0.0000000000000000     
  -1.9375109956048440E-002  0.28854864380192974        0.0000000000000000     
  -1.9446436495659934E-002  0.29655886813341686        0.0000000000000000     
  -2.5689806524986838E-002  0.26392346317240689        0.0000000000000000     
  -2.5757331416332633E-002  0.27232499723626624        0.0000000000000000     
  -2.5832667209895428E-002  0.28061869710075871        0.0000000000000000     
  -2.5915813905675236E-002  0.28880456276588412        0.0000000000000000     
  -2.6006771503672050E-002  0.29688259423164276        0.0000000000000000     
  -1.4108327506827441E-002   5.5782345446903844E-002   0.0000000000000000     
  -1.4861438837614975E-002   6.1374419000251042E-002   0.0000000000000000     
  -1.5593674171203449E-002   6.7151323221549167E-002   0.0000000000000000     
  -1.6305033507592871E-002   7.3113058110798254E-002   0.0000000000000000     
  -1.6995516846783239E-002   7.9259623667998297E-002   0.0000000000000000     
  -1.7607469439897258E-002   5.6041265478872150E-002   0.0000000000000000     
  -1.8576430355938769E-002   6.1626422445257324E-002   0.0000000000000000     
  -1.9514229727160395E-002   6.7396129999569288E-002   0.0000000000000000     
  -2.0420867553562122E-002   7.3350388141808109E-002   0.0000000000000000     
  -2.1296343835143956E-002   7.9489196871973700E-002   0.0000000000000000     
  -2.1240867114355546E-002   5.6356377943102942E-002   0.0000000000000000     
  -2.2416048272527828E-002   6.1934592015499682E-002   0.0000000000000000     
  -2.3551330254555303E-002   6.7696405926156944E-002   0.0000000000000000     
  -2.4646713060437978E-002   7.3641819675074757E-002   0.0000000000000000     
  -2.5702196690175833E-002   7.9770833262253121E-002   0.0000000000000000     
  -2.5008520530202319E-002   5.6727682839596220E-002   0.0000000000000000     
  -2.6380292587382146E-002   6.2298927710978086E-002   0.0000000000000000     
  -2.7704975753388175E-002   6.8052151001312094E-002   0.0000000000000000     
  -2.8982570028220411E-002   7.3987352710598267E-002   0.0000000000000000     
  -3.0213075411878867E-002   8.0104532838836590E-002   0.0000000000000000     
  -2.8910429687437574E-002   5.7155180168351999E-002   0.0000000000000000     
  -3.0469163300501714E-002   6.2719429531692544E-002   0.0000000000000000     
  -3.1975166223659007E-002   6.8463365225034753E-002   0.0000000000000000     
  -3.3428438456909453E-002   7.4386987248378597E-002   0.0000000000000000     
  -3.4828980000253050E-002   8.0490295601724104E-002   0.0000000000000000     
  -1.6995516846783239E-002   7.9259623667998297E-002   0.0000000000000000     
  -1.7663277153295805E-002   8.5578118676680040E-002   0.0000000000000000     
  -1.8306467391651829E-002   9.2055641920374270E-002   0.0000000000000000     
  -1.8925087561851312E-002   9.8692193399080988E-002   0.0000000000000000     
  -1.9519137663894248E-002  0.10548777311280019        0.0000000000000000     
  -2.1296343835143956E-002   7.9489196871973700E-002   0.0000000000000000     
  -2.2140147244303049E-002   8.5799550721559953E-002   0.0000000000000000     
  -2.2951766453436537E-002   9.2268444222060736E-002   0.0000000000000000     
  -2.3731201462544427E-002   9.8895877373476077E-002   0.0000000000000000     
  -2.4478452271626715E-002  0.10568185017580592        0.0000000000000000     
  -2.5702196690175833E-002   7.9770833262253121E-002   0.0000000000000000     
  -2.6718232666503222E-002   8.6070773038931750E-002   0.0000000000000000     
  -2.7695272512154465E-002   9.2528965356350426E-002   0.0000000000000000     
  -2.8633316227129568E-002   9.9145410214509108E-002   0.0000000000000000     
  -2.9532363811428524E-002  0.10592010761340778        0.0000000000000000     
  -3.0213075411878867E-002   8.0104532838836590E-002   0.0000000000000000     
  -3.1397533419896331E-002   8.6391785628795487E-002   0.0000000000000000     
  -3.2536985567805619E-002   9.2837205323243299E-002   0.0000000000000000     
  -3.3631431855606735E-002   9.9440791922180111E-002   0.0000000000000000     
  -3.4680872283299656E-002  0.10620254542560585        0.0000000000000000     
  -3.4828980000253050E-002   8.0490295601724104E-002   0.0000000000000000     
  -3.6178049504482376E-002   8.6762588491151094E-002   0.0000000000000000     
  -3.7476905620390001E-002   9.3193164122739397E-002   0.0000000000000000     
  -3.8725548347975924E-002   9.9782022496489056E-002   0.0000000000000000     
  -3.9923977687240132E-002  0.10652916361240003        0.0000000000000000     
  -1.9519137663894248E-002  0.10548777311280019        0.0000000000000000     
  -2.0087861699240084E-002  0.11243065000649181        0.0000000000000000     
  -2.0630503669348266E-002  0.11950909302511578        0.0000000000000000     
  -2.1147063574218791E-002  0.12672310216867208        0.0000000000000000     
  -2.1637541413851661E-002  0.13407267743716073        0.0000000000000000     
  -2.4478452271626715E-002  0.10568185017580592        0.0000000000000000     
  -2.5193199592138751E-002  0.11261483940455598        0.0000000000000000     
  -2.5875124135535863E-002  0.11968332183523198        0.0000000000000000     
  -2.6524225901818049E-002  0.12688729746783389        0.0000000000000000     
  -2.7140504890985320E-002  0.13422676630236169        0.0000000000000000     
  -2.9532363811428524E-002  0.10592010761340778        0.0000000000000000     
  -3.0392285410014666E-002  0.11284155433021945        0.0000000000000000     
  -3.1212951167851322E-002  0.11989824714211700        0.0000000000000000     
  -3.1994361084938500E-002  0.12709018604910044        0.0000000000000000     
  -3.2736515161276201E-002  0.13441737105116977        0.0000000000000000     
  -3.4680872283299656E-002  0.10620254542560585        0.0000000000000000     
  -3.5685119152867831E-002  0.11311079478348221        0.0000000000000000     
  -3.6643984766294657E-002  0.12015386894577085        0.0000000000000000     
  -3.7557469123580135E-002  0.12733176791247180        0.0000000000000000     
  -3.8425572224724286E-002  0.13464449168358505        0.0000000000000000     
  -3.9923977687240132E-002  0.10652916361240003        0.0000000000000000     
  -4.1071700820698248E-002  0.11342256076434423        0.0000000000000000     
  -4.2168224930865861E-002  0.12045018724619354        0.0000000000000000     
  -4.3213550017742970E-002  0.12761204305794796        0.0000000000000000     
  -4.4207676081329583E-002  0.13490812819960743        0.0000000000000000     
  -2.1637541413851661E-002  0.13407267743716073        0.0000000000000000     
  -2.2101105538393066E-002  0.14154592582635953        0.0000000000000000     
  -2.2536924297989206E-002  0.14913095433204629        0.0000000000000000     
  -2.2944997692640072E-002  0.15682776295422099        0.0000000000000000     
  -2.3325325722345674E-002  0.16463635169288360        0.0000000000000000     
  -2.7140504890985320E-002  0.13422676630236169        0.0000000000000000     
  -2.7723167912889785E-002  0.14168968953321534        0.0000000000000000     
  -2.8271421777383548E-002  0.14926402835479488        0.0000000000000000     
  -2.8785266484466623E-002  0.15694978276710023        0.0000000000000000     
  -2.9264702034139001E-002  0.16474695277013143        0.0000000000000000     
  -3.2736515161276201E-002  0.13441737105116977        0.0000000000000000     
  -3.3438624515393721E-002  0.14186775339951321        0.0000000000000000     
  -3.4099900265820375E-002  0.14942928434531896        0.0000000000000000     
  -3.4720342412556157E-002  0.15710196388858697        0.0000000000000000     
  -3.5299950955601074E-002  0.16488579202931733        0.0000000000000000     
  -3.8425572224724286E-002  0.13464449168358505        0.0000000000000000     
  -3.9247475345904871E-002  0.14208011742525306        0.0000000000000000     
  -4.0022359763299653E-002  0.14962672230361845        0.0000000000000000     
  -4.0750225476908666E-002  0.15728430631868115        0.0000000000000000     
  -4.1431072486731883E-002  0.16505286947044126        0.0000000000000000     
  -4.4207676081329583E-002  0.13490812819960743        0.0000000000000000     
  -4.5149720404423221E-002  0.14232678161043499        0.0000000000000000     
  -4.6038800269821406E-002  0.14985634222969341        0.0000000000000000     
  -4.6874915677524144E-002  0.15749681005738281        0.0000000000000000     
  -4.7658066627531429E-002  0.16524818509350314        0.0000000000000000     
  -2.3325325722345674E-002  0.16463635169288360        0.0000000000000000     
  -2.3676760178073634E-002  0.17254477960574957        0.0000000000000000     
  -2.3998152850791592E-002  0.18054110575053436        0.0000000000000000     
  -2.4289503740499544E-002  0.18862533012723795        0.0000000000000000     
  -2.4550812847197494E-002  0.19679745273586036        0.0000000000000000     
  -2.9264702034139001E-002  0.16474695277013143        0.0000000000000000     
  -2.9708208215366152E-002  0.17264402676952695        0.0000000000000000     
  -3.0114264817113538E-002  0.18062949317092514        0.0000000000000000     
  -3.0482871839381167E-002  0.18870335197432606        0.0000000000000000     
  -3.0814029282169031E-002  0.19686560317972968        0.0000000000000000     
  -3.5299950955601074E-002  0.16488579202931733        0.0000000000000000     
  -3.5837029716990897E-002  0.17276950981776015        0.0000000000000000     
  -3.6329882518761410E-002  0.18074185830416570        0.0000000000000000     
  -3.6778509360912592E-002  0.18880283748853388        0.0000000000000000     
  -3.7182910243444466E-002  0.19695244737086473        0.0000000000000000     
  -4.1431072486731883E-002  0.16505286947044126        0.0000000000000000     
  -4.2063224682947868E-002  0.17292122875044927        0.0000000000000000     
  -4.2645005955735185E-002  0.18087820115025602        0.0000000000000000     
  -4.3176416305093820E-002  0.18892378666986143        0.0000000000000000     
  -4.3657455731023781E-002  0.19705798530926549        0.0000000000000000     
  -4.7658066627531429E-002  0.16524818509350314        0.0000000000000000     
  -4.8386793113237077E-002  0.17309918356759427        0.0000000000000000     
  -4.9059635128034879E-002  0.18103852170919615        0.0000000000000000     
  -4.9676592671924848E-002  0.18906619951830866        0.0000000000000000     
  -5.0237665744906984E-002  0.19718221699493194        0.0000000000000000     
  -2.4550812847197494E-002  0.19679745273586036        0.0000000000000000     
  -2.4782539359457852E-002  0.20504223314050374        0.0000000000000000     
  -2.4985142465853021E-002  0.21334443090527022        0.0000000000000000     
  -2.5158622166383017E-002  0.22170404603015986        0.0000000000000000     
  -2.5302978461047825E-002  0.23012107851517263        0.0000000000000000     
  -3.0814029282169031E-002  0.19686560317972968        0.0000000000000000     
  -3.1107964890035988E-002  0.20510248555463384        0.0000000000000000     
  -3.1364906407540874E-002  0.21340023786653631        0.0000000000000000     
  -3.1584853834683686E-002  0.22175886011543705        0.0000000000000000     
  -3.1767807171464428E-002  0.23017835230133615        0.0000000000000000     
  -3.7182910243444466E-002  0.19695244737086473        0.0000000000000000     
  -3.7542755617870779E-002  0.20517857724709448        0.0000000000000000     
  -3.7857715935705298E-002  0.21346911641315933        0.0000000000000000     
  -3.8127791196948015E-002  0.22182406486905920        0.0000000000000000     
  -3.8352981401598922E-002  0.23024342261479419        0.0000000000000000     
  -4.3657455731023781E-002  0.19705798530926549        0.0000000000000000     
  -4.4086911542962223E-002  0.20527050821788562        0.0000000000000000     
  -4.4463571050346290E-002  0.21355106654513920        0.0000000000000000     
  -4.4787434253175995E-002  0.22189966029102626        0.0000000000000000     
  -4.5058501151451325E-002  0.23031628945554683        0.0000000000000000     
  -5.0237665744906984E-002  0.19718221699493194        0.0000000000000000     
  -5.0740432665310309E-002  0.20537827846700729        0.0000000000000000     
  -5.1182471751463864E-002  0.21364608826247608        0.0000000000000000     
  -5.1563783003367628E-002  0.22198564638133830        0.0000000000000000     
  -5.1884366421021622E-002  0.23039695282359399        0.0000000000000000     
  -2.5302978461047825E-002  0.23012107851517263        0.0000000000000000     
  -2.5424501158843173E-002  0.23856803343005553        0.0000000000000000     
  -2.5529480068764800E-002  0.24701741584455553        0.0000000000000000     
  -2.5617915190812683E-002  0.25546922575867265        0.0000000000000000     
  -2.5689806524986838E-002  0.26392346317240689        0.0000000000000000     
  -3.1767807171464428E-002  0.23017835230133615        0.0000000000000000     
  -3.1921733495948366E-002  0.23863386410186027        0.0000000000000000     
  -3.2054599886200796E-002  0.24710054519463606        0.0000000000000000     
  -3.2166406342221697E-002  0.25557839557966378        0.0000000000000000     
  -3.2257152864011089E-002  0.26406741525694316        0.0000000000000000     
  -3.8352981401598922E-002  0.23024342261479419        0.0000000000000000     
  -3.8542124971763639E-002  0.23870639557504353        0.0000000000000000     
  -3.8704060329547749E-002  0.24719218967448642        0.0000000000000000     
  -3.8838787474951252E-002  0.25570080491312291        0.0000000000000000     
  -3.8946306407974154E-002  0.26423224129095296        0.0000000000000000     
  -4.5058501151451325E-002  0.23031628945554683        0.0000000000000000     
  -4.5285675586288980E-002  0.23878562784960539        0.0000000000000000     
  -4.5477861398805650E-002  0.24729234928410646        0.0000000000000000     
  -4.5635058589001340E-002  0.25583645375905012        0.0000000000000000     
  -4.5757267156876037E-002  0.26441794127443630        0.0000000000000000     
  -5.1884366421021622E-002  0.23039695282359399        0.0000000000000000     
  -5.2152385339524390E-002  0.23887156092554576        0.0000000000000000     
  -5.2376003093974506E-002  0.24740102402349617        0.0000000000000000     
  -5.2555219684371948E-002  0.25598534211744545        0.0000000000000000     
  -5.2690035110716731E-002  0.26462451520739333        0.0000000000000000     
  -2.5689806524986838E-002  0.26392346317240689        0.0000000000000000     
  -2.5757331416332633E-002  0.27232499723626624        0.0000000000000000     
  -2.5832667209895428E-002  0.28061869710075871        0.0000000000000000     
  -2.5915813905675236E-002  0.28880456276588412        0.0000000000000000     
  -2.6006771503672050E-002  0.29688259423164276        0.0000000000000000     
  -3.2257152864011089E-002  0.26406741525694316        0.0000000000000000     
  -3.2341627722445428E-002  0.27251470667726374        0.0000000000000000     
  -3.2434619188401195E-002  0.28086737229141495        0.0000000000000000     
  -3.2536127261878385E-002  0.28912541209939691        0.0000000000000000     
  -3.2646151942876990E-002  0.29728882610120944        0.0000000000000000     
  -3.8946306407974154E-002  0.26423224129095296        0.0000000000000000     
  -3.9045381408208249E-002  0.27273533494224689        0.0000000000000000     
  -3.9154776755245299E-002  0.28115892200127496        0.0000000000000000     
  -3.9274492449085339E-002  0.28950300246803734        0.0000000000000000     
  -3.9404528489728363E-002  0.29776757634253370        0.0000000000000000     
  -4.5757267156876037E-002  0.26441794127443630        0.0000000000000000     
  -4.5868592473621066E-002  0.27298688203121568        0.0000000000000000     
  -4.5993139910427770E-002  0.28149334623033878        0.0000000000000000     
  -4.6130909467296130E-002  0.28993733387180531        0.0000000000000000     
  -4.6281901144226138E-002  0.29831884495561567        0.0000000000000000     
  -5.2690035110716731E-002  0.26462451520739333        0.0000000000000000     
  -5.2811260918683919E-002  0.27326934794417018        0.0000000000000000     
  -5.2949708653948595E-002  0.28187064497860609        0.0000000000000000     
  -5.3105378316510729E-002  0.29042840631070110        0.0000000000000000     
  -5.3278269906370343E-002  0.29894263194045523        0.0000000000000000     
  -2.8910429687437574E-002   5.7155180168351999E-002   0.0000000000000000     
  -3.0469163300501714E-002   6.2719429531692544E-002   0.0000000000000000     
  -3.1975166223659007E-002   6.8463365225034753E-002   0.0000000000000000     
  -3.3428438456909453E-002   7.4386987248378597E-002   0.0000000000000000     
  -3.4828980000253050E-002   8.0490295601724104E-002   0.0000000000000000     
  -3.2938137525292531E-002   5.7653544572285269E-002   0.0000000000000000     
  -3.4681526213785022E-002   6.3204125570562597E-002   0.0000000000000000     
  -3.6366934682577491E-002   6.8933479073565368E-002   0.0000000000000000     
  -3.7994362931669946E-002   7.4841605081293630E-002   0.0000000000000000     
  -3.9563810961062366E-002   8.0928503593747356E-002   0.0000000000000000     
  -3.7083186982998437E-002   5.8237450694311063E-002   0.0000000000000000     
  -3.9016247129130550E-002   6.3761043920507715E-002   0.0000000000000000     
  -4.0885314147353323E-002   6.9465923023144402E-002   0.0000000000000000     
  -4.2690388037666747E-002   7.5352088002221221E-002   0.0000000000000000     
  -4.4431468800070803E-002   8.1419538857738075E-002   0.0000000000000000     
  -4.1345578060555284E-002   5.8906898534429375E-002   0.0000000000000000     
  -4.3473326046538328E-002   6.4390184581527898E-002   0.0000000000000000     
  -4.5530304617986517E-002   7.0060697073771883E-002   0.0000000000000000     
  -4.7516513774899856E-002   7.5918436011161328E-002   0.0000000000000000     
  -4.9431953517278353E-002   8.1963401393696261E-002   0.0000000000000000     
  -4.5725310757963072E-002   5.9661888092640211E-002   0.0000000000000000     
  -4.8052762966008307E-002   6.5091547553623161E-002   0.0000000000000000     
  -5.0301906094477052E-002   7.0717801225447768E-002   0.0000000000000000     
  -5.2472740143369286E-002   7.6540649108114006E-002   0.0000000000000000     
  -5.4565265112685016E-002   8.2560091201621888E-002   0.0000000000000000     
  -3.4828980000253050E-002   8.0490295601724104E-002   0.0000000000000000     
  -3.6178049504482376E-002   8.6762588491151094E-002   0.0000000000000000     
  -3.7476905620390001E-002   9.3193164122739397E-002   0.0000000000000000     
  -3.8725548347975924E-002   9.9782022496489056E-002   0.0000000000000000     
  -3.9923977687240132E-002  0.10652916361240003        0.0000000000000000     
  -3.9563810961062366E-002   8.0928503593747356E-002   0.0000000000000000     
  -4.1076621578413949E-002   8.7183986622721171E-002   0.0000000000000000     
  -4.2534137591383817E-002   9.3597866180009717E-002   0.0000000000000000     
  -4.3936358999971996E-002  0.10017014226561297        0.0000000000000000     
  -4.5283285804178453E-002  0.10690081487953093        0.0000000000000000     
  -4.4431468800070803E-002   8.1419538857738075E-002   0.0000000000000000     
  -4.6110090299843622E-002   8.7656785020228306E-002   0.0000000000000000     
  -4.7727786402263286E-002   9.4052335920225230E-002   0.0000000000000000     
  -4.9284557107329777E-002  0.10060619155772882        0.0000000000000000     
  -5.0780402415043134E-002  0.10731835193273905        0.0000000000000000     
  -4.9431953517278353E-002   8.1963401393696261E-002   0.0000000000000000     
  -5.1278455668771393E-002   8.8180983683672512E-002   0.0000000000000000     
  -5.3057852053028390E-002   9.4556573343385963E-002   0.0000000000000000     
  -5.4770142670049322E-002  0.10109017037283657        0.0000000000000000     
  -5.6415327519834170E-002  0.10778177477202441        0.0000000000000000     
  -5.4565265112685016E-002   8.2560091201621888E-002   0.0000000000000000     
  -5.6581717685197284E-002   8.8756582613053775E-002   0.0000000000000000     
  -5.8524334543679141E-002   9.5110578449491903E-002   0.0000000000000000     
  -6.0393115688130571E-002  0.10162207871093631        0.0000000000000000     
  -6.2188061118551574E-002  0.10829108339738699        0.0000000000000000     
  -3.9923977687240132E-002  0.10652916361240003        0.0000000000000000     
  -4.1071700820698248E-002  0.11342256076434423        0.0000000000000000     
  -4.2168224930865861E-002  0.12045018724619354        0.0000000000000000     
  -4.3213550017742970E-002  0.12761204305794796        0.0000000000000000     
  -4.4207676081329583E-002  0.13490812819960743        0.0000000000000000     
  -4.5283285804178453E-002  0.10690081487953093        0.0000000000000000     
  -4.6574161915543533E-002  0.11377753022395561        0.0000000000000000     
  -4.7808231245607527E-002  0.12078793450107897        0.0000000000000000     
  -4.8985493794370449E-002  0.12793202771090098        0.0000000000000000     
  -5.0105949561832258E-002  0.13520980985342176        0.0000000000000000     
  -5.0780402415043134E-002  0.10731835193273905        0.0000000000000000     
  -5.2214633939441299E-002  0.11417638111346634        0.0000000000000000     
  -5.3586563294562253E-002  0.12116784316812106        0.0000000000000000     
  -5.4896190480405962E-002  0.12829273809670319        0.0000000000000000     
  -5.6143515496972489E-002  0.13555106589921267        0.0000000000000000     
  -5.6415327519834170E-002  0.10778177477202441        0.0000000000000000     
  -5.7993116892391561E-002  0.11461911343287645        0.0000000000000000     
  -5.9503221077730019E-002  0.12158991324731980        0.0000000000000000     
  -6.0945640075849600E-002  0.12869417421535442        0.0000000000000000     
  -6.2320373886750248E-002  0.13593189633698025        0.0000000000000000     
  -6.2188061118551574E-002  0.10829108339738699        0.0000000000000000     
  -6.3909610774394290E-002  0.11510572718218595        0.0000000000000000     
  -6.5558204595110872E-002  0.12205414473867519        0.0000000000000000     
  -6.7133842580701292E-002  0.12913633606685471        0.0000000000000000     
  -6.8636524731165563E-002  0.13635230116672448        0.0000000000000000     
  -4.4207676081329583E-002  0.13490812819960743        0.0000000000000000     
  -4.5149720404423221E-002  0.14232678161043499        0.0000000000000000     
  -4.6038800269821406E-002  0.14985634222969341        0.0000000000000000     
  -4.6874915677524144E-002  0.15749681005738281        0.0000000000000000     
  -4.7658066627531429E-002  0.16524818509350314        0.0000000000000000     
  -5.0105949561832258E-002  0.13520980985342176        0.0000000000000000     
  -5.1168707326824957E-002  0.14260982196114164        0.0000000000000000     
  -5.2172875868180493E-002  0.15012060506656105        0.0000000000000000     
  -5.3118455185898840E-002  0.15774215916968007        0.0000000000000000     
  -5.4005445279980031E-002  0.16547448427049860        0.0000000000000000     
  -5.6143515496972489E-002  0.13555106589921267        0.0000000000000000     
  -5.7327783748986262E-002  0.14293131448345581        0.0000000000000000     
  -5.8448240641171760E-002  0.15042197175723857        0.0000000000000000     
  -5.9504886173529010E-002  0.15802303772056103        0.0000000000000000     
  -6.0497720346058007E-002  0.16573451237342313        0.0000000000000000     
  -6.2320373886750248E-002  0.13593189633698025        0.0000000000000000     
  -6.3626949670907096E-002  0.14329125917737742        0.0000000000000000     
  -6.4864894588795227E-002  0.15076044230172592        0.0000000000000000     
  -6.6034208640414621E-002  0.15833944571002570        0.0000000000000000     
  -6.7134891825765333E-002  0.16602826940227675        0.0000000000000000     
  -6.8636524731165563E-002  0.13635230116672448        0.0000000000000000     
  -7.0066205092587500E-002  0.14368965604290659        0.0000000000000000     
  -7.1422837711050874E-002  0.15113601670002313        0.0000000000000000     
  -7.2706422586555713E-002  0.15869138313807410        0.0000000000000000     
  -7.3916959719102004E-002  0.16635575535705949        0.0000000000000000     
  -4.7658066627531429E-002  0.16524818509350314        0.0000000000000000     
  -4.8386793113237077E-002  0.17309918356759427        0.0000000000000000     
  -4.9059635128034879E-002  0.18103852170919615        0.0000000000000000     
  -4.9676592671924848E-002  0.18906619951830866        0.0000000000000000     
  -5.0237665744906984E-002  0.19718221699493194        0.0000000000000000     
  -5.4005445279980031E-002  0.16547448427049860        0.0000000000000000     
  -5.4832675997460105E-002  0.17330626317946227        0.0000000000000000     
  -5.5598977185375084E-002  0.18122617870701652        0.0000000000000000     
  -5.6304348843725004E-002  0.18923423085316135        0.0000000000000000     
  -5.6948790972509850E-002  0.19733041961789685        0.0000000000000000     
  -6.0497720346058007E-002  0.16573451237342313        0.0000000000000000     
  -6.1425814325218521E-002  0.17354535649632025        0.0000000000000000     
  -6.2288239277470396E-002  0.18144453086974754        0.0000000000000000     
  -6.3084995202813590E-002  0.18943203549370508        0.0000000000000000     
  -6.3816082101248131E-002  0.19750787036819278        0.0000000000000000     
  -6.7134891825765333E-002  0.16602826940227675        0.0000000000000000     
  -6.8166208096512360E-002  0.17381646351816829        0.0000000000000000     
  -6.9127421404320780E-002  0.18169357819738932        0.0000000000000000     
  -7.0018531749190649E-002  0.18965961343993981        0.0000000000000000     
  -7.0839539131121856E-002  0.19771456924581990        0.0000000000000000     
  -7.3916959719102004E-002  0.16635575535705949        0.0000000000000000     
  -7.5053857311341579E-002  0.17411958424500631        0.0000000000000000     
  -7.6116523565926283E-002  0.18197332068994171        0.0000000000000000     
  -7.7104958482856076E-002  0.18991696469186567        0.0000000000000000     
  -7.8019162062131026E-002  0.19795051625077814        0.0000000000000000     
  -5.0237665744906984E-002  0.19718221699493194        0.0000000000000000     
  -5.0740432665310309E-002  0.20537827846700729        0.0000000000000000     
  -5.1182471751463864E-002  0.21364608826247608        0.0000000000000000     
  -5.1563783003367628E-002  0.22198564638133830        0.0000000000000000     
  -5.1884366421021622E-002  0.23039695282359399        0.0000000000000000     
  -5.6948790972509850E-002  0.19733041961789685        0.0000000000000000     
  -5.7529030871926935E-002  0.20550807095604262        0.0000000000000000     
  -5.8041795842173609E-002  0.21376051082241854        0.0000000000000000     
  -5.8487085883249856E-002  0.22208773921702452        0.0000000000000000     
  -5.8864900995155692E-002  0.23048975613986059        0.0000000000000000     
  -6.3816082101248131E-002  0.19750787036819278        0.0000000000000000     
  -6.4478418049824016E-002  0.20566606864657483        0.0000000000000000     
  -6.5068921125591178E-002  0.21390066348221529        0.0000000000000000     
  -6.5587591328549633E-002  0.22221165487511421        0.0000000000000000     
  -6.6034428658699407E-002  0.23059904282527147        0.0000000000000000     
  -7.0839539131121856E-002  0.19771456924581990        0.0000000000000000     
  -7.1588594199001501E-002  0.20585227153860394        0.0000000000000000     
  -7.2263847601716530E-002  0.21406654624186641        0.0000000000000000     
  -7.2865299339266956E-002  0.22235739335560734        0.0000000000000000     
  -7.3392949411652766E-002  0.23072481287982671        0.0000000000000000     
  -7.8019162062131026E-002  0.19795051625077814        0.0000000000000000     
  -7.8859559319459441E-002  0.20606667963212993        0.0000000000000000     
  -7.9626575270549699E-002  0.21425815910137189        0.0000000000000000     
  -8.0320209915401827E-002  0.22252495465850400        0.0000000000000000     
  -8.0940463254015785E-002  0.23086706630352627        0.0000000000000000     
  -5.1884366421021622E-002  0.23039695282359399        0.0000000000000000     
  -5.2152385339524390E-002  0.23887156092554576        0.0000000000000000     
  -5.2376003093974506E-002  0.24740102402349617        0.0000000000000000     
  -5.2555219684371948E-002  0.25598534211744545        0.0000000000000000     
  -5.2690035110716731E-002  0.26462451520739333        0.0000000000000000     
  -5.8864900995155692E-002  0.23048975613986059        0.0000000000000000     
  -5.9181378513847374E-002  0.23896562022078460        0.0000000000000000     
  -5.9442655775281197E-002  0.24751439008965451        0.0000000000000000     
  -5.9648732779457182E-002  0.25613606574647030        0.0000000000000000     
  -5.9799609526375280E-002  0.26483064719123189        0.0000000000000000     
  -6.6034428658699407E-002  0.23059904282527147        0.0000000000000000     
  -6.6411779391635423E-002  0.23906923115324188        0.0000000000000000     
  -6.6721989802952644E-002  0.24762862367958013        0.0000000000000000     
  -6.6965059892651085E-002  0.25627722040428619        0.0000000000000000     
  -6.7140989660730704E-002  0.26501502132736010        0.0000000000000000     
  -7.3392949411652766E-002  0.23072481287982671        0.0000000000000000     
  -7.3843587972888550E-002  0.23918239372291758        0.0000000000000000     
  -7.4214005176988826E-002  0.24774372479327311        0.0000000000000000     
  -7.4504201023953678E-002  0.25640880609089323        0.0000000000000000     
  -7.4714175513783052E-002  0.26517763761577795        0.0000000000000000     
  -8.0940463254015785E-002  0.23086706630352627        0.0000000000000000     
  -8.1476804257606728E-002  0.23930510792981169        0.0000000000000000     
  -8.1918701897389798E-002  0.24785969343073341        0.0000000000000000     
  -8.2266156173364968E-002  0.25653082280629130        0.0000000000000000     
  -8.2519167085532238E-002  0.26531849605648544        0.0000000000000000     
  -5.2690035110716731E-002  0.26462451520739333        0.0000000000000000     
  -5.2811260918683919E-002  0.27326934794417018        0.0000000000000000     
  -5.2949708653948595E-002  0.28187064497860609        0.0000000000000000     
  -5.3105378316510729E-002  0.29042840631070110        0.0000000000000000     
  -5.3278269906370343E-002  0.29894263194045523        0.0000000000000000     
  -5.9799609526375280E-002  0.26483064719123189        0.0000000000000000     
  -5.9932148706344578E-002  0.27355402653134692        0.0000000000000000     
  -6.0083213009674126E-002  0.28226209587422307        0.0000000000000000     
  -6.0252802436363918E-002  0.29095485521986014        0.0000000000000000     
  -6.0440916986413934E-002  0.29963230456825835        0.0000000000000000     
  -6.7140989660730704E-002  0.26501502132736010        0.0000000000000000     
  -6.7290017799550850E-002  0.27381221164298292        0.0000000000000000     
  -6.7452383001470745E-002  0.28263897654533560        0.0000000000000000     
  -6.7628085266490404E-002  0.29149531603441831        0.0000000000000000     
  -6.7817124594609868E-002  0.30038123011023088        0.0000000000000000     
  -7.4714175513783052E-002  0.26517763761577795        0.0000000000000000     
  -7.4884868198302715E-002  0.27404390327907791        0.0000000000000000     
  -7.5057218629338437E-002  0.28300128699194371        0.0000000000000000     
  -7.5231226806890247E-002  0.29204978875437532        0.0000000000000000     
  -7.5406892730958117E-002  0.30118940856637283        0.0000000000000000     
  -8.2519167085532238E-002  0.26531849605648544        0.0000000000000000     
  -8.2716699902600152E-002  0.27424910143963205        0.0000000000000000     
  -8.2897719893277197E-002  0.28334902721404737        0.0000000000000000     
  -8.3062227057563401E-002  0.29261827337973145        0.0000000000000000     
  -8.3210221395458722E-002  0.30205683993668420        0.0000000000000000     
  -4.5725310757963072E-002   5.9661888092640211E-002   0.0000000000000000     
  -4.8052762966008307E-002   6.5091547553623161E-002   0.0000000000000000     
  -5.0301906094477052E-002   7.0717801225447768E-002   0.0000000000000000     
  -5.2472740143369286E-002   7.6540649108114006E-002   0.0000000000000000     
  -5.4565265112685016E-002   8.2560091201621888E-002   0.0000000000000000     
  -5.0294030006211785E-002   6.0423889254770623E-002   0.0000000000000000     
  -5.2813404187259307E-002   6.5818233483919783E-002   0.0000000000000000     
  -5.5248910010178967E-002   7.1412869546579980E-002   0.0000000000000000     
  -5.7600547474970766E-002   7.7207797442751205E-002   0.0000000000000000     
  -5.9868316581634683E-002   8.3203017172433474E-002   0.0000000000000000     
  -5.5123380736291396E-002   6.1114371906647674E-002   0.0000000000000000     
  -5.7814096010010113E-002   6.6523343019544032E-002   0.0000000000000000     
  -6.0420107798446324E-002   7.2121536105576423E-002   0.0000000000000000     
  -6.2941416101600034E-002   7.7908951164744930E-002   0.0000000000000000     
  -6.5378020919471244E-002   8.3885588197049485E-002   0.0000000000000000     
  -6.0213362948201919E-002   6.1733336048271373E-002   0.0000000000000000     
  -6.3054838434260713E-002   6.7206876160495893E-002   0.0000000000000000     
  -6.5815499459279100E-002   7.2843800902437181E-002   0.0000000000000000     
  -6.8495346023257103E-002   7.8644110274095166E-002   0.0000000000000000     
  -7.1094378126194721E-002   8.4607804275469892E-002   0.0000000000000000     
  -6.5563976641943342E-002   6.2280781679641704E-002   0.0000000000000000     
  -6.8535631460011098E-002   6.7868832906775423E-002   0.0000000000000000     
  -7.1435084992677311E-002   7.3579663937162157E-002   0.0000000000000000     
  -7.4262337239941967E-002   7.9413274770801928E-002   0.0000000000000000     
  -7.7017388201805079E-002   8.5369665407694723E-002   0.0000000000000000     
  -5.4565265112685016E-002   8.2560091201621888E-002   0.0000000000000000     
  -5.6581717685197284E-002   8.8756582613053775E-002   0.0000000000000000     
  -5.8524334543679141E-002   9.5110578449491903E-002   0.0000000000000000     
  -6.0393115688130571E-002  0.10162207871093631        0.0000000000000000     
  -6.2188061118551574E-002  0.10829108339738699        0.0000000000000000     
  -5.9868316581634683E-002   8.3203017172433474E-002   0.0000000000000000     
  -6.2053950560467433E-002   8.9376948994057487E-002   0.0000000000000000     
  -6.4159182641765677E-002   9.5708013166053874E-002   0.0000000000000000     
  -6.6184012825529437E-002  0.10219620968842263        0.0000000000000000     
  -6.8128441111758684E-002  0.10884153856116378        0.0000000000000000     
  -6.5378020919471244E-002   8.3885588197049485E-002   0.0000000000000000     
  -6.7729228505927969E-002   9.0035450012369067E-002   0.0000000000000000     
  -6.9994345114838125E-002   9.6342539420582643E-002   0.0000000000000000     
  -7.2173370746201768E-002  0.10280685642169020        0.0000000000000000     
  -7.4266305400018870E-002  0.10942840101569175        0.0000000000000000     
  -7.1094378126194721E-002   8.4607804275469892E-002   0.0000000000000000     
  -7.3607551521578871E-002   9.0732085667988516E-002   0.0000000000000000     
  -7.6029821962896496E-002   9.7014157213078239E-002   0.0000000000000000     
  -7.8361189450147598E-002  0.10345401891073901        0.0000000000000000     
  -8.0601653983332161E-002  0.11005167076097087        0.0000000000000000     
  -7.7017388201805079E-002   8.5369665407694723E-002   0.0000000000000000     
  -7.9688919607420167E-002   9.1466855960915847E-002   0.0000000000000000     
  -8.2265613185940778E-002   9.7722866543540635E-002   0.0000000000000000     
  -8.4747468937366885E-002  0.10413769715556906        0.0000000000000000     
  -8.7134486861698501E-002  0.11071134779700118        0.0000000000000000     
  -6.2188061118551574E-002  0.10829108339738699        0.0000000000000000     
  -6.3909610774394290E-002  0.11510572718218595        0.0000000000000000     
  -6.5558204595110872E-002  0.12205414473867519        0.0000000000000000     
  -6.7133842580701292E-002  0.12913633606685471        0.0000000000000000     
  -6.8636524731165563E-002  0.13635230116672448        0.0000000000000000     
  -6.8128441111758684E-002  0.10884153856116378        0.0000000000000000     
  -6.9993549227279642E-002  0.11563243865614187        0.0000000000000000     
  -7.1780418898918466E-002  0.12255734884522136        0.0000000000000000     
  -7.3489050126675171E-002  0.12961626912840227        0.0000000000000000     
  -7.5119442910549755E-002  0.13680919950568463        0.0000000000000000     
  -7.4266305400018870E-002  0.10942840101569175        0.0000000000000000     
  -7.6274365892877727E-002  0.11619546414949118        0.0000000000000000     
  -7.8198769041366550E-002  0.12309633676999235        0.0000000000000000     
  -8.0039514845485354E-002  0.13013101887719530        0.0000000000000000     
  -8.1796603305234139E-002  0.13729951047109998        0.0000000000000000     
  -8.0601653983332161E-002  0.11005167076097087        0.0000000000000000     
  -8.2752060771188532E-002  0.11679480366223392        0.0000000000000000     
  -8.4813255022455111E-002  0.12367110851298822        0.0000000000000000     
  -8.6785236737131830E-002  0.13068058531323379        0.0000000000000000     
  -8.8668005915218742E-002  0.13782323406297062        0.0000000000000000     
  -8.7134486861698501E-002  0.11071134779700118        0.0000000000000000     
  -8.9426633862212113E-002  0.11743045719437006        0.0000000000000000     
  -9.1623876842184135E-002  0.12428166407420890        0.0000000000000000     
  -9.3726215801614637E-002  0.13126496843651769        0.0000000000000000     
  -9.5733650740503551E-002  0.13838037028129643        0.0000000000000000     
  -6.8636524731165563E-002  0.13635230116672448        0.0000000000000000     
  -7.0066205092587500E-002  0.14368965604290659        0.0000000000000000     
  -7.1422837711050874E-002  0.15113601670002313        0.0000000000000000     
  -7.2706422586555713E-002  0.15869138313807410        0.0000000000000000     
  -7.3916959719102004E-002  0.16635575535705949        0.0000000000000000     
  -7.5119442910549755E-002  0.13680919950568463        0.0000000000000000     
  -7.6671974075431026E-002  0.14412335308497357        0.0000000000000000     
  -7.8147020446207777E-002  0.15154594297417423        0.0000000000000000     
  -7.9544582022880020E-002  0.15907696917328662        0.0000000000000000     
  -8.0864658805447742E-002  0.16671643168231076        0.0000000000000000     
  -8.1796603305234139E-002  0.13729951047109998        0.0000000000000000     
  -8.3470680680841236E-002  0.14458919830850853        0.0000000000000000     
  -8.5062393232534950E-002  0.15198746914622313        0.0000000000000000     
  -8.6571740960315280E-002  0.15949432298424362        0.0000000000000000     
  -8.7998723864182241E-002  0.16710975982257020        0.0000000000000000     
  -8.8668005915218742E-002  0.13782323406297062        0.0000000000000000     
  -9.0462324908818170E-002  0.14508719171351162        0.0000000000000000     
  -9.2168956070032435E-002  0.15246059521616981        0.0000000000000000     
  -9.3787899398861521E-002  0.15994344457094520        0.0000000000000000     
  -9.5319154895305472E-002  0.16753573977783778        0.0000000000000000     
  -9.5733650740503551E-002  0.13838037028129643        0.0000000000000000     
  -9.7646906759361773E-002  0.14561733329998278        0.0000000000000000     
  -9.9466708958700176E-002  0.15296532118401440        0.0000000000000000     
 -0.10119305733851872       0.16042433393339128        0.0000000000000000     
 -0.10282595189881744       0.16799437154811347        0.0000000000000000     
  -7.3916959719102004E-002  0.16635575535705949        0.0000000000000000     
  -7.5053857311341579E-002  0.17411958424500631        0.0000000000000000     
  -7.6116523565926283E-002  0.18197332068994171        0.0000000000000000     
  -7.7104958482856076E-002  0.18991696469186567        0.0000000000000000     
  -7.8019162062131026E-002  0.19795051625077814        0.0000000000000000     
  -8.0864658805447742E-002  0.16671643168231076        0.0000000000000000     
  -8.2107054318544370E-002  0.17445545342533783        0.0000000000000000     
  -8.3271572086803330E-002  0.18228515732645892        0.0000000000000000     
  -8.4358212110224595E-002  0.19020554338567405        0.0000000000000000     
  -8.5366974388808178E-002  0.19821661160298326        0.0000000000000000     
  -8.7998723864182241E-002  0.16710975982257020        0.0000000000000000     
  -8.9344091466958903E-002  0.17482480580766613        0.0000000000000000     
  -9.0608593291468406E-002  0.18263048708599500        0.0000000000000000     
  -9.1792229337710737E-002  0.19052680365755664        0.0000000000000000     
  -9.2894999605685924E-002  0.19851375552235118        0.0000000000000000     
  -9.5319154895305472E-002  0.16753573977783778        0.0000000000000000     
  -9.6764968756585176E-002  0.17522764139199137        0.0000000000000000     
  -9.8127587179921510E-002  0.18300930996854992        0.0000000000000000     
  -9.9407010165314530E-002  0.19088074550751341        0.0000000000000000     
 -0.10060323771276423       0.19884194800888186        0.0000000000000000     
 -0.10282595189881744       0.16799437154811347        0.0000000000000000     
 -0.10436968618742315       0.17566396017831343        0.0000000000000000     
 -0.10582855375216266       0.18342162597412376        0.0000000000000000     
 -0.10720255459303599       0.19126736893554436        0.0000000000000000     
 -0.10849168871004311       0.19920118906257533        0.0000000000000000     
  -7.8019162062131026E-002  0.19795051625077814        0.0000000000000000     
  -7.8859559319459441E-002  0.20606667963212993        0.0000000000000000     
  -7.9626575270549699E-002  0.21425815910137189        0.0000000000000000     
  -8.0320209915401827E-002  0.22252495465850400        0.0000000000000000     
  -8.0940463254015785E-002  0.23086706630352627        0.0000000000000000     
  -8.5366974388808178E-002  0.19821661160298326        0.0000000000000000     
  -8.6300641863725644E-002  0.20631014568719175        0.0000000000000000     
  -8.7161997476148514E-002  0.21447792934710469        0.0000000000000000     
  -8.7951041226076845E-002  0.22271996258272217        0.0000000000000000     
  -8.8667773113510567E-002  0.23103624539404410        0.0000000000000000     
  -9.2894999605685924E-002  0.19851375552235118        0.0000000000000000     
  -9.3921170284327921E-002  0.20658352246382833        0.0000000000000000     
  -9.4875007562570848E-002  0.21472828426543789        0.0000000000000000     
  -9.5756511440414624E-002  0.22294804092717987        0.0000000000000000     
  -9.6565681917859303E-002  0.23124279244905432        0.0000000000000000     
 -0.10060323771276423       0.19884194800888186        0.0000000000000000     
 -0.10172114458126633       0.20688680996203979        0.0000000000000000     
 -0.10276560552981669       0.21500922385637156        0.0000000000000000     
 -0.10373662055841519       0.22320918969187722        0.0000000000000000     
 -0.10463418966706198       0.23148670746855682        0.0000000000000000     
 -0.10849168871004311       0.19920118906257533        0.0000000000000000     
 -0.10970056475454085       0.20722000818182595        0.0000000000000000     
 -0.11083379137788600       0.21532074811990551        0.0000000000000000     
 -0.11189136858007857       0.22350340887681411        0.0000000000000000     
 -0.11287329636111855       0.23176799045255170        0.0000000000000000     
  -8.0940463254015785E-002  0.23086706630352627        0.0000000000000000     
  -8.1476804257606728E-002  0.23930510792981169        0.0000000000000000     
  -8.1918701897389798E-002  0.24785969343073341        0.0000000000000000     
  -8.2266156173364968E-002  0.25653082280629130        0.0000000000000000     
  -8.2519167085532238E-002  0.26531849605648544        0.0000000000000000     
  -8.8667773113510567E-002  0.23103624539404410        0.0000000000000000     
  -8.9297938903305160E-002  0.23945234106938662        0.0000000000000000     
  -8.9827284360316020E-002  0.24799381289706568        0.0000000000000000     
  -9.0255809484543120E-002  0.25666066087708128        0.0000000000000000     
  -9.0583514275986474E-002  0.26545288500943348        0.0000000000000000     
  -9.6565681917859303E-002  0.23124279244905432        0.0000000000000000     
  -9.7293502567499052E-002  0.23963906043710470        0.0000000000000000     
  -9.7930956961928051E-002  0.24816336649737458        0.0000000000000000     
  -9.8478045101146328E-002  0.25681571062986397        0.0000000000000000     
  -9.8934766985153882E-002  0.26559609283457286        0.0000000000000000     
 -0.10463418966706198       0.23148670746855682        0.0000000000000000     
 -0.10546349525018836       0.23986526603296596        0.0000000000000000     
 -0.10622971970222596       0.24836835423166009        0.0000000000000000     
 -0.10693286302317465       0.25699597206463931        0.0000000000000000     
 -0.10757292521303448       0.26574811953190369        0.0000000000000000     
 -0.11287329636111855       0.23176799045255170        0.0000000000000000     
 -0.11380791695137317       0.24013095785697036        0.0000000000000000     
 -0.11472357258120965       0.24860877609992230        0.0000000000000000     
 -0.11562026325062801       0.25720144518140747        0.0000000000000000     
 -0.11649798895962823       0.26590896510142586        0.0000000000000000     
  -8.2519167085532238E-002  0.26531849605648544        0.0000000000000000     
  -8.2716699902600152E-002  0.27424910143963205        0.0000000000000000     
  -8.2897719893277197E-002  0.28334902721404737        0.0000000000000000     
  -8.3062227057563401E-002  0.29261827337973145        0.0000000000000000     
  -8.3210221395458722E-002  0.30205683993668420        0.0000000000000000     
  -9.0583514275986474E-002  0.26545288500943348        0.0000000000000000     
  -9.0840713299364370E-002  0.27443349220312674        0.0000000000000000     
  -9.1057721119394974E-002  0.28366548936716557        0.0000000000000000     
  -9.1234537736078342E-002  0.29314887650155003        0.0000000000000000     
  -9.1371163149414472E-002  0.30288365360628011        0.0000000000000000     
  -9.8934766985153882E-002  0.26559609283457286        0.0000000000000000     
  -9.9312108775516411E-002  0.27460276164804331        0.0000000000000000     
  -9.9621056633799651E-002  0.28393396560681722        0.0000000000000000     
  -9.9861610560003575E-002  0.29358970471089474        0.0000000000000000     
 -0.10003377055412817       0.30356997896027571        0.0000000000000000     
 -0.10757292521303448       0.26574811953190369        0.0000000000000000     
 -0.10813088633105636       0.27475690977438177        0.0000000000000000     
 -0.10858772643649123       0.28415445593300237        0.0000000000000000     
 -0.10894344552933904       0.29394075800776537        0.0000000000000000     
 -0.10919804360959984       0.30411581599867094        0.0000000000000000     
 -0.11649798895962823       0.26590896510142586        0.0000000000000000     
 -0.11729704596598418       0.27489593658214218        0.0000000000000000     
 -0.11795773052746969       0.28432696034572091        0.0000000000000000     
 -0.11848004264408478       0.29420203639216219        0.0000000000000000     
 -0.11886398231582944       0.30452116472146590        0.0000000000000000     
 </DataArray>
 <DataArray  type="Float64" Name="stress" NumberOfComponents="3" format="ascii">
   6022152893.3251724        824208025.45140719        33771243.400301158     
   5781528498.0947561        484214935.37127090        35906069.917144805     
   5571279284.3466978        245472450.23230743        29936095.534497898     
   5391405252.0809937        107980570.03451014        15861320.252362369     
   5241906401.2976313        71739294.777877092       -6318255.9292573025     
   5711306376.1245642        593638531.54804587        126682963.33641082     
   5484120839.5802822        353565960.54721403        143604703.94696113     
   5277963154.6310387        183586228.19650626        155910247.73572138     
   5092833321.2768154        83699334.495882034        163599594.70268577     
   4928731339.5176258        53905279.445365429        166672744.84785751     
   5352052742.9993610        348546902.86729598        261927623.70940894     
   5148273505.3631973        211385083.01238346        282731060.21179682     
   4956174789.4347363        113158335.51651144        302406903.97008258     
   4775756595.2139959        53866660.379674196        320955154.98427379     
   4607018922.7009630        33510057.601869822        338375813.25436634     
   4944391993.9495535        88933139.409173012        439505224.51929313     
   4773986495.4434872        57672302.766765118        453285138.71164125     
   4605914188.7578058        34188772.192328215        469426064.23759377     
   4440175073.8925180        18482547.685862541        487928001.09713149     
   4276769150.8476233        10553629.247364521        508790949.29027134     
   4488324128.9751558       -185202758.82633066        659415765.76606679     
   4361259809.8211632       -107572380.18964601        655266939.44651079     
   4227181352.6002445       -53322461.776040792        656967728.53824055     
   4086088757.3123922       -22453003.585548878        664518133.04125857     
   3937982023.9576197       -14964005.618140221        677918152.95556748     
   5241906401.2976313        71739294.777877092       -6318255.9292573025     
   5059434637.9899502        70462177.027093172       -4644962.2105072271     
   4876163098.4283562        66519138.429945707       -389769.73837069073     
   4692091782.6128654        59910178.986463070        6447321.4871555101     
   4507220690.5434513        50635298.696582556        15866311.466077140     
   4928731339.5176258        53905279.445365429        166672744.84785751     
   4753605681.9467010        51931993.727807999        164921293.48590451     
   4577976044.4795208        48278775.022739410        166399448.08347991     
   4401842427.1160784        42945623.330128193        171107208.64057922     
   4225204829.8563852        35932538.650012016        179044575.15719536     
   4607018922.7009630        33510057.601869822        338375813.25436634     
   4441089962.8843107        31395781.522795439        333544712.56231546     
   4274952819.5290575        28587560.315037251        332590925.03591287     
   4108607492.6351995        25085393.978599072        335514450.67517138     
   3942053982.2027307        20889282.513471842        342315289.48008227     
   4276769150.8476233        10553629.247364521        508790949.29027134     
   4121887480.8027673        8853540.4120295048        501225295.01870710     
   3967093423.5769653        7445494.3068535328        498184661.11893135     
   3812386979.1702037        6329490.9318249226        499669047.59093714     
   3657768147.5824904        5505530.2869560719        505678454.43473965     
   3937982023.9576197       -14964005.618140221        677918152.95556748     
   3795998235.7020798       -15694729.604482889        667963040.85509217     
   3654397856.6232424       -15147423.001825571        663180656.33253086     
   3513180886.7210984       -13322085.810186863        663570999.38788676     
   3372347325.9956608       -10218718.029536724        669134070.02116609     
   4507220690.5434513        50635298.696582556        15866311.466077140     
   4322219241.0968199        41349531.859233379        8969310.4112374373     
   4138036174.9364147        34791709.309270382        6325574.4099006010     
   3954671492.0622211        30961831.046697617        7935103.4620583048     
   3772125192.4742470        29859897.071523190        13797897.567712471     
   4225204829.8563852        35932538.650012016        179044575.15719536     
   4052152748.3233051        30052501.210270405        172493458.14006695     
   3879642487.9100232        25978534.169873714        170094959.98810473     
   3707674048.6165538        23710637.528836489        171849080.70131251     
   3536247430.4428892        23248811.287162304        177755820.27968514     
   3942053982.2027307        20889282.513471842        342315289.48008227     
   3780663708.0450983        18328706.309900045        335787400.63985956     
   3619538692.8408661        16652326.617654800        333311484.47645855     
   3458678936.5900216        15860143.436709642        334887540.98990190     
   3298084439.2925892        15952156.767128587        340515570.18017060     
   3657768147.5824904        5505530.2869560719        505678454.43473965     
   3507752120.2622285        6178147.1581506729        498851137.91059512     
   3357724789.7289462        6813086.6526095867        495975147.87495732     
   3207686155.9826517        7410348.7703613043        497050484.32781810     
   3057636219.0233383        7969933.5113979578        502077147.26918143     
   3372347325.9956608       -10218718.029536724        669134070.02116609     
   3233417984.9746690       -6399176.2450306416        661684669.95229793     
   3094200778.5742517       -3539185.7252718210        658085950.18359280     
   2954695706.7944093       -1638746.4702717066        658337910.71506238     
   2814902769.6351461       -697858.48000502586        662440551.54670274     
   3772125192.4742470        29859897.071523190        13797897.567712471     
   3592434790.8732800        28996336.963796377        8436767.6056121066     
   3411518272.6704736        24045721.516607523        7497158.7296161018     
   3229375637.8658719        15008050.730103731        10979070.939696275     
   3046006886.4594264        1883324.6041108370        18882504.235873122     
   3536247430.4428892        23248811.287162304        177755820.27968514     
   3367922276.0970335        23367091.000753880        170265258.23390669     
   3198824311.7128606        20909337.253277421        166869094.57029244     
   3028953537.2903433        15875550.044670105        167567329.28883219     
   2858309952.8295183        8265729.3750363588        172359962.38953102     
   3298084439.2925892        15952156.767128587        340515570.18017060     
   3140189895.9048977        16771885.412941337        331424433.70813096     
   2981975849.0423837        16526602.476009250        326100572.91431963     
   2823442298.7050457        15216307.956332564        324543987.79873377     
   2664589244.8928909        12841001.853926301        326754678.36137521     
   3057636219.0233383        7969933.5113979578        502077147.26918143     
   2909237650.2968802        9210720.2003791332        491914294.02828962     
   2760972884.6590848        10897517.184927344        485191593.76169574     
   2612841922.1099768        13030324.465090156        481909046.46938902     
   2464844762.6495318        15609142.040793300        482066652.15138751     
   2814902769.6351461       -697858.48000502586        662440551.54670274     
   2675065539.2729626        683595.36303365231        651734839.19438016     
   2535815418.5629539        4022081.3800066710        644142157.11241865     
   2397152407.5051208        9317599.5708843470        639662505.30082691     
   2259076506.0994534        16570149.935657859        638295883.75959694     
   3046006886.4594264        1883324.6041108370        18882504.235873122     
   2880807688.0427752       -5633637.2210651636        12546248.580037355     
   2716938055.7250204       -8718712.0498950481        7201081.4686269853     
   2554397989.5061369       -7371899.8825010061        2847002.9016432944     
   2393187489.3861470       -1593200.7187935114       -515987.12090731389     
   2858309952.8295183        8265729.3750363588        172359962.38953102     
   2697163224.6461515        3560771.6209460497        165406327.50977442     
   2536826101.6872859        1554497.9485378265        159929964.86403280     
   2377298583.9529028        2246908.3577359915        155930874.45229462     
   2218580671.4430256        5638002.8486111164        153409056.27456373     
   2664589244.8928909        12841001.853926301        326754678.36137521     
   2508884083.1987715        11364777.047737002        318577043.23756373     
   2353468565.8547525        10854033.408559203        312362864.03735745     
   2198342692.8608155        11308770.936330676        308112140.76072723     
   2043506464.2169995        12728989.631144166        305824873.40771049     
   2464844762.6495318        15609142.040793300        482066652.15138751     
   2315970263.7006154        17778379.059291601        472058395.76340795     
   2166865448.2274036        19179894.330121994        464499778.98860729     
   2017530316.2298884        19813687.853293180        459390801.82698691     
   1867964867.7080817        19679759.628803015        456731464.27853435     
   2259076506.0994534        16570149.935657859        638295883.75959694     
   2118421766.1516948        22801577.655600429        625850385.08731210     
   1977016748.8052409        26532080.713235497        616340709.71779287     
   1834861454.0601001        27761659.108576179        609766857.65103376     
   1691955881.9162683        26490312.841613293        606128828.88703144     
   2393187489.3861470       -1593200.7187935114       -515987.12090731389     
   2250419888.5851836        6671091.9009685516       -6914645.7472263761     
   2104313528.4944484        3806186.8881462812       -11283279.498640865     
   1954868409.1138763       -10187915.757471323       -13621888.375157183     
   1802084530.4434853       -35311216.035797238       -13930472.376761243     
   2218580671.4430256        5638002.8486111164        153409056.27456373     
   2079741997.2732496        12896309.925530434        143217739.29281560     
   1938711371.3410239        12848111.127597690        134250799.20079857     
   1795488793.6463213        5493406.4547462463        126508235.99854589     
   1650074264.1891482       -9167804.0930069685        119990049.68603450     
   2043506464.2169995        12728989.631144166        305824873.40771049     
   1906294865.2922394        18290755.749349594        293178840.18577898     
   1768038122.1323681        20368707.750516415        280951535.86841142     
   1628736234.7373550        18962845.634552896        269142960.45563948     
   1488389203.1072183        14073169.401505291        257753113.94744110     
   1867964867.7080817        19679759.628803015        456731464.27853435     
   1730078492.6421564        22854429.372443557        442968656.93163943     
   1592293780.8684590        26367976.756827593        428818930.50416017     
   1454610732.3869755        30220401.781916142        414282284.99611717     
   1317029347.1977129        34411704.447751701        399358720.40748036     
   1691955881.9162683        26490312.841613293        606128828.88703144     
   1551092879.3230119        26587330.794825852        592587189.53041863     
   1411478347.5493090        30845918.146561444        577852983.10806763     
   1273112286.5951812        39266074.896883547        561926209.61996746     
   1135994696.4606147        51847801.045726895        544806869.06614840     
   1802084530.4434853       -35311216.035797238       -13930472.376761243     
   1771268842.7807448       -16654428.260545254       -8302808.6807413772     
   1748532330.2878084        28932943.414042115       -41467780.514023654     
   1733874992.9646666        101450898.98794544       -113425387.87660168     
   1727296830.8113501        200899438.46127731       -224175630.76846904     
   1650074264.1891482       -9167804.0930069685        119990049.68603450     
   1527519095.3990438       -13965794.444513619        135593493.85788247     
   1409137468.6985312       -4851977.8306870461        124833383.02875726     
   1294929384.0876257        18173645.748471618        87709717.198681980     
   1184894841.5663140        55111076.292942464        24222496.367625874     
   1488389203.1072183        14073169.401505291        257753113.94744110     
   1309606211.8421278       -3526101.4810465574        278775766.66822028     
   1131091129.5864220       -20232342.332305849        285863944.91635275     
   952843956.34012461       -36045553.152220428        279017648.69186729     
   774864692.10320282       -50965733.940855056        258236877.99474928     
   1317029347.1977129        34411704.447751701        399358720.40748036     
   1117530192.1100166        14664650.629868627        421244009.75026822     
   914393312.95150423       -17208150.090733826        441623905.14876336     
   707618709.72218776       -61206697.714029700        460498406.60295045     
   497206382.42205960       -117330992.24002874        477867514.11285633     
   1135994696.4606147        51847801.045726895        544806869.06614840     
   951291036.20269585        40606461.888214290        562998223.10405314     
   759044018.79376328        4220598.8939844668        592113263.72598600     
   559253644.23382390       -57309787.936932236        632151990.93196404     
   351919912.52285492       -143984698.60461426        683114404.72197652     
   1727296830.8113501        200899438.46127731       -224175630.76846904     
   1456733410.5545254        184605018.10408336       -96629946.442802981     
   1153993639.9195397        61056096.486320138        60095017.763425097     
   819077518.90636444       -169747326.39206433        245999261.85023054     
   451985047.51498950       -507805250.53110301        461082785.81760311     
   1184894841.5663140        55111076.292942464        24222496.367625874     
   977774498.34397602        11884412.768566072        155593554.69152093     
   732828951.14726806       -157426264.00371066        312802833.12302190     
   450058199.97622609       -452820954.02377284        495850331.66215056     
   129462244.83082581       -874299657.29170680        704736050.30888760     
   774864692.10320282       -50965733.940855056        258236877.99474928     
   621641540.84975028       -123988406.15215415        386842981.12133294     
   424944332.02577066       -341924603.59853578        537946244.58257151     
   184773065.63130087       -704774326.27990413        711546668.37849259     
  -98872258.333715618       -1212537574.1963975        907644252.50905704     
   497206382.42205960       -117330992.24002874        477867514.11285633     
   388334538.07191408       -223013438.65788090        597118332.84660900     
   230339782.55507970       -492438922.29805237        735525252.14206922     
   23222115.871557057       -925607443.16052747        893088271.99923933     
  -233018461.97865501       -1522519001.2452340        1069807392.4181215     
   351919912.52285492       -143984698.60461426        683114404.72197652     
   277853490.01044357       -285190684.74871123        786419609.86737001     
   149015302.73514953       -608969220.10240579        905539855.80152547     
  -34594649.302969813       -1115320304.6655321        1040475142.5244255     
  -272976366.10394603       -1804243938.4381759        1191225470.0360708     
   4488324128.9751558       -185202758.82633066        659415765.76606679     
   4361259809.8211632       -107572380.18964601        655266939.44651079     
   4227181352.6002445       -53322461.776040792        656967728.53824055     
   4086088757.3123922       -22453003.585548878        664518133.04125857     
   3937982023.9576197       -14964005.618140221        677918152.95556748     
   4113161320.5093751       -133511504.29438829        789128077.35470772     
   3993574120.6918750       -79211250.574877024        781765921.72692132     
   3869142085.4521642       -41060448.262723446        779689655.92757285     
   3739865214.7902522       -19059097.357920647        782899279.95665824     
   3605743508.7061343       -13207197.860468864        791394793.81417501     
   3749387849.2393970       -78403448.603707314        907739092.89361811     
   3635667124.2359447       -47916513.158106565        899694461.04311597     
   3519270866.4550080       -26348020.304119587        896371993.43819451     
   3400199075.8965869       -13697970.041746378        897771690.07885528     
   3278451752.5606837       -9966362.3709869385        903893550.96509635     
   3397003715.1652217       -19878591.754283667        1015248812.3828053     
   3287538820.4533758       -13688167.939328909        1009052557.3950925     
   3177567695.6087737       -9185177.9002386332        1007014741.0701114     
   3067090340.6314039       -6369621.6370322704        1009135363.4078552     
   2956106755.5212731       -5241499.1496932507        1015414424.4083263     
   3056008918.2868433        42063066.253877401        1111657235.8222640     
   2949189209.3441663        23473785.081458092        1109840210.7828531     
   2844032572.9134507        10428078.948908091        1111617898.8233204     
   2740539008.9946966        2925947.8562293053        1116990299.9436567     
   2638708517.5879002        967391.80341172218        1125957414.1438680     
   3937982023.9576197       -14964005.618140221        677918152.95556748     
   3795998235.7020798       -15694729.604482889        667963040.85509217     
   3654397856.6232424       -15147423.001825571        663180656.33253086     
   3513180886.7210984       -13322085.810186863        663570999.38788676     
   3372347325.9956608       -10218718.029536724        669134070.02116609     
   3605743508.7061343       -13207197.860468864        791394793.81417501     
   3477055920.9071846       -12688913.244530439        783339532.06027055     
   3348621618.8378754       -11326342.863139629        780051156.47914529     
   3220440602.4982109       -9119486.7162631750        781529667.07080007     
   3092512871.8881755       -6068344.8039455414        787775063.83522916     
   3278451752.5606837       -9966362.3709869385        903893550.96509635     
   3161900818.3464985       -8546933.2143218517        897586328.86952770     
   3045473046.4148951       -6716963.1157215834        895640151.54159880     
   2929168436.7658701       -4476452.0751923323        898055018.98130786     
   2812986989.3994226       -1825400.0927380323        904830931.18865991     
   2956106755.5212731       -5241499.1496932507        1015414424.4083263     
   2850532928.0200238       -3268789.5138430595        1010703431.2828598     
   2744952139.3542953       -1319283.7595990896        1009947641.5198894     
   2639364389.5240870        607018.11305069923        1013147055.1194214     
   2533769678.5293961        2510116.1040906906        1020301672.0814567     
   2638708517.5879002        967391.80341172218        1125957414.1438680     
   2542952249.9277596        3145517.8568904400        1122690839.3002632     
   2447058897.6560793        4866695.2052417994        1122973626.4140208     
   2351028460.7728610        6130923.8484660387        1126805775.4851372     
   2254860939.2780957        6938203.7865341902        1134187286.5136147     
   3372347325.9956608       -10218718.029536724        669134070.02116609     
   3233417984.9746690       -6399176.2450306416        661684669.95229793     
   3094200778.5742517       -3539185.7252718210        658085950.18359280     
   2954695706.7944093       -1638746.4702717066        658337910.71506238     
   2814902769.6351461       -697858.48000502586        662440551.54670274     
   3092512871.8881755       -6068344.8039455414        787775063.83522916     
   2963435327.4028111       -3141627.9593256712        780244297.86494899     
   2834249894.3932314       -574539.52873933315        776647193.14648843     
   2704956572.8594432        1632920.4878165722        776983749.67984283     
   2575555362.8014498        3480752.0903431177        781253967.46501970     
   2812986989.3994226       -1825400.0927380323        904830931.18865991     
   2693998329.8829594        279618.34198379517        897428772.31471789     
   2575081758.6974993        2624931.2133866549        894043255.64424825     
   2456237275.8430419        5210538.5214745998        894674381.17724299     
   2337464881.3195901        8036440.2662371397        899322148.91370821     
   2533769678.5293961        2510116.1040906906        1020301672.0814567     
   2425106992.4151120        3864562.6588833332        1013238093.3016057     
   2316696371.4870496        6059226.5010938644        1010274137.6768756     
   2208537815.7452059        9094107.6306922436        1011409805.2072582     
   2100631325.1895852        12969206.047693491        1016645095.8927583     
   2254860939.2780957        6938203.7865341902        1134187286.5136147     
   2156761314.9992738        7613204.9913989305        1127672260.8256128     
   2059093732.7618918        9728346.3343920708        1125339839.2443721     
   1961858192.5659399        13283627.815487981        1127190021.7698953     
   1865054694.4114218        18279049.434702277        1133222808.4021823     
   2814902769.6351461       -697858.48000502586        662440551.54670274     
   2675065539.2729626        683595.36303365231        651734839.19438016     
   2535815418.5629539        4022081.3800066710        644142157.11241865     
   2397152407.5051208        9317599.5708843470        639662505.30082691     
   2259076506.0994534        16570149.935657859        638295883.75959694     
   2575555362.8014498        3480752.0903431177        781253967.46501970     
   2444326928.3970475        5290181.5746994019        771738321.41496599     
   2313542491.4305649        8579602.5187706947        765633032.22177482     
   2183202051.9019723        13349014.922497749        762938099.88544023     
   2053305609.8112991        19598418.785936475        763653524.40596318     
   2337464881.3195901        8036440.2662371397        899322148.91370821     
   2215694747.4058242        10528696.751779318        890829604.91594470     
   2094225498.7156968        14023903.982797265        886044744.36153913     
   1973057135.2492006        18522061.959253550        884967567.25048566     
   1852189657.0063462        24023170.681168914        887598073.58278203     
   2100631325.1895852        12969206.047693491        1016645095.8927583     
   1989168996.2992852        16399140.894267917        1009008689.6973103     
   1877864440.4183524        20354985.772072673        1005377293.5317109     
   1766717657.5467885        24836740.681102753        1005750907.3959599     
   1655728647.6845968        29844405.621365786        1010129531.2900482     
   1865054694.4114218        18279049.434702277        1133222808.4021823     
   1764749675.0774240        22901514.002146602        1126275575.7590692     
   1664459316.5385332        27572847.886610866        1123630679.7322924     
   1564183618.7947395        32293051.088069499        1125288120.3218620     
   1463922581.8460455        37062123.606521964        1131247897.5277693     
   2259076506.0994534        16570149.935657859        638295883.75959694     
   2118421766.1516948        22801577.655600429        625850385.08731210     
   1977016748.8052409        26532080.713235497        616340709.71779287     
   1834861454.0601001        27761659.108576179        609766857.65103376     
   1691955881.9162683        26490312.841613293        606128828.88703144     
   2053305609.8112991        19598418.785936475        763653524.40596318     
   1920275608.5318348        24824043.910919785        752221221.73829556     
   1786746415.7605319        28385697.396468043        743950387.65001833     
   1652718031.4973958        30283379.242553949        738841022.14110696     
   1518190455.7424238        30517089.449197292        736893125.21157444     
   1852189657.0063462        24023170.681168914        887598073.58278203     
   1727429095.1855102        28436403.448321342        877471900.47773528     
   1602420427.7796853        32022617.598858535        870732841.22868443     
   1477163654.7888825        34781813.132795393        867380895.83562219     
   1351658776.2130995        36713990.050134003        867416064.29855096     
   1655728647.6845968        29844405.621365786        1010129531.2900482     
   1539882226.1127129        33638656.267777085        1001602421.3056139     
   1424038784.8626966        37442841.320413470        996688070.45379388     
   1308198323.9345548        41256960.779295981        995386478.73458266     
   1192360843.3282905        45081014.644440293        997697646.14797056     
   1463922581.8460455        37062123.606521964        1131247897.5277693     
   1357635001.3134425        40430802.369280934        1124612784.2219472     
   1251601487.0095615        44646368.561111212        1121816075.3253517     
   1145822038.9344170        49708822.182056844        1122857770.8379760     
   1040296657.0879933        55618163.232073545        1127737870.7598228     
   1691955881.9162683        26490312.841613293        606128828.88703144     
   1551092879.3230119        26587330.794825852        592587189.53041863     
   1411478347.5493090        30845918.146561444        577852983.10806763     
   1273112286.5951812        39266074.896883547        561926209.61996746     
   1135994696.4606147        51847801.045726895        544806869.06614840     
   1518190455.7424238        30517089.449197292        736893125.21157444     
   1375780404.3375874        28147575.164105058        727693191.25989783     
   1233712303.6794515        26917896.701342165        719064986.57389712     
   1091986153.7680211        26828054.060938418        711008511.15356219     
   950601954.60329401        27878047.242881417        703523764.99889147     
   1351658776.2130995        36713990.050134003        867416064.29855096     
   1212742522.6578441        33390197.525078654        861500229.00014925     
   1073261699.7764261        28184507.246158421        857920419.29882574     
   933216307.56885731        21096919.213405311        856676635.19457257     
   792606346.03513336        12127433.426787376        857768876.68739855     
   1192360843.3282905        45081014.644440293        997697646.14797056     
   1061979234.2837769        42315197.877766728        994008302.75116777     
   930126535.84024572        34645749.781035244        994419281.28285241     
   796802747.99770236        22072670.354268253        998930581.74301946     
   662007870.75614858        4595959.5974543691        1007542204.1316690     
   1040296657.0879933        55618163.232073545        1127737870.7598228     
   923490539.21538591        54922576.222144365        1125217412.5129535     
   804306811.87090087        46301624.305956006        1128561572.5259743     
   682745475.05454695        29755307.483532727        1137770350.7988844     
   558806528.76631415        5283625.7548464835        1152843747.3316913     
   1135994696.4606147        51847801.045726895        544806869.06614840     
   951291036.20269585        40606461.888214290        562998223.10405314     
   759044018.79376328        4220598.8939844668        592113263.72598600     
   559253644.23382390       -57309787.936932236        632151990.93196404     
   351919912.52285492       -143984698.60461426        683114404.72197652     
   950601954.60329401        27878047.242881417        703523764.99889147     
   791517607.77349389        11013576.814917326        721435217.50934446     
   623780704.05826473       -34692749.897810102        749427793.28902924     
   447391243.45760214       -109240932.89530766        787501492.33794272     
   262349225.97152728       -212630972.17752939        835656314.65609694     
   792606346.03513336        12127433.426787376        857768876.68739855     
   656733988.87686753       -11082365.398610234        874106361.31358624     
   511099875.09875941       -66831352.956813425        899682405.89419484     
   355704004.70081681       -155119529.24780554        934497010.42924047     
   190546377.68302575       -275946894.27161330        978550174.91870773     
   662007870.75614858        4595959.5974543691        1007542204.1316690     
   546940179.51282513       -25681364.752361059        1021011654.5167706     
   421001531.91525429       -92195210.283013314        1042877101.5414886     
   284191927.96342576       -194945576.99450845        1073138545.2058332     
   136511367.65735260       -333932464.88684034        1111795985.5098107     
   558806528.76631415        5283625.7548464835        1152843747.3316913     
   462136179.68136311       -32783421.246337712        1162151097.1188917     
   353485674.50774872       -110784321.87640004        1179011880.2309136     
   232855013.24546206       -228719076.13536981        1203426096.6677561     
   100244195.89451197       -386587684.02321768        1235393746.4294200     
   351919912.52285492       -143984698.60461426        683114404.72197652     
   277853490.01044357       -285190684.74871123        786419609.86737001     
   149015302.73514953       -608969220.10240579        905539855.80152547     
  -34594649.302969813       -1115320304.6655321        1040475142.5244255     
  -272976366.10394603       -1804243938.4381759        1191225470.0360708     
   262349225.97152728       -212630972.17752939        835656314.65609694     
   223623219.22871250       -352327239.02474093        885034070.06312060     
   140669968.85181570       -639447651.31888413        945433323.12795877     
   13489474.840830922       -1073992209.0600138        1016854073.8505915     
  -157918262.80425125       -1655960912.2480903        1099296322.2310452     
   190546377.68302575       -275946894.27161330        978550174.91870773     
   173464949.19283795       -418242193.07696038        986302421.90426135     
   122700798.19731784       -672813233.56674588        1000282623.4166752     
   38253924.696475327       -1039660015.7409458        1020490779.4559544     
  -79875671.309698045       -1518782539.5995605        1046926890.0220749     
   136511367.65735260       -333932464.88684034        1111795985.5098107     
   127378679.90279534       -482935546.90545022        1090224665.3907845     
   95107790.771663994       -709065966.84595072        1070087756.6676631     
   39698700.263981223       -1012323724.7083178        1051385259.3404624     
  -38848591.620272934       -1392708820.4925561        1034117173.4091707     
   100244195.89451197       -386587684.02321768        1235393746.4294200     
   85364411.358587444       -546407300.51018310        1196800800.5226912     
   57890946.574864388       -748205851.15648258        1154848722.8809335     
   17823801.543336093       -991983335.96214378        1109537513.5041530     
  -34837023.735991359       -1277739754.9271080        1060867172.3923204     
   3056008918.2868433        42063066.253877401        1111657235.8222640     
   2949189209.3441663        23473785.081458092        1109840210.7828531     
   2844032572.9134507        10428078.948908091        1111617898.8233204     
   2740539008.9946966        2925947.8562293053        1116990299.9436567     
   2638708517.5879002        967391.80341172218        1125957414.1438680     
   2691156749.4492788        40496886.319822907        1215119540.5114839     
   2596223964.3594942        25423172.527678013        1207884235.5077016     
   2502529740.0298643        14477994.602720261        1205386720.2231276     
   2410074076.4603939        7661352.5449558496        1207626994.6577723     
   2318856973.6510763        4973246.3543714285        1214605058.8116214     
   2304354758.6323571        32345759.791961551        1318810050.2191529     
   2224574830.6507120        21767393.356665373        1305661201.5405624     
   2145608951.6774178        13902523.615876675        1298393219.2205205     
   2067457121.7124805        8751150.5695998669        1297006103.2590218     
   1990119340.7558906        6313274.2178226709        1301499853.6560738     
   1895602945.8360736        17609686.670292497        1422728764.9452806     
   1834241808.2178211        12506447.568419218        1403171108.8814397     
   1773270207.8561115        8701665.9883741140        1390637395.8154836     
   1712688144.7509546        6195341.9301581383        1385127625.7474139     
   1652495618.9023423        4987475.3937650919        1386641798.6772251     
   1464901311.0604334       -3711333.0451852679        1526875684.6898568     
   1425224897.0608172       -2359664.8370594382        1500413957.5303273     
   1385513508.5659447       -1124578.2797876000        1482119250.0080240     
   1345767145.5758166       -6073.3733624815941        1471991562.1229403     
   1305985808.0904307        995849.88219851255        1470030893.8750808     
   2638708517.5879002        967391.80341172218        1125957414.1438680     
   2542952249.9277596        3145517.8568904400        1122690839.3002632     
   2447058897.6560793        4866695.2052417994        1122973626.4140208     
   2351028460.7728610        6130923.8484660387        1126805775.4851372     
   2254860939.2780957        6938203.7865341902        1134187286.5136147     
   2318856973.6510763        4973246.3543714285        1214605058.8116214     
   2232649338.8118734        5651967.6868163347        1208439008.5247853     
   2146432145.7171249        6298828.1674453020        1206414714.9246197     
   2060205394.3668337        6913827.7962708473        1208532178.0111353     
   1973969084.7610018        7496966.5732778311        1214791397.7843292     
   1990119340.7558906        6313274.2178226709        1301499853.6560738     
   1915152895.1071029        6000357.7400810719        1292583108.6746624     
   1840304417.5587633        6080668.2638331652        1288400515.1092463     
   1765573908.1108820        6554205.7891082764        1288952072.9598231     
   1690961366.7634447        7420970.3158726692        1294237782.2263927     
   1652495618.9023423        4987475.3937650919        1386641798.6772251     
   1590462918.8134441        4190688.0166689157        1375123139.7499082     
   1528675713.1809928        4212215.4943949580        1368931026.9678972     
   1467134002.0049899        5052057.8269553185        1368065460.3311958     
   1405837785.2854364        6710215.0143369436        1372526439.8398082     
   1305985808.0904307        995849.88219851255        1470030893.8750808     
   1258579409.9309032        222958.51660549641        1456059101.7505140     
   1211546032.5838115        693469.85913366079        1448006250.5005705     
   1164885676.0491724        2407383.9098347425        1445872340.1252568     
   1118598340.3269699        5364700.6686639190        1449657370.6245685     
   2254860939.2780957        6938203.7865341902        1134187286.5136147     
   2156761314.9992738        7613204.9913989305        1127672260.8256128     
   2059093732.7618918        9728346.3343920708        1125339839.2443721     
   1961858192.5659399        13283627.815487981        1127190021.7698953     
   1865054694.4114218        18279049.434702277        1133222808.4021823     
   1973969084.7610018        7496966.5732778311        1214791397.7843292     
   1887096846.3102641        8362877.2944318056        1208089148.0872669     
   1800546397.2783434        10301419.411640644        1205796688.8782086     
   1714317737.6652315        13312592.924873590        1207914020.1571536     
   1628410867.4709370        17396397.834173679        1214441141.9241073     
   1690961366.7634447        7420970.3158726692        1294237782.2263927     
   1615965618.0872018        8672521.7372456193        1287219680.4605470     
   1541181406.2071493        10629195.812589049        1284838555.5639415     
   1466608731.1232865        13290992.541898072        1287094407.5365872     
   1392247592.8356192        16657911.925191820        1293987236.3784788     
   1405837785.2854364        6710215.0143369436        1372526439.8398082     
   1343367630.3300865        8542138.3198384643        1365063857.9454474     
   1280998759.5483124        10711675.537254512        1362465439.3015757     
   1218731172.9401040        13218826.666553080        1364731183.9081943     
   1156564870.5054638        16063591.707757056        1371861091.7652993     
   1118598340.3269699        5364700.6686639190        1449657370.6245685     
   1069302883.0389282        7971727.0422350764        1441621680.5419743     
   1019998457.3018273        10548858.585612178        1438677340.0911095     
   970685063.11567891        13096095.298831999        1440824349.2719736     
   921362700.48047900        15613437.181880057        1448062708.0845726     
   1865054694.4114218        18279049.434702277        1133222808.4021823     
   1764749675.0774240        22901514.002146602        1126275575.7590692     
   1664459316.5385332        27572847.886610866        1123630679.7322924     
   1564183618.7947395        32293051.088069499        1125288120.3218620     
   1463922581.8460455        37062123.606521964        1131247897.5277693     
   1628410867.4709370        17396397.834173679        1214441141.9241073     
   1539248255.1881623        21107394.137999892        1207803592.8197031     
   1450162038.5554225        25073042.608614743        1205645128.2761159     
   1361152217.5727148        29293343.245999277        1207965748.2933502     
   1272218792.2400417        33768296.050162494        1214765452.8714058     
   1392247592.8356192        16657911.925191820        1293987236.3784788     
   1314732381.7311478        19608938.203527331        1287731394.8102036     
   1237355301.1316440        23020399.498417377        1286131385.7472293     
   1160116351.0371046        26892295.809856474        1289187209.1895487     
   1083015531.4475305        31224627.137850761        1296898865.1371706     
   1156564870.5054638        16063591.707757056        1371861091.7652993     
   1091202054.7063777        18406146.198711455        1366058981.7305784     
   1026039104.2671974        21414918.556020141        1365089452.1456335     
   961076019.18790746        25089908.779629409        1368952503.0104632     
   896312799.46852410        29431116.869593799        1377648134.3250771     
   921362700.48047900        15613437.181880057        1448062708.0845726     
   868657274.11386204        17499018.123591900        1442786353.5808177     
   816213447.96207964        20256599.781413138        1442519327.4713285     
   764031222.02512944        23886182.155346006        1447261629.7560937     
   712110596.30300987        28387765.245377928        1457013260.4351103     
   1463922581.8460455        37062123.606521964        1131247897.5277693     
   1357635001.3134425        40430802.369280934        1124612784.2219472     
   1251601487.0095615        44646368.561111212        1121816075.3253517     
   1145822038.9344170        49708822.182056844        1122857770.8379760     
   1040296657.0879933        55618163.232073545        1127737870.7598228     
   1272218792.2400417        33768296.050162494        1214765452.8714058     
   1176296802.6939492        36402240.946711838        1209440596.9899831     
   1080466919.4910650        39343206.987276256        1208420422.1965618     
   984729142.63138592        42591194.171863616        1211704928.4911232     
   889083472.11491585        46146202.500481188        1219294115.8736763     
   1083015531.4475305        31224627.137850761        1296898865.1371706     
   998791351.97015452        33523503.892864168        1292695313.4803824     
   914497318.95045471        35589535.506807119        1293262719.5903530     
   830133432.38844752        37422721.979718179        1298601083.4670792     
   745699692.28412390        39023063.311574489        1308710405.1105673     
   896312799.46852410        29431116.869593799        1377648134.3250771     
   825118649.14204550        31794591.207702816        1374376933.6931388     
   753692685.38773882        33385354.119713068        1376342967.5067301     
   682034908.20559061        34203405.605590463        1383546235.7658527     
   610145317.59560609        34248745.665346742        1395986738.4705019     
   712110596.30300987        28387765.245377928        1457013260.4351103     
   655278694.20964038        31215502.891282707        1454485457.6282551     
   598053018.80290055        32730662.825950623        1457661165.9456975     
   540433570.08281815        32933245.049480200        1466540385.3874269     
   482420348.04937410        31823249.561804652        1481123115.9534626     
   1040296657.0879933        55618163.232073545        1127737870.7598228     
   923490539.21538591        54922576.222144365        1125217412.5129535     
   804306811.87090087        46301624.305956006        1128561572.5259743     
   682745475.05454695        29755307.483532727        1137770350.7988844     
   558806528.76631415        5283625.7548464835        1152843747.3316913     
   889083472.11491585        46146202.500481188        1219294115.8736763     
   787205225.56806719        44448396.531347245        1216764623.4251790     
   683004295.87230718        35008313.399174899        1220084771.9579611     
   576480683.02765071        17825953.104004979        1229254561.4720237     
   467634387.03407556       -7098684.3542080522        1244273991.9673579     
   745699692.28412390        39023063.311574489        1308710405.1105673     
   658706524.83842194        36310200.715838790        1306235959.1705773     
   569445600.56678343        26038148.700308114        1309596176.9332466     
   477916919.46920735        8206907.2649864256        1318791058.3985827     
   384120481.54569662       -17183523.590118006        1333820603.5665891     
   610145317.59560609        34248745.665346742        1395986738.4705019     
   537994437.02645242        30507988.775633037        1393631419.7491348     
   463630725.95432556        19391130.209347785        1397095787.4518256     
   387054184.37923694        898169.96651640534        1406379841.5785723     
   308264812.30117834       -24970891.952873096        1421483582.1293731     
   482420348.04937410        31823249.561804652        1481123115.9534626     
   425068962.13216490        27041760.710745245        1478951005.1608624     
   365559672.03495288        15067257.926351294        1482583603.5136998     
   303892477.75773209       -4100258.7914093286        1492020911.0119855     
   240067379.30052796       -30460789.442447841        1507262927.6557076     
   558806528.76631415        5283625.7548464835        1152843747.3316913     
   462136179.68136311       -32783421.246337712        1162151097.1188917     
   353485674.50774872       -110784321.87640004        1179011880.2309136     
   232855013.24546206       -228719076.13536981        1203426096.6677561     
   100244195.89451197       -386587684.02321768        1235393746.4294200     
   467634387.03407556       -7098684.3542080522        1244273991.9673579     
   390129908.27564740       -41519764.017285421        1242756723.9834399     
   302487241.86915374       -109734802.50724533        1247587622.7709258     
   204706387.81459576       -211743799.82408738        1258766688.3298101     
   96787346.111955598       -347546755.96787024        1276293920.6600969     
   384120481.54569662       -17183523.590118006        1333820603.5665891     
   322338254.38973844       -48991721.532291099        1323627680.9922552     
   252259808.02631232       -108453983.49936457        1318577658.6358898     
   173885142.45541534       -195570309.49133921        1318670536.4975128     
   87214257.677051112       -310340699.50820065        1323906314.5771241     
   308264812.30117834       -24970891.952873096        1421483582.1293731     
   258761218.02363318       -55199293.791372329        1404763968.1453114     
   202803372.97922042       -106941864.85277224        1391981987.8258097     
   140391277.16794413       -180198605.13704491        1383137641.1708767     
   71524930.589790523       -274969514.64424449        1378230928.1805029     
   240067379.30052796       -30460789.442447841        1507262927.6557076     
   199398799.17734814       -60142480.794474199        1486165585.4426234     
   154117936.72788891       -105198446.56743182        1467800610.3406813     
   104224791.95216516       -165628686.76127130        1452168002.3498850     
   49719364.850171909       -241433201.37600905        1439267761.4702308     
   100244195.89451197       -386587684.02321768        1235393746.4294200     
   85364411.358587444       -546407300.51018310        1196800800.5226912     
   57890946.574864388       -748205851.15648258        1154848722.8809335     
   17823801.543336093       -991983335.96214378        1109537513.5041530     
  -34837023.735991359       -1277739754.9271080        1060867172.3923204     
   96787346.111955598       -347546755.96787024        1276293920.6600969     
   79826482.263728112       -488704537.18620604        1221978625.9985175     
   51481424.680543125       -667809630.85441923        1165115055.4620512     
   11752173.362387776       -884862036.97252572        1105703209.0507033     
  -39361271.690730870       -1139861755.5405014        1043743086.7644823     
   87214257.677051112       -310340699.50820065        1323906314.5771241     
   70489045.545518905       -432141626.14923722        1255279738.7590008     
   43589126.191870272       -587858243.53066301        1184915742.9261379     
   6514499.6160880923       -777490551.65252316        1112814327.0785522     
  -40734834.181805074       -1001038550.5147685        1038975491.2162225     
   71524930.589790523       -274969514.64424449        1378230928.1805029     
   57352101.203961477       -376718567.39925116        1296704138.8041413     
   34214051.108855814       -508351689.18518865        1214250785.2731972     
   2110780.3044540286       -669868880.00211585        1130870867.5876820     
  -38957711.209227085       -861270139.84995997        1046564385.7475704     
   49719364.850171909       -241433201.37600905        1439267761.4702308     
   40415649.239047930       -322435360.93629873        1346251826.1339424     
   23356199.431489527       -429289967.81803638        1253120182.5032287     
  -1458984.5725311935       -561997022.02131796        1159872830.5780857     
  -34029902.772985458       -720556523.54603899        1066509770.3585147     
   1464901311.0604334       -3711333.0451852679        1526875684.6898568     
   1425224897.0608172       -2359664.8370594382        1500413957.5303273     
   1385513508.5659447       -1124578.2797876000        1482119250.0080240     
   1345767145.5758166       -6073.3733624815941        1471991562.1229403     
   1305985808.0904307        995849.88219851255        1470030893.8750808     
   1042806076.7999202       -19544471.147848129        1496252254.6781311     
   1022290886.3685216       -15758084.213185251        1481712888.6135619     
   1001749465.0848806       -12059133.452664912        1473184047.4888883     
   981181812.94899654       -8447618.8662885427        1470665731.3041172     
   960587929.96086812       -4923540.4540607333        1474157940.0592439     
   657957447.00509787       -24203627.910803676        1464349244.0757003     
   650442066.72099781       -19830946.275874585        1461742440.0229335     
   642909199.22766697       -15516555.338383228        1462989666.2127430     
   635358844.52510309       -11260455.098333240        1468090922.6451330     
   627791002.61330914       -7062645.5557188392        1477046209.3200953     
   310355421.67596972       -17688803.334050134        1431166652.8825674     
   309678438.11824471       -14578251.025133550        1440502611.7584543     
   308992710.99429882       -11496843.936956465        1451536106.1795943     
   308298240.30413747       -8444582.0694962591        1464267136.1459861     
   307595026.04775327       -5421465.4227776825        1478695701.6576333     
  0.81253428893626656        2.5824095609169841        1396704481.0987339     
  0.56026309965000176        1.5390356114073258        1417993403.8201191     
  0.38478222439799092       0.75163492646030383        1438823367.3894334     
  0.28609573501467878       0.22021101746124011        1459194371.8066814     
  0.26420193871495917       -5.5235166257677590E-002   1479106417.0718579     
   1305985808.0904307        995849.88219851255        1470030893.8750808     
   1258579409.9309032        222958.51660549641        1456059101.7505140     
   1211546032.5838115        693469.85913366079        1448006250.5005705     
   1164885676.0491724        2407383.9098347425        1445872340.1252568     
   1118598340.3269699        5364700.6686639190        1449657370.6245685     
   960587929.96086812       -4923540.4540607333        1474157940.0592439     
   927996549.11976039       -4614183.6768484116        1464631540.7137122     
   895684933.89191675       -3372274.8554252386        1460332618.0901496     
   863653084.27733529       -1197813.9897917509        1461261172.1885588     
   831901000.27601528        1909198.9200451970        1467417203.0089390     
   627791002.61330914       -7062645.5557188392        1477046209.3200953     
   608039027.22589672       -6263724.1951018870        1471856405.0212178     
   588473562.25256371       -4843101.4542182386        1471202613.2916577     
   569094607.69331145       -2800777.3330675364        1475084834.1314130     
   549902163.54813957       -136751.83164656162        1483503067.5404840     
   307595026.04775327       -5421465.4227776825        1478695701.6576333     
   298706844.24930167       -4725663.0381830484        1477733694.6730351     
   289911917.66575110       -3719009.9372507781        1480616236.1050930     
   281210246.29709578       -2401506.1200008839        1487343325.9538140     
   272601830.14333838       -773151.58642429113        1497914964.2191937     
  0.26420193871495917       -5.5235166257677590E-002   1479106417.0718579     
  0.18998081496247099      -0.20607865231131267        1482263409.6691575     
  0.13147990022728920      -0.30452005386181230        1488573486.5304599     
   8.8688465911916273E-002 -0.35059652067961572        1498036647.6557679     
   6.1620214425522832E-002 -0.34426376584626828        1510652893.0450766     
   1118598340.3269699        5364700.6686639190        1449657370.6245685     
   1069302883.0389282        7971727.0422350764        1441621680.5419743     
   1019998457.3018273        10548858.585612178        1438677340.0911095     
   970685063.11567891        13096095.298831999        1440824349.2719736     
   921362700.48047900        15613437.181880057        1448062708.0845726     
   831901000.27601528        1909198.9200451970        1467417203.0089390     
   795521262.59262598        4042025.2959266007        1460947784.0141437     
   759134798.57332695        6152430.5521106720        1459431615.0829682     
   722741608.21812510        8240414.6886220276        1462868696.2154179     
   686341691.52701330        10305977.705431044        1471259027.4114902     
   549902163.54813957       -136751.83164656162        1483503067.5404840     
   526043575.27480924        1403503.4881620407        1478602535.4321551     
   502180502.77871865        2928811.3987734616        1478517153.8193424     
   478312946.05987257        4439171.9001991451        1483246922.7020452     
   454440905.11826509        5934584.9924172759        1492791842.0802665     
   272601830.14333838       -773151.58642429113        1497914964.2191937     
   260869821.08547819        56161.618945732713        1494585934.7960057     
   249135569.91800374        878001.12560264766        1495933956.3002279     
   237399076.64091864        1692366.9335574657        1501959028.7318573     
   225660341.25422183        2499259.0428049564        1512661152.0908966     
   6.1620214425522832E-002 -0.34426376584626828        1510652893.0450766     
   2.4633500367726283E-002 -0.31172468452676472        1508897982.1057024     
  -8.8150640633098409E-003 -0.26739107722866934        1511682022.5256276     
  -3.8729825207723140E-002 -0.21127881953122160        1519005014.3048549     
  -6.5111103322155334E-002 -0.14338759117777983        1530866957.4433818     
   921362700.48047900        15613437.181880057        1448062708.0845726     
   868657274.11386204        17499018.123591900        1442786353.5808177     
   816213447.96207964        20256599.781413138        1442519327.4713285     
   764031222.02512944        23886182.155346006        1447261629.7560937     
   712110596.30300987        28387765.245377928        1457013260.4351103     
   686341691.52701330        10305977.705431044        1471259027.4114902     
   646570708.56640577        11647589.474161953        1467370024.2218063     
   606995925.76550770        13643201.775262982        1468546795.8362501     
   567617343.12430739        16292814.608689040        1474789342.2548244     
   528434960.64281511        19596427.974474818        1486097663.4775262     
   454440905.11826509        5934584.9924172759        1492791842.0802665     
   427765641.02044219        6780610.2251964957        1490213890.1403298     
   401221177.02719885        8062635.8065726608        1492758159.4143980     
   374807513.13853860        9780661.7365615964        1500424649.9024694     
   348524649.35445035        11934688.015120685        1513213361.6045418     
   225660341.25422183        2499259.0428049564        1512661152.0908966     
   212242071.47596988        2898080.3766833767        1511317951.3363981     
   198889201.74716434        3514901.8753808513        1515153418.2057753     
   185601732.06781548        4349723.5389344618        1524167552.6990259     
   172379662.43791440        5402545.3673152030        1538360354.8161540     
  -6.5111103322155334E-002 -0.14338759117777983        1530866957.4433818     
  -6.7018917887823021E-002  -7.1401309773103022E-002   1530682207.8100066     
  -7.4605797730141282E-002  -1.8346633736042253E-002   1535732572.2103755     
  -8.7853671224327412E-002   1.5838063461458930E-002   1546018050.6444943     
 -0.10679113271339202        3.1058855121479288E-002   1561538643.1123657     
   712110596.30300987        28387765.245377928        1457013260.4351103     
   655278694.20964038        31215502.891282707        1454485457.6282551     
   598053018.80290055        32730662.825950623        1457661165.9456975     
   540433570.08281815        32933245.049480200        1466540385.3874269     
   482420348.04937410        31823249.561804652        1481123115.9534626     
   528434960.64281511        19596427.974474818        1486097663.4775262     
   486148182.21475488        21818375.653605938        1484446413.3272300     
   443566073.80105394        23055890.047272414        1488420006.4028988     
   400688635.40170366        23308971.155442461        1498018442.7045348     
   357515867.01670396        22577618.978110239        1513241722.2321298     
   348524649.35445035        11934688.015120685        1513213361.6045418     
   320558229.16790712        13483416.100365460        1512553514.6597977     
   292394922.32342672        14375855.325819224        1517439843.0426905     
   264034728.82101744        14612005.691509649        1527872346.7532194     
   235477648.66066861        14191867.197402917        1543851025.7913866     
   172379662.43791440        5402545.3673152030        1538360354.8161540     
   158508835.06908590        6210624.2315138057        1538806761.6259615     
   144539564.37004271        6690558.6616660878        1544720675.8650746     
   130471850.34076586        6842348.6577056795        1556102097.5334954     
   116305692.98126939        6665994.2196780927        1572951026.6312292     
 -0.10679113271339202        3.1058855121479288E-002   1561538643.1123657     
  -8.1697194796771747E-002   4.7096895980217199E-002   1563206154.2257187     
  -5.9113519939841014E-002   5.4764617749095051E-002   1570262504.8700500     
  -3.9044820490327981E-002   5.4049782049304274E-002   1582707695.0453544     
  -2.1489403663126423E-002   4.4958725387256072E-002   1600541724.7516472     
   482420348.04937410        31823249.561804652        1481123115.9534626     
   425068962.13216490        27041760.710745245        1478951005.1608624     
   365559672.03495288        15067257.926351294        1482583603.5136998     
   303892477.75773209       -4100258.7914093286        1492020911.0119855     
   240067379.30052796       -30460789.442447841        1507262927.6557076     
   357515867.01670396        22577618.978110239        1513241722.2321298     
   315419642.65708345        19266696.859223187        1509762922.7670627     
   271704990.16277486        10561014.291379929        1511874792.2626505     
   226371909.53378236       -3539428.7254115790        1519577330.7189081     
   179420400.77009439       -23034632.191188142        1532870538.1358221     
   235477648.66066861        14191867.197402917        1543851025.7913866     
   208025042.47355619        12168048.795180701        1539694926.3733745     
   179493484.19706628        6547723.4283702075        1540915455.7312493     
   149882973.83119747       -2669108.9030374810        1547512613.8649993     
   119193511.37595455       -15482448.199027002        1559486400.7746406     
   116305692.98126939        6665994.2196780927        1572951026.6312292     
   102885161.58157760        5745816.5185994767        1568747015.9798067     
   88925154.137819052        3027385.3372984827        1569705593.9194891     
   74425670.649990037       -1489299.3242402524        1575826760.4502690     
   59386711.118095390       -7804237.4659949914        1587110515.5721574     
  -2.1489403663126423E-002   4.4958725387256072E-002   1600541724.7516472     
  -1.8852959486599666E-002   2.9476009545258555E-002   1596919191.5863485     
  -1.4970716973786798E-002   1.8147342602995525E-002   1598245206.8273714     
  -9.8446662909613541E-003   1.0962968170631776E-002   1604519770.4747143     
  -3.4713989924364716E-003   7.9380641254373236E-003   1615742882.5283763     
   240067379.30052796       -30460789.442447841        1507262927.6557076     
   199398799.17734814       -60142480.794474199        1486165585.4426234     
   154117936.72788891       -105198446.56743182        1467800610.3406813     
   104224791.95216516       -165628686.76127130        1452168002.3498850     
   49719364.850171909       -241433201.37600905        1439267761.4702308     
   179420400.77009439       -23034632.191188142        1532870538.1358221     
   148229242.85579070       -45502817.552579582        1507292323.2416065     
   113578873.19677244       -79501708.729687631        1484607410.7836926     
   75469291.793040633       -125031305.72250825        1464815800.7620876     
   33900498.644584924       -182091608.53107244        1447917493.1767843     
   119193511.37595455       -15482448.199027002        1559486400.7746406     
   97939590.885276586       -30599183.005338669        1530772562.2111018     
   74379529.231434762       -53403055.022196487        1505112961.4090359     
   48513326.414429471       -83894064.249597877        1482507598.3684318     
   20340982.434261791       -122072210.68754329        1462956473.0892932     
   59386711.118095390       -7804237.4659949914        1587110515.5721574     
   48529843.265786730       -15431577.152803808        1556606302.3511164     
   36519904.831865586       -26902485.444984801        1529317262.2167068     
   23356895.816336174       -42216962.342528790        1505243395.1689146     
   9040816.2191950046       -61375007.845443912        1484384701.2077575     
  -3.4713989924364716E-003   7.9380641254373236E-003   1615742882.5283763     
  -2.6740514564543055E-003   5.0364474495674062E-003   1584793543.6616488     
  -1.9288600021234862E-003   1.9609771681929995E-003   1557220313.2067044     
  -1.2364422672530425E-003  -1.2914463454682457E-003   1533023191.1635463     
  -6.0921963444678226E-004  -4.7591051978389297E-003   1512202177.5321703     
   49719364.850171909       -241433201.37600905        1439267761.4702308     
   40415649.239047930       -322435360.93629873        1346251826.1339424     
   23356199.431489527       -429289967.81803638        1253120182.5032287     
  -1458984.5725311935       -561997022.02131796        1159872830.5780857     
  -34029902.772985458       -720556523.54603899        1066509770.3585147     
   33900498.644584924       -182091608.53107244        1447917493.1767843     
   29764792.841579705       -241990603.93053764        1347443442.2410407     
   19812286.391277581       -321278934.82099110        1246190530.7996171     
   4042979.2936840355       -419956601.20241457        1144158758.8525367     
  -17543128.451195419       -538023603.07478976        1041348126.3997787     
   20340982.434261791       -122072210.68754329        1462956473.0892932     
   19478565.835819148       -161436458.10727090        1357286395.6947644     
   14738282.139238358       -213726929.18745905        1250174305.5833216     
   6120131.3445183933       -278943623.92811173        1141620202.7549710     
  -6375886.5483344048       -357086542.32920593        1031624087.2096961     
   9040816.2191950046       -61375007.845443912        1484384701.2077575     
   9556968.2217731886       -80772923.466479823        1375780686.4951284     
   8134186.6753596216       -106633950.91748968        1265071506.8543508     
   4772471.5799679607       -138958090.19842455        1152257162.2854044     
  -528177.06440968066       -177745341.30930957        1037337652.7883251     
  -6.0921963444678226E-004  -4.7591051978389297E-003   1512202177.5321703     
  -5.6822678430677688E-004  -8.1973805033319150E-003   1402926314.6421294     
  -3.6152399755170258E-004  -1.1084677132222120E-002   1290882134.6126873     
   2.4179376449768968E-005  -1.3374958192262471E-002   1176069637.4438505     
   5.8122005377079632E-004  -1.5093421018513915E-002   1058488823.1356034     
  0.81253428893626656        2.5824095609169841        1396704481.0987339     
  0.56026309965000176        1.5390356114073258        1417993403.8201191     
  0.38478222439799092       0.75163492646030383        1438823367.3894334     
  0.28609573501467878       0.22021101746124011        1459194371.8066814     
  0.26420193871495917       -5.5235166257677590E-002   1479106417.0718579     
  -310355420.53750455        17688807.194522306        1431166652.6554418     
  -309678437.30680209        14578253.382544488        1440502611.6113012     
  -308992710.40229231        11496845.149924159        1451536106.1142738     
  -308298239.82397020        8444582.4966784567        1464267136.1643577     
  -307595025.57183784        5421465.4228015095        1478695701.7615545     
  -657957446.56268346        24203630.404096395        1464349243.8522849     
  -650442066.42277944        19830947.851372242        1461742439.9058073     
  -642909199.01204658        15516556.201408267        1462989666.2056251     
  -635358844.33048546        11260455.454206169        1468090922.7517345     
  -627791002.37809551        7062645.6097677946        1477046209.5441368     
  -1042806077.2630053        19544472.211125076        1496252254.6892662     
  -1022290886.7876660        15758084.945530117        1481712888.7036395     
  -1001749465.4444791        12059133.906091154        1473184047.6634884     
  -981181813.23344636        8447619.0928059816        1470665731.5688105     
  -960587930.15456986        4923540.5056682825        1474157940.4196050     
  -1464901312.6384680        3711332.6156131625        1526875685.1663806     
  -1425224898.4014602        2359664.6650207043        1500413958.0047939     
  -1385513509.6995912        1124578.2639693022        1482119250.4878619     
  -1345767146.5328588        6073.4124609827995        1471991562.6155834     
  -1305985808.9012582       -995849.88948881626        1470030894.3879614     
  0.26420193871495917       -5.5235166257677590E-002   1479106417.0718579     
  0.18998081496247099      -0.20607865231131267        1482263409.6691575     
  0.13147990022728920      -0.30452005386181230        1488573486.5304599     
   8.8688465911916273E-002 -0.35059652067961572        1498036647.6557679     
   6.1620214425522832E-002 -0.34426376584626828        1510652893.0450766     
  -307595025.57183784        5421465.4228015095        1478695701.7615545     
  -298706843.89906156        4725662.7772761732        1477733694.7486553     
  -289911917.41514647        3719009.5022111237        1480616236.1605279     
  -281210246.12009686        2401505.5975965261        1487343325.9971657     
  -272601830.01391131        773151.06343346834        1497914964.2585745     
  -627791002.37809551        7062645.6097677946        1477046209.5441368     
  -608039027.07042193        6263724.0359356105        1471856405.1823649     
  -588473562.15619040        4843101.1506265998        1471202613.4061236     
  -569094607.63540673        2800776.9538288116        1475084834.2154179     
  -549902163.50806856        136751.44554299116        1483503067.6102405     
  -960587930.15456986        4923540.5056682825        1474157940.4196050     
  -927996549.32410216        4614183.5698940158        1464631540.9702826     
  -895684934.09165490        3372274.6407178044        1460332618.2672539     
  -863653084.45724177        1197813.7180952430        1461261172.3105197     
  -831901000.42085040       -1909199.1979348063        1467417203.1000829     
  -1305985808.9012582       -995849.88948881626        1470030894.3879614     
  -1258579410.6600974       -222958.62083035707        1456059102.1124053     
  -1211546033.2215438       -693470.02753174305        1448006250.7439110     
  -1164885676.5855956       -2407384.1095789671        1445872340.2824759     
  -1118598340.7522566       -5364700.8669967055        1449657370.7281010     
   6.1620214425522832E-002 -0.34426376584626828        1510652893.0450766     
   2.4633500367726283E-002 -0.31172468452676472        1508897982.1057024     
  -8.8150640633098409E-003 -0.26739107722866934        1511682022.5256276     
  -3.8729825207723140E-002 -0.21127881953122160        1519005014.3048549     
  -6.5111103322155334E-002 -0.14338759117777983        1530866957.4433818     
  -272601830.01391131        773151.06343346834        1497914964.2585745     
  -260869821.02782163       -56162.100698739290        1494585934.8133562     
  -249135569.92579523       -878001.54504309595        1495933956.3027422     
  -237399076.70782632       -1692367.2695791125        1501959028.7267346     
  -225660341.37392512       -2499259.2743394375        1512661152.0853312     
  -549902163.50806856        136751.44554299116        1483503067.6102405     
  -526043575.28375012       -1403503.8507197797        1478602535.4569860     
  -502180502.83109212       -2928811.7191842794        1478517153.8136401     
  -478312946.15009099       -4439172.1598367393        1483246922.6802034     
  -454440905.24074960       -5934585.1726911366        1492791842.0566745     
  -831901000.42085040       -1909199.1979348063        1467417203.1000829     
  -795521262.74315405       -4042025.5617909431        1460947784.0365970     
  -759134798.72470915       -6152430.7898210883        1459431615.0583227     
  -722741608.36552131       -8240414.8820406199        1462868696.1652594     
  -686341691.66558993       -10305977.838449210        1471259027.3574064     
  -1118598340.7522566       -5364700.8669967055        1449657370.7281010     
  -1069302883.4060222       -7971727.2338814139        1441621680.5521853     
  -1019998457.6066449       -10548858.756953537        1438677340.0367837     
  -970685063.35411513       -13096095.436186910        1440824349.1818976     
  -921362700.64844179       -15613437.271607459        1448062707.9875283     
  -6.5111103322155334E-002 -0.14338759117777983        1530866957.4433818     
  -6.7018917887823021E-002  -7.1401309773103022E-002   1530682207.8100066     
  -7.4605797730141282E-002  -1.8346633736042253E-002   1535732572.2103755     
  -8.7853671224327412E-002   1.5838063461458930E-002   1546018050.6444943     
 -0.10679113271339202        3.1058855121479288E-002   1561538643.1123657     
  -225660341.37392512       -2499259.2743394375        1512661152.0853312     
  -212242071.60279506       -2898080.4945987239        1511317951.3163328     
  -198889201.89047420       -3514901.9108885378        1515153418.1756690     
  -185601732.23695183       -4349723.5231732428        1524167552.6633399     
  -172379662.64224017       -5402545.3314939514        1538360354.7793539     
  -454440905.24074960       -5934585.1726911366        1492791842.0566745     
  -427765641.14062023       -6780610.3184191734        1490213890.0900650     
  -401221177.15242606       -8062635.8372646570        1492758159.3463795     
  -374807513.27616447       -9780661.7292186916        1500424649.8256245     
  -348524649.51184070       -11934687.994298890        1513213361.5277872     
  -686341691.66558993       -10305977.838449210        1471259027.3574064     
  -646570708.68049288       -11647589.542853028        1467370024.1312060     
  -606995925.86046100       -13643201.797471106        1468546795.7225161     
  -567617343.20549369       -16292814.602305859        1474789342.1313400     
  -528434960.71558708       -19596427.957344234        1486097663.3576782     
  -921362700.64844179       -15613437.271607459        1448062707.9875283     
  -868657274.22241056       -17499018.167893708        1442786353.4397485     
  -816213448.01457405       -20256599.791493446        1442519327.3040707     
  -764031222.02492905       -23886182.142399698        1447261629.5804954     
  -712110596.25348473       -28387765.220641613        1457013260.2690177     
 -0.10679113271339202        3.1058855121479288E-002   1561538643.1123657     
  -8.1697194796771747E-002   4.7096895980217199E-002   1563206154.2257187     
  -5.9113519939841014E-002   5.4764617749095051E-002   1570262504.8700500     
  -3.9044820490327981E-002   5.4049782049304274E-002   1582707695.0453544     
  -2.1489403663126423E-002   4.4958725387256072E-002   1600541724.7516472     
  -172379662.64224017       -5402545.3314939514        1538360354.7793539     
  -158508835.22850600       -6210624.1711222380        1538806761.5961928     
  -144539564.48807454       -6690558.5884296224        1544720675.8400104     
  -130471850.42094165       -6842348.5833971873        1556102097.5108042     
  -116305693.02711822       -6665994.1560629681        1572951026.6085684     
  -348524649.51184070       -11934687.994298890        1513213361.5277872     
  -320558229.29232818       -13483416.064450368        1512553514.5988653     
  -292394922.41690922       -14375855.281579286        1517439842.9929116     
  -264034728.88558722       -14612005.645698756        1527872346.7099359     
  -235477648.69835389       -14191867.156783365        1543851025.7499306     
  -528434960.71558708       -19596427.957344234        1486097663.3576782     
  -486148182.27316833       -21818375.632901400        1484446413.2337310     
  -443566073.84562331       -23055890.024706125        1488420006.3287568     
  -400688635.43296480       -23308971.132798284        1498018442.6427503     
  -357515867.03519201       -22577618.957176179        1513241722.1757202     
  -712110596.25348473       -28387765.220641613        1457013260.2690177     
  -655278694.17100775       -31215502.876412243        1454485457.5007968     
  -598053018.77420771       -32730662.817777425        1457661165.8475389     
  -540433570.06308329       -32933245.044727594        1466540385.3092523     
  -482420348.03763163       -31823249.557249442        1481123115.8859346     
  -2.1489403663126423E-002   4.4958725387256072E-002   1600541724.7516472     
  -1.8852959486599666E-002   2.9476009545258555E-002   1596919191.5863485     
  -1.4970716973786798E-002   1.8147342602995525E-002   1598245206.8273714     
  -9.8446662909613541E-003   1.0962968170631776E-002   1604519770.4747143     
  -3.4713989924364716E-003   7.9380641254373236E-003   1615742882.5283763     
  -116305693.02711822       -6665994.1560629681        1572951026.6085684     
  -102885161.62030505       -5745816.4765972681        1568747015.9630909     
  -88925154.167736664       -3027385.3112805076        1569705593.9079666     
  -74425670.669408768        1489299.3399010897        1575826760.4432132     
  -59386711.125324994        7804237.4769356214        1587110515.5688283     
  -235477648.69835389       -14191867.156783365        1543851025.7499306     
  -208025042.50438076       -12168048.767477617        1539694926.3428566     
  -179493484.22013512       -6547723.4105997831        1540915455.7101915     
  -149882973.84562430        2669108.9138300493        1547512613.8519392     
  -119193511.38084245        15482448.205827355        1559486400.7680924     
  -357515867.03519201       -22577618.957176179        1513241722.1757202     
  -315419642.67107189       -19266696.843132600        1509762922.7256505     
  -271704990.17216617       -10561014.279808015        1511874792.2340407     
  -226371909.53848678        3539428.7327651232        1519577330.7008805     
  -179420400.77002454        23034632.194613039        1532870538.1261811     
  -482420348.03763163       -31823249.557249442        1481123115.8859346     
  -425068962.12037909       -27041760.703572407        1478951005.1114738     
  -365559672.02382869       -15067257.918904006        1482583603.4795117     
  -303892477.74798846        4100258.7967321873        1492020910.9900460     
  -240067379.29286158        30460789.443322226        1507262927.6430843     
  -3.4713989924364716E-003   7.9380641254373236E-003   1615742882.5283763     
  -2.6740514564543055E-003   5.0364474495674062E-003   1584793543.6616488     
  -1.9288600021234862E-003   1.9609771681929995E-003   1557220313.2067044     
  -1.2364422672530425E-003  -1.2914463454682457E-003   1533023191.1635463     
  -6.0921963444678226E-004  -4.7591051978389297E-003   1512202177.5321703     
  -59386711.125324994        7804237.4769356214        1587110515.5688283     
  -48529843.271502458        15431577.158366602        1556606302.3485441     
  -36519904.836106218        26902485.445043210        1529317262.2147250     
  -23356895.819140628        42216962.336950004        1505243395.1673687     
  -9040816.2205895856        61375007.834140912        1484384701.2064846     
  -119193511.38084245        15482448.205827355        1559486400.7680924     
  -97939590.889203817        30599183.007006556        1530772562.2061634     
  -74379529.234363213        53403055.018860765        1505112961.4053731     
  -48513326.416307285        83894064.241432473        1482507598.3657315     
  -20340982.435043581        122072210.67469552        1462956473.0872314     
  -179420400.77002454        23034632.194613039        1532870538.1261811     
  -148229242.85576975        45502817.550987981        1507292323.2345057     
  -113578873.19668508        79501708.723462582        1484607410.7786505     
  -75469291.792748094        125031305.71210951        1464815800.7586200     
  -33900498.643965915        182091608.51691127        1447917493.1744099     
  -240067379.29286158        30460789.443322226        1507262927.6430843     
  -199398799.17119709        60142480.790320978        1486165585.4335692     
  -154117936.72306156        105198446.55888301        1467800610.3345528     
  -104224791.94845264        165628686.74902779        1452168002.3460438     
  -49719364.847361133        241433201.36077851        1439267761.4680352     
  -6.0921963444678226E-004  -4.7591051978389297E-003   1512202177.5321703     
  -5.6822678430677688E-004  -8.1973805033319150E-003   1402926314.6421294     
  -3.6152399755170258E-004  -1.1084677132222120E-002   1290882134.6126873     
   2.4179376449768968E-005  -1.3374958192262471E-002   1176069637.4438505     
   5.8122005377079632E-004  -1.5093421018513915E-002   1058488823.1356034     
  -9040816.2205895856        61375007.834140912        1484384701.2064846     
  -9556968.2228790745        80772923.449371487        1375780686.4943962     
  -8134186.6760153025        106633950.89511155        1265071506.8540640     
  -4772471.5799734741        138958090.17144722        1152257162.2854841     
   528177.06522362679        177745341.27829212        1037337652.7886766     
  -20340982.435043581        122072210.67469552        1462956473.0872314     
  -19478565.836363636        161436458.08959159        1357286395.6935852     
  -14738282.139539018        213726929.16497260        1250174305.5828509     
  -6120131.3445575535        278943623.90087658        1141620202.7550261     
   6375886.5485779941        357086542.29729128        1031624087.2101214     
  -33900498.643965915        182091608.51691127        1447917493.1744099     
  -29764792.841024831        241990603.91245037        1347443442.2397037     
  -19812286.390945017        321278934.79845607        1246190530.7990594     
  -4042979.2937138975        419956601.17496270        1144158758.8524733     
   17543128.450650156        538023603.04191244        1041348126.3999612     
  -49719364.847361133        241433201.36077851        1439267761.4680352     
  -40415649.236859575        322435360.91796368        1346251826.1327486     
  -23356199.430228919        429289967.79557776        1253120182.5026689     
   1458984.5725322962        561997021.99363327        1159872830.5778275     
   34029902.771429926        720556523.51213241        1066509770.3581970     
  -1464901312.6384680        3711332.6156131625        1526875685.1663806     
  -1425224898.4014602        2359664.6650207043        1500413958.0047939     
  -1385513509.6995912        1124578.2639693022        1482119250.4878619     
  -1345767146.5328588        6073.4124609827995        1471991562.6155834     
  -1305985808.9012582       -995849.88948881626        1470030894.3879614     
  -1895602948.2653506       -17609688.128471375        1422728764.5472376     
  -1834241810.3087983       -12506448.453947067        1403171108.5972803     
  -1773270209.6608558       -8701666.4747939110        1390637395.6426771     
  -1712688146.3215256       -6195342.1910133362        1385127625.6834276     
  -1652495620.2908075       -4987475.6026041508        1386641798.7195311     
  -2304354761.4299550       -32345762.133874059        1318810049.0687494     
  -2224574833.0375671       -21767394.819341421        1305661200.5946956     
  -2145608953.7272692       -13902524.445101500        1298393218.4666996     
  -2067457123.4990573       -8751151.0111538172        1297006102.6847570     
  -1990119342.3529322       -6313274.5174919367        1301499853.2488666     
  -2691156752.1322694       -40496889.400588870        1215119538.7309072     
  -2596223966.5877690       -25423174.431163788        1207884233.9970438     
  -2502529741.8988261       -14477995.646953940        1205386718.9599316     
  -2410074078.0654511       -7661353.0479514599        1207626993.6195748     
  -2318856975.0876374       -4973246.6341524124        1214605057.9759712     
  -3056008920.3723054       -42063069.928619981        1111657233.5337176     
  -2949189210.9594007       -23473787.289415002        1109840208.8043191     
  -2844032574.1755347       -10428080.080350995        1111617897.1223733     
  -2740539010.0207090       -2925948.3014111519        1116990298.4878795     
  -2638708518.4949174       -967391.95258522034        1125957412.9008417     
  -1305985808.9012582       -995849.88948881626        1470030894.3879614     
  -1258579410.6600974       -222958.62083035707        1456059102.1124053     
  -1211546033.2215438       -693470.02753174305        1448006250.7439110     
  -1164885676.5855956       -2407384.1095789671        1445872340.2824759     
  -1118598340.7522566       -5364700.8669967055        1449657370.7281010     
  -1652495620.2908075       -4987475.6026041508        1386641798.7195311     
  -1590462920.0355799       -4190688.2490208745        1375123139.7709424     
  -1528675714.2314203       -4212215.7323216200        1368931026.9834383     
  -1467134002.8783283       -5052058.0525118113        1368065460.3570151     
  -1405837785.9762969       -6710215.2095797658        1372526439.8916800     
  -1990119342.3529322       -6313274.5174919367        1301499853.2488666     
  -1915152896.5007212       -6000358.0041131973        1292583108.3707116     
  -1840304418.7480350       -6080668.4891498089        1288400514.9076624     
  -1765573909.0948694       -6554205.9725905657        1288952072.8597198     
  -1690961367.5412288       -7420970.4544452429        1294237782.2268841     
  -2318856975.0876374       -4973246.6341524124        1214605057.9759712     
  -2232649340.0555186       -5651967.8861103058        1208439007.9117157     
  -2146432146.7713783       -6298828.2979913950        1206414714.5165889     
  -2060205395.2352204       -6913827.8698072433        1208532177.7905910     
  -1973969085.4470406       -7496966.6015639305        1214791397.7337251     
  -2638708518.4949174       -967391.95258522034        1125957412.9008417     
  -2542952250.6999640       -3145517.8949817419        1122690838.3939497     
  -2447058898.3014536       -4866695.1588468552        1122973625.8102121     
  -2351028461.2993808       -6130923.7441719770        1126805775.1496263     
  -2254860939.6937456       -6938203.6509605646        1134187286.4121933     
  -1118598340.7522566       -5364700.8669967055        1449657370.7281010     
  -1069302883.4060222       -7971727.2338814139        1441621680.5521853     
  -1019998457.6066449       -10548858.756953537        1438677340.0367837     
  -970685063.35411513       -13096095.436186910        1440824349.1818976     
  -921362700.64844179       -15613437.271607459        1448062707.9875283     
  -1405837785.9762969       -6710215.2095797658        1372526439.8916800     
  -1343367630.9002326       -8542138.4915234447        1365063857.9636228     
  -1280998759.9953558       -10711675.677418590        1362465439.3014731     
  -1218731173.2616651       -13218826.767267883        1364731183.9052272     
  -1156564870.6991594       -16063591.761071205        1371861091.7748871     
  -1690961367.5412288       -7420970.4544452429        1294237782.2268841     
  -1615965618.7199364       -8672521.8468167782        1287219680.4849677     
  -1541181406.6941581       -10629195.890914261        1284838555.6143470     
  -1466608731.4639068       -13290992.586759686        1287094407.6150219     
  -1392247593.0291736       -16657911.934332311        1293987236.4869885     
  -1973969085.4470406       -7496966.6015639305        1214791397.7337251     
  -1887096846.8651223       -8362877.2997515202        1208089148.1162236     
  -1800546397.7030494       -10301419.397434950        1205796688.9754076     
  -1714317737.9608374       -13312592.894649863        1207914020.3112743     
  -1628410867.6384804       -17396397.791380286        1214441142.1238246     
  -2254860939.6937456       -6938203.6509605646        1134187286.4121933     
  -2156761315.3357973       -7613204.8503345251        1127672260.8573837     
  -2059093733.0220330       -9728346.1969883442        1125339839.3846495     
  -1961858192.7524645       -13283627.690963626        1127190021.9939880     
  -1865054694.5270796       -18279049.332212687        1133222808.6854007     
  -921362700.64844179       -15613437.271607459        1448062707.9875283     
  -868657274.22241056       -17499018.167893708        1442786353.4397485     
  -816213448.01457405       -20256599.791493446        1442519327.3040707     
  -764031222.02492905       -23886182.142399698        1447261629.5804954     
  -712110596.25348473       -28387765.220641613        1457013260.2690177     
  -1156564870.6991594       -16063591.761071205        1371861091.7748871     
  -1091202054.8066442       -18406146.214477897        1366058981.6981733     
  -1026039104.2760875       -21414918.541069984        1365089452.0813725     
  -961076019.10749209       -25089908.740873694        1368952502.9244852     
  -896312799.30084777       -29431116.813848615        1377648134.2275109     
  -1392247593.0291736       -16657911.934332311        1293987236.4869885     
  -1314732381.8192804       -19608938.189579368        1287731394.8802781     
  -1237355301.1151116       -23020399.463910103        1286131385.7812963     
  -1160116350.9166656       -26892295.757314205        1289187209.1900373     
  -1083015531.2239423       -31224627.069791794        1296898865.1065073     
  -1628410867.6384804       -17396397.791380286        1214441142.1238246     
  -1539248255.2603173       -21107394.093209505        1207803592.9860635     
  -1450162038.5316432       -25073042.559987247        1205645128.4038367     
  -1361152217.4524565       -29293343.191731751        1207965748.3771486     
  -1272218792.0227616       -33768295.988447309        1214765452.9059989     
  -1865054694.5270796       -18279049.332212687        1133222808.6854007     
  -1764749675.1297567       -22901513.925353646        1126275576.0155268     
  -1664459316.5256867       -27572847.829333842        1123630679.9489992     
  -1564183618.7148702       -32293051.044158280        1125288120.4858210     
  -1463922581.6973009       -37062123.569812298        1131247897.6259985     
  -712110596.25348473       -28387765.220641613        1457013260.2690177     
  -655278694.17100775       -31215502.876412243        1454485457.5007968     
  -598053018.77420771       -32730662.817777425        1457661165.8475389     
  -540433570.06308329       -32933245.044727594        1466540385.3092523     
  -482420348.03763163       -31823249.557249442        1481123115.8859346     
  -896312799.30084777       -29431116.813848615        1377648134.2275109     
  -825118649.00714898       -31794591.171979249        1374376933.6159079     
  -753692685.28417218       -33385354.099187106        1376342967.4446685     
  -682034908.13193262       -34203405.595514953        1383546235.7137952     
  -610145317.55041671       -34248745.660925925        1395986738.4232750     
  -1083015531.2239423       -31224627.069791794        1296898865.1065073     
  -998791351.78931487       -33523503.851327002        1292695313.4522948     
  -914497318.81047595       -35589535.485491991        1293262719.5638382     
  -830133432.28742313       -37422721.972274631        1298601083.4411352     
  -745699692.22015631       -39023063.311682105        1308710405.0841854     
  -1272218792.0227616       -33768295.988447309        1214765452.9059989     
  -1176296802.5175166       -36402240.914492190        1209440597.0099485     
  -1080466919.3531206       -39343206.976695716        1208420422.2050381     
  -984729142.52956653       -42591194.175040245        1211704928.4912775     
  -889083472.04685390       -46146202.509525687        1219294115.8686631     
  -1463922581.6973009       -37062123.569812298        1131247897.6259985     
  -1357635001.1917534       -40430802.361471236        1124612784.2888694     
  -1251601486.9121091       -44646368.572814405        1121816075.3682778     
  -1145822038.8583558       -49708822.203792453        1122857770.8642266     
  -1040296657.0305119       -55618163.254464030        1127737870.7767119     
  -482420348.03763163       -31823249.557249442        1481123115.8859346     
  -425068962.12037909       -27041760.703572407        1478951005.1114738     
  -365559672.02382869       -15067257.918904006        1482583603.4795117     
  -303892477.74798846        4100258.7967321873        1492020910.9900460     
  -240067379.29286158        30460789.443322226        1507262927.6430843     
  -610145317.55041671       -34248745.660925925        1395986738.4232750     
  -537994436.98771787       -30507988.769181877        1393631419.7145894     
  -463630725.92278337       -19391130.203322366        1397095787.4280436     
  -387054184.35559964       -898169.96330046654        1406379841.5636342     
  -308264812.28617144        24970891.950870380        1421483582.1213543     
  -745699692.22015631       -39023063.311682105        1308710405.0841854     
  -658706524.78449035       -36310200.713641465        1306235959.1513877     
  -569445600.52362370       -26038148.698273987        1309596176.9203613     
  -477916919.43756986       -8206907.2656143606        1318791058.3911078     
  -384120481.52632362        17183523.584359154        1333820603.5636215     
  -889083472.04685390       -46146202.509525687        1219294115.8686631     
  -787205225.51067853       -44448396.536899060        1216764623.4218612     
  -683004295.82636404       -35008313.403811812        1220084771.9564683     
  -576480682.99390292       -17825953.110237002        1229254561.4724853     
  -467634387.01330501        7098684.3437991738        1244273991.9698992     
  -1040296657.0305119       -55618163.254464030        1127737870.7767119     
  -923490539.16630673       -54922576.239022017        1125217412.5260148     
  -804306811.83099997       -46301624.319913328        1128561572.5363581     
  -682745475.02461278       -29755307.497194737        1137770350.8077459     
  -558806528.74712074       -5283625.7708044052        1152843747.3401768     
  -240067379.29286158        30460789.443322226        1507262927.6430843     
  -199398799.17119709        60142480.790320978        1486165585.4335692     
  -154117936.72306156        105198446.55888301        1467800610.3345528     
  -104224791.94845264        165628686.74902779        1452168002.3460438     
  -49719364.847361133        241433201.36077851        1439267761.4680352     
  -308264812.28617144        24970891.950870380        1421483582.1213543     
  -258761218.01138985        55199293.785086617        1404763968.1401265     
  -202803372.96956503        106941864.84278083        1391981987.8229747     
  -140391277.16066402        180198605.12405649        1383137641.1698968     
  -71524930.584718436        274969514.62881970        1378230928.1808894     
  -384120481.52632362        17183523.584359154        1333820603.5636215     
  -322338254.37393004        48991721.523136422        1323627680.9913609     
  -252259808.01390174        108453983.48736781        1318577658.6367483     
  -173885142.44623530        195570309.47705701        1318670536.4997847     
  -87214257.670930415        310340699.49220777        1323906314.5804682     
  -467634387.01330501        7098684.3437991738        1244273991.9698992     
  -390129908.25880462        41519764.004495040        1242756723.9872792     
  -302487241.85608792        109734802.49258369        1247587622.7758853     
  -204706387.80515215        211743799.80806401        1258766688.3357048     
  -96787346.106000349        347546755.95093685        1276293920.6667550     
  -558806528.74712074       -5283625.7708044052        1152843747.3401768     
  -462136179.66602230        32783421.229150712        1162151097.1278768     
  -353485674.49612081        110784321.85844392        1179011880.2403729     
  -232855013.23742205        228719076.11706299        1203426096.6776655     
  -100244195.88992369        386587684.00501651        1235393746.4397476     
  -49719364.847361133        241433201.36077851        1439267761.4680352     
  -40415649.236859575        322435360.91796368        1346251826.1327486     
  -23356199.430228919        429289967.79557776        1253120182.5026689     
   1458984.5725322962        561997021.99363327        1159872830.5778275     
   34029902.771429926        720556523.51213241        1066509770.3581970     
  -71524930.584718436        274969514.62881970        1378230928.1808894     
  -57352101.200073704        376718567.38141769        1296704138.8047633     
  -34214051.106516272        508351689.16372406        1214250785.2738187     
  -2110780.3040304482        669868879.97579134        1130870867.5880563     
   38957711.207371354        861270139.81756866        1046564385.7474667     
  -87214257.670930415        310340699.49220777        1323906314.5804682     
  -70489045.540816844        432141626.13162965        1255279738.7617471     
  -43589126.188997984        587858243.51005781        1184915742.9281757     
  -6514499.6154765189        777490551.62749743        1112814327.0797424     
   40734834.179740429        1001038550.4839332        1038975491.2164556     
  -96787346.106000349        347546755.95093685        1276293920.6667550     
  -79826482.259093374        488704537.16857332        1221978626.0036941     
  -51481424.677696586        667809630.83450353        1165115055.4657357     
  -11752173.361827314        884862036.94869232        1105703209.0528905     
   39361271.688555479        1139861755.5112317        1043743086.7651554     
  -100244195.88992369        386587684.00501651        1235393746.4397476     
  -85364411.354902178        546407300.49226391        1196800800.5305977     
  -57890946.572607815        748205851.13708723        1154848722.8865201     
  -17823801.543042421        991983335.93948483        1109537513.5075061     
   34837023.733798265        1277739754.8994584        1060867172.3935708     
  -3056008920.3723054       -42063069.928619981        1111657233.5337176     
  -2949189210.9594007       -23473787.289415002        1109840208.8043191     
  -2844032574.1755347       -10428080.080350995        1111617897.1223733     
  -2740539010.0207090       -2925948.3014111519        1116990298.4878795     
  -2638708518.4949174       -967391.95258522034        1125957412.9008417     
  -3397003715.7597599        19878590.192780495        1015248810.9298320     
  -3287538820.8953762        13688166.993934155        1009052556.0558491     
  -3177567695.9493837        9185177.4004619122        1007014739.8289430     
  -3067090340.9217749        6369621.4123708010        1009135362.2491164     
  -2956106755.8125563        5241499.0296511650        1015414423.3163693     
  -3749387848.6474133        78403449.064119577        907739091.94723964     
  -3635667123.7611933        47916513.398334503        899694460.09109318     
  -3519270866.0827060        26348020.373427629        896371992.48165560     
  -3400199075.6119604        13697969.989404917        897771689.11891961     
  -3278451752.3489423        9966362.2462618351        903893550.00289130     
  -4113161319.0352640        133511506.68540049        789128076.58593929     
  -3993574119.5568423        79211251.923783302        781765920.91005933     
  -3869142084.5755081        41060448.838555336        779689655.08051252     
  -3739865214.0912595        19059097.429706097        782899279.09729469     
  -3605743508.1040888        13207197.697251558        791394792.96041310     
  -4488324126.9233103        185202763.05662251        659415764.84592843     
  -4361259808.2823305        107572382.57028055        655266938.51274109     
  -4227181351.4277825        53322462.795834780        656967727.62551177     
  -4086088756.3596654        22453003.733283281        664518132.18423903     
  -3937982023.0779886        14964005.382605791        677918152.18892550     
  -2638708518.4949174       -967391.95258522034        1125957412.9008417     
  -2542952250.6999640       -3145517.8949817419        1122690838.3939497     
  -2447058898.3014536       -4866695.1588468552        1122973625.8102121     
  -2351028461.2993808       -6130923.7441719770        1126805775.1496263     
  -2254860939.6937456       -6938203.6509605646        1134187286.4121933     
  -2956106755.8125563        5241499.0296511650        1015414423.3163693     
  -2850532928.2794948        3268789.4303021431        1010703430.4865648     
  -2744952139.5822005        1319283.7117339373        1009947640.9914502     
  -2639364389.7206650       -607018.12603950500        1013147054.8310255     
  -2533769678.6948924       -2510116.0830128193        1020301672.0052874     
  -3278451752.3489423        9966362.2462618351        903893550.00289130     
  -3161900818.1876731        8546933.0569884777        897586328.17096376     
  -3045473046.3014908        6716962.9507553577        895640151.08526158     
  -2929168436.6903939        4476451.9275698662        898055018.74578607     
  -2812986989.3543854        1825399.9874259233        904830931.15253401     
  -3605743508.1040888        13207197.697251558        791394792.96041310     
  -3477055920.4245038        12688912.985085726        783339531.44714975     
  -3348621618.4593310        11326342.558203220        780051156.09164727     
  -3220440602.2085638        9119486.4166401625        781529666.89390731     
  -3092512871.6722112        6068344.5603656769        787775063.85392904     
  -3937982023.0779886        14964005.382605791        677918152.18892550     
  -3795998234.9899831        15694729.214581490        667963040.31511641     
  -3654397856.0557156        15147422.534102917        663180656.01060438     
  -3513180886.2751813        13322085.341179848        663570999.27539146     
  -3372347325.6483817        10218717.635802031        669134070.10947490     
  -2254860939.6937456       -6938203.6509605646        1134187286.4121933     
  -2156761315.3357973       -7613204.8503345251        1127672260.8573837     
  -2059093733.0220330       -9728346.1969883442        1125339839.3846495     
  -1961858192.7524645       -13283627.690963626        1127190021.9939880     
  -1865054694.5270796       -18279049.332212687        1133222808.6854007     
  -2533769678.6948924       -2510116.0830128193        1020301672.0052874     
  -2425106992.5546618       -3864562.6091793776        1013238093.3433763     
  -2316696371.6029720       -6059226.4304842949        1010274137.8150245     
  -2208537815.8398309       -9094107.5469391346        1011409805.4202300     
  -2100631325.2652264       -12969205.958526134        1016645096.1589934     
  -2812986989.3543854        1825399.9874259233        904830931.15253401     
  -2693998329.8561993       -279618.39283370972        897428772.38177311     
  -2575081758.6909142       -2624931.2160819769        894043255.79605746     
  -2456237275.8585215       -5210538.4823188782        894674381.39538252     
  -2337464881.3590250       -8036440.1915334463        899322149.17975116     
  -3092512871.6722112        6068344.5603656769        787775063.85392904     
  -2963435327.2404075        3141627.7987079620        780244297.97257245     
  -2834249894.2858491        574539.44622969627        776647193.32774913     
  -2704956572.8085451       -1632920.4970949888        776983749.91944647     
  -2575555362.8084884       -3480752.0312442780        781253967.74767351     
  -3372347325.6483817        10218717.635802031        669134070.10947490     
  -3233417984.7072802        6399175.9654653072        661684670.11577606     
  -3094200778.3877888        3539185.5564255714        658085950.41009629     
  -2954695706.6898966        1638746.4087269306        658337910.99242163     
  -2814902769.6136031        697858.52235603333        662440551.86276662     
  -1865054694.5270796       -18279049.332212687        1133222808.6854007     
  -1764749675.1297567       -22901513.925353646        1126275576.0155268     
  -1664459316.5256867       -27572847.829333842        1123630679.9489992     
  -1564183618.7148702       -32293051.044158280        1125288120.4858210     
  -1463922581.6973009       -37062123.569812298        1131247897.6259985     
  -2100631325.2652264       -12969205.958526134        1016645096.1589934     
  -1989168996.3344016       -16399140.800343037        1009008689.9358517     
  -1877864440.4153142       -20354985.681275606        1005377293.7309796     
  -1766717657.5079582       -24836740.601328373        1005750907.5443786     
  -1655728647.6123416       -29844405.560490489        1010129531.3760408     
  -2337464881.3590250       -8036440.1915334463        899322149.17975116     
  -2215694747.4235106       -10528696.640675068        890829605.14844656     
  -2094225498.7182064       -14023903.857203722        886044744.55033267     
  -1973057135.2431223       -18522061.841124654        884967567.38540554     
  -1852189656.9982569       -24023170.592437983        887598073.65366507     
  -2575555362.8084884       -3480752.0312442780        781253967.74767351     
  -2444326928.3970795       -5290181.4463434219        771738321.65331733     
  -2313542491.4343681       -8579602.3571125269        765633032.40706229     
  -2183202051.9203534       -13349014.763542771        762938100.00891840     
  -2053305609.8550463       -19598418.665654182        763653524.45887733     
  -2814902769.6136031        697858.52235603333        662440551.86276662     
  -2675065539.2551107       -683595.21735703945        651734839.45045745     
  -2535815418.5637932       -4022081.1810071468        644142157.30116832     
  -2397152407.5396566       -9317599.3685808182        639662505.41490650     
  -2259076506.1827073       -16570149.780111790        638295883.79167128     
  -1463922581.6973009       -37062123.569812298        1131247897.6259985     
  -1357635001.1917534       -40430802.361471236        1124612784.2888694     
  -1251601486.9121091       -44646368.572814405        1121816075.3682778     
  -1145822038.8583558       -49708822.203792453        1122857770.8642266     
  -1040296657.0305119       -55618163.254464030        1127737870.7767119     
  -1655728647.6123416       -29844405.560490489        1010129531.3760408     
  -1539882226.0507441       -33638656.238302648        1001602421.3673036     
  -1424038784.8082511       -37442841.313132167        996688070.49732769     
  -1308198323.8848498       -41256960.784936249        995386478.76612043     
  -1192360843.2805543       -45081014.653752208        997697646.17368162     
  -1852189656.9982569       -24023170.592437983        887598073.65366507     
  -1727429095.1742454       -28436403.394492388        877471900.53125334     
  -1602420427.7625341       -32022617.570886433        870732841.26983416     
  -1477163654.7631195       -34781813.121596336        867380895.86940730     
  -1351658776.1760066       -36713990.046643376        867416064.32997584     
  -2053305609.8550463       -19598418.665654182        763653524.45887733     
  -1920275608.5622578       -24824043.830036163        752221221.78072274     
  -1786746415.7749710       -28385697.346096396        743950387.68578744     
  -1652718031.4931738       -30283379.213793397        738841022.17407453     
  -1518190455.7168794       -30517089.433164001        736893125.24558461     
  -2259076506.1827073       -16570149.780111790        638295883.79167128     
  -2118421766.2147758       -22801577.544921637        625850385.11571109     
  -1977016748.8455453       -26532080.638731122        616340709.74519789     
  -1834861454.0750146       -27761659.061542153        609766857.68013418     
  -1691955881.9031775       -26490312.813325465        606128828.92051494     
  -1040296657.0305119       -55618163.254464030        1127737870.7767119     
  -923490539.16630673       -54922576.239022017        1125217412.5260148     
  -804306811.83099997       -46301624.319913328        1128561572.5363581     
  -682745475.02461278       -29755307.497194737        1137770350.8077459     
  -558806528.74712074       -5283625.7708044052        1152843747.3401768     
  -1192360843.2805543       -45081014.653752208        997697646.17368162     
  -1061979234.2436893       -42315197.888237476        994008302.77218688     
  -930126535.80779970       -34645749.792648911        994419281.30014682     
  -796802747.97289801       -22072670.367016941        998930581.75755072     
  -662007870.73896873       -4595959.6112902462        1007542204.1444029     
  -1351658776.1760066       -36713990.046643376        867416064.32997584     
  -1212742522.6281848       -33390197.529586852        861500229.02693486     
  -1073261699.7534194       -28184507.256036341        857920419.32175744     
  -933216307.55169666       -21096919.225972950        856676635.21442366     
  -792606346.02302778       -12127433.439412713        857768876.70495045     
  -1518190455.7168794       -30517089.433164001        736893125.24558461     
  -1375780404.3198080       -28147575.163087726        727693191.29025435     
  -1233712303.6678503       -26917896.710057497        719064986.60118771     
  -1091986153.7610173       -26828054.074108899        711008511.17838204     
  -950601954.59930158       -27878047.255219579        703523765.02182233     
  -1691955881.9031775       -26490312.813325465        606128828.92051494     
  -1551092879.3185406       -26587330.788698316        592587189.56214714     
  -1411478347.5511043       -30845918.154735625        577852983.13844204     
  -1273112286.6008453       -39266074.911366403        561926209.64939904     
  -1135994696.4677885       -51847801.058670402        544806869.09502268     
  -558806528.74712074       -5283625.7708044052        1152843747.3401768     
  -462136179.66602230        32783421.229150712        1162151097.1278768     
  -353485674.49612081        110784321.85844392        1179011880.2403729     
  -232855013.23742205        228719076.11706299        1203426096.6776655     
  -100244195.88992369        386587684.00501651        1235393746.4397476     
  -662007870.73896873       -4595959.6112902462        1007542204.1444029     
  -546940179.49891078        25681364.738618016        1021011654.5290718     
  -421001531.90465194        92195210.269172668        1042877101.5535405     
  -284191927.95622903        194945576.98028094        1073138545.2178128     
  -136511367.65362382        333932464.87200671        1111795985.5218821     
  -792606346.02302778       -12127433.439412713        857768876.70495045     
  -656733988.86683452        11082365.387604713        874106361.32953441     
  -511099875.09107065        66831352.946522623        899682405.90892184     
  -355704004.69574976        155119529.23729837        934497010.44312155     
  -190546377.68086335        275946894.25995851        978550174.93212903     
  -950601954.59930158       -27878047.255219579        703523765.02182233     
  -791517607.76980901       -11013576.823922127        721435217.52926314     
  -623780704.05537736        34692749.890499145        749427793.30652237     
  -447391243.45599061        109240932.88811296        787501492.35359049     
  -262349225.97166920        212630972.16884208        835656314.67048657     
  -1135994696.4677885       -51847801.058670402        544806869.09502268     
  -951291036.20784521       -40606461.895997465        562998223.12826204     
  -759044018.79756212       -4220598.8988644481        592113263.74633121     
  -559253644.23695481        57309787.932679772        632151990.94922459     
  -351919912.52602601        143984698.59864026        683114404.73694396     
  -100244195.88992369        386587684.00501651        1235393746.4397476     
  -85364411.354902178        546407300.49226391        1196800800.5305977     
  -57890946.572607815        748205851.13708723        1154848722.8865201     
  -17823801.543042421        991983335.93948483        1109537513.5075061     
   34837023.733798265        1277739754.8994584        1060867172.3935708     
  -136511367.65362382        333932464.87200671        1111795985.5218821     
  -127378679.89980039        482935546.89028829        1090224665.3997240     
  -95107790.769723624        709065966.82943523        1070087756.6736280     
  -39698700.263373613        1012323724.6894747        1051385259.3436103     
   38848591.619227469        1392708820.4703667        1034117173.4096723     
  -190546377.68086335        275946894.25995851        978550174.93212903     
  -173464949.19109881        418242193.06439590        986302421.91411495     
  -122700798.19608274        672813233.55301595        1000282623.4231668     
  -38253924.695804834        1039660015.7258213        1020490779.4593154     
   79875671.309714139        1518782539.5828056        1046926890.0225132     
  -262349225.97166920        212630972.16884208        835656314.67048657     
  -223623219.22881031        352327239.01457137        885034070.07376003     
  -140669968.85169250        639447651.30782545        945433323.13512290     
  -13489474.840338409        1073992209.0485370        1016854073.8545706     
   157918262.80526161        1655960912.2367561        1099296322.2320919     
  -351919912.52602601        143984698.59864026        683114404.73694396     
  -277853490.01290822        285190684.74085087        786419609.87868404     
  -149015302.73655722        608969220.09385002        905539855.80950618     
   34594649.303035140        1115320304.6576397        1040475142.5294112     
   272976366.10586393        1804243938.4322231        1191225470.0384073     
  -4488324126.9233103        185202763.05662251        659415764.84592843     
  -4361259808.2823305        107572382.57028055        655266938.51274109     
  -4227181351.4277825        53322462.795834780        656967727.62551177     
  -4086088756.3596654        22453003.733283281        664518132.18423903     
  -3937982023.0779886        14964005.382605791        677918152.18892550     
  -4944391992.2855568       -88933136.238502502        439505223.30791646     
  -4773986494.0915241       -57672300.943422794        453285137.65201741     
  -4605914187.6109123       -34188771.359734058        469426063.33371896     
  -4440175072.8437138       -18482547.487424374        487928000.35301888     
  -4276769149.7899275       -10553629.326497078        508790948.70991486     
  -5352052741.6295633       -348546900.72815251        261927622.39993912     
  -5148273504.1920872       -211385081.74454021        282731059.17318469     
  -4956174788.3950100       -113158334.89558983        302406903.17567283     
  -4775756594.2383280       -53866660.181296587        320955154.40739596     
  -4607018921.7220383       -33510057.601659060        338375812.86836004     
  -5711306374.9553432       -593638530.41233397        126682962.12199603     
  -5484120838.5840149       -353565959.83306575        143604703.07624131     
  -5277963153.7800636       -183586227.81173086        155910247.15136358     
  -5092833320.5434942       -83699334.348336935        163599594.34736648     
  -4928731338.8743048       -53905279.442869186        166672744.66425204     
  -6022152892.2628889       -824208025.29104900        33771242.474088207     
  -5781528497.2673140       -484214935.20900941        35906069.361183114     
  -5571279283.7660847       -245472450.10816860        29936095.260797605     
  -5391405251.7592239       -107980569.98853517        15861320.172934558     
  -5241906401.2467279       -71739294.850116014       -6318255.9024031423     
  -3937982023.0779886        14964005.382605791        677918152.18892550     
  -3795998234.9899831        15694729.214581490        667963040.31511641     
  -3654397856.0557156        15147422.534102917        663180656.01060438     
  -3513180886.2751813        13322085.341179848        663570999.27539146     
  -3372347325.6483817        10218717.635802031        669134070.10947490     
  -4276769149.7899275       -10553629.326497078        508790948.70991486     
  -4121887479.9153256       -8853540.6319129467        501225294.60542971     
  -3967093422.8410859       -7445494.6052174568        498184660.87612331     
  -3812386978.5672207       -6329491.2464385033        499669047.52199197     
  -3657768147.0937285       -5505530.5555586815        505678454.54304165     
  -4607018921.7220383       -33510057.601659060        338375812.86836004     
  -4441089962.0440216       -31395781.639403582        333544712.27878767     
  -4274952818.8130155       -28587560.500512838        332590924.87027019     
  -4108607492.0290194       -25085394.184988260        335514450.64281362     
  -3942053981.6920276       -20889282.692810059        342315289.59641874     
  -4928731338.8743048       -53905279.442869186        166672744.66425204     
  -4753605681.3760815       -51931993.807918549        164921293.33517969     
  -4577976043.9714994       -48278775.151765585        166399447.99305192     
  -4401842426.6605711       -42945623.474453926        171107208.63785595     
  -4225204829.4432793       -35932538.775948048        179044575.26960841     
  -5241906401.2467279       -71739294.850116014       -6318255.9024031423     
  -5059434637.9114952       -70462177.137426615       -4644962.2253863513     
  -4876163098.3165436       -66519138.559000015       -389769.75553868851     
  -4692091782.4618750       -59910179.114855528        6447321.5071226303     
  -4507220690.3474798       -50635298.804957390        15866311.562615301     
  -3372347325.6483817        10218717.635802031        669134070.10947490     
  -3233417984.7072802        6399175.9654653072        661684670.11577606     
  -3094200778.3877888        3539185.5564255714        658085950.41009629     
  -2954695706.6898966        1638746.4087269306        658337910.99242163     
  -2814902769.6136031        697858.52235603333        662440551.86276662     
  -3657768147.0937285       -5505530.5555586815        505678454.54304165     
  -3507752119.8785505       -6178147.3505611420        498851138.05813944     
  -3357724789.4509554       -6813086.7708158493        495975148.06328481     
  -3207686155.8109288       -7410348.8163083792        497050484.55847090     
  -3057636218.9584761       -7969933.4870514870        502077147.54370368     
  -3942053981.6920276       -20889282.692810059        342315289.59641874     
  -3780663707.6255422       -18328706.439288139        335787400.76001215     
  -3619538692.5126066       -16652326.697602034        333311484.61568338     
  -3458678936.3532147       -15860143.467725992        334887541.16342854     
  -3298084439.1473708       -15952156.749678850        340515570.40325177     
  -4225204829.4432793       -35932538.775948048        179044575.26960841     
  -4052152747.9482574       -30052501.300758362        172493458.22140133     
  -3879642487.5727453       -25978534.223934650        170094960.06730184     
  -3707674048.3167601       -23710637.545542002        171849080.80730623     
  -3536247430.1802864       -23248811.265505791        177755820.44141892     
  -4507220690.3474798       -50635298.804957390        15866311.562615301     
  -4322219240.8466825       -41349531.934914827        8969310.4422984887     
  -4138036174.6313691       -34791709.349817753        6325574.4181260727     
  -3954671491.7015514       -30961831.049705982        7935103.4900878072     
  -3772125192.0572119       -29859897.034522057        13797897.658186253     
  -2814902769.6136031        697858.52235603333        662440551.86276662     
  -2675065539.2551107       -683595.21735703945        651734839.45045745     
  -2535815418.5637932       -4022081.1810071468        644142157.30116832     
  -2397152407.5396566       -9317599.3685808182        639662505.41490650     
  -2259076506.1827073       -16570149.780111790        638295883.79167128     
  -3057636218.9584761       -7969933.4870514870        502077147.54370368     
  -2909237650.2619085       -9210720.1006941795        491914294.24093282     
  -2760972884.6653266       -10897517.047630072        485191593.90609521     
  -2612841922.1687260       -13030324.327833295        481909046.53920144     
  -2464844762.7721119       -15609141.941323042        482066652.14024419     
  -3298084439.1473708       -15952156.749678850        340515570.40325177     
  -3140189895.8129721       -16771885.347327232        331424433.87174660     
  -2981975849.0113621       -16526602.387600183        326100573.01309478     
  -2823442298.7425451       -15216307.870517850        324543987.82729745     
  -2664589245.0065084       -12841001.796038508        326754678.31435257     
  -3536247430.1802864       -23248811.265505791        177755820.44141892     
  -3367922275.9082961       -23367090.957227230        170265258.34290844     
  -3198824311.6019058       -20909337.200934649        166869094.62216410     
  -3028953537.2611017       -15875549.996606588        167567329.27919671     
  -2858309952.8858881       -8265729.3442388773        172359962.31399146     
  -3772125192.0572119       -29859897.034522057        13797897.658186253     
  -3592434790.5478902       -28996336.930434704        8436767.6544140950     
  -3411518272.4369464       -24045721.487594843        7497158.7333169878     
  -3229375637.7244167       -15008050.706135392        10979070.894905820     
  -3046006886.4102631       -1883324.5859377384        18882504.139168426     
  -2259076506.1827073       -16570149.780111790        638295883.79167128     
  -2118421766.2147758       -22801577.544921637        625850385.11571109     
  -1977016748.8455453       -26532080.638731122        616340709.74519789     
  -1834861454.0750146       -27761659.061542153        609766857.68013418     
  -1691955881.9031775       -26490312.813325465        606128828.92051494     
  -2464844762.7721119       -15609141.941323042        482066652.14024419     
  -2315970263.7970591       -17778378.985663295        472058395.76522571     
  -2166865448.2963343       -19179894.277757883        464499779.00090337     
  -2017530316.2699335       -19813687.817604423        459390801.84726369     
  -1867964867.7178643       -19679759.605219126        456731464.30432528     
  -2664589245.0065084       -12841001.796038508        326754678.31435257     
  -2508884083.2950616       -11364777.001109242        318577043.21871185     
  -2353468565.9335718       -10854033.372686028        312362864.03900164     
  -2198342692.9220524       -11308770.910833359        308112140.77522528     
  -2043506464.2604816       -12728989.615478516        305824873.42738581     
  -2858309952.8858881       -8265729.3442388773        172359962.31399146     
  -2697163224.7087970       -3560771.5912808180        165406327.47615573     
  -2536826101.7572818       -1554497.9235924482        159929964.85949588     
  -2377298584.0313597       -2246908.3412055969        155930874.46401176     
  -2218580671.5310307       -5638002.8441307545        153409056.28970850     
  -3046006886.4102631       -1883324.5859377384        18882504.139168426     
  -2880807688.0382471        5633637.2438396215        12546248.537567481     
  -2716938055.7674375        8718712.0696108341        7201081.4623864647     
  -2554397989.5978651        7371899.8912435770        2847002.9136165692     
  -2393187489.5295033        1593200.7088534832       -515987.10871962714     
  -1691955881.9031775       -26490312.813325465        606128828.92051494     
  -1551092879.3185406       -26587330.788698316        592587189.56214714     
  -1411478347.5511043       -30845918.154735625        577852983.13844204     
  -1273112286.6008453       -39266074.911366403        561926209.64939904     
  -1135994696.4677885       -51847801.058670402        544806869.09502268     
  -1867964867.7178643       -19679759.605219126        456731464.30432528     
  -1730078492.6566803       -22854429.366522312        442968656.95492589     
  -1592293780.8858643       -26367976.762380540        428818930.52650416     
  -1454610732.4053998       -30220401.792752028        414282285.01905495     
  -1317029347.2152984       -34411704.457657039        399358720.43257564     
  -2043506464.2604816       -12728989.615478516        305824873.42738581     
  -1906294865.3332965       -18290755.745887756        293178840.20160669     
  -1768038122.1696558       -20368707.754756570        280951535.88310635     
  -1628736234.7695239       -18962845.642015815        269142960.47188771     
  -1488389203.1329155       -14073169.407665789        257753113.96794969     
  -2218580671.5310307       -5638002.8441307545        153409056.28970850     
  -2079741997.3483899       -12896309.926793814        143217739.30218294     
  -1938711371.4024570       -12848111.131808162        134250799.20824021     
  -1795488793.6932108       -5493406.4591180086        126508236.00788753     
  -1650074264.2206607        9167804.0912553072        119990049.70113829     
  -2393187489.5295033        1593200.7088534832       -515987.10871962714     
  -2250419888.7019625       -6671091.9092702866       -6914645.7433525519     
  -2104313528.5842996       -3806186.8936285973       -11283279.498097708     
  -1954868409.1764672        10187915.755892873       -13621888.372924995     
  -1802084530.4784975        35311216.039215684       -13930472.367870919     
  -1135994696.4677885       -51847801.058670402        544806869.09502268     
  -951291036.20784521       -40606461.895997465        562998223.12826204     
  -759044018.79756212       -4220598.8988644481        592113263.74633121     
  -559253644.23695481        57309787.932679772        632151990.94922459     
  -351919912.52602601        143984698.59864026        683114404.73694396     
  -1317029347.2152984       -34411704.457657039        399358720.43257564     
  -1117530192.1239958       -14664650.635927558        421244009.77079028     
  -914393312.96238506        17208150.086833477        441623905.16543978     
  -707618709.73046303        61206697.710623771        460498406.61652261     
  -497206382.42822552        117330992.23545447        477867514.12404609     
  -1488389203.1329155       -14073169.407665789        257753113.96794969     
  -1309606211.8628159        3526101.4773064852        278775766.68445086     
  -1131091129.6024163        20232342.329950631        285863944.92899072     
  -952843956.35172343        36045553.150235772        279017648.70158166     
  -774864692.11073112        50965733.938186854        258236878.00221574     
  -1650074264.2206607        9167804.0912553072        119990049.70113829     
  -1527519095.4242949        13965794.443760395        135593493.86923587     
  -1409137468.7176521        4851977.8305155039        124833383.03698289     
  -1294929384.1007288       -18173645.748472512        87709717.204392239     
  -1184894841.5735326       -55111076.293187857        24222496.371456943     
  -1802084530.4784975        35311216.039215684       -13930472.367870919     
  -1771268842.8084319        16654428.263423562       -8302808.6748486543     
  -1748532330.3080819       -28932943.411454439       -41467780.510575771     
  -1733874992.9774895       -101450898.98550826       -113425387.87503387     
  -1727296830.8166237       -200899438.45864940       -224175630.76822564     
  -351919912.52602601        143984698.59864026        683114404.73694396     
  -277853490.01290822        285190684.74085087        786419609.87868404     
  -149015302.73655722        608969220.09385002        905539855.80950618     
   34594649.303035140        1115320304.6576397        1040475142.5294112     
   272976366.10586393        1804243938.4322231        1191225470.0384073     
  -497206382.42822552        117330992.23545447        477867514.12404609     
  -388334538.07661206        223013438.65179524        597118332.85508907     
  -230339782.55793557        492438922.29167342        735525252.14802694     
  -23222115.872192323        925607443.15509939        893088272.00284231     
   233018461.98059940        1522519001.2420201        1069807392.4195460     
  -774864692.11073112        50965733.938186854        258236878.00221574     
  -621641540.85546422        123988406.14819837        386842981.12702006     
  -424944332.02930343        341924603.59450090        537946244.58652067     
  -184773065.63227016        704774326.27706099        711546668.38070762     
   98872258.335653603        1212537574.1959128        907644252.50958478     
  -1184894841.5735326       -55111076.293187857        24222496.371456943     
  -977774498.34944594       -11884412.769918919        155593554.69449773     
  -732828951.15066493        157426264.00234312        312802833.12501705     
  -450058199.97719860        452820954.02356881        495850331.66303092     
  -129462244.82898688        874299657.29391050        704736050.30854499     
  -1727296830.8166237       -200899438.45864940       -224175630.76822564     
  -1456733410.5585983       -184605018.10262740       -96629946.442518592     
  -1153993639.9220409       -61056096.484865606        60095017.763503879     
  -819077518.90694225        169747326.39470714        245999261.84980956     
  -451985047.51334393        507805250.53596652        461082785.81640410     
 </DataArray>
 <DataArray  type="Float64" Name="VM" NumberOfComponents="1" format="ascii">
   5655577696.8645420     
   5555618882.4861794     
   5452935220.6499004     
   5338304799.0635738     
   5206418955.3793631     
   5443263857.0397387     
   5321978838.0038023     
   5195629089.2205191     
   5059445082.1581030     
   4910494187.7323122     
   5206374010.7657166     
   5069610051.4998808     
   4928487665.5349655     
   4781478354.0023470     
   4627619191.5065002     
   4959303934.8042946     
   4809921892.2498150     
   4660389074.3975906     
   4510837144.7673120     
   4361460191.6074705     
   4723885161.2029066     
   4559543215.0494738     
   4403649506.6952810     
   4255951536.7242455     
   4116500138.9442697     
   5206418955.3793631     
   5024580551.8855658     
   4843246188.8553514     
   4662438757.9200640     
   4482201807.1812220     
   4910494187.7323122     
   4736475144.0374279     
   4563139572.4218864     
   4390541452.1941576     
   4218767064.6057467     
   4627619191.5065002     
   4463024813.8640499     
   4299497477.2036686     
   4137140148.4248238     
   3976105953.5231504     
   4361460191.6074705     
   4207994995.3975773     
   4056218998.6483274     
   3906304077.2512836     
   3758496012.6162333     
   4116500138.9442697     
   3975921272.8277507     
   3837920478.3148284     
   3702755694.3063769     
   3570786074.0682206     
   4482201807.1812220     
   4301721580.3987112     
   4120765042.4507666     
   3939305810.9430699     
   3757360237.8658991     
   4218767064.6057467     
   4048250202.5570598     
   3877926015.2219629     
   3707842236.2997770     
   3538101785.1801600     
   3976105953.5231504     
   3816113058.5097280     
   3657096327.0725074     
   3499186388.5560970     
   3342582301.2467461     
   3758496012.6162333     
   3609605112.9309502     
   3462579927.4082832     
   3317636638.8291416     
   3175071337.1175981     
   3570786074.0682206     
   3433541005.1321087     
   3299132202.3645678     
   3167853818.6686525     
   3040086338.6217756     
   3757360237.8658991     
   3578054583.3819156     
   3399583992.9793444     
   3221953947.3159404     
   3045241291.9922953     
   3538101785.1801600     
   3369231174.4592137     
   3201494145.7716537     
   3034956620.8141503     
   2869756429.0530100     
   3342582301.2467461     
   3184012160.6474414     
   3026911943.6112447     
   2871425078.7160611     
   2717773095.6404352     
   3175071337.1175981     
   3027026823.0206156     
   2880839274.2770042     
   2736745422.6648574     
   2595071098.9521494     
   3040086338.6217756     
   2903174529.0576453     
   2768561741.0291610     
   2636587783.1562967     
   2507694738.1072021     
   3045241291.9922953     
   2883710513.1814260     
   2721336469.8020868     
   2558096658.8884282     
   2393984654.1695547     
   2869756429.0530100     
   2710567452.9056816     
   2551132763.4364986     
   2391475558.4422975     
   2231642138.4873505     
   2717773095.6404352     
   2563316131.5521111     
   2409584850.2505031     
   2256718237.4975367     
   2104912227.0213609     
   2595071098.9521494     
   2447729054.2258806     
   2302475542.2772818     
   2159621765.4076400     
   2019586549.6990261     
   2507694738.1072021     
   2369597739.3605099     
   2235279047.4075036     
   2105230469.3742607     
   1980094056.8627608     
   2393984654.1695547     
   2247123685.4013643     
   2102503850.1490107     
   1960124228.9142311     
   1820157000.6987915     
   2231642138.4873505     
   2088110642.4742625     
   1946259979.4070096     
   1806089653.7054713     
   1667677882.4566858     
   2104912227.0213609     
   1963998113.1396677     
   1824051076.6663713     
   1685102263.2323315     
   1547211725.6152282     
   2019586549.6990261     
   1882237405.8543954     
   1745212369.5593138     
   1608644202.3253696     
   1472715656.4777703     
   1980094056.8627608     
   1849009280.2784863     
   1717971612.3828592     
   1587340477.5577986     
   1457640865.0946257     
   1820157000.6987915     
   1779712606.8988562     
   1735733553.5066295     
   1696852249.0805070     
   1681566562.1765821     
   1667677882.4566858     
   1552417287.5388095     
   1428033323.0330105     
   1294881379.4131384     
   1159082557.1454308     
   1547211725.6152282     
   1397442826.0700576     
   1244112414.1562068     
   1084946643.5519285     
   917912414.29214847     
   1472715656.4777703     
   1328548132.2373590     
   1198849986.1816478     
   1088098272.2660105     
   1002192870.5554233     
   1457640865.0946257     
   1348657093.0950079     
   1274659314.0192878     
   1243763714.3179262     
   1263006797.5335295     
   1681566562.1765821     
   1383923041.2690599     
   1129515406.8667355     
   1010091711.7914767     
   1153026037.0285270     
   1159082557.1454308     
   1008559366.5870146     
   985253602.58159447     
   1161463575.6134117     
   1544120416.8327518     
   917912414.29214847     
   963239404.37808764     
   1144966169.0756090     
   1476471209.8285737     
   1957445026.3976724     
   1002192870.5554233     
   1164814765.6306207     
   1425472893.9974072     
   1808757295.3672175     
   2334748433.4269552     
   1263006797.5335295     
   1446770515.3223712     
   1715751175.2892582     
   2110525437.7981081     
   2663522234.4388766     
   4723885161.2029066     
   4559543215.0494738     
   4403649506.6952810     
   4255951536.7242455     
   4116500138.9442697     
   4399232329.9672060     
   4254963989.1733065     
   4117591896.3553038     
   3987107645.5112653     
   3863689895.3764229     
   4102437332.1980405     
   3977804707.5962934     
   3858644285.4659548     
   3745143420.1789932     
   3637594000.8277202     
   3834024974.1534152     
   3729297579.4601946     
   3628834994.6561689     
   3532942467.6481209     
   3441989020.0706315     
   3594406784.7778511     
   3510594715.6920581     
   3430168404.5208011     
   3353437928.0462117     
   3280788199.0526247     
   4116500138.9442697     
   3975921272.8277507     
   3837920478.3148284     
   3702755694.3063769     
   3570786074.0682206     
   3863689895.3764229     
   3738323342.6266141     
   3616180594.0713587     
   3497578514.6422935     
   3382928875.3418636     
   3637594000.8277202     
   3527279127.5390687     
   3420807122.2032065     
   3318534089.4811506     
   3220899098.6112027     
   3441989020.0706315     
   3346555053.9138174     
   3255513488.6018286     
   3169233893.7129474     
   3088151799.1511250     
   3280788199.0526247     
   3199987703.0904450     
   3124007224.7644067     
   3053200321.3239470     
   2987966484.4362330     
   3570786074.0682206     
   3433541005.1321087     
   3299132202.3645678     
   3167853818.6686525     
   3040086338.6217756     
   3382928875.3418636     
   3258467786.2237282     
   3137537851.6329207     
   3020511047.8655753     
   2907852464.9330230     
   3220899098.6112027     
   3110146136.8217392     
   3003703309.3572931     
   2902009154.1918879     
   2805594899.7426047     
   3088151799.1511250     
   2991946052.7775145     
   2900869335.8395538     
   2815401692.1170440     
   2736106430.1658707     
   2987966484.4362330     
   2906921335.0666504     
   2831801427.6121249     
   2763091649.5806065     
   2701342908.6818161     
   3040086338.6217756     
   2903174529.0576453     
   2768561741.0291610     
   2636587783.1562967     
   2507694738.1072021     
   2907852464.9330230     
   2783625566.7474494     
   2662946678.8380671     
   2546297200.1769814     
   2434277428.3301835     
   2805594899.7426047     
   2695703589.7945452     
   2590720702.6373429     
   2491235682.2437534     
   2397953125.2028890     
   2736106430.1658707     
   2641729958.3192835     
   2553608385.2294893     
   2472374021.0658755     
   2398749427.4939804     
   2701342908.6818161     
   2622964062.5234771     
   2552044064.6883607     
   2489180795.7948837     
   2435026132.0875502     
   2507694738.1072021     
   2369597739.3605099     
   2235279047.4075036     
   2105230469.3742607     
   1980094056.8627608     
   2434277428.3301835     
   2310393026.9872913     
   2191560402.2754259     
   2078461511.7345040     
   1971937431.2257662     
   2397953125.2028890     
   2290320686.2008357     
   2189061447.5602679     
   2094968415.6875608     
   2008964027.3852079     
   2398749427.4939804     
   2308720747.8801084     
   2226236667.1713862     
   2152090943.8865981     
   2087152515.1104765     
   2435026132.0875502     
   2363086735.0671182     
   2299572577.6336570     
   2245183816.1982565     
   2200642915.3735414     
   1980094056.8627608     
   1849009280.2784863     
   1717971612.3828592     
   1587340477.5577986     
   1457640865.0946257     
   1971937431.2257662     
   1855653864.9286301     
   1743767486.1668975     
   1637210111.6646891     
   1537126344.5692160     
   2008964027.3852079     
   1912567267.5429213     
   1824970692.3813703     
   1747379277.5262675     
   1681089513.1319394     
   2087152515.1104765     
   2012165531.5593114     
   1949543508.2059488     
   1900363433.4052188     
   1865651859.7208927     
   2200642915.3735414     
   2145570661.1845143     
   2105413556.7988145     
   2080931419.8115010     
   2072796720.8607161     
   1457640865.0946257     
   1348657093.0950079     
   1274659314.0192878     
   1243763714.3179262     
   1263006797.5335295     
   1537126344.5692160     
   1476248726.1652167     
   1448058242.4992654     
   1456516990.7180409     
   1504920943.5512545     
   1681089513.1319394     
   1652539351.9278152     
   1651705876.5529699     
   1680957474.9465179     
   1742904652.0515425     
   1865651859.7208927     
   1855058936.7149701     
   1867440633.1118660     
   1905006509.4121802     
   1970787345.7781203     
   2072796720.8607161     
   2069198038.8388877     
   2084848435.7324581     
   2122379647.2138832     
   2185599513.6180272     
   1263006797.5335295     
   1446770515.3223712     
   1715751175.2892582     
   2110525437.7981081     
   2663522234.4388766     
   1504920943.5512545     
   1613315311.5455031     
   1788900479.4984343     
   2066423345.8940804     
   2476084704.1849728     
   1742904652.0515425     
   1787720443.4148338     
   1884670749.5117538     
   2060662922.4356666     
   2340925989.7932663     
   1970787345.7781203     
   1968943174.9242892     
   2003627000.1506860     
   2093512870.0828469     
   2257263228.0163288     
   2185599513.6180272     
   2156267197.4369907     
   2146509823.0792239     
   2166852561.3113275     
   2228371001.8199806     
   3594406784.7778511     
   3510594715.6920581     
   3430168404.5208011     
   3353437928.0462117     
   3280788199.0526247     
   3400665768.9569054     
   3324450923.1170149     
   3253537234.4362626     
   3188281699.8923583     
   3129119124.7875748     
   3233317312.2950764     
   3164654376.2017856     
   3103462023.2433171     
   3050088097.0655756     
   3004955288.5122881     
   3103660914.3409562     
   3041106222.3541937     
   2988435986.2520967     
   2945923283.7230573     
   2913906535.5088329     
   3024141933.0571404     
   2964516952.2453589     
   2917402865.4311953     
   2882945518.1078091     
   2861340917.0665021     
   3280788199.0526247     
   3199987703.0904450     
   3124007224.7644067     
   3053200321.3239470     
   2987966484.4362330     
   3129119124.7875748     
   3058285576.0850673     
   2993325912.3097682     
   2934603932.1408281     
   2882527674.1511545     
   3004955288.5122881     
   2944260228.2960138     
   2890587259.5627527     
   2844277515.8285971     
   2805710453.9502578     
   2913906535.5088329     
   2862833504.1561084     
   2819990166.1335568     
   2785660598.2357330     
   2760159038.1507497     
   2861340917.0665021     
   2818521934.1324615     
   2785169726.2069387     
   2761485212.4439063     
   2747691678.1818171     
   2987966484.4362330     
   2906921335.0666504     
   2831801427.6121249     
   2763091649.5806065     
   2701342908.6818161     
   2882527674.1511545     
   2814935355.3644958     
   2754153632.0827107     
   2700631288.5870304     
   2654863078.6277523     
   2805710453.9502578     
   2751037824.4979820     
   2703960415.6281352     
   2664856689.7149343     
   2634131320.1391473     
   2760159038.1507497     
   2717247198.0001745     
   2682589632.9395838     
   2656472063.8735442     
   2639191224.2391562     
   2747691678.1818171     
   2714731519.4737649     
   2690562353.5809088     
   2675371606.2897263     
   2669349019.1893816     
   2701342908.6818161     
   2622964062.5234771     
   2552044064.6883607     
   2489180795.7948837     
   2435026132.0875502     
   2654863078.6277523     
   2591063439.9939270     
   2535345961.9859719     
   2488225172.1642833     
   2450241949.0326900     
   2634131320.1391473     
   2584159762.0003839     
   2542733861.5927501     
   2510260132.4256101     
   2487151153.7750912     
   2639191224.2391562     
   2601793095.2638035     
   2573256678.8889942     
   2553874737.5360384     
   2543935235.8907490     
   2669349019.1893816     
   2642833406.0928631     
   2625388931.8922400     
   2617205216.2332058     
   2618464256.2764363     
   2435026132.0875502     
   2363086735.0671182     
   2299572577.6336570     
   2245183816.1982565     
   2200642915.3735414     
   2450241949.0326900     
   2393829384.9979992     
   2346761037.8432789     
   2309599793.3055539     
   2282894103.8650026     
   2487151153.7750912     
   2445078429.1695280     
   2413008663.9397302     
   2391349084.7194748     
   2380474767.2624946     
   2543935235.8907490     
   2514425031.4232874     
   2495388715.4696498     
   2487089490.1207480     
   2489757115.7281160     
   2618464256.2764363     
   2599325597.1671524     
   2591040768.1077347     
   2593757297.2470565     
   2607597933.3728132     
   2200642915.3735414     
   2145570661.1845143     
   2105413556.7988145     
   2080931419.8115010     
   2072796720.8607161     
   2282894103.8650026     
   2242370657.0402970     
   2215768528.9838672     
   2203536193.3915243     
   2206061014.8910608     
   2380474767.2624946     
   2351606279.4400454     
   2335646678.7343578     
   2332847890.9992189     
   2343432646.4991856     
   2489757115.7281160     
   2469935469.9547019     
   2462106630.5403199     
   2466409715.4176660     
   2482981093.3752418     
   2607597933.3728132     
   2594572892.2560425     
   2592781390.4061985     
   2602305263.5412636     
   2623241782.1173706     
   2072796720.8607161     
   2069198038.8388877     
   2084848435.7324581     
   2122379647.2138832     
   2185599513.6180272     
   2206061014.8910608     
   2191678845.7438421     
   2192295204.9384260     
   2209879222.3392119     
   2247348033.0943184     
   2343432646.4991856     
   2319065492.5393534     
   2306230037.0736451     
   2306331830.2722926     
   2321458076.2054553     
   2482981093.3752418     
   2450382252.8498945     
   2426333757.9049683     
   2411781242.8967237     
   2408101471.9709539     
   2623241782.1173706     
   2584846954.7773023     
   2552322063.1932096     
   2526248999.1489964     
   2507437133.6120315     
   2185599513.6180272     
   2156267197.4369907     
   2146509823.0792239     
   2166852561.3113275     
   2228371001.8199806     
   2247348033.0943184     
   2182638596.5611801     
   2134356837.2589066     
   2112168731.3349929     
   2127008842.6495154     
   2321458076.2054553     
   2224715264.6972980     
   2141302759.3201108     
   2079583164.5231981     
   2049724513.4436204     
   2408101471.9709539     
   2282791408.4984016     
   2167994400.4714351     
   2070446684.9698904     
   1998910174.1258895     
   2507437133.6120315     
   2357076867.4869995     
   2214902378.4388704     
   2085890166.2723129     
   1976908834.5898237     
   3024141933.0571404     
   2964516952.2453589     
   2917402865.4311953     
   2882945518.1078091     
   2861340917.0665021     
   2797234352.4153066     
   2765475650.2812696     
   2743454274.6891727     
   2731236138.0916038     
   2728902307.2820129     
   2623428081.8763051     
   2616570257.6395288     
   2616211961.6813011     
   2622372010.2923064     
   2635071498.5858703     
   2499367352.4542198     
   2515108576.9594622     
   2533778269.0032549     
   2555378113.6506176     
   2579909812.8494463     
   2419163124.4221315     
   2456036620.2139788     
   2492115175.4358392     
   2527398790.0877233     
   2561887464.1696200     
   2861340917.0665021     
   2818521934.1324615     
   2785169726.2069387     
   2761485212.4439063     
   2747691678.1818171     
   2728902307.2820129     
   2702020999.6516633     
   2683840053.9513726     
   2674469147.4242930     
   2674025878.3095522     
   2635071498.5858703     
   2621572641.1150537     
   2615814598.6165838     
   2617841902.7493558     
   2627700832.0031710     
   2579909812.8494463     
   2577159350.0794058     
   2581049060.4008884     
   2591588471.5285463     
   2608787235.1331520     
   2561887464.1696200     
   2567355535.7472615     
   2578284909.4707022     
   2594675585.3399467     
   2616527563.3549857     
   2747691678.1818171     
   2714731519.4737649     
   2690562353.5809088     
   2675371606.2897263     
   2669349019.1893816     
   2674025878.3095522     
   2651935176.9954944     
   2638460704.2724352     
   2633708813.2936249     
   2637784503.2816563     
   2627700832.0031710     
   2614341577.1999488     
   2609360451.4786115     
   2612803851.8689542     
   2624716611.1244221     
   2608787235.1331520     
   2601807019.2283597     
   2602941752.4427404     
   2612202555.5679765     
   2629599995.3219366     
   2616527563.3549857     
   2613487968.4452314     
   2618310067.9028673     
   2630993861.7278976     
   2651539349.9203196     
   2669349019.1893816     
   2642833406.0928631     
   2625388931.8922400     
   2617205216.2332058     
   2618464256.2764363     
   2637784503.2816563     
   2621103340.4448853     
   2613472383.1793928     
   2614998591.1981716     
   2625781957.0850868     
   2624716611.1244221     
   2615786922.3877335     
   2615872570.7223907     
   2625020544.2722945     
   2643273797.4424047     
   2629599995.3219366     
   2626154194.1186113     
   2631718038.6926975     
   2646303042.5331507     
   2669919547.5486112     
   2651539349.9203196     
   2651219354.1686339     
   2659966841.9068103     
   2677781813.1348581     
   2704664267.8527818     
   2618464256.2764363     
   2599325597.1671524     
   2591040768.1077347     
   2593757297.2470565     
   2607597933.3728132     
   2625781957.0850868     
   2614756699.0150776     
   2614046283.3791051     
   2623724988.4239531     
   2643852684.3860798     
   2643273797.4424047     
   2638573774.7764139     
   2643741488.9651790     
   2658806404.3275504     
   2683791577.9931397     
   2669919547.5486112     
   2669823577.0765176     
   2679263947.0840302     
   2698247246.1620121     
   2726778493.6005297     
   2704664267.8527818     
   2707552481.8232951     
   2719774439.6552982     
   2741330141.3487825     
   2772219586.9037743     
   2607597933.3728132     
   2594572892.2560425     
   2592781390.4061985     
   2602305263.5412636     
   2623241782.1173706     
   2643852684.3860798     
   2632856986.3989387     
   2632178151.0482464     
   2641856125.5914955     
   2661941287.3852859     
   2683791577.9931397     
   2674485486.9189143     
   2674761079.9833903     
   2684633672.2503748     
   2704123833.9478893     
   2726778493.6005297     
   2718994080.9161100     
   2720215909.1033692     
   2730447248.6057577     
   2749692804.9320159     
   2772219586.9037743     
   2765945175.4093738     
   2768241901.1784358     
   2779109764.2109585     
   2798548764.5069399     
   2623241782.1173706     
   2584846954.7773023     
   2552322063.1932096     
   2526248999.1489964     
   2507437133.6120315     
   2661941287.3852859     
   2616596588.3463364     
   2576902770.5918407     
   2543190998.7250433     
   2515924242.7338729     
   2704123833.9478893     
   2653925254.5208125     
   2609300935.9885840     
   2570398427.2170119     
   2537424555.5963697     
   2749692804.9320159     
   2696740942.8491716     
   2649428955.2509704     
   2607793494.4664707     
   2571885948.4143634     
   2798548764.5069399     
   2744942937.1291018     
   2697184701.0523319     
   2655274056.2766376     
   2619211002.8020101     
   2507437133.6120315     
   2357076867.4869995     
   2214902378.4388704     
   2085890166.2723129     
   1976908834.5898237     
   2515924242.7338729     
   2348075741.0258989     
   2183792679.7394972     
   2026172639.4349747     
   1879775599.0308807     
   2537424555.5963697     
   2357173047.3227963     
   2176661151.4026837     
   1997359315.4384820     
   1821543158.7787845     
   2571885948.4143634     
   2384471647.3610425     
   2193974042.0770822     
   2000771102.5919213     
   1805466150.8853507     
   2619211002.8020101     
   2429939656.2355294     
   2235873443.7321410     
   2037012365.2918580     
   1833356420.9146523     
   2419163124.4221315     
   2456036620.2139788     
   2492115175.4358392     
   2527398790.0877233     
   2561887464.1696200     
   2499367352.1856656     
   2515108576.7631536     
   2533778268.8969197     
   2555378113.6506557     
   2579909812.9708958     
   2623428081.7248502     
   2616570257.5757327     
   2616211961.7268925     
   2622372010.4684124     
   2635071498.9128485     
   2797234352.8130541     
   2765475650.7217264     
   2743454275.1873145     
   2731236138.6632004     
   2728902307.9435511     
   3024141934.4397268     
   2964516953.5693474     
   2917402866.6973472     
   2882945519.3182960     
   2861340918.2252674     
   2561887464.1696200     
   2567355535.7472615     
   2578284909.4707022     
   2594675585.3399467     
   2616527563.3549857     
   2579909812.9708958     
   2577159350.1529722     
   2581049060.4429007     
   2591588471.5550718     
   2608787235.1599641     
   2635071498.9128485     
   2621572641.3313923     
   2615814598.7532387     
   2617841902.8371129     
   2627700832.0725098     
   2728902307.9435511     
   2702021000.1206913     
   2683840054.2711582     
   2674469147.6383481     
   2674025878.4615817     
   2861340918.2252674     
   2818521934.9956479     
   2785169726.8272247     
   2761485212.8749514     
   2747691678.4784226     
   2616527563.3549857     
   2613487968.4452314     
   2618310067.9028673     
   2630993861.7278976     
   2651539349.9203196     
   2608787235.1599641     
   2601807019.2283387     
   2602941752.4278889     
   2612202555.5501480     
   2629599995.3128333     
   2627700832.0725098     
   2614341577.2075949     
   2609360451.4484959     
   2612803851.8248715     
   2624716611.0900383     
   2674025878.4615817     
   2651935177.0381718     
   2638460704.2412744     
   2633708813.2243285     
   2637784503.2101588     
   2747691678.4784226     
   2714731519.5969067     
   2690562353.5769157     
   2675371606.2058754     
   2669349019.0739713     
   2651539349.9203196     
   2651219354.1686339     
   2659966841.9068103     
   2677781813.1348581     
   2704664267.8527818     
   2629599995.3128333     
   2626154194.0895143     
   2631718038.6501389     
   2646303042.4837394     
   2669919547.4990697     
   2624716611.0900383     
   2615786922.3139420     
   2615872570.6227007     
   2625020544.1604156     
   2643273797.3322597     
   2637784503.2101588     
   2621103340.3124456     
   2613472383.0070090     
   2614998591.0072684     
   2625781956.8975677     
   2669349019.0739713     
   2642833405.8901553     
   2625388931.6311688     
   2617205215.9436126     
   2618464255.9890704     
   2704664267.8527818     
   2707552481.8232951     
   2719774439.6552982     
   2741330141.3487825     
   2772219586.9037743     
   2669919547.4990697     
   2669823577.0359759     
   2679263947.0486908     
   2698247246.1281366     
   2726778493.5644150     
   2643273797.3322597     
   2638573774.6884222     
   2643741488.8917542     
   2658806404.2611899     
   2683791577.9263711     
   2625781956.8975677     
   2614756698.8682032     
   2614046283.2615390     
   2623724988.3242884     
   2643852684.2928777     
   2618464255.9890704     
   2599325596.9453788     
   2591040767.9364676     
   2593757297.1109018     
   2607597933.2560101     
   2772219586.9037743     
   2765945175.4093738     
   2768241901.1784358     
   2779109764.2109585     
   2798548764.5069399     
   2726778493.5644150     
   2718994080.8893075     
   2720215909.0847793     
   2730447248.5942979     
   2749692804.9265671     
   2683791577.9263711     
   2674485486.8694859     
   2674761079.9490685     
   2684633672.2289147     
   2704123833.9369783     
   2643852684.2928777     
   2632856986.3301682     
   2632178151.0004492     
   2641856125.5611186     
   2661941287.3687706     
   2607597933.2560101     
   2594572892.1702290     
   2592781390.3464971     
   2602305263.5027003     
   2623241782.0949154     
   2798548764.5069399     
   2744942937.1291018     
   2697184701.0523319     
   2655274056.2766376     
   2619211002.8020101     
   2749692804.9265671     
   2696740942.8449183     
   2649428955.2476196     
   2607793494.4637260     
   2571885948.4118915     
   2704123833.9369783     
   2653925254.5124850     
   2609300935.9822431     
   2570398427.2120624     
   2537424555.5921588     
   2661941287.3687706     
   2616596588.3339911     
   2576902770.5827913     
   2543190998.7183700     
   2515924242.7286224     
   2623241782.0949154     
   2584846954.7608824     
   2552322063.1816349     
   2526248999.1410422     
   2507437133.6064415     
   2619211002.8020101     
   2429939656.2355294     
   2235873443.7321410     
   2037012365.2918580     
   1833356420.9146523     
   2571885948.4118915     
   2384471647.3591843     
   2193974042.0754752     
   2000771102.5901535     
   1805466150.8828678     
   2537424555.5921588     
   2357173047.3194985     
   2176661151.3996053     
   1997359315.4347341     
   1821543158.7732837     
   2515924242.7286224     
   2348075741.0215826     
   2183792679.7350969     
   2026172639.4291532     
   1879775599.0220006     
   2507437133.6064415     
   2357076867.4821014     
   2214902378.4333138     
   2085890166.2644327     
   1976908834.5774996     
   3024141934.4397268     
   2964516953.5693474     
   2917402866.6973472     
   2882945519.3182960     
   2861340918.2252674     
   3103660914.8333573     
   3041106222.9543195     
   2988435986.9362235     
   2945923284.4689627     
   2913906536.2965894     
   3233317312.0561190     
   3164654376.1966467     
   3103462023.4268527     
   3050088097.3930407     
   3004955288.9405890     
   3400665767.9731359     
   3324450922.4733386     
   3253537234.0687208     
   3188281699.7351003     
   3129119124.7746820     
   3594406782.8962169     
   3510594714.2544360     
   3430168403.4460106     
   3353437927.2480288     
   3280788198.4422421     
   2861340918.2252674     
   2818521934.9956479     
   2785169726.8272247     
   2761485212.8749514     
   2747691678.4784226     
   2913906536.2965894     
   2862833504.8002863     
   2819990166.6606936     
   2785660598.6739578     
   2760159038.5299220     
   3004955288.9405890     
   2944260228.7154465     
   2890587259.9778547     
   2844277516.2456517     
   2805710454.3772769     
   3129119124.7746820     
   3058285576.1927052     
   2993325912.5247521     
   2934603932.4513326     
   2882527674.5464745     
   3280788198.4422421     
   3199987702.7347012     
   3124007224.6363835     
   3053200321.3973260     
   2987966484.6847658     
   2747691678.4784226     
   2714731519.5969067     
   2690562353.5769157     
   2675371606.2058754     
   2669349019.0739713     
   2760159038.5299220     
   2717247198.2666430     
   2682589633.1191025     
   2656472063.9930944     
   2639191224.3270435     
   2805710454.3772769     
   2751037824.8710980     
   2703960415.9545989     
   2664856690.0030742     
   2634131320.3983917     
   2882527674.5464745     
   2814935355.7711563     
   2754153632.4918256     
   2700631288.9901924     
   2654863079.0168891     
   2987966484.6847658     
   2906921335.4048252     
   2831801428.0175543     
   2763091650.0304565     
   2701342909.1523972     
   2669349019.0739713     
   2642833405.8901553     
   2625388931.6311688     
   2617205215.9436126     
   2618464255.9890704     
   2639191224.3270435     
   2601793095.2512636     
   2573256678.7930884     
   2553874737.3748226     
   2543935235.6833076     
   2634131320.3983917     
   2584159762.1530886     
   2542733861.6445570     
   2510260132.3829255     
   2487151153.6451306     
   2654863079.0168891     
   2591063440.2820797     
   2535345962.1681213     
   2488225172.2354550     
   2450241948.9879928     
   2701342909.1523972     
   2622964062.9139829     
   2552044064.9843502     
   2489180795.9808035     
   2435026132.1466379     
   2618464255.9890704     
   2599325596.9453788     
   2591040767.9364676     
   2593757297.1109018     
   2607597933.2560101     
   2543935235.6833076     
   2514425031.2586403     
   2495388715.3391957     
   2487089490.0154209     
   2489757115.6383944     
   2487151153.6451306     
   2445078429.0602612     
   2413008663.8488050     
   2391349084.6441054     
   2380474767.1994534     
   2450241948.9879928     
   2393829384.9503312     
   2346761037.7962766     
   2309599793.2627048     
   2282894103.8295727     
   2435026132.1466379     
   2363086735.0959029     
   2299572577.6414275     
   2245183816.1946006     
   2200642915.3683333     
   2607597933.2560101     
   2594572892.1702290     
   2592781390.3464971     
   2602305263.5027003     
   2623241782.0949154     
   2489757115.6383944     
   2469935469.8886518     
   2462106630.4945397     
   2466409715.3886580     
   2482981093.3593869     
   2380474767.1994534     
   2351606279.3936515     
   2335646678.7026267     
   2332847890.9800539     
   2343432646.4903579     
   2282894103.8295727     
   2242370657.0144539     
   2215768528.9669609     
   2203536193.3828397     
   2206061014.8897882     
   2200642915.3683333     
   2145570661.1813672     
   2105413556.7983494     
   2080931419.8143830     
   2072796720.8676145     
   2623241782.0949154     
   2584846954.7608824     
   2552322063.1816349     
   2526248999.1410422     
   2507437133.6064415     
   2482981093.3593869     
   2450382252.8390732     
   2426333757.8982115     
   2411781242.8929935     
   2408101471.9691873     
   2343432646.4903579     
   2319065492.5346284     
   2306230037.0722480     
   2306331830.2733588     
   2321458076.2080989     
   2206061014.8897882     
   2191678845.7458353     
   2192295204.9430180     
   2209879222.3456802     
   2247348033.1019616     
   2072796720.8676145     
   2069198038.8482873     
   2084848435.7437494     
   2122379647.2264471     
   2185599513.6312866     
   2507437133.6064415     
   2357076867.4821014     
   2214902378.4333138     
   2085890166.2644327     
   1976908834.5774996     
   2408101471.9691873     
   2282791408.4958763     
   2167994400.4669657     
   2070446684.9619043     
   1998910174.1124494     
   2321458076.2080989     
   2224715264.6976418     
   2141302759.3171744     
   2079583164.5155969     
   2049724513.4296854     
   2247348033.1019616     
   2182638596.5649157     
   2134356837.2579553     
   2112168731.3282566     
   2127008842.6356342     
   2185599513.6312866     
   2156267197.4446473     
   2146509823.0807648     
   2166852561.3059425     
   2228371001.8067231     
   3594406782.8962169     
   3510594714.2544360     
   3430168403.4460106     
   3353437927.2480288     
   3280788198.4422421     
   3834024972.8276320     
   3729297578.3433795     
   3628834993.7014894     
   3532942466.8096089     
   3441989019.3028789     
   4102437331.2423286     
   3977804706.6262116     
   3858644284.4905868     
   3745143419.2057734     
   3637593999.8627615     
   4399232329.3432112     
   4254963988.3053207     
   4117591895.3222709     
   3987107644.3817291     
   3863689894.2121987     
   4723885161.0033474     
   4559543214.3515425     
   4403649505.6560154     
   4255951535.4772878     
   4116500137.6089110     
   3280788198.4422421     
   3199987702.7347012     
   3124007224.6363835     
   3053200321.3973260     
   2987966484.6847658     
   3441989019.3028789     
   3346555053.3778210     
   3255513488.2820311     
   3169233893.5946498     
   3088151799.2199774     
   3637593999.8627615     
   3527279126.7923131     
   3420807121.6699409     
   3318534089.1579199     
   3220899098.4953637     
   3863689894.2121987     
   3738323341.6698856     
   3616180593.3273244     
   3497578514.1179175     
   3382928875.0455379     
   4116500137.6089110     
   3975921271.6866546     
   3837920477.3819118     
   3702755693.5978222     
   3570786073.6023350     
   2987966484.6847658     
   2906921335.4048252     
   2831801428.0175543     
   2763091650.0304565     
   2701342909.1523972     
   3088151799.2199774     
   2991946052.9530525     
   2900869336.1043963     
   2815401692.4532242     
   2736106430.5543427     
   3220899098.4953637     
   3110146136.8345885     
   3003703309.4860539     
   2902009154.4232302     
   2805594900.0621457     
   3382928875.0455379     
   3258467786.0800705     
   3137537851.6332312     
   3020511048.0007625     
   2907852465.1931772     
   3570786073.6023350     
   3433541004.8424120     
   3299132202.2457709     
   3167853818.7153325     
   3040086338.8280554     
   2701342909.1523972     
   2622964062.9139829     
   2552044064.9843502     
   2489180795.9808035     
   2435026132.1466379     
   2736106430.5543427     
   2641729958.6537280     
   2553608385.4952898     
   2472374021.2471528     
   2398749427.5734444     
   2805594900.0621457     
   2695703590.0847740     
   2590720702.8831534     
   2491235682.4286466     
   2397953125.3087721     
   2907852465.1931772     
   2783625567.0018320     
   2662946679.0708861     
   2546297200.3709960     
   2434277428.4664674     
   3040086338.8280554     
   2903174529.2807403     
   2768561741.2525206     
   2636587783.3619170     
   2507694738.2754540     
   2435026132.1466379     
   2363086735.0959029     
   2299572577.6414275     
   2245183816.1946006     
   2200642915.3683333     
   2398749427.5734444     
   2308720747.9289169     
   2226236667.1976943     
   2152090943.8990149     
   2087152515.1181333     
   2397953125.3087721     
   2290320686.2735529     
   2189061447.6067710     
   2094968415.7153358     
   2008964027.4024060     
   2434277428.4664674     
   2310393027.0865984     
   2191560402.3434124     
   2078461511.7773504     
   1971937431.2503488     
   2507694738.2754540     
   2369597739.4875112     
   2235279047.4976454     
   2105230469.4323244     
   1980094056.8941190     
   2200642915.3683333     
   2145570661.1813672     
   2105413556.7983494     
   2080931419.8143830     
   2072796720.8676145     
   2087152515.1181333     
   2012165531.5671830     
   1949543508.2146575     
   1900363433.4153533     
   1865651859.7330275     
   2008964027.4024060     
   1912567267.5592191     
   1824970692.3976064     
   1747379277.5431988     
   1681089513.1502576     
   1971937431.2503488     
   1855653864.9516575     
   1743767486.1895916     
   1637210111.6882350     
   1537126344.5946770     
   1980094056.8941190     
   1849009280.3077557     
   1717971612.4117568     
   1587340477.5880787     
   1457640865.1278815     
   2072796720.8676145     
   2069198038.8482873     
   2084848435.7437494     
   2122379647.2264471     
   2185599513.6312866     
   1865651859.7330275     
   1855058936.7288666     
   1867440633.1271617     
   1905006509.4284663     
   1970787345.7949488     
   1681089513.1502576     
   1652539351.9468410     
   1651705876.5724919     
   1680957474.9662814     
   1742904652.0712585     
   1537126344.5946770     
   1476248726.1901104     
   1448058242.5233974     
   1456516990.7412219     
   1504920943.5732756     
   1457640865.1278815     
   1348657093.1263700     
   1274659314.0484595     
   1243763714.3445723     
   1263006797.5573666     
   2185599513.6312866     
   2156267197.4446473     
   2146509823.0807648     
   2166852561.3059425     
   2228371001.8067231     
   1970787345.7949488     
   1968943174.9343686     
   2003627000.1535709     
   2093512870.0781407     
   2257263228.0038228     
   1742904652.0712585     
   1787720443.4272215     
   1884670749.5164406     
   2060662922.4327071     
   2340925989.7832651     
   1504920943.5732756     
   1613315311.5601115     
   1788900479.5053735     
   2066423345.8938210     
   2476084704.1788750     
   1263006797.5573666     
   1446770515.3392329     
   1715751175.2988582     
   2110525437.8013597     
   2663522234.4378309     
   4723885161.0033474     
   4559543214.3515425     
   4403649505.6560154     
   4255951535.4772878     
   4116500137.6089110     
   4959303934.3618660     
   4809921891.4994802     
   4660389073.4005003     
   4510837143.5924702     
   4361460190.3298788     
   5206374010.1620998     
   5069610050.7521381     
   4928487664.6530514     
   4781478353.0140095     
   4627619190.4509048     
   5443263856.2638664     
   5321978837.2602987     
   5195629088.5003271     
   5059445081.4633598     
   4910494187.0726624     
   5655577695.8562250     
   5555618881.7206573     
   5452935220.1230755     
   5338304798.7634363     
   5206418955.2929955     
   4116500137.6089110     
   3975921271.6866546     
   3837920477.3819118     
   3702755693.5978222     
   3570786073.6023350     
   4361460190.3298788     
   4207994994.2743196     
   4056218997.6944704     
   3906304076.4838142     
   3758496012.0543337     
   4627619190.4509048     
   4463024812.9100800     
   4299497476.3646793     
   4137140147.7155581     
   3976105952.9602513     
   4910494187.0726624     
   4736475143.4128065     
   4563139571.8416510     
   4390541451.6684513     
   4218767064.1460905     
   5206418955.2929955     
   5024580551.7531557     
   4843246188.6803579     
   4662438757.7062120     
   4482201806.9330225     
   3570786073.6023350     
   3433541004.8424120     
   3299132202.2457709     
   3167853818.7153325     
   3040086338.8280554     
   3758496012.0543337     
   3609605112.5264382     
   3462579927.1628308     
   3317636638.7448616     
   3175071337.1971092     
   3976105952.9602513     
   3816113058.0633230     
   3657096326.7472343     
   3499186388.3572021     
   3342582301.1805100     
   4218767064.1460905     
   4048250202.1488242     
   3877926014.8694067     
   3707842236.0074472     
   3538101784.9536147     
   4482201806.9330225     
   4301721580.1114855     
   4120765042.1257515     
   3939305810.5810933     
   3757360237.4681578     
   3040086338.8280554     
   2903174529.2807403     
   2768561741.2525206     
   2636587783.3619170     
   2507694738.2754540     
   3175071337.1971092     
   3027026823.1383262     
   2880839274.4212070     
   2736745422.8225541     
   2595071099.1086402     
   3342582301.1805100     
   3184012160.6401258     
   3026911943.6557584     
   2871425078.8042550     
   2717773095.7627044     
   3538101784.9536147     
   3369231174.3091826     
   3201494145.6950717     
   3034956620.8071795     
   2869756429.1107116     
   3757360237.4681578     
   3578054583.0733590     
   3399583992.7602000     
   3221953947.1859307     
   3045241291.9504137     
   2507694738.2754540     
   2369597739.4875112     
   2235279047.4976454     
   2105230469.4323244     
   1980094056.8941190     
   2595071099.1086402     
   2447729054.3521318     
   2302475542.3735108     
   2159621765.4741492     
   2019586549.7362015     
   2717773095.7627044     
   2563316131.6617265     
   2409584850.3453064     
   2256718237.5752654     
   2104912227.0795286     
   2869756429.1107116     
   2710567452.9765420     
   2551132763.5176148     
   2391475558.5307450     
   2231642138.5800686     
   3045241291.9504137     
   2883710513.1877637     
   2721336469.8543591     
   2558096658.9845858     
   2393984654.3079286     
   1980094056.8941190     
   1849009280.3077557     
   1717971612.4117568     
   1587340477.5880787     
   1457640865.1278815     
   2019586549.7362015     
   1882237405.8867471     
   1745212369.5890839     
   1608644202.3548827     
   1472715656.5095091     
   2104912227.0795286     
   1963998113.1880636     
   1824051076.7070885     
   1685102263.2675064     
   1547211725.6471741     
   2231642138.5800686     
   2088110642.5501759     
   1946259979.4674723     
   1806089653.7518175     
   1667677882.4903364     
   2393984654.3079286     
   2247123685.5139732     
   2102503850.2361152     
   1960124228.9759750     
   1820157000.7353501     
   1457640865.1278815     
   1348657093.1263700     
   1274659314.0484595     
   1243763714.3445723     
   1263006797.5573666     
   1472715656.5095091     
   1328548132.2660804     
   1198849986.2069111     
   1088098272.2875574     
   1002192870.5731795     
   1547211725.6471741     
   1397442826.0974228     
   1244112414.1784809     
   1084946643.5688651     
   917912414.30373991     
   1667677882.4903364     
   1552417287.5663667     
   1428033323.0539827     
   1294881379.4273100     
   1159082557.1527648     
   1820157000.7353501     
   1779712606.9279182     
   1735733553.5278966     
   1696852249.0940115     
   1681566562.1826227     
   1263006797.5573666     
   1446770515.3392329     
   1715751175.2988582     
   2110525437.8013597     
   2663522234.4378309     
   1002192870.5731795     
   1164814765.6434987     
   1425472894.0048652     
   1808757295.3699129     
   2334748433.4265385     
   917912414.30373991     
   963239404.38720918     
   1144966169.0810604     
   1476471209.8305936     
   1957445026.3976164     
   1159082557.1527648     
   1008559366.5930233     
   985253602.58556557     
   1161463575.6149867     
   1544120416.8329482     
   1681566562.1826227     
   1383923041.2735879     
   1129515406.8699002     
   1010091711.7932018     
   1153026037.0291765     
 </DataArray>
 <DataArray  type="Float64" Name="strain" NumberOfComponents="3" format="ascii">
   9.6248174761495831E-002  -1.6373964042435740E-002   1.4634205473463835E-003
   9.3937733624722908E-002  -2.0837393567619267E-002   1.5559296964096081E-003
   9.1627292487950096E-002  -2.3765188917861696E-002   1.2972308064949090E-003
   8.9316851351177340E-002  -2.5157350093163132E-002   6.8732387760236935E-004
   8.7006410214404473E-002  -2.5013877093523540E-002  -2.7379109026781645E-004
   9.2220246944335837E-002  -1.8662556354822057E-002   5.4895950779111358E-003
   8.9634184190268640E-002  -2.1527838188781179E-002   6.2228705043683163E-003
   8.7048121436201442E-002  -2.3330045303213420E-002   6.7561107352145933E-003
   8.4462058682134189E-002  -2.4069177698119379E-002   7.0893157704497167E-003
   8.1875995928066936E-002  -2.3745235373498708E-002   7.2224856100738255E-003
   8.7458144535652871E-002  -2.0951148667208541E-002   1.1350197027407721E-002
   8.4747633007658030E-002  -2.2218282809942924E-002   1.2251679275844529E-002
   8.2037121479663050E-002  -2.2894901688565159E-002   1.3104299172036912E-002
   7.9326609951668223E-002  -2.2981005303075407E-002   1.3908056715985197E-002
   7.6616098423673368E-002  -2.2476593653473653E-002   1.4662951907689209E-002
   8.1961867535446695E-002  -2.3239740979594886E-002   1.9045226395836036E-002
   7.9278080076890967E-002  -2.2908727431104683E-002   1.9642356010837789E-002
   7.6594292618335114E-002  -2.2459758073916890E-002   2.0341796116962397E-002
   7.3910505159779316E-002  -2.1892832908031547E-002   2.1143546714209031E-002
   7.1226717701223574E-002  -2.1207951933448710E-002   2.2047607802578424E-002
   7.5731415943717573E-002  -2.5528333291981287E-002   2.8574683183196226E-002
   7.3225525397967617E-002  -2.3599172052266582E-002   2.8394900709348803E-002
   7.0719634852217605E-002  -2.2024614459268566E-002   2.8468601569990426E-002
   6.8213744306467622E-002  -2.0804660512987780E-002   2.8795785765121207E-002
   6.5707853760717694E-002  -1.9939310213423767E-002   2.9376453294741256E-002
   8.7006410214404473E-002  -2.5013877093523540E-002  -2.7379109026781645E-004
   8.3971599748030368E-002  -2.4122803572831530E-002  -2.0128169578864652E-004
   8.0936789281656207E-002  -2.3272163184976019E-002  -1.6890021996063265E-005
   7.7901978815282102E-002  -2.2461955929956610E-002   2.7938393111007209E-004
   7.4867168348907942E-002  -2.1692181807774213E-002   6.8754016353000935E-004
   8.1875995928066936E-002  -2.3745235373498708E-002   7.2224856100738255E-003
   7.8967101397139305E-002  -2.2902495180936705E-002   7.1465893843891959E-003
   7.6058206866211647E-002  -2.2085233972018614E-002   7.2106427502841297E-003
   7.3149312335284003E-002  -2.1293451746744921E-002   7.4146457077584327E-003
   7.0240417804356359E-002  -2.0527148505115056E-002   7.7585982568117995E-003
   7.6616098423673368E-002  -2.2476593653473653E-002   1.4662951907689209E-002
   7.3861187140457862E-002  -2.1682186789041630E-002   1.4453604211033672E-002
   7.1106275857242440E-002  -2.0898304759061334E-002   1.4412273418222890E-002
   6.8351364574027004E-002  -2.0124947563532680E-002   1.4538959529257427E-002
   6.5596453290811485E-002  -1.9362115202455787E-002   1.4833662544136900E-002
   7.1226717701223574E-002  -2.1207951933448710E-002   2.2047607802578424E-002
   6.8653856977985983E-002  -2.0461878397146679E-002   2.1719762784143976E-002
   6.6080996254748489E-002  -1.9711375546103936E-002   2.1588001981820360E-002
   6.3508135531510940E-002  -1.8956443380320605E-002   2.1652325395607276E-002
   6.0935274808273397E-002  -1.8197081899796519E-002   2.1912733025505386E-002
   6.5707853760717694E-002  -1.9939310213423767E-002   2.9376453294741256E-002
   6.3345110909723751E-002  -1.9241570005251785E-002   2.8945065103720663E-002
   6.0982368058729836E-002  -1.8524446333146635E-002   2.8737828441076335E-002
   5.8619625207735906E-002  -1.7787939197108606E-002   2.8754743306808425E-002
   5.6256882356742033E-002  -1.7032048597137250E-002   2.8995809700917197E-002
   7.4867168348907942E-002  -2.1692181807774213E-002   6.8754016353000935E-004
   7.1830239692317499E-002  -2.0921937341163543E-002   3.8867011782028893E-004
   6.8793311035727223E-002  -2.0110319052860898E-002   2.7410822442902605E-004
   6.5756382379136863E-002  -1.9257326942866144E-002   3.4385448335585989E-004
   6.2719453722546503E-002  -1.8362961011179180E-002   5.9790889460087371E-004
   7.0240417804356359E-002  -2.0527148505115056E-002   7.7585982568117995E-003
   6.7385616632670398E-002  -1.9759888721445351E-002   7.4747165194029019E-003
   6.4530815460984353E-002  -1.8965236870052221E-002   7.3707815994845383E-003
   6.1676014289298378E-002  -1.8143192950935493E-002   7.4467934970568750E-003
   5.8821213117612348E-002  -1.7293756964095075E-002   7.7027522121196901E-003
   6.5596453290811485E-002  -1.9362115202455787E-002   1.4833662544136900E-002
   6.2919418269202138E-002  -1.8597840101727159E-002   1.4550787361060580E-002
   6.0242383247592832E-002  -1.7820154687243420E-002   1.4443497660646537E-002
   5.7565348225983477E-002  -1.7029058959004948E-002   1.4511793442895750E-002
   5.4888313204374178E-002  -1.6224552917010804E-002   1.4755674707807392E-002
   6.0935274808273397E-002  -1.8197081899796519E-002   2.1912733025505386E-002
   5.8431644601913059E-002  -1.7435791482008633E-002   2.1616882642792455E-002
   5.5928014395552728E-002  -1.6675072504434570E-002   2.1492256407914818E-002
   5.3424384189192389E-002  -1.5914924967073904E-002   2.1538854320872117E-002
   5.0920753982831989E-002  -1.5155348869926727E-002   2.1756676381664529E-002
   5.6256882356742033E-002  -1.7032048597137250E-002   2.8995809700917197E-002
   5.3922295630802974E-002  -1.6273742862290524E-002   2.8673002364599576E-002
   5.1587708904863888E-002  -1.5529990321625789E-002   2.8517057841289023E-002
   4.9253122178924844E-002  -1.4800790975143242E-002   2.8527976130986038E-002
   4.6918535452985799E-002  -1.4086144822842483E-002   2.8705757233690454E-002
   6.2719453722546503E-002  -1.8362961011179180E-002   5.9790889460087371E-004
   5.9728931496402349E-002  -1.7478901671636460E-002   3.6559326290985794E-004
   5.6738409270258194E-002  -1.6656829338075579E-002   3.2487687828336442E-004
   5.3747887044114012E-002  -1.5896744010494297E-002   4.7575974072017191E-004
   5.0757364817969886E-002  -1.5198645688895285E-002   8.1824185022116858E-004
   5.8821213117612348E-002  -1.7293756964095075E-002   7.7027522121196901E-003
   5.6015202479946791E-002  -1.6450159863805935E-002   7.3781611901359567E-003
   5.3209191842281289E-002  -1.5645632604343013E-002   7.2309940980460063E-003
   5.0403181204615705E-002  -1.4880175185707216E-002   7.2612509358493948E-003
   4.7597170566950120E-002  -1.4153787607896984E-002   7.4689317035463443E-003
   5.4888313204374178E-002  -1.6224552917010804E-002   1.4755674707807392E-002
   5.2252638838016924E-002  -1.5421418055975467E-002   1.4361725460685676E-002
   4.9616964471659683E-002  -1.4634435870611764E-002   1.4131024826287183E-002
   4.6981290105302435E-002  -1.3863606360919687E-002   1.4063572804611797E-002
   4.4345615738945215E-002  -1.3108929526899016E-002   1.4159369395659593E-002
   5.0920753982831989E-002  -1.5155348869926727E-002   2.1756676381664529E-002
   4.8441240570612776E-002  -1.4392676248144748E-002   2.1316286074559217E-002
   4.5961727158393445E-002  -1.3623239136879968E-002   2.1024969063006816E-002
   4.3482213746174163E-002  -1.2847037536131716E-002   2.0882725347006859E-002
   4.1002700333954895E-002  -1.2064071445901103E-002   2.0889554926560125E-002
   4.6918535452985799E-002  -1.4086144822842483E-002   2.8705757233690454E-002
   4.4581007677734208E-002  -1.3363934440314251E-002   2.8241843031756475E-002
   4.2243479902482534E-002  -1.2612042403147991E-002   2.7912826808204810E-002
   3.9905952127230929E-002  -1.1830468711344199E-002   2.7718708563035835E-002
   3.7568424351979268E-002  -1.1019213364902969E-002   2.7659488296249202E-002
   5.0757364817969886E-002  -1.5198645688895285E-002   8.1824185022116858E-004
   4.8041629653484907E-002  -1.4497932393898294E-002   5.4367077180161871E-004
   4.5325894488999818E-002  -1.3730002146123355E-002   3.1204686364050271E-004
   4.2610159324514785E-002  -1.2894854945572368E-002   1.2337012573787609E-004
   3.9894424160029751E-002  -1.1992490792243959E-002  -2.2359441905983601E-005
   4.7597170566950120E-002  -1.4153787607896984E-002   7.4689317035463443E-003
   4.4934916552664461E-002  -1.3426469929548324E-002   7.1676075254235583E-003
   4.2272662538378747E-002  -1.2658222209294134E-002   6.9302984774414211E-003
   3.9610408524093033E-002  -1.1849044447135582E-002   6.7570045595994332E-003
   3.6948154509807374E-002  -1.0998936643071611E-002   6.6477257718977611E-003
   4.4345615738945215E-002  -1.3108929526899016E-002   1.4159369395659593E-002
   4.1757910834740841E-002  -1.2355007465198242E-002   1.3805005206961096E-002
   3.9170205930536411E-002  -1.1586442272464442E-002   1.3535724108285491E-002
   3.6582501026331940E-002  -1.0803233948698567E-002   1.3351526099631514E-002
   3.3994796122127607E-002  -1.0005382493899262E-002   1.3252411181000789E-002
   4.1002700333954895E-002  -1.2064071445901103E-002   2.0889554926560125E-002
   3.8510612499713798E-002  -1.1283545000848216E-002   2.0455863816414344E-002
   3.6018524665472784E-002  -1.0514662335634986E-002   2.0128323756172982E-002
   3.3526436831231674E-002  -9.7574234502612218E-003   1.9906934745836099E-002
   3.1034348996990681E-002  -9.0118283447270242E-003   1.9791696785403157E-002
   3.7568424351979268E-002  -1.1019213364902969E-002   2.7659488296249202E-002
   3.5193021547583581E-002  -1.0212082536498468E-002   2.7120183353783522E-002
   3.2817618743187837E-002  -9.4428823988056132E-003   2.6708097421104360E-002
   3.0442215938792122E-002  -8.7116129518242311E-003   2.6423230498211464E-002
   2.8066813134396407E-002  -8.0182741955544534E-003   2.6265582585104696E-002
   3.9894424160029751E-002  -1.1992490792243959E-002  -2.2359441905983601E-005
   3.7473642683581554E-002  -1.1140914577909777E-002  -2.9963464904647630E-004
   3.5052861207133412E-002  -1.0458131194336473E-002  -4.8894211160777079E-004
   3.2632079730685298E-002  -9.9441406415272382E-003  -5.9028182959014464E-004
   3.0211298254237073E-002  -9.5989429194807130E-003  -6.0365380299298721E-004
   3.6948154509807374E-002  -1.0998936643071611E-002   6.6477257718977611E-003
   3.4597885071593171E-002  -1.0183771487607407E-002   6.2061020360220098E-003
   3.2247615633379079E-002  -9.4794216712451584E-003   5.8175346320346044E-003
   2.9897346195164959E-002  -8.8858871939858364E-003   5.4820235599369882E-003
   2.7547076756950839E-002  -8.4031680558291910E-003   5.1995688197281620E-003
   3.3994796122127607E-002  -1.0005382493899262E-002   1.3252411181000789E-002
   3.1680127309457240E-002  -9.2266283973053698E-003   1.2704416408050423E-002
   2.9365458496786886E-002  -8.5007121481532333E-003   1.2174566554297828E-002
   2.7050789684116484E-002  -7.8276337464442264E-003   1.1662861619744377E-002
   2.4736120871446110E-002  -7.2073931921776691E-003   1.1169301604389115E-002
   3.1034348996990681E-002  -9.0118283447270242E-003   1.9791696785403157E-002
   2.8720369397173720E-002  -8.2694853070033880E-003   1.9195308467037708E-002
   2.6406389797356846E-002  -7.5220026250618355E-003   1.8582153655180275E-002
   2.4092410197540014E-002  -6.7693802989029425E-003   1.7952232349831745E-002
   2.1778430597723122E-002  -6.0116183285260361E-003   1.7305544550990815E-002
   2.8066813134396407E-002  -8.0182741955544534E-003   2.6265582585104696E-002
   2.5718611334742736E-002  -7.3123422167012952E-003   2.5678778212984810E-002
   2.3370409535089010E-002  -6.5432931019705209E-003   2.5040295934682932E-002
   2.1022207735435269E-002  -5.7111268513611799E-003   2.4350135750198593E-002
   1.8674005935781612E-002  -4.8158434648742920E-003   2.3608297659533095E-002
   3.0211298254237073E-002  -9.5989429194807130E-003  -6.0365380299298721E-004
   2.9604419520981806E-002  -9.1339180182461455E-003  -3.5978837616545967E-004
   2.8997540787726594E-002  -8.2604459278716735E-003  -1.7969371556076918E-003
   2.8390662054471383E-002  -6.9785266483575747E-003  -4.9151001413194062E-003
   2.7783783321216116E-002  -5.2881601797021283E-003  -9.7142773333003252E-003
   2.7547076756950839E-002  -8.4031680558291910E-003   5.1995688197281620E-003
   2.5528480562206635E-002  -7.8703587177371137E-003   5.8757180671749065E-003
   2.3509884367462291E-002  -7.1265536406707741E-003   5.4094465979128148E-003
   2.1491288172718073E-002  -6.1717528246302694E-003   3.8007544119428860E-003
   1.9472691977973855E-002  -5.0059562696158633E-003   1.0496415092637879E-003
   2.4736120871446110E-002  -7.2073931921776691E-003   1.1169301604389115E-002
   2.1844400704774031E-002  -6.6067994172280819E-003   1.2080283222289545E-002
   1.8952680538101896E-002  -5.9926613534705409E-003   1.2387437613041952E-002
   1.6060960371429844E-002  -5.3649790009042964E-003   1.2090764776647583E-002
   1.3169240204757654E-002  -4.7237523595302644E-003   1.1190264713105802E-002
   2.1778430597723122E-002  -6.0116183285260361E-003   1.7305544550990815E-002
   1.8552179948684265E-002  -5.3432401167189392E-003   1.8253907089178290E-002
   1.5325929299645408E-002  -4.8587690662697525E-003   1.9137035889779747E-002
   1.2099678650606613E-002  -4.5582051771781013E-003   1.9954930952794520E-002
   8.8734280015678041E-003  -4.4415484494441104E-003   2.0707592278223774E-002
   1.8674005935781612E-002  -4.8158434648742920E-003   2.3608297659533095E-002
   1.5651818293937192E-002  -4.0796808162099074E-003   2.4396589667842306E-002
   1.2629630652092799E-002  -3.7248767790690751E-003   2.5658241428126061E-002
   9.6074430102483926E-003  -3.7514313534513233E-003   2.7393252940385110E-002
   6.5852553684039861E-003  -4.1593445393578454E-003   2.9601624204618981E-002
   2.7783783321216116E-002  -5.2881601797021283E-003  -9.7142773333003252E-003
   2.3355865085388339E-002  -4.2069167510379035E-003  -4.1872976791881289E-003
   1.8927946849560728E-002  -4.7523665914923630E-003   2.6041174364150876E-003
   1.4500028613733063E-002  -6.9245097010662282E-003   1.0659968013509991E-002
   1.0072110377905341E-002  -1.0723346079759999E-002   1.9980254052096136E-002
   1.9472691977973855E-002  -5.0059562696158633E-003   1.0496415092637879E-003
   1.6236819575223438E-002  -4.6907989455771126E-003   6.7423873699659076E-003
   1.3000947172473021E-002  -6.2879158224648513E-003   1.3554789435330949E-002
   9.7650747697226314E-003  -9.7973069002773444E-003   2.1486847705359857E-002
   6.5292023669722976E-003  -1.5218972179015910E-002   3.0538562180051798E-002
   1.3169240204757654E-002  -4.7237523595302644E-003   1.1190264713105802E-002
   1.0980634378256610E-002  -5.1746811401179871E-003   1.6763195848591095E-002
   8.7920285517555236E-003  -7.8234650534377836E-003   2.3311003931911434E-002
   6.6034227252545347E-003  -1.2670104099488239E-002   3.0833688963068012E-002
   4.4148168987533931E-003  -1.9714598278271378E-002   3.9331250942059137E-002
   8.8734280015678041E-003  -4.4415484494441104E-003   2.0707592278223774E-002
   7.5873094944879718E-003  -5.6585633346575848E-003   2.5875127756686392E-002
   6.3011909874082575E-003  -9.3590142844096058E-003   3.1872760926156332E-002
   5.0150724803285883E-003  -1.5542901298699910E-002   3.8700491786633706E-002
   3.7289539732485860E-003  -2.4210224377527290E-002   4.6358320338118597E-002
   6.5852553684039861E-003  -4.1593445393578454E-003   2.9601624204618981E-002
   6.0568449239176148E-003  -6.1424455291974045E-003   3.4078183094252701E-002
   5.5284344794311879E-003  -1.0894563515382510E-002   3.9240060418066103E-002
   5.0000240349448305E-003  -1.8415698497910686E-002   4.5087256176058438E-002
   4.4716135904584453E-003  -2.8705850476783201E-002   5.1619770368229734E-002
   7.5731415943717573E-002  -2.5528333291981287E-002   2.8574683183196226E-002
   7.3225525397967617E-002  -2.3599172052266582E-002   2.8394900709348803E-002
   7.0719634852217605E-002  -2.2024614459268566E-002   2.8468601569990426E-002
   6.8213744306467622E-002  -2.0804660512987780E-002   2.8795785765121207E-002
   6.5707853760717694E-002  -1.9939310213423767E-002   2.9376453294741256E-002
   6.9220246196628199E-002  -2.2790998340786683E-002   3.4195550018704002E-002
   6.6955624931072294E-002  -2.1288058113040659E-002   3.3876523274833259E-002
   6.4691003665516361E-002  -2.0030051231639548E-002   3.3786551756861488E-002
   6.2426382399960470E-002  -1.9016977696583271E-002   3.3925635464788523E-002
   6.0161761134404579E-002  -1.8248837507871818E-002   3.4293774398614252E-002
   6.2881814730341823E-002  -2.0053663389592108E-002   3.9335360692056787E-002
   6.0834034636389617E-002  -1.8976944173814833E-002   3.8986759978535027E-002
   5.8786254542437397E-002  -1.8035488004010364E-002   3.8842786382321762E-002
   5.6738474448485184E-002  -1.7229294880178707E-002   3.8903439903417061E-002
   5.4690694354532998E-002  -1.6558364802319869E-002   3.9168720541820842E-002
   5.6716121544858451E-002  -1.7316328438397505E-002   4.3994115203254899E-002
   5.4860754513919578E-002  -1.6665830234589028E-002   4.3725610820454008E-002
   5.3005387482980754E-002  -1.6040924776381180E-002   4.3637305446371497E-002
   5.1150020452041894E-002  -1.5441612063774226E-002   4.3729199081007059E-002
   4.9294653421103021E-002  -1.4867892096767921E-002   4.4001291724360805E-002
   5.0723166640178008E-002  -1.4578993487202929E-002   4.8171813552298104E-002
   4.9035784563662144E-002  -1.4354716295363196E-002   4.8093075800590301E-002
   4.7348402487146307E-002  -1.4046361548752120E-002   4.8170108949010554E-002
   4.5661020410630471E-002  -1.3653929247369665E-002   4.8402912997558459E-002
   4.3973638334114606E-002  -1.3177419391215972E-002   4.8791487946234280E-002
   6.5707853760717694E-002  -1.9939310213423767E-002   2.9376453294741256E-002
   6.3345110909723751E-002  -1.9241570005251785E-002   2.8945065103720663E-002
   6.0982368058729836E-002  -1.8524446333146635E-002   2.8737828441076335E-002
   5.8619625207735906E-002  -1.7787939197108606E-002   2.8754743306808425E-002
   5.6256882356742033E-002  -1.7032048597137250E-002   2.8995809700917197E-002
   6.0161761134404579E-002  -1.8248837507871818E-002   3.4293774398614252E-002
   5.8014376581342397E-002  -1.7596761491944765E-002   3.3944713055945056E-002
   5.5866992028280285E-002  -1.6931880475241703E-002   3.3802216780762964E-002
   5.3719607475218166E-002  -1.6254194457762109E-002   3.3866285573068006E-002
   5.1572222922155991E-002  -1.5563703439506638E-002   3.4136919432859930E-002
   5.4690694354532998E-002  -1.6558364802319869E-002   3.9168720541820842E-002
   5.2741081638513251E-002  -1.5951952978637857E-002   3.8895407584346203E-002
   5.0791468922493525E-002  -1.5339314617336501E-002   3.8811073233469280E-002
   4.8841856206473799E-002  -1.4720449718415891E-002   3.8915717489190010E-002
   4.6892243490454066E-002  -1.4095358281876080E-002   3.9209340351508595E-002
   4.9294653421103021E-002  -1.4867892096767921E-002   4.4001291724360805E-002
   4.7525226081236285E-002  -1.4307144465330837E-002   4.3797148688923926E-002
   4.5755798741369584E-002  -1.3746748759431462E-002   4.3764397799195207E-002
   4.3986371401502862E-002  -1.3186704979069590E-002   4.3903039055174925E-002
   4.2216944061636147E-002  -1.2627013124245468E-002   4.4213072456863123E-002
   4.3973638334114606E-002  -1.3177419391215972E-002   4.8791487946234280E-002
   4.2366809909511541E-002  -1.2662335952023956E-002   4.8649936369678071E-002
   4.0759981484908447E-002  -1.2154182901526367E-002   4.8662190477940903E-002
   3.9153153060305354E-002  -1.1652960239723203E-002   4.8828250271022611E-002
   3.7546324635702261E-002  -1.1158667966614910E-002   4.9148115748923304E-002
   5.6256882356742033E-002  -1.7032048597137250E-002   2.8995809700917197E-002
   5.3922295630802974E-002  -1.6273742862290524E-002   2.8673002364599576E-002
   5.1587708904863888E-002  -1.5529990321625789E-002   2.8517057841289023E-002
   4.9253122178924844E-002  -1.4800790975143242E-002   2.8527976130986038E-002
   4.6918535452985799E-002  -1.4086144822842483E-002   2.8705757233690454E-002
   5.1572222922155991E-002  -1.5563703439506638E-002   3.4136919432859930E-002
   4.9406296929843482E-002  -1.4869537103002817E-002   3.3810586240814455E-002
   4.7240370937530890E-002  -1.4180825130778479E-002   3.3654711703014498E-002
   4.5074444945218298E-002  -1.3497567522833605E-002   3.3669295819459856E-002
   4.2908518952905789E-002  -1.2819764279168200E-002   3.3854338590150856E-002
   4.6892243490454066E-002  -1.4095358281876080E-002   3.9209340351508595E-002
   4.4898574073006070E-002  -1.3465331343715067E-002   3.8888580133637773E-002
   4.2904904655558053E-002  -1.2831659939931052E-002   3.8741874411250758E-002
   4.0911235238109994E-002  -1.2194344070523966E-002   3.8769223184347196E-002
   3.8917565820661984E-002  -1.1553383735493999E-002   3.8970626452927357E-002
   4.2216944061636147E-002  -1.2627013124245468E-002   4.4213072456863123E-002
   4.0399127060290786E-002  -1.2061125584427505E-002   4.3906984043069579E-002
   3.8581310058945356E-002  -1.1482494749083683E-002   4.3778545965997943E-002
   3.6763493057599975E-002  -1.0891120618214494E-002   4.3827758225647856E-002
   3.4945676056254621E-002  -1.0287003191819702E-002   4.4054620822019525E-002
   3.7546324635702261E-002  -1.1158667966614910E-002   4.9148115748923304E-002
   3.5907955891697568E-002  -1.0656919825139721E-002   4.8865797969109892E-002
   3.4269587147692904E-002  -1.0133329558236259E-002   4.8764726367256123E-002
   3.2631218403688225E-002  -9.5878971659048989E-003   4.8844900943362135E-002
   3.0992849659683519E-002  -9.0206226481454044E-003   4.9106321697427902E-002
   4.6918535452985799E-002  -1.4086144822842483E-002   2.8705757233690454E-002
   4.4581007677734208E-002  -1.3363934440314251E-002   2.8241843031756475E-002
   4.2243479902482534E-002  -1.2612042403147991E-002   2.7912826808204810E-002
   3.9905952127230929E-002  -1.1830468711344199E-002   2.7718708563035835E-002
   3.7568424351979268E-002  -1.1019213364902969E-002   2.7659488296249202E-002
   4.2908518952905789E-002  -1.2819764279168200E-002   3.3854338590150856E-002
   4.0712331232077292E-002  -1.2133464949073580E-002   3.3441993927981861E-002
   3.8516143511248893E-002  -1.1424719081839979E-002   3.3177431396276907E-002
   3.6319955790420390E-002  -1.0693526677468236E-002   3.3060650995035745E-002
   3.4123768069591970E-002  -9.9398877359575533E-003   3.3091652724258402E-002
   3.8917565820661984E-002  -1.1553383735493999E-002   3.8970626452927357E-002
   3.6875602306338170E-002  -1.0902995457832798E-002   3.8602616213024271E-002
   3.4833638792014295E-002  -1.0237395760531863E-002   3.8395272255666697E-002
   3.2791675277690405E-002  -9.5565846435917753E-003   3.8348594580854378E-002
   3.0749711763366591E-002  -8.8605621070122487E-003   3.8462583188587224E-002
   3.4945676056254621E-002  -1.0287003191819702E-002   4.4054620822019525E-002
   3.3070820900516745E-002  -9.6725259665919605E-003   4.3723709886883448E-002
   3.1195965744778842E-002  -9.0500724392238822E-003   4.3566349386374138E-002
   2.9321110589040963E-002  -8.4196426097155642E-003   4.3582539320491595E-002
   2.7446255433303118E-002  -7.7812364780668886E-003   4.3772279689235423E-002
   3.0992849659683519E-002  -9.0206226481454044E-003   4.9106321697427902E-002
   2.9297987014613003E-002  -8.4420564753513450E-003   4.8805274949559663E-002
   2.7603124369542500E-002  -7.8627491179158182E-003   4.8690662788399341E-002
   2.5908261724471977E-002  -7.2827005758392058E-003   4.8762485213947354E-002
   2.4213399079401482E-002  -6.7019108491215285E-003   4.9020742226203340E-002
   3.7568424351979268E-002  -1.1019213364902969E-002   2.7659488296249202E-002
   3.5193021547583581E-002  -1.0212082536498468E-002   2.7120183353783522E-002
   3.2817618743187837E-002  -9.4428823988056132E-003   2.6708097421104360E-002
   3.0442215938792122E-002  -8.7116129518242311E-003   2.6423230498211464E-002
   2.8066813134396407E-002  -8.0182741955544534E-003   2.6265582585104696E-002
   3.4123768069591970E-002  -9.9398877359575533E-003   3.3091652724258402E-002
   3.1880473255975983E-002  -9.1876439774771779E-003   3.2596252941992809E-002
   2.9637178442359857E-002  -8.4606371221948584E-003   3.2237850131500795E-002
   2.7393883628743829E-002  -7.7588671701110806E-003   3.2016444292781304E-002
   2.5150588815127745E-002  -7.0823341212254975E-003   3.1932035425834893E-002
   3.0749711763366591E-002  -8.8605621070122487E-003   3.8462583188587224E-002
   2.8648302902516895E-002  -8.1632054184555269E-003   3.8023782354035196E-002
   2.6546894041667130E-002  -7.4783918455841175E-003   3.7731756453242990E-002
   2.4445485180817399E-002  -6.8061213883978226E-003   3.7586505486210293E-002
   2.2344076319967654E-002  -6.1463940468965972E-003   3.7588029452937211E-002
   2.7446255433303118E-002  -7.7812364780668886E-003   4.3772279689235423E-002
   2.5496510487206327E-002  -7.1387668594339454E-003   4.3402771589909933E-002
   2.3546765541109543E-002  -6.4961465689732587E-003   4.3189816386331070E-002
   2.1597020595012766E-002  -5.8533756066845074E-003   4.3133414078498584E-002
   1.9647275648915972E-002  -5.2104539725674470E-003   4.3233564666412060E-002
   2.4213399079401482E-002  -6.7019108491215285E-003   4.9020742226203340E-002
   2.2425096010044304E-002  -6.1143283004125304E-003   4.8733220649617714E-002
   2.0636792940687140E-002  -5.5139012923626218E-003   4.8612029930765244E-002
   1.8848489871329997E-002  -4.9006298249711366E-003   4.8657170069645622E-002
   1.7060186801972854E-002  -4.2745138982387409E-003   4.8868641066258989E-002
   2.8066813134396407E-002  -8.0182741955544534E-003   2.6265582585104696E-002
   2.5718611334742736E-002  -7.3123422167012952E-003   2.5678778212984810E-002
   2.3370409535089010E-002  -6.5432931019705209E-003   2.5040295934682932E-002
   2.1022207735435269E-002  -5.7111268513611799E-003   2.4350135750198593E-002
   1.8674005935781612E-002  -4.8158434648742920E-003   2.3608297659533095E-002
   2.5150588815127745E-002  -7.0823341212254975E-003   3.1932035425834893E-002
   2.2788935529805932E-002  -6.4097757689528523E-003   3.1533371621262241E-002
   2.0427282244484146E-002  -5.7199299067082210E-003   3.1159482751535544E-002
   1.8065628959162326E-002  -5.0127965344911318E-003   3.0810368816654360E-002
   1.5703975673840492E-002  -4.2883756523017791E-003   3.0486029816618632E-002
   2.2344076319967654E-002  -6.1463940468965972E-003   3.7588029452937211E-002
   2.0045424390005340E-002  -5.5072093212045758E-003   3.7331676590006468E-002
   1.7746772460042977E-002  -4.8965667114461570E-003   3.7176551502949115E-002
   1.5448120530080597E-002  -4.3144662176208652E-003   3.7122654191764810E-002
   1.3149468600118286E-002  -3.7609078397292106E-003   3.7169984656453936E-002
   1.9647275648915972E-002  -5.2104539725674470E-003   4.3233564666412060E-002
   1.7488077915340780E-002  -4.6046428734561051E-003   4.3073693119217271E-002
   1.5328880181765587E-002  -4.0732035161839750E-003   4.3091502188923603E-002
   1.3169682448190365E-002  -3.6161359007507079E-003   4.3286991875530846E-002
   1.1010484714615205E-002  -3.2334400271565034E-003   4.3660162179038994E-002
   1.7060186801972854E-002  -4.2745138982387409E-003   4.8868641066258989E-002
   1.5116896105812377E-002  -3.7020764257078564E-003   4.8759421208894649E-002
   1.3173605409651901E-002  -3.2498403209219040E-003   4.8904334809458883E-002
   1.1230314713491452E-002  -2.9178055838805228E-003   4.9303381867951662E-002
   9.2870240173310026E-003  -2.7059722145841292E-003   4.9956562384373293E-002
   1.8674005935781612E-002  -4.8158434648742920E-003   2.3608297659533095E-002
   1.5651818293937192E-002  -4.0796808162099074E-003   2.4396589667842306E-002
   1.2629630652092799E-002  -3.7248767790690751E-003   2.5658241428126061E-002
   9.6074430102483926E-003  -3.7514313534513233E-003   2.7393252940385110E-002
   6.5852553684039861E-003  -4.1593445393578454E-003   2.9601624204618981E-002
   1.5703975673840492E-002  -4.2883756523017791E-003   3.0486029816618632E-002
   1.3136892245483645E-002  -3.7740284252855139E-003   3.1262192758738261E-002
   1.0569808817126797E-002  -3.6971160185881591E-003   3.2475204375857936E-002
   8.0027253887699074E-003  -4.0576384322098050E-003   3.4125064667977517E-002
   5.4356419604131012E-003  -4.8555956661497923E-003   3.6211773635097533E-002
   1.3149468600118286E-002  -3.7609078397292106E-003   3.7169984656453936E-002
   1.1000978308274179E-002  -3.4683760343611758E-003   3.7877942323588737E-002
   8.8524880164300573E-003  -3.6693552581073541E-003   3.8986237588748446E-002
   6.7039977245859743E-003  -4.3638455109675095E-003   4.0494870451933757E-002
   4.5555074327418288E-003  -5.5518467929420168E-003   4.2403840913144003E-002
   1.1010484714615205E-002  -3.2334400271565034E-003   4.3660162179038994E-002
   9.2440764823088911E-003  -3.1627236434368100E-003   4.4243838362393394E-002
   7.4776682500026382E-003  -3.6415944976264936E-003   4.5191341066797841E-002
   5.7112600176963046E-003  -4.6700525897256026E-003   4.6502670292252773E-002
   3.9448517853900786E-003  -6.2480979197341024E-003   4.8177826038758469E-002
   9.2870240173310026E-003  -2.7059722145841292E-003   4.9956562384373293E-002
   7.8661867675877406E-003  -2.8570712525124442E-003   5.0359880875151974E-002
   6.4453495178444786E-003  -3.6138337371454110E-003   5.1090514810006260E-002
   5.0245122681012166E-003  -4.9762596684834737E-003   5.2148464188936094E-002
   3.6036750183579547E-003  -6.9443490465261881E-003   5.3533729011941533E-002
   6.5852553684039861E-003  -4.1593445393578454E-003   2.9601624204618981E-002
   6.0568449239176148E-003  -6.1424455291974045E-003   3.4078183094252701E-002
   5.5284344794311879E-003  -1.0894563515382510E-002   3.9240060418066103E-002
   5.0000240349448305E-003  -1.8415698497910686E-002   4.5087256176058438E-002
   4.4716135904584453E-003  -2.8705850476783201E-002   5.1619770368229734E-002
   5.4356419604131012E-003  -4.8555956661497923E-003   3.6211773635097533E-002
   5.4886898489355795E-003  -6.9902367465559112E-003   3.8351476369401893E-002
   5.5417377374580162E-003  -1.1360810699573815E-002   4.0968777335544881E-002
   5.5947856259805848E-003  -1.7967317525204383E-002   4.4063676533525636E-002
   5.6478335145029313E-003  -2.6809757223446917E-002   4.7636173963345296E-002
   4.5555074327418288E-003  -5.5518467929420168E-003   4.2403840913144003E-002
   4.9822934519321016E-003  -7.8380279639135297E-003   4.2739771615851324E-002
   5.4090794711223605E-003  -1.1827057883765688E-002   4.3345580348055926E-002
   5.8358654903126507E-003  -1.7518936552498140E-002   4.4221267109758024E-002
   6.2626515095028368E-003  -2.4913663970110855E-002   4.5366831900956583E-002
   3.9448517853900786E-003  -6.2480979197341024E-003   4.8177826038758469E-002
   4.5376557329071740E-003  -8.6858191812714813E-003   4.7243068833600667E-002
   5.1304596804241532E-003  -1.2293305067957498E-002   4.6370469455598737E-002
   5.7232636279412755E-003  -1.7070555579791868E-002   4.5560027904753372E-002
   6.3160675754582313E-003  -2.3017570716774571E-002   4.4811744181064067E-002
   3.6036750183579547E-003  -6.9443490465261881E-003   5.3533729011941533E-002
   4.1547766918607065E-003  -9.5336103986293219E-003   5.1861368022649956E-002
   4.7058783653634861E-003  -1.2759552252149031E-002   5.0043444658173786E-002
   5.2569800388663213E-003  -1.6622174607085746E-002   4.8079958918513299E-002
   5.8080817123690176E-003  -2.1121477463438509E-002   4.5970910803667220E-002
   5.0723166640178008E-002  -1.4578993487202929E-002   4.8171813552298104E-002
   4.9035784563662144E-002  -1.4354716295363196E-002   4.8093075800590301E-002
   4.7348402487146307E-002  -1.4046361548752120E-002   4.8170108949010554E-002
   4.5661020410630471E-002  -1.3653929247369665E-002   4.8402912997558459E-002
   4.3973638334114606E-002  -1.3177419391215972E-002   4.8791487946234280E-002
   4.4650128059222194E-002  -1.2780835641916011E-002   5.2655180088830966E-002
   4.3143283543353186E-002  -1.2557400279669506E-002   5.2341650205333740E-002
   4.1636439027484137E-002  -1.2271348790103984E-002   5.2233424543002199E-002
   4.0129594511615116E-002  -1.1922681173219370E-002   5.2330503101836803E-002
   3.8622749995746081E-002  -1.1511397429015857E-002   5.2632885881836927E-002
   3.8244183844912807E-002  -1.0982677796629092E-002   5.7148435509496623E-002
   3.6967410210728538E-002  -1.0760084263975803E-002   5.6578652066757704E-002
   3.5690636576544248E-002  -1.0496336031455812E-002   5.6263706166222553E-002
   3.4413862942360013E-002  -1.0191433099069074E-002   5.6203597807890943E-002
   3.3137089308175730E-002  -9.8453754668157423E-003   5.6398326991763198E-002
   3.1505333997249765E-002  -9.1845199513421599E-003   6.1651579814295490E-002
   3.0508164565788257E-002  -8.9627682482821200E-003   6.0804081384862388E-002
   2.9510995134326659E-002  -8.7213232728076580E-003   6.0260953818670956E-002
   2.8513825702865120E-002  -8.4601850249188051E-003   6.0022197115721272E-002
   2.7516656271403549E-002  -8.1793535046156274E-003   6.0087811276013092E-002
   2.4433578516233151E-002  -7.3863621060552553E-003   6.6164613003227124E-002
   2.3765546608532251E-002  -7.1654522325884096E-003   6.5017938159647515E-002
   2.3097514700831351E-002  -6.9463105141595177E-003   6.4225167500347707E-002
   2.2429482793130423E-002  -6.7289369507684584E-003   6.3786301025327410E-002
   2.1761450885429523E-002  -6.5133315424155125E-003   6.3701338734586832E-002
   4.3973638334114606E-002  -1.3177419391215972E-002   4.8791487946234280E-002
   4.2366809909511541E-002  -1.2662335952023956E-002   4.8649936369678071E-002
   4.0759981484908447E-002  -1.2154182901526367E-002   4.8662190477940903E-002
   3.9153153060305354E-002  -1.1652960239723203E-002   4.8828250271022611E-002
   3.7546324635702261E-002  -1.1158667966614910E-002   4.9148115748923304E-002
   3.8622749995746081E-002  -1.1511397429015857E-002   5.2632885881836927E-002
   3.7182562475097145E-002  -1.1069047232612428E-002   5.2365690369407358E-002
   3.5742374954448194E-002  -1.0627180259128205E-002   5.2277970980066854E-002
   3.4302187433799210E-002  -1.0185796508562987E-002   5.2369727713815865E-002
   3.2861999913150308E-002  -9.7448959809170455E-003   5.2640960570654260E-002
   3.3137089308175730E-002  -9.8453754668157423E-003   5.6398326991763198E-002
   3.1889213129751307E-002  -9.4757585132008298E-003   5.6011934709235364E-002
   3.0641336951326890E-002  -9.1001776167299320E-003   5.5830688988067340E-002
   2.9393460772902492E-002  -8.7186327774026046E-003   5.5854589828258999E-002
   2.8145584594478051E-002  -8.3311239952193472E-003   5.6083637229810357E-002
   2.7516656271403549E-002  -8.1793535046156274E-003   6.0087811276013092E-002
   2.6486761873474058E-002  -7.8824697937894053E-003   5.9588669389162692E-002
   2.5456867475544570E-002  -7.5731749743317145E-003   5.9320344501942207E-002
   2.4426973077615054E-002  -7.2514690462423606E-003   5.9282836614351818E-002
   2.3397078679685587E-002  -6.9173520095215657E-003   5.9476145726391691E-002
   2.1761450885429523E-002  -6.5133315424155125E-003   6.3701338734586832E-002
   2.0975208706265361E-002  -6.2891810743777588E-003   6.3095894409188946E-002
   2.0188966527101192E-002  -6.0461723319334970E-003   6.2746937521691387E-002
   1.9402724347937033E-002  -5.7843053150819501E-003   6.2654468072094460E-002
   1.8616482168772847E-002  -5.5035800238237842E-003   6.2818486060397971E-002
   3.7546324635702261E-002  -1.1158667966614910E-002   4.9148115748923304E-002
   3.5907955891697568E-002  -1.0656919825139721E-002   4.8865797969109892E-002
   3.4269587147692904E-002  -1.0133329558236259E-002   4.8764726367256123E-002
   3.2631218403688225E-002  -9.5878971659048989E-003   4.8844900943362135E-002
   3.0992849659683519E-002  -9.0206226481454044E-003   4.9106321697427902E-002
   3.2861999913150308E-002  -9.7448959809170455E-003   5.2640960570654260E-002
   3.1409799718698908E-002  -9.2961029433107911E-003   5.2350529750448238E-002
   2.9957599524247522E-002  -8.8310416628643723E-003   5.2251189851389046E-002
   2.8505399329796156E-002  -8.3497121395782643E-003   5.2342940873476657E-002
   2.7053199135344749E-002  -7.8521143734517906E-003   5.2625782816711320E-002
   2.8145584594478051E-002  -8.3311239952193472E-003   5.6083637229810357E-002
   2.6889397692767138E-002  -7.9352860614819165E-003   5.5779519486623699E-002
   2.5633210791056210E-002  -7.5287537674925964E-003   5.5676337407770796E-002
   2.4377023889345283E-002  -7.1115271132514632E-003   5.5774090993252118E-002
   2.3120836987634362E-002  -6.6836060987582324E-003   5.6072780243067416E-002
   2.3397078679685587E-002  -6.9173520095215657E-003   5.9476145726391691E-002
   2.2346749813902250E-002  -6.5744691796531252E-003   5.9152767177636054E-002
   2.1296420948118934E-002  -6.2264658721206539E-003   5.9040169036401614E-002
   2.0246092082335632E-002  -5.8733420869246343E-003   5.9138351302688422E-002
   1.9195763216552281E-002  -5.5150978240647019E-003   5.9447313976496309E-002
   1.8616482168772847E-002  -5.5035800238237842E-003   6.2818486060397971E-002
   1.7781856082104294E-002  -5.2136522978240563E-003   6.2470272823485551E-002
   1.6947229995435728E-002  -4.9241779767489335E-003   6.2342684737281412E-002
   1.6112603908767155E-002  -4.6351570605978609E-003   6.2435721801785526E-002
   1.5277977822098582E-002  -4.3465895493710605E-003   6.2749384016998144E-002
   3.0992849659683519E-002  -9.0206226481454044E-003   4.9106321697427902E-002
   2.9297987014613003E-002  -8.4420564753513450E-003   4.8805274949559663E-002
   2.7603124369542500E-002  -7.8627491179158182E-003   4.8690662788399341E-002
   2.5908261724471977E-002  -7.2827005758392058E-003   4.8762485213947354E-002
   2.4213399079401482E-002  -6.7019108491215285E-003   4.9020742226203340E-002
   2.7053199135344749E-002  -7.8521143734517906E-003   5.2625782816711320E-002
   2.5548600615779377E-002  -7.3444513736408146E-003   5.2338155688853805E-002
   2.4044002096213969E-002  -6.8329261493002003E-003   5.2244622225298354E-002
   2.2539403576648586E-002  -6.3175387004302530E-003   5.2345182426045175E-002
   2.1034805057083217E-002  -5.7982890270308340E-003   5.2639836291094255E-002
   2.3120836987634362E-002  -6.6836060987582324E-003   5.6072780243067416E-002
   2.1814161671168161E-002  -6.2468462719302842E-003   5.5801693775108824E-002
   2.0507486354701978E-002  -5.8031031806845962E-003   5.5732360049046609E-002
   1.9200811038235795E-002  -5.3523768250212482E-003   5.5864779064880445E-002
   1.7894135721769587E-002  -4.8946672049401396E-003   5.6198950822610727E-002
   1.9195763216552281E-002  -5.5150978240647019E-003   5.9447313976496309E-002
   1.8094670180779406E-002  -5.1492411702200314E-003   5.9195889208325067E-002
   1.6993577145006523E-002  -4.7732802120689852E-003   5.9153876259644120E-002
   1.5892484109233645E-002  -4.3872149496123804E-003   5.9321275130453412E-002
   1.4791391073460764E-002  -3.9910453828493897E-003   5.9698085820753338E-002
   1.5277977822098582E-002  -4.3465895493710605E-003   6.2749384016998144E-002
   1.4390126144613075E-002  -4.0516360685094455E-003   6.2520741988502104E-002
   1.3502274467127595E-002  -3.7434572434535129E-003   6.2509170857090901E-002
   1.2614422789642095E-002  -3.4220530742032143E-003   6.2714670622764063E-002
   1.1726571112156609E-002  -3.0874235607587508E-003   6.3137241285521450E-002
   2.4213399079401482E-002  -6.7019108491215285E-003   4.9020742226203340E-002
   2.2425096010044304E-002  -6.1143283004125304E-003   4.8733220649617714E-002
   2.0636792940687140E-002  -5.5139012923626218E-003   4.8612029930765244E-002
   1.8848489871329997E-002  -4.9006298249711366E-003   4.8657170069645622E-002
   1.7060186801972854E-002  -4.2745138982387409E-003   4.8868641066258989E-002
   2.1034805057083217E-002  -5.7982890270308340E-003   5.2639836291094255E-002
   1.9422935506832259E-002  -5.2747799976912146E-003   5.2409092536232604E-002
   1.7811065956581371E-002  -4.7466144810007216E-003   5.2364884961851016E-002
   1.6199196406330447E-002  -4.2137924769592022E-003   5.2507213567948671E-002
   1.4587326856079524E-002  -3.6763139855665594E-003   5.2836078354525973E-002
   1.7894135721769587E-002  -4.8946672049401396E-003   5.6198950822610727E-002
   1.6478905013371591E-002  -4.4352316949697046E-003   5.6016796917483236E-002
   1.5063674304973542E-002  -3.9793276696388213E-003   5.6041384515581966E-002
   1.3648443596575533E-002  -3.5269551289469347E-003   5.6272713616906764E-002
   1.2233212888177525E-002  -3.0781140728943779E-003   5.6710784221457922E-002
   1.4791391073460764E-002  -3.9910453828493897E-003   5.9698085820753338E-002
   1.3593004529662243E-002  -3.5956833922485137E-003   5.9556333793369345E-002
   1.2394617985863748E-002  -3.2120408582768101E-003   5.9641528591958301E-002
   1.1196231442065224E-002  -2.8401177809347783E-003   5.9953670216520288E-002
   9.9978448982667029E-003  -2.4799141602222519E-003   6.0492758667055085E-002
   1.1726571112156609E-002  -3.0874235607587508E-003   6.3137241285521450E-002
   1.0765234055704259E-002  -2.7561350895268233E-003   6.3027703163891058E-002
   9.8038969992519237E-003  -2.4447540469153262E-003   6.3165317190980230E-002
   8.8425599427995674E-003  -2.1532804329227537E-003   6.3550083366788496E-002
   7.8812228863472111E-003  -1.8817142475501258E-003   6.4182001691316715E-002
   1.7060186801972854E-002  -4.2745138982387409E-003   4.8868641066258989E-002
   1.5116896105812377E-002  -3.7020764257078564E-003   4.8759421208894649E-002
   1.3173605409651901E-002  -3.2498403209219040E-003   4.8904334809458883E-002
   1.1230314713491452E-002  -2.9178055838805228E-003   4.9303381867951662E-002
   9.2870240173310026E-003  -2.7059722145841292E-003   4.9956562384373293E-002
   1.4587326856079524E-002  -3.6763139855665594E-003   5.2836078354525973E-002
   1.2897845110144385E-002  -3.1952195189845489E-003   5.2726467015091094E-002
   1.1208363364209245E-002  -2.8315495893752873E-003   5.2870340118178316E-002
   9.5188816182741540E-003  -2.5853041967381710E-003   5.3267697663787694E-002
   7.8293998723389657E-003  -2.4564833410738451E-003   5.3918539651918840E-002
   1.2233212888177525E-002  -3.0781140728943779E-003   5.6710784221457922E-002
   1.0796891077061173E-002  -2.6883626122614634E-003   5.6603558230725021E-002
   9.3605692659448486E-003  -2.4132588578287817E-003   5.6749167667107359E-002
   7.9242474548285244E-003  -2.2528028095962632E-003   5.7147612530605255E-002
   6.4879256437122002E-003  -2.2069944675637831E-003   5.7798892821218861E-002
   9.9978448982667029E-003  -2.4799141602222519E-003   6.0492758667055085E-002
   8.8140340065627088E-003  -2.1815057055383780E-003   6.0390694855795839E-002
   7.6302231148586870E-003  -1.9949681262824981E-003   6.0540817456245774E-002
   6.4464122231546999E-003  -1.9203014224542445E-003   6.0943126468404794E-002
   5.2626013314506712E-003  -1.9575055940537767E-003   6.1597621892272830E-002
   7.8812228863472111E-003  -1.8817142475501258E-003   6.4182001691316715E-002
   6.9492738986490221E-003  -1.6746487988150704E-003   6.4087876890304041E-002
   6.0173249109507915E-003  -1.5766773947355761E-003   6.4245289485593660E-002
   5.0853759232525816E-003  -1.5878000353121494E-003   6.4654239477186043E-002
   4.1534269355543718E-003  -1.7080167205434371E-003   6.5314726865080663E-002
   9.2870240173310026E-003  -2.7059722145841292E-003   4.9956562384373293E-002
   7.8661867675877406E-003  -2.8570712525124442E-003   5.0359880875151974E-002
   6.4453495178444786E-003  -3.6138337371454110E-003   5.1090514810006260E-002
   5.0245122681012166E-003  -4.9762596684834737E-003   5.2148464188936094E-002
   3.6036750183579547E-003  -6.9443490465261881E-003   5.3533729011941533E-002
   7.8293998723389657E-003  -2.4564833410738451E-003   5.3918539651918840E-002
   6.7097639580138840E-003  -2.6426456083329941E-003   5.3852791372615727E-002
   5.5901280436887885E-003  -3.3413495844665242E-003   5.4062130320073454E-002
   4.4704921293636998E-003  -4.5525952694744354E-003   5.4546556494291770E-002
   3.3508562150386112E-003  -6.2763826633576159E-003   5.5306069895270871E-002
   6.4879256437122002E-003  -2.2069944675637831E-003   5.7798892821218861E-002
   5.6172628474904299E-003  -2.4282199641535440E-003   5.7357199509664392E-002
   4.7466000512686943E-003  -3.0688654317876374E-003   5.7138365207555220E-002
   3.8759372550469517E-003  -4.1289308704660632E-003   5.7142389914892219E-002
   3.0052744588251884E-003  -5.6084162801885995E-003   5.7369273631675377E-002
   5.2626013314506712E-003  -1.9575055940537767E-003   6.1597621892272830E-002
   4.5886834360174145E-003  -2.2137943199743715E-003   6.0873105286296830E-002
   3.9147655405842013E-003  -2.7963812791089726E-003   6.0319219472451752E-002
   3.2408476451509603E-003  -3.7052664714571359E-003   5.9935964450737997E-002
   2.5669297497177314E-003  -4.9404498970196942E-003   5.9723340221155122E-002
   4.1534269355543718E-003  -1.7080167205434371E-003   6.5314726865080663E-002
   3.6240257235948398E-003  -1.9993686757946438E-003   6.4400508702513681E-002
   3.0946245116353077E-003  -2.5238971264299748E-003   6.3604693114762856E-002
   2.5652232996757757E-003  -3.2816020724486805E-003   6.2927280101828353E-002
   2.0358220877162436E-003  -4.2724835138510109E-003   6.2368269663710008E-002
   3.6036750183579547E-003  -6.9443490465261881E-003   5.3533729011941533E-002
   4.1547766918607065E-003  -9.5336103986293219E-003   5.1861368022649956E-002
   4.7058783653634861E-003  -1.2759552252149031E-002   5.0043444658173786E-002
   5.2569800388663213E-003  -1.6622174607085746E-002   4.8079958918513299E-002
   5.8080817123690176E-003  -2.1121477463438509E-002   4.5970910803667220E-002
   3.3508562150386112E-003  -6.2763826633576159E-003   5.5306069895270871E-002
   3.7739640569931648E-003  -8.5442080310887403E-003   5.2952407126602430E-002
   4.1970718989478156E-003  -1.1387567637643037E-002   5.0488319070022214E-002
   4.6201797409024248E-003  -1.4806461483020700E-002   4.7913805725530473E-002
   5.0432875828569923E-003  -1.8800889567221368E-002   4.5228867093127567E-002
   3.0052744588251884E-003  -5.6084162801885995E-003   5.7369273631675377E-002
   3.3355255565048342E-003  -7.5548056635482141E-003   5.4395455346223365E-002
   3.6657766541844869E-003  -1.0015583023137070E-002   5.1346348860132646E-002
   3.9960277518640841E-003  -1.2990748358955827E-002   4.8221954173403928E-002
   4.3262788495437576E-003  -1.6480301671003783E-002   4.5022271286036308E-002
   2.5669297497177314E-003  -4.9404498970196942E-003   5.9723340221155122E-002
   2.8394611903956139E-003  -6.5654032960073272E-003   5.6190512681512789E-002
   3.1119926310735398E-003  -8.6435984086307566E-003   5.2617534028505213E-002
   3.3845240717514796E-003  -1.1175035234890867E-002   4.9004404262132886E-002
   3.6570555124293483E-003  -1.4159713774786531E-002   4.5351123382394720E-002
   2.0358220877162436E-003  -4.2724835138510109E-003   6.2368269663710008E-002
   2.2857709586656255E-003  -5.5760009284668843E-003   5.8337579132470840E-002
   2.5357198296150074E-003  -7.2716137941247205E-003   5.4301874575139908E-002
   2.7856687005644032E-003  -9.3593221108259766E-003   5.0261155991717044E-002
   3.0356175715137712E-003  -1.1839125878569057E-002   4.6215423382202303E-002
   2.4433578516233151E-002  -7.3863621060552553E-003   6.6164613003227124E-002
   2.3765546608532251E-002  -7.1654522325884096E-003   6.5017938159647515E-002
   2.3097514700831351E-002  -6.9463105141595177E-003   6.4225167500347707E-002
   2.2429482793130423E-002  -6.7289369507684584E-003   6.3786301025327410E-002
   2.1761450885429523E-002  -6.5133315424155125E-003   6.3701338734586832E-002
   1.7477823635737910E-002  -5.5397715697970695E-003   6.4837597702719019E-002
   1.7116971860541286E-002  -5.3740891687290293E-003   6.4207558506587686E-002
   1.6756120085344668E-002  -5.2097328829688178E-003   6.3837975391185159E-002
   1.6395268310148054E-002  -5.0467027125164592E-003   6.3728848356511741E-002
   1.6034416534951440E-002  -4.8849986573720194E-003   6.3880177402567240E-002
   1.1086975589638982E-002  -3.6931810335388837E-003   6.3455133909947017E-002
   1.0939855843396004E-002  -3.5827261048695658E-003   6.3342172400993782E-002
   1.0792736097153033E-002  -3.4731552517780553E-003   6.3396218869218868E-002
   1.0645616350910051E-002  -3.3644684742644027E-003   6.3617273314622427E-002
   1.0498496604667080E-002  -3.2566657723285264E-003   6.4005335737204128E-002
   5.2610343779364126E-003  -1.8465904972806840E-003   6.2017221624911259E-002
   5.2341985570964131E-003  -1.7913630410101161E-003   6.2421779842866357E-002
   5.2073627362564292E-003  -1.7365776205874352E-003   6.2899897934449084E-002
   5.1805269154164392E-003  -1.6822342360122916E-003   6.3451575899659399E-002
   5.1536910945764432E-003  -1.6283328872850611E-003   6.4076813738497440E-002
   6.3019034435285448E-013   3.8977487903935071E-011   6.0523860847611799E-002
   1.6425402704633996E-012   2.2849278025205422E-011   6.1446380832205161E-002
   2.6548624409983290E-012   1.0603337652348443E-011   6.2349012586875446E-002
   3.6672071629384462E-012   2.2397049492806076E-012   6.3231756111622864E-002
   4.6795414765377075E-012  -2.2415957978694223E-012   6.4094611406447177E-002
   2.1761450885429523E-002  -6.5133315424155125E-003   6.3701338734586832E-002
   2.0975208706265361E-002  -6.2891810743777588E-003   6.3095894409188946E-002
   2.0188966527101192E-002  -6.0461723319334970E-003   6.2746937521691387E-002
   1.9402724347937033E-002  -5.7843053150819501E-003   6.2654468072094460E-002
   1.8616482168772847E-002  -5.5035800238237842E-003   6.2818486060397971E-002
   1.6034416534951440E-002  -4.8849986573720194E-003   6.3880177402567240E-002
   1.5489680070380249E-002  -4.7168858068796088E-003   6.3467366764260860E-002
   1.4944943605809072E-002  -4.5346292503833374E-003   6.3281080117239819E-002
   1.4400207141237881E-002  -4.3382289878832053E-003   6.3321317461504212E-002
   1.3855470676666697E-002  -4.1276850193793235E-003   6.3588078797054026E-002
   1.0498496604667080E-002  -3.2566657723285264E-003   6.4005335737204128E-002
   1.0165302408073788E-002  -3.1445905393811813E-003   6.3780444217586107E-002
   9.8321082114804868E-003  -3.0230861688331223E-003   6.3752113242638506E-002
   9.4989140148871963E-003  -2.8921526606843495E-003   6.3920342812361225E-002
   9.1657198182938937E-003  -2.7517900149348073E-003   6.4285132926754307E-002
   5.1536910945764432E-003  -1.6283328872850611E-003   6.4076813738497440E-002
   5.0020757193459430E-003  -1.5722952718828925E-003   6.4035126769164855E-002
   4.8504603441154384E-003  -1.5115430872829350E-003   6.4160036897887365E-002
   4.6988449688849339E-003  -1.4460763334854937E-003   6.4451544124665278E-002
   4.5472295936544276E-003  -1.3758950104904299E-003   6.4909648449498397E-002
   4.6795414765377075E-012  -2.2415957978694223E-012   6.4094611406447177E-002
   4.1967401775977464E-012  -4.3845482800008995E-012   6.4231414418996824E-002
   3.7139319397638815E-012  -5.7327337321666505E-012   6.4504851082986592E-002
   3.2311237019300165E-012  -6.2867176742198438E-012   6.4914921398416606E-002
   2.7483224029900555E-012  -6.0458305028987525E-012   6.5461625365286658E-002
   1.8616482168772847E-002  -5.5035800238237842E-003   6.2818486060397971E-002
   1.7781856082104294E-002  -5.2136522978240563E-003   6.2470272823485551E-002
   1.6947229995435728E-002  -4.9241779767489335E-003   6.2342684737281412E-002
   1.6112603908767155E-002  -4.6351570605978609E-003   6.2435721801785526E-002
   1.5277977822098582E-002  -4.3465895493710605E-003   6.2749384016998144E-002
   1.3855470676666697E-002  -4.1276850193793235E-003   6.3588078797054026E-002
   1.3238477583397468E-002  -3.9102392246976869E-003   6.3307737307279566E-002
   1.2621484490128228E-002  -3.6931334836647900E-003   6.3242036653595290E-002
   1.2004491396858974E-002  -3.4763677962802580E-003   6.3390976836001436E-002
   1.1387498303589733E-002  -3.2599421625445490E-003   6.3754557854497906E-002
   9.1657198182938937E-003  -2.7517900149348073E-003   6.4285132926754307E-002
   8.7603754038060103E-003  -2.6068261515713453E-003   6.4072776535393394E-002
   8.3550309893181095E-003  -2.4620889905807020E-003   6.4069076665504834E-002
   7.9496865748302139E-003  -2.3175785319627107E-003   6.4274033317088627E-002
   7.5443421603423322E-003  -2.1732947757177046E-003   6.4687646490144884E-002
   4.5472295936544276E-003  -1.3758950104904299E-003   6.4909648449498397E-002
   4.3475495433299080E-003  -1.3034130784449621E-003   6.4765390507826912E-002
   4.1478694930053833E-003  -1.2310444974966417E-003   6.4823804773009877E-002
   3.9481894426808568E-003  -1.1587892676453021E-003   6.5084891245047155E-002
   3.7485093923563390E-003  -1.0866473888910266E-003   6.5548649923938856E-002
   2.7483224029900555E-012  -6.0458305028987525E-012   6.5461625365286658E-002
   1.9691817620959284E-012  -5.3185789106180437E-012   6.5385579224580437E-002
   1.1900376517548494E-012  -4.4124426334946065E-012   6.5506220976110530E-002
   4.1089701086072239E-013  -3.3276645328150778E-012   6.5823550619877047E-002
  -3.6824709948035661E-013  -2.0642376696855536E-012   6.6337568155879878E-002
   1.5277977822098582E-002  -4.3465895493710605E-003   6.2749384016998144E-002
   1.4390126144613075E-002  -4.0516360685094455E-003   6.2520741988502104E-002
   1.3502274467127595E-002  -3.7434572434535129E-003   6.2509170857090901E-002
   1.2614422789642095E-002  -3.4220530742032143E-003   6.2714670622764063E-002
   1.1726571112156609E-002  -3.0874235607587508E-003   6.3137241285521450E-002
   1.1387498303589733E-002  -3.2599421625445490E-003   6.3754557854497906E-002
   1.0717940528735953E-002  -3.0387270515959963E-003   6.3586034382944939E-002
   1.0048382753882146E-002  -2.8075929325731552E-003   6.3637027819570841E-002
   9.3788249790283454E-003  -2.5665398054767197E-003   6.3907538164375721E-002
   8.7092672041745450E-003  -2.3155676703061623E-003   6.4397565417359470E-002
   7.5443421603423322E-003  -2.1732947757177046E-003   6.4687646490144884E-002
   7.0955242992147213E-003  -2.0258180346822696E-003   6.4575935239414295E-002
   6.6467064380871174E-003  -1.8717286216931167E-003   6.4686186907957244E-002
   6.1978885769595014E-003  -1.7110265367499995E-003   6.5018401495773676E-002
   5.7490707158319027E-003  -1.5437117798535738E-003   6.5572579002863479E-002
   3.7485093923563390E-003  -1.0866473888910266E-003   6.5548649923938856E-002
   3.5228774560494142E-003  -1.0129090177684597E-003   6.5490444557910588E-002
   3.2972455197425015E-003  -9.3586431081280758E-004   6.5656648122250263E-002
   3.0716135834355858E-003  -8.5551326802350315E-004   6.6047260616957787E-002
   2.8459816471286641E-003  -7.7185588940098526E-004   6.6662282042033338E-002
  -3.6824709948035661E-013  -2.0642376696855536E-012   6.6337568155879878E-002
  -7.5997541593153528E-013  -8.5492724011260179E-013   6.6329562338433623E-002
  -1.1516967934888100E-012   6.7251759716668857E-014   6.6548411462449608E-002
  -1.5434181710460848E-012   7.0323608047928587E-013   6.6994115527928083E-002
  -1.9351464874972635E-012   1.0516032489249483E-012   6.7666674534869187E-002
   1.1726571112156609E-002  -3.0874235607587508E-003   6.3137241285521450E-002
   1.0765234055704259E-002  -2.7561350895268233E-003   6.3027703163891058E-002
   9.8038969992519237E-003  -2.4447540469153262E-003   6.3165317190980230E-002
   8.8425599427995674E-003  -2.1532804329227537E-003   6.3550083366788496E-002
   7.8812228863472111E-003  -1.8817142475501258E-003   6.4182001691316715E-002
   8.7092672041745450E-003  -2.3155676703061623E-003   6.4397565417359470E-002
   7.9933778253112181E-003  -2.0671013168470087E-003   6.4326011244179970E-002
   7.2774884464478704E-003  -1.8335655348840629E-003   6.4498200277458950E-002
   6.5615990675845157E-003  -1.6149603244178107E-003   6.4914132517196507E-002
   5.8457096887211818E-003  -1.4112856854483491E-003   6.5573807963392294E-002
   5.7490707158319027E-003  -1.5437117798535738E-003   6.5572579002863479E-002
   5.2752200722966242E-003  -1.3780675441667778E-003   6.5543985635257901E-002
   4.8013694287613491E-003  -1.2223770228534797E-003   6.5755726531849926E-002
   4.3275187852260758E-003  -1.0766402159132597E-003   6.6207801692639512E-002
   3.8536681416907956E-003  -9.4085712334662785E-004   6.6900211117626757E-002
   2.8459816471286641E-003  -7.7185588940098526E-004   6.6662282042033338E-002
   2.6107607966605294E-003  -6.8903377148686606E-004   6.6681626337125002E-002
   2.3755399461923817E-003  -6.1118851082244546E-004   6.6937895954153240E-002
   2.1403190957242362E-003  -5.3832010740873480E-004   6.7431090893118134E-002
   1.9050982452560993E-003  -4.7042856124504540E-004   6.8161211154019935E-002
  -1.9351464874972635E-012   1.0516032489249483E-012   6.7666674534869187E-002
  -1.5971043931806150E-012   1.1934342403208120E-012   6.7738933349781150E-002
  -1.2590484210761588E-012   1.2083112288507891E-012   6.8044708544368837E-002
  -9.2099591841865447E-013   1.0960538032733780E-012   6.8584000118632027E-002
  -5.8295035465505407E-013   8.5675910810323330E-013   6.9356808072571385E-002
   7.8812228863472111E-003  -1.8817142475501258E-003   6.4182001691316715E-002
   6.9492738986490221E-003  -1.6746487988150704E-003   6.4087876890304041E-002
   6.0173249109507915E-003  -1.5766773947355761E-003   6.4245289485593660E-002
   5.0853759232525816E-003  -1.5878000353121494E-003   6.4654239477186043E-002
   4.1534269355543718E-003  -1.7080167205434371E-003   6.5314726865080663E-002
   5.8457096887211818E-003  -1.4112856854483491E-003   6.5573807963392294E-002
   5.1606605599886085E-003  -1.2559865989650310E-003   6.5423059986572718E-002
   4.4756114312560144E-003  -1.1825080459575421E-003   6.5514574331381525E-002
   3.7905623025234307E-003  -1.1908500264257715E-003   6.5848350997819355E-002
   3.1055131737908470E-003  -1.2810125403702743E-003   6.6424389985885623E-002
   3.8536681416907956E-003  -9.4085712334662785E-004   6.6900211117626757E-002
   3.4062437972500331E-003  -8.3732439911476941E-004   6.6720113476179566E-002
   2.9588194528092533E-003  -7.8833869717916116E-004   6.6773003081687474E-002
   2.5113951083684787E-003  -7.9390001753994535E-004   6.7058879934149968E-002
   2.0639707639277111E-003  -8.5400836019688953E-004   6.7577744033567755E-002
   1.9050982452560993E-003  -4.7042856124504540E-004   6.8161211154019935E-002
   1.6860236104332960E-003  -4.1866219926456338E-004   6.7979037359124958E-002
   1.4669489756104917E-003  -3.9416934840078716E-004   6.8020575736511199E-002
   1.2478743407877018E-003  -3.9695000865395437E-004   6.8285826286178325E-002
   1.0287997059648980E-003  -4.2700418002372675E-004   6.8774789008126821E-002
  -5.8295035465505407E-013   8.5675910810323330E-013   6.9356808072571385E-002
  -4.6159603916962055E-013   5.8553162318730756E-013   6.9199831635408438E-002
  -3.4024866257809094E-013   3.7730929491885945E-013   6.9257292295852757E-002
  -2.1889261236918145E-013   2.3193946763200302E-013   6.9529190053904288E-002
  -9.7546970501127817E-014   1.4965806371947110E-013   7.0015524909562976E-002
   4.1534269355543718E-003  -1.7080167205434371E-003   6.5314726865080663E-002
   3.6240257235948398E-003  -1.9993686757946438E-003   6.4400508702513681E-002
   3.0946245116353077E-003  -2.5238971264299748E-003   6.3604693114762856E-002
   2.5652232996757757E-003  -3.2816020724486805E-003   6.2927280101828353E-002
   2.0358220877162436E-003  -4.2724835138510109E-003   6.2368269663710008E-002
   3.1055131737908470E-003  -1.2810125403702743E-003   6.6424389985885623E-002
   2.6980014686927428E-003  -1.4995265068219465E-003   6.5316000673802943E-002
   2.2904897635946456E-003  -1.8929228448119895E-003   6.4332987800626684E-002
   1.8829780584965518E-003  -2.4612015543403407E-003   6.3475351366357124E-002
   1.4754663533984441E-003  -3.2043626354074650E-003   6.2743091370993986E-002
   2.0639707639277111E-003  -8.5400836019688953E-004   6.7577744033567755E-002
   1.7853224297813032E-003  -9.9968433784869415E-004   6.6333477695814408E-002
   1.5066740956348953E-003  -1.2619485631937821E-003   6.5221561661058219E-002
   1.2280257614884806E-003  -1.6408010362321118E-003   6.4241995929298717E-002
   9.4937742734207964E-004  -2.1362417569636971E-003   6.3394780500536041E-002
   1.0287997059648980E-003  -4.2700418002372675E-004   6.8774789008126821E-002
   8.8598860686046454E-004  -4.9984216887566379E-004   6.7452939768548381E-002
   7.4317750775601717E-004  -6.3097428157574131E-004   6.6270414696057295E-002
   6.0036640865158020E-004  -8.2040051812382747E-004   6.5227213790652966E-002
   4.5755530954713630E-004  -1.0681208785200402E-003   6.4323337052336158E-002
  -9.7546970501127817E-014   1.4965806371947110E-013   7.0015524909562976E-002
  -6.9749761522075460E-014   9.7311048108394971E-014   6.8674386892004780E-002
  -4.1952552543023103E-014   4.2327252813834093E-014   6.7479546905623855E-002
  -1.4150139393542815E-014  -1.5341894421538882E-014   6.6431004950420341E-002
   1.3641865415081611E-014  -7.6272321791748254E-014   6.5528761026394045E-002
   2.0358220877162436E-003  -4.2724835138510109E-003   6.2368269663710008E-002
   2.2857709586656255E-003  -5.5760009284668843E-003   5.8337579132470840E-002
   2.5357198296150074E-003  -7.2716137941247205E-003   5.4301874575139908E-002
   2.7856687005644032E-003  -9.3593221108259766E-003   5.0261155991717044E-002
   3.0356175715137712E-003  -1.1839125878569057E-002   4.6215423382202303E-002
   1.4754663533984441E-003  -3.2043626354074650E-003   6.2743091370993986E-002
   1.7060329003456831E-003  -4.1820006963835255E-003   5.8389215830445096E-002
   1.9365994472929152E-003  -5.4537103456395730E-003   5.4001589667983407E-002
   2.1671659942401403E-003  -7.0194915831753302E-003   4.9580212883609920E-002
   2.3977325411873585E-003  -8.8793444089905194E-003   4.5125085477323745E-002
   9.4937742734207964E-004  -2.1362417569636971E-003   6.3394780500536041E-002
   1.1318250544666737E-003  -2.7880004643002776E-003   5.8815743813439791E-002
   1.3142726815912678E-003  -3.6358068971538426E-003   5.4174219908610599E-002
   1.4967203087158654E-003  -4.6796610555244547E-003   4.9470208786048742E-002
   1.6791679358404560E-003  -5.9195629394117599E-003   4.4703710445753497E-002
   4.5755530954713630E-004  -1.0681208785200402E-003   6.4323337052336158E-002
   5.6314742102861904E-004  -1.3940002322168632E-003   5.9617163081455565E-002
   6.6873953251010872E-004  -1.8179034486682927E-003   5.4819765297021865E-002
   7.7433164399158885E-004  -2.3398305278735827E-003   4.9931143699034189E-002
   8.7992375547305338E-004  -2.9597814698331115E-003   4.4951298287494085E-002
   1.3641865415081611E-014  -7.6272321791748254E-014   6.5528761026394045E-002
   3.1516456111546631E-014  -1.3378187446733136E-013   6.0793473634492279E-002
   4.9397985701915559E-014  -1.8293699888261017E-013   5.5938225833216448E-002
   6.7277780568808510E-014  -2.2303686675329004E-013   5.0963017622566859E-002
   8.5154105988749507E-014  -2.5446311724408588E-013   4.5867849002542815E-002
   6.3019034435285448E-013   3.8977487903935071E-011   6.0523860847611799E-002
   1.6425402704633996E-012   2.2849278025205422E-011   6.1446380832205161E-002
   2.6548624409983290E-012   1.0603337652348443E-011   6.2349012586875446E-002
   3.6672071629384462E-012   2.2397049492806076E-012   6.3231756111622864E-002
   4.6795414765377075E-012  -2.2415957978694223E-012   6.4094611406447177E-002
  -5.2610343782643551E-003   1.8465905559295615E-003   6.2017221615069146E-002
  -5.2341985553594240E-003   1.7913630762430854E-003   6.2421779836489721E-002
  -5.2073627324544930E-003   1.7365776378435310E-003   6.2899897931618529E-002
  -5.1805269095495619E-003   1.6822342407311584E-003   6.3451575900455498E-002
  -5.1536910866446378E-003   1.6283328849058809E-003   6.4076813743000699E-002
  -1.1086975594731872E-002   3.6931810728816905E-003   6.3455133900265678E-002
  -1.0939855846303186E-002   3.5827261296367680E-003   6.3342172395918314E-002
  -1.0792736097874484E-002   3.4731552650837036E-003   6.3396218868910420E-002
  -1.0645616349445790E-002   3.3644684792225304E-003   6.3617273319241829E-002
  -1.0498496601017097E-002   3.2566657720532743E-003   6.4005335746912598E-002
  -1.7477823648772380E-002   5.5397715898337779E-003   6.4837597703201535E-002
  -1.7116971871188751E-002   5.3740891830304990E-003   6.4207558510491050E-002
  -1.6756120093605106E-002   5.2097328923239143E-003   6.3837975398751162E-002
  -1.6395268316021470E-002   5.0467027177139986E-003   6.3728848367981789E-002
  -1.6034416538437839E-002   4.8849986592006539E-003   6.3880177418182887E-002
  -2.4433578540385865E-002   7.3863621067858931E-003   6.6164613023876495E-002
  -2.3765546630016107E-002   7.1654522364243134E-003   6.5017938180207735E-002
  -2.3097514719646366E-002   6.9463105195641112E-003   6.4225167521140686E-002
  -2.2429482809276619E-002   6.7289369562053107E-003   6.3786301046675278E-002
  -2.1761450898906860E-002   6.5133315463481445E-003   6.3701338756811665E-002
   4.6795414765377075E-012  -2.2415957978694223E-012   6.4094611406447177E-002
   4.1967401775977464E-012  -4.3845482800008995E-012   6.4231414418996824E-002
   3.7139319397638815E-012  -5.7327337321666505E-012   6.4504851082986592E-002
   3.2311237019300165E-012  -6.2867176742198438E-012   6.4914921398416606E-002
   2.7483224029900555E-012  -6.0458305028987525E-012   6.5461625365286658E-002
  -5.1536910866446378E-003   1.6283328849058809E-003   6.4076813743000699E-002
  -5.0020757122040734E-003   1.5722952657832440E-003   6.4035126772441733E-002
  -4.8504603377634969E-003   1.5115430787792511E-003   6.4160036900289541E-002
  -4.6988449633229307E-003   1.4460763238937600E-003   6.4451544126543844E-002
  -4.5472295888823559E-003   1.3758950011267812E-003   6.4909648451204893E-002
  -1.0498496601017097E-002   3.2566657720532743E-003   6.4005335746912598E-002
  -1.0165302404686709E-002   3.1445905359510362E-003   6.3780444224569147E-002
  -9.8321082083563070E-003   3.0230861632913955E-003   6.3752113247598691E-002
  -9.4989140120259226E-003   2.8921526540741805E-003   6.3920342816001438E-002
  -9.1657198156955243E-003   2.7517900082993929E-003   6.4285132929777083E-002
  -1.6034416538437839E-002   4.8849986592006539E-003   6.3880177418182887E-002
  -1.5489680073251173E-002   4.7168858061187452E-003   6.3467366775378911E-002
  -1.4944943608064504E-002   4.5346292478035712E-003   6.3281080124914332E-002
  -1.4400207142877840E-002   4.3382289842544631E-003   6.3321317466789193E-002
  -1.3855470677691165E-002   4.1276850154720046E-003   6.3588078801003589E-002
  -2.1761450898906860E-002   6.5133315463481445E-003   6.3701338756811665E-002
  -2.0975208717897473E-002   6.2891810762866485E-003   6.3095894424870902E-002
  -2.0188966536888075E-002   6.0461723323155248E-003   6.2746937532236147E-002
  -1.9402724355878698E-002   5.7843053144349954E-003   6.2654468078907288E-002
  -1.8616482174869296E-002   5.5035800226446718E-003   6.2818486064884382E-002
   2.7483224029900555E-012  -6.0458305028987525E-012   6.5461625365286658E-002
   1.9691817620959284E-012  -5.3185789106180437E-012   6.5385579224580437E-002
   1.1900376517548494E-012  -4.4124426334946065E-012   6.5506220976110530E-002
   4.1089701086072239E-013  -3.3276645328150778E-012   6.5823550619877047E-002
  -3.6824709948035661E-013  -2.0642376696855536E-012   6.6337568155879878E-002
  -4.5472295888823559E-003   1.3758950011267812E-003   6.4909648451204893E-002
  -4.3475495399602007E-003   1.3034130701274627E-003   6.4765390508578768E-002
  -4.1478694910380386E-003   1.2310444905449247E-003   6.4823804773118832E-002
  -3.9481894421158764E-003   1.1587892623794796E-003   6.5084891244825166E-002
  -3.7485093931937212E-003   1.0866473856306347E-003   6.5548649923697688E-002
  -9.1657198156955243E-003   2.7517900082993929E-003   6.4285132929777083E-002
  -8.7603754021422370E-003   2.6068261455734210E-003   6.4072776536469395E-002
  -8.3550309885889480E-003   2.4620889855023892E-003   6.4069076665257740E-002
  -7.9496865750356659E-003   2.3175785280865092E-003   6.4274033316142148E-002
  -7.5443421614823716E-003   2.1732947733255625E-003   6.4687646489122563E-002
  -1.3855470677691165E-002   4.1276850154720046E-003   6.3588078801003589E-002
  -1.3238477584576946E-002   3.9102392210192544E-003   6.3307737308252537E-002
  -1.2621484491462713E-002   3.6931334804598606E-003   6.3242036652527311E-002
  -1.2004491398348485E-002   3.4763677937935961E-003   6.3390976833827911E-002
  -1.1387498305234252E-002   3.2599421610204626E-003   6.3754557852154281E-002
  -1.8616482174869296E-002   5.5035800226446718E-003   6.2818486064884382E-002
  -1.7781856087264295E-002   5.2136522964654208E-003   6.2470272823928030E-002
  -1.6947229999659315E-002   4.9241779754173320E-003   6.2342684734927295E-002
  -1.6112603912054317E-002   4.6351570595007940E-003   6.2435721797882232E-002
  -1.5277977824449326E-002   4.3465895487154182E-003   6.2749384012792897E-002
  -3.6824709948035661E-013  -2.0642376696855536E-012   6.6337568155879878E-002
  -7.5997541593153528E-013  -8.5492724011260179E-013   6.6329562338433623E-002
  -1.1516967934888100E-012   6.7251759716668857E-014   6.6548411462449608E-002
  -1.5434181710460848E-012   7.0323608047928587E-013   6.6994115527928083E-002
  -1.9351464874972635E-012   1.0516032489249483E-012   6.7666674534869187E-002
  -3.7485093931937212E-003   1.0866473856306347E-003   6.5548649923697688E-002
  -3.5228774575735908E-003   1.0129090164373300E-003   6.5490444557041089E-002
  -3.2972455219534604E-003   9.3586431093756195E-004   6.5656648120945654E-002
  -3.0716135863333308E-003   8.5551326913187176E-004   6.6047260615411399E-002
  -2.8459816507131995E-003   7.7185589101963492E-004   6.6662282040438670E-002
  -7.5443421614823716E-003   2.1732947733255625E-003   6.4687646489122563E-002
  -7.0955243007515753E-003   2.0258180337294485E-003   6.4575935237236148E-002
  -6.6467064400207781E-003   1.8717286218077195E-003   6.4686186905009782E-002
  -6.1978885792899809E-003   1.7110265375605109E-003   6.5018401492443728E-002
  -5.7490707185591846E-003   1.5437117809875556E-003   6.5572578999537445E-002
  -1.1387498305234252E-002   3.2599421610204626E-003   6.3754557852154281E-002
  -1.0717940530293950E-002   3.0387270510215808E-003   6.3586034379018927E-002
  -1.0048382755353661E-002   2.8075929326777868E-003   6.3637027814642366E-002
  -9.3788249804133660E-003   2.5665398059890373E-003   6.3907538159024738E-002
  -8.7092672054730636E-003   2.3155676709555317E-003   6.4397565412166055E-002
  -1.5277977824449326E-002   4.3465895487154182E-003   6.2749384012792897E-002
  -1.4390126146200707E-002   4.0516360683138242E-003   6.2520741982389105E-002
  -1.3502274467952099E-002   3.7434572435479790E-003   6.2509170849843060E-002
  -1.2614422789703485E-002   3.4220530744179835E-003   6.2714670615154802E-002
  -1.1726571111454871E-002   3.0874235609233969E-003   6.3137241278324097E-002
  -1.9351464874972635E-012   1.0516032489249483E-012   6.7666674534869187E-002
  -1.5971043931806150E-012   1.1934342403208120E-012   6.7738933349781150E-002
  -1.2590484210761588E-012   1.2083112288507891E-012   6.8044708544368837E-002
  -9.2099591841865447E-013   1.0960538032733780E-012   6.8584000118632027E-002
  -5.8295035465505407E-013   8.5675910810323330E-013   6.9356808072571385E-002
  -2.8459816507131995E-003   7.7185589101963492E-004   6.6662282040438670E-002
  -2.6107607996194888E-003   6.8903377329049276E-004   6.6681626335835020E-002
  -2.3755399485257608E-003   6.1118851263321228E-004   6.6937895953067122E-002
  -2.1403190974320415E-003   5.3832010904808839E-004   6.7431090892134851E-002
  -1.9050982463383222E-003   4.7042856253454168E-004   6.8161211153037971E-002
  -5.7490707185591846E-003   1.5437117809875556E-003   6.5572578999537445E-002
  -5.2752200745498842E-003   1.3780675453874680E-003   6.5543985632617499E-002
  -4.8013694305405899E-003   1.2223770240582243E-003   6.5755726529692832E-002
  -4.3275187865312930E-003   1.0766402169996234E-003   6.6207801690763887E-002
  -3.8536681425219814E-003   9.4085712421204670E-004   6.6900211115830333E-002
  -8.7092672054730636E-003   2.3155676709555317E-003   6.4397565412166055E-002
  -7.9933778263882992E-003   2.0671013174841518E-003   6.4326011240128350E-002
  -7.2774884473035244E-003   1.8335655354830144E-003   6.4498200274246131E-002
  -6.5615990682187549E-003   1.6149603249515192E-003   6.4914132514519177E-002
  -5.8457096891339861E-003   1.4112856858896905E-003   6.5573807960947875E-002
  -1.1726571111454871E-002   3.0874235609233969E-003   6.3137241278324097E-002
  -1.0765234055134736E-002   2.7561350895815018E-003   6.3027703158367865E-002
  -9.8038969988145756E-003   2.4447540469080820E-003   6.3165317186726688E-002
  -8.8425599424944174E-003   2.1532804329032901E-003   6.3550083363400928E-002
  -7.8812228861742800E-003   1.8817142475673343E-003   6.4182001688390500E-002
  -5.8295035465505407E-013   8.5675910810323330E-013   6.9356808072571385E-002
  -4.6159603916962055E-013   5.8553162318730756E-013   6.9199831635408438E-002
  -3.4024866257809094E-013   3.7730929491885945E-013   6.9257292295852757E-002
  -2.1889261236918145E-013   2.3193946763200302E-013   6.9529190053904288E-002
  -9.7546970501127817E-014   1.4965806371947110E-013   7.0015524909562976E-002
  -1.9050982463383222E-003   4.7042856253454168E-004   6.8161211153037971E-002
  -1.6860236112887644E-003   4.1866220015823741E-004   6.7979037358400607E-002
  -1.4669489762392084E-003   3.9416934898400813E-004   6.8020575736011890E-002
  -1.2478743411896516E-003   3.9695000901206201E-004   6.8285826285872570E-002
  -1.0287997061400947E-003   4.2700418024221864E-004   6.8774789007982562E-002
  -3.8536681425219814E-003   9.4085712421204670E-004   6.6900211115830333E-002
  -3.4062437979022909E-003   8.3732439973061012E-004   6.6720113474857123E-002
  -2.9588194532825865E-003   7.8833869759067920E-004   6.6773003080774967E-002
  -2.5113951086628886E-003   7.9390001779195557E-004   6.7058879933584031E-002
  -2.0639707640431777E-003   8.5400836033466820E-004   6.7577744033284010E-002
  -5.8457096891339861E-003   1.4112856858896905E-003   6.5573807960947875E-002
  -5.1606605603022014E-003   1.2559865993031494E-003   6.5423059984778195E-002
  -4.4756114314703967E-003   1.1825080461973642E-003   6.5514574330141767E-002
  -3.7905623026386051E-003   1.1908500265718526E-003   6.5848350997038160E-002
  -3.1055131738068073E-003   1.2810125404270067E-003   6.6424389985467847E-002
  -7.8812228861742800E-003   1.8817142475673343E-003   6.4182001688390500E-002
  -6.9492738984884561E-003   1.6746487988756886E-003   6.4087876888163864E-002
  -6.0173249108026253E-003   1.5766773948040769E-003   6.4245289484112178E-002
  -5.0853759231168014E-003   1.5878000353521451E-003   6.4654239476235331E-002
  -4.1534269354309705E-003   1.7080167205196783E-003   6.5314726864533657E-002
  -9.7546970501127817E-014   1.4965806371947110E-013   7.0015524909562976E-002
  -6.9749761522075460E-014   9.7311048108394971E-014   6.8674386892004780E-002
  -4.1952552543023103E-014   4.2327252813834093E-014   6.7479546905623855E-002
  -1.4150139393542815E-014  -1.5341894421538882E-014   6.6431004950420341E-002
   1.3641865415081611E-014  -7.6272321791748254E-014   6.5528761026394045E-002
  -1.0287997061400947E-003   4.2700418024221864E-004   6.8774789007982562E-002
  -8.8598860698354057E-004   4.9984216899695566E-004   6.7452939768436915E-002
  -7.4317750782698644E-004   6.3097428159791802E-004   6.6270414695971419E-002
  -6.0036640867042711E-004   8.2040051804486980E-004   6.5227213790585978E-002
  -4.5755530951386431E-004   1.0681208783386298E-003   6.4323337052280993E-002
  -2.0639707640431777E-003   8.5400836033466820E-004   6.7577744033284010E-002
  -1.7853224298550966E-003   9.9968433789612843E-004   6.6333477695600412E-002
  -1.5066740956670242E-003   1.2619485631528288E-003   6.5221561660899499E-002
  -1.2280257614789504E-003   1.6408010361054111E-003   6.4241995929181700E-002
  -9.4937742729087060E-004   2.1362417567534764E-003   6.3394780500446696E-002
  -3.1055131738068073E-003   1.2810125404270067E-003   6.6424389985467847E-002
  -2.6980014686844361E-003   1.4995265067953151E-003   6.5316000673495245E-002
  -2.2904897635620644E-003   1.8929228447078020E-003   6.4332987800408192E-002
  -1.8829780584396823E-003   2.4612015541655655E-003   6.3475351366206870E-002
  -1.4754663533173215E-003   3.2043626351683507E-003   6.2743091370891096E-002
  -4.1534269354309705E-003   1.7080167205196783E-003   6.5314726864533657E-002
  -3.6240257234715564E-003   1.9993686756946683E-003   6.4400508702121328E-002
  -3.0946245115121077E-003   2.5238971262633580E-003   6.3604693114497290E-002
  -2.5652232995526832E-003   3.2816020722260600E-003   6.2927280101661903E-002
  -2.0358220875932448E-003   4.2724835135831141E-003   6.2368269663614861E-002
   1.3641865415081611E-014  -7.6272321791748254E-014   6.5528761026394045E-002
   3.1516456111546631E-014  -1.3378187446733136E-013   6.0793473634492279E-002
   4.9397985701915559E-014  -1.8293699888261017E-013   5.5938225833216448E-002
   6.7277780568808510E-014  -2.2303686675329004E-013   5.0963017622566859E-002
   8.5154105988749507E-014  -2.5446311724408588E-013   4.5867849002542815E-002
  -4.5755530951386431E-004   1.0681208783386298E-003   6.4323337052280993E-002
  -5.6314742096150866E-004   1.3940002319372535E-003   5.9617163081423841E-002
  -6.6873953240914608E-004   1.8179034482986023E-003   5.4819765297009437E-002
  -7.7433164385679390E-004   2.3398305274239875E-003   4.9931143699037644E-002
  -8.7992375530440009E-004   2.9597814693120839E-003   4.4951298287509323E-002
  -9.4937742729087060E-004   2.1362417567534764E-003   6.3394780500446696E-002
  -1.1318250543873518E-003   2.7880004640083444E-003   5.8815743813388693E-002
  -1.3142726814838468E-003   3.6358068967805718E-003   5.4174219908590213E-002
  -1.4967203085803423E-003   4.6796610550707309E-003   4.9470208786051136E-002
  -1.6791679356768230E-003   5.9195629388786308E-003   4.4703710445771927E-002
  -1.4754663533173215E-003   3.2043626351683507E-003   6.2743091370891096E-002
  -1.7060329002459990E-003   4.1820006960792966E-003   5.8389215830387163E-002
  -1.9365994471746972E-003   5.4537103452623262E-003   5.4001589667959246E-002
  -2.1671659941033782E-003   7.0194915827179478E-003   4.9580212883607172E-002
  -2.3977325410320591E-003   8.8793444084452888E-003   4.5125085477331656E-002
  -2.0358220875932448E-003   4.2724835135831141E-003   6.2368269663614861E-002
  -2.2857709585374780E-003   5.5760009281503597E-003   5.8337579132419104E-002
  -2.5357198294817043E-003   7.2716137937441083E-003   5.4301874575115650E-002
  -2.7856687004259618E-003   9.3593221103645610E-003   5.0261155991705858E-002
  -3.0356175713701639E-003   1.1839125878011725E-002   4.6215423382188536E-002
  -2.4433578540385865E-002   7.3863621067858931E-003   6.6164613023876495E-002
  -2.3765546630016107E-002   7.1654522364243134E-003   6.5017938180207735E-002
  -2.3097514719646366E-002   6.9463105195641112E-003   6.4225167521140686E-002
  -2.2429482809276619E-002   6.7289369562053107E-003   6.3786301046675278E-002
  -2.1761450898906860E-002   6.5133315463481445E-003   6.3701338756811665E-002
  -3.1505334030446822E-002   9.1845199391855648E-003   6.1651579797046968E-002
  -3.0508164596210238E-002   8.9627682439782086E-003   6.0804081372548807E-002
  -2.9510995161973627E-002   8.7213232737243795E-003   6.0260953811182669E-002
  -2.8513825727737023E-002   8.4601850284240707E-003   6.0022197112948532E-002
  -2.7516656293500440E-002   8.1793535080773028E-003   6.0087811277846348E-002
  -3.8244183879829884E-002   1.0982677771585209E-002   5.7148435459645805E-002
  -3.6967410243196080E-002   1.0760084251532145E-002   5.6578652025770143E-002
  -3.5690636606562312E-002   1.0496336027884655E-002   5.6263706133556989E-002
  -3.4413862969928516E-002   1.0191433100642721E-002   5.6203597783006140E-002
  -3.3137089333294741E-002   9.8453754698064611E-003   5.6398326974117549E-002
  -4.4650128088534878E-002   1.2780835603984866E-002   5.2655180011672645E-002
  -4.3143283570973669E-002   1.2557400259086117E-002   5.2341650139871902E-002
  -4.1636439053412334E-002   1.2271348782044899E-002   5.2233424488263701E-002
  -4.0129594535851097E-002   1.1922681172861400E-002   5.2330503056848242E-002
  -3.8622750018289860E-002   1.1511397431535647E-002   5.2632885845625421E-002
  -5.0723166656561985E-002   1.4578993436384524E-002   4.8171813453127765E-002
  -4.9035784579542940E-002   1.4354716266640088E-002   4.8093075714853828E-002
  -4.7348402502523826E-002   1.4046361536205157E-002   4.8170108875302847E-002
  -4.5661020425504760E-002   1.3653929245080024E-002   4.8402912934474782E-002
  -4.3973638348485694E-002   1.3177419393264833E-002   4.8791487892369811E-002
  -2.1761450898906860E-002   6.5133315463481445E-003   6.3701338756811665E-002
  -2.0975208717897473E-002   6.2891810762866485E-003   6.3095894424870902E-002
  -2.0188966536888075E-002   6.0461723323155248E-003   6.2746937532236147E-002
  -1.9402724355878698E-002   5.7843053144349954E-003   6.2654468078907288E-002
  -1.8616482174869296E-002   5.5035800226446718E-003   6.2818486064884382E-002
  -2.7516656293500440E-002   8.1793535080773028E-003   6.0087811277846348E-002
  -2.6486761892681229E-002   7.8824697960275525E-003   5.9588669390074178E-002
  -2.5456867491862063E-002   7.5731749756184075E-003   5.9320344502615655E-002
  -2.4426973091042914E-002   7.2514690468497775E-003   5.9282836615470659E-002
  -2.3397078690223717E-002   6.9173520097218222E-003   5.9476145728639462E-002
  -3.3137089333294741E-002   9.8453754698064611E-003   5.6398326974117549E-002
  -3.1889213151658123E-002   9.4757585157683871E-003   5.6011934696064164E-002
  -3.0641336970021502E-002   9.1001776189210126E-003   5.5830688979332035E-002
  -2.9393460788384871E-002   8.7186327792645041E-003   5.5854589823921191E-002
  -2.8145584606748254E-002   8.3311239967987227E-003   5.6083637229831645E-002
  -3.8622750018289860E-002   1.1511397431535647E-002   5.2632885845625421E-002
  -3.7182562494828097E-002   1.1069047235509090E-002   5.2365690342841019E-002
  -3.5742374971366349E-002   1.0627180262223701E-002   5.2277970962385518E-002
  -3.4302187447904635E-002   1.0185796511679314E-002   5.2369727704258941E-002
  -3.2861999924442858E-002   9.7448959838758037E-003   5.2640960568461417E-002
  -4.3973638348485694E-002   1.3177419393264833E-002   4.8791487892369811E-002
  -4.2366809922191162E-002   1.2662335955250126E-002   4.8649936330404486E-002
  -4.0759981495896658E-002   1.2154182905526487E-002   4.8662190451775861E-002
  -3.9153153069602153E-002   1.1652960244094037E-002   4.8828250256483810E-002
  -3.7546324643307621E-002   1.1158667970952718E-002   4.9148115744528376E-002
  -1.8616482174869296E-002   5.5035800226446718E-003   6.2818486064884382E-002
  -1.7781856087264295E-002   5.2136522964654208E-003   6.2470272823928030E-002
  -1.6947229999659315E-002   4.9241779754173320E-003   6.2342684734927295E-002
  -1.6112603912054317E-002   4.6351570595007940E-003   6.2435721797882232E-002
  -1.5277977824449326E-002   4.3465895487154182E-003   6.2749384012792897E-002
  -2.3397078690223717E-002   6.9173520097218222E-003   5.9476145728639462E-002
  -2.2346749822546259E-002   6.5744691796424393E-003   5.9152767178423660E-002
  -2.1296420954868840E-002   6.2264658720198041E-003   5.9040169036397167E-002
  -2.0246092087191414E-002   5.8733420868538611E-003   5.9138351302559844E-002
  -1.9195763219513967E-002   5.5150978241446103E-003   5.9447313976911775E-002
  -2.8145584606748254E-002   8.3311239967987227E-003   5.6083637229831645E-002
  -2.6889397702764856E-002   7.9352860628194022E-003   5.5779519487681936E-002
  -2.5633210798781399E-002   7.5287537686222206E-003   5.5676337409955035E-002
  -2.4377023894797983E-002   7.1115271142068726E-003   5.5774090996650955E-002
  -2.3120836990814568E-002   6.6836060995736635E-003   5.6072780247769502E-002
  -3.2861999924442858E-002   9.7448959838758037E-003   5.2640960568461417E-002
  -3.1409799727919949E-002   9.2961029459964206E-003   5.2350529751703026E-002
  -2.9957599531396983E-002   8.8310416652246648E-003   5.2251189855600996E-002
  -2.8505399334874039E-002   8.3497121415600228E-003   5.2342940880155217E-002
  -2.7053199138351105E-002   7.8521143750027306E-003   5.2625782825365730E-002
  -3.7546324643307621E-002   1.1158667970952718E-002   4.9148115744528376E-002
  -3.5907955898011615E-002   1.0656919829173411E-002   4.8865797970486624E-002
  -3.4269587152715608E-002   1.0133329561827026E-002   4.8764726373334816E-002
  -3.2631218407419595E-002   9.5878971689129303E-003   4.8844900953072812E-002
  -3.0992849662123595E-002   9.0206226504318532E-003   4.9106321709700695E-002
  -1.5277977824449326E-002   4.3465895487154182E-003   6.2749384012792897E-002
  -1.4390126146200707E-002   4.0516360683138242E-003   6.2520741982389105E-002
  -1.3502274467952099E-002   3.7434572435479790E-003   6.2509170849843060E-002
  -1.2614422789703485E-002   3.4220530744179835E-003   6.2714670615154802E-002
  -1.1726571111454871E-002   3.0874235609233969E-003   6.3137241278324097E-002
  -1.9195763219513967E-002   5.5150978241446103E-003   5.9447313976911775E-002
  -1.8094670182371684E-002   5.1492411704585905E-003   5.9195889206920843E-002
  -1.6993577145229442E-002   4.7732802123626045E-003   5.9153876256859472E-002
  -1.5892484108087166E-002   4.3872149498562323E-003   5.9321275126727691E-002
  -1.4791391070944886E-002   3.9910453829400949E-003   5.9698085816525470E-002
  -2.3120836990814568E-002   6.6836060995736635E-003   5.6072780247769502E-002
  -2.1814161672706778E-002   6.2468462726034124E-003   5.5801693778145381E-002
  -2.0507486354598977E-002   5.8031031811770564E-003   5.5732360050522838E-002
  -1.9200811036491187E-002   5.3523768252947568E-003   5.5864779064901615E-002
  -1.7894135718383414E-002   4.8946672049565154E-003   5.6198950821281984E-002
  -2.7053199138351105E-002   7.8521143750027306E-003   5.2625782825365730E-002
  -2.5548600617205909E-002   7.3444513747480955E-003   5.2338155696062746E-002
  -2.4044002096060783E-002   6.8329261499917616E-003   5.2244622230832927E-002
  -2.2539403574915618E-002   6.3175387007334211E-003   5.2345182429676437E-002
  -2.1034805053770457E-002   5.7982890269730192E-003   5.2639836292593292E-002
  -3.0992849662123595E-002   9.0206226504318532E-003   4.9106321709700695E-002
  -2.9297987015869179E-002   8.4420564768928896E-003   4.8805274960672829E-002
  -2.7603124369614776E-002   7.8627491188062032E-003   4.8690662797789969E-002
  -2.5908261723360380E-002   7.2827005761717141E-003   4.8762485221052240E-002
  -2.4213399077105957E-002   6.7019108489896340E-003   4.9020742230459935E-002
  -1.1726571111454871E-002   3.0874235609233969E-003   6.3137241278324097E-002
  -1.0765234055134736E-002   2.7561350895815018E-003   6.3027703158367865E-002
  -9.8038969988145756E-003   2.4447540469080820E-003   6.3165317186726688E-002
  -8.8425599424944174E-003   2.1532804329032901E-003   6.3550083363400928E-002
  -7.8812228861742800E-003   1.8817142475673343E-003   6.4182001688390500E-002
  -1.4791391070944886E-002   3.9910453829400949E-003   5.9698085816525470E-002
  -1.3593004527592586E-002   3.5956833921694242E-003   5.9556333790022675E-002
  -1.2394617984240268E-002   3.2120408581010756E-003   5.9641528589268966E-002
  -1.1196231440887969E-002   2.8401177807344143E-003   5.9953670214264454E-002
  -9.9978448975356488E-003   2.4799141600699848E-003   6.0492758665008584E-002
  -1.7894135718383414E-002   4.8946672049565154E-003   5.6198950821281984E-002
  -1.6478905010565280E-002   4.4352316947577908E-003   5.6016796916266112E-002
  -1.5063674302747139E-002   3.9793276692941804E-003   5.6041384514432996E-002
  -1.3648443594929012E-002   3.5269551285658715E-003   5.6272713615782524E-002
  -1.2233212887110861E-002   3.0781140725727463E-003   5.6710784220314697E-002
  -2.1034805053770457E-002   5.7982890269730192E-003   5.2639836292593292E-002
  -1.9422935504052816E-002   5.2747799973460463E-003   5.2409092537097773E-002
  -1.7811065954335195E-002   4.7466144804873406E-003   5.2364884962218312E-002
  -1.6199196404617575E-002   4.2137924763971622E-003   5.2507213567955360E-002
  -1.4587326854899937E-002   3.6763139850755078E-003   5.2836078354308737E-002
  -2.4213399077105957E-002   6.7019108489896340E-003   4.9020742230459935E-002
  -2.2425096008055201E-002   6.1143282999342463E-003   4.8733220652517673E-002
  -2.0636792939004417E-002   5.5139012916803065E-003   4.8612029932625367E-002
  -1.8848489869953633E-002   4.9006298242285709E-003   4.8657170070783157E-002
  -1.7060186800902877E-002   4.2745138975781583E-003   4.8868641066990848E-002
  -7.8812228861742800E-003   1.8817142475673343E-003   6.4182001688390500E-002
  -6.9492738984884561E-003   1.6746487988756886E-003   6.4087876888163864E-002
  -6.0173249108026253E-003   1.5766773948040769E-003   6.4245289484112178E-002
  -5.0853759231168014E-003   1.5878000353521451E-003   6.4654239476235331E-002
  -4.1534269354309705E-003   1.7080167205196783E-003   6.5314726864533657E-002
  -9.9978448975356488E-003   2.4799141600699848E-003   6.0492758665008584E-002
  -8.8140340059493887E-003   2.1815057054522247E-003   6.0390694854298876E-002
  -7.6302231143631112E-003   1.9949681262252106E-003   6.0540817455215223E-002
  -6.4464122227768251E-003   1.9203014223896572E-003   6.0943126467757486E-002
  -5.2626013311905424E-003   1.9575055939453634E-003   6.1597621891925358E-002
  -1.2233212887110861E-002   3.0781140725727463E-003   5.6710784220314697E-002
  -1.0796891076173300E-002   2.6883626120284276E-003   5.6603558229893464E-002
  -9.3605692652356919E-003   2.4132588576468855E-003   5.6749167666548986E-002
  -7.9242474542980928E-003   2.2528028094276099E-003   5.7147612530281340E-002
  -6.4879256433605231E-003   2.2069944673709374E-003   5.7798892821090270E-002
  -1.4587326854899937E-002   3.6763139850755078E-003   5.2836078354308737E-002
  -1.2897845109160146E-002   3.1952195186050747E-003   5.2726467014947313E-002
  -1.1208363363420341E-002   2.8315495890682899E-003   5.2870340118113632E-002
  -9.5188816176805299E-003   2.5853041964655644E-003   5.3267697663807692E-002
  -7.8293998719407461E-003   2.4564833407965114E-003   5.3918539652028967E-002
  -1.7060186800902877E-002   4.2745138975781583E-003   4.8868641066990848E-002
  -1.5116896104910002E-002   3.7020764251811666E-003   4.8759421209460641E-002
  -1.3173605408917100E-002   3.2498403204897774E-003   4.8904334809908856E-002
  -1.1230314712924239E-002   2.9178055835031511E-003   4.9303381868335661E-002
  -9.2870240169313223E-003   2.7059722142221965E-003   4.9956562384740999E-002
  -4.1534269354309705E-003   1.7080167205196783E-003   6.5314726864533657E-002
  -3.6240257234715564E-003   1.9993686756946683E-003   6.4400508702121328E-002
  -3.0946245115121077E-003   2.5238971262633580E-003   6.3604693114497290E-002
  -2.5652232995526832E-003   3.2816020722260600E-003   6.2927280101661903E-002
  -2.0358220875932448E-003   4.2724835135831141E-003   6.2368269663614861E-002
  -5.2626013311905424E-003   1.9575055939453634E-003   6.1597621891925358E-002
  -4.5886834357819310E-003   2.2137943198083931E-003   6.0873105286072149E-002
  -3.9147655403733213E-003   2.7963812788941722E-003   6.0319219472328905E-002
  -3.2408476449646830E-003   3.7052664712042618E-003   5.9935964450695531E-002
  -2.5669297495560725E-003   4.9404498967372534E-003   5.9723340221171872E-002
  -6.4879256433605231E-003   2.2069944673709374E-003   5.7798892821090270E-002
  -5.6172628471811824E-003   2.4282199639219237E-003   5.7357199509625645E-002
  -4.7466000510018678E-003   3.0688654315256386E-003   5.7138365207592426E-002
  -3.8759372548225401E-003   4.1289308701821271E-003   5.7142389914990675E-002
  -3.0052744586432124E-003   5.6084162798914483E-003   5.7369273631820289E-002
  -7.8293998719407461E-003   2.4564833407965114E-003   5.3918539652028967E-002
  -6.7097639576692188E-003   2.6426456080356070E-003   5.3852791372782101E-002
  -5.5901280433977175E-003   3.3413495841568344E-003   5.4062130320288365E-002
  -4.4704921291261893E-003   4.5525952691601607E-003   5.4546556494547205E-002
  -3.3508562148546897E-003   6.2763826630456154E-003   5.5306069895559383E-002
  -9.2870240169313223E-003   2.7059722142221965E-003   4.9956562384740999E-002
  -7.8661867672461250E-003   2.8570712521492903E-003   5.0359880875541330E-002
  -6.4453495175608999E-003   3.6138337367880025E-003   5.1090514810416154E-002
  -5.0245122678756818E-003   4.9762596681381596E-003   5.2148464189365501E-002
  -3.6036750181904775E-003   6.9443490461998936E-003   5.3533729012389064E-002
  -2.0358220875932448E-003   4.2724835135831141E-003   6.2368269663614861E-002
  -2.2857709585374780E-003   5.5760009281503597E-003   5.8337579132419104E-002
  -2.5357198294817043E-003   7.2716137937441083E-003   5.4301874575115650E-002
  -2.7856687004259618E-003   9.3593221103645610E-003   5.0261155991705858E-002
  -3.0356175713701639E-003   1.1839125878011725E-002   4.6215423382188536E-002
  -2.5669297495560725E-003   4.9404498967372534E-003   5.9723340221171872E-002
  -2.8394611902416503E-003   6.5654032956906638E-003   5.6190512681539739E-002
  -3.1119926309272246E-003   8.6435984082613160E-003   5.2617534028532142E-002
  -3.3845240716127972E-003   1.1175035234450008E-002   4.9004404262149109E-002
  -3.6570555122983212E-003   1.4159713774255955E-002   4.5351123382390224E-002
  -3.0052744586432124E-003   5.6084162798914483E-003   5.7369273631820289E-002
  -3.3355255563384291E-003   7.5548056632312455E-003   5.4395455346342381E-002
  -3.6657766540335885E-003   1.0015583022779287E-002   5.1346348860220950E-002
  -3.9960277517287627E-003   1.2990748358535673E-002   4.8221954173455504E-002
  -4.3262788494239923E-003   1.6480301670500186E-002   4.5022271286046411E-002
  -3.3508562148546897E-003   6.2763826630456154E-003   5.5306069895559383E-002
  -3.7739640568277564E-003   8.5442080307716883E-003   5.2952407126826743E-002
  -4.1970718988007943E-003   1.1387567637296876E-002   5.0488319070181878E-002
  -4.6201797407739165E-003   1.4806461482620674E-002   4.7913805725625258E-002
  -5.0432875827468998E-003   1.8800889566744416E-002   4.5228867093156738E-002
  -3.6036750181904775E-003   6.9443490461998936E-003   5.3533729012389064E-002
  -4.1547766917096884E-003   9.5336103983122422E-003   5.1861368022992571E-002
  -4.7058783652288994E-003   1.2759552251814493E-002   5.0043444658415870E-002
  -5.2569800387481311E-003   1.6622174606706626E-002   4.8079958918658600E-002
  -5.8080817122673212E-003   2.1121477462988647E-002   4.5970910803721399E-002
  -5.0723166656561985E-002   1.4578993436384524E-002   4.8171813453127765E-002
  -4.9035784579542940E-002   1.4354716266640088E-002   4.8093075714853828E-002
  -4.7348402502523826E-002   1.4046361536205157E-002   4.8170108875302847E-002
  -4.5661020425504760E-002   1.3653929245080024E-002   4.8402912934474782E-002
  -4.3973638348485694E-002   1.3177419393264833E-002   4.8791487892369811E-002
  -5.6716121546959902E-002   1.7316328415345139E-002   4.3994115140292722E-002
  -5.4860754516559279E-002   1.6665830221042455E-002   4.3725610762420125E-002
  -5.3005387486158712E-002   1.6040924769754619E-002   4.3637305392587533E-002
  -5.1150020455758095E-002   1.5441612061481719E-002   4.3729199030795043E-002
  -4.9294653425357528E-002   1.4867892096223634E-002   4.4001291677042670E-002
  -6.2881814722777485E-002   2.0053663394305726E-002   3.9335360651047049E-002
  -6.0834034629678228E-002   1.8976944175444876E-002   3.8986759937280707E-002
  -5.8786254536578902E-002   1.8035488003303991E-002   3.8842786340871745E-002
  -5.6738474443479694E-002   1.7229294877883217E-002   3.8903439861819850E-002
  -5.4690694350380348E-002   1.6558364799182407E-002   3.9168720500125292E-002
  -6.9220246184014733E-002   2.2790998373266327E-002   3.4195549985390705E-002
  -6.6955624918899628E-002   2.1288058129847270E-002   3.3876523239435907E-002
  -6.4691003653784579E-002   2.0030051236853464E-002   3.3786551720155544E-002
  -6.2426382388669523E-002   1.9016977694284731E-002   3.3925635427549436E-002
  -6.0161761123554404E-002   1.8248837502141305E-002   3.4293774361617901E-002
  -7.5731415930671619E-002   2.5528333352226928E-002   2.8574683143323565E-002
  -7.3225525384223583E-002   2.3599172084249664E-002   2.8394900668885448E-002
  -7.0719634837775547E-002   2.2024614470402826E-002   2.8468601530438842E-002
  -6.8213744291327510E-002   2.0804660510686385E-002   2.8795785727983692E-002
  -6.5707853744879502E-002   1.9939310205100036E-002   2.9376453261520108E-002
  -4.3973638348485694E-002   1.3177419393264833E-002   4.8791487892369811E-002
  -4.2366809922191162E-002   1.2662335955250126E-002   4.8649936330404486E-002
  -4.0759981495896658E-002   1.2154182905526487E-002   4.8662190451775861E-002
  -3.9153153069602153E-002   1.1652960244094037E-002   4.8828250256483810E-002
  -3.7546324643307621E-002   1.1158667970952718E-002   4.9148115744528376E-002
  -4.9294653425357528E-002   1.4867892096223634E-002   4.4001291677042670E-002
  -4.7525226085143091E-002   1.4307144465235844E-002   4.3797148654417806E-002
  -4.5755798744928675E-002   1.3746748759773234E-002   4.3764397776296177E-002
  -4.3986371404714224E-002   1.3186704979836001E-002   4.3903039042677769E-002
  -4.2216944064499808E-002   1.2627013125424247E-002   4.4213072453562458E-002
  -5.4690694350380348E-002   1.6558364799182407E-002   3.9168720500125292E-002
  -5.2741081635079491E-002   1.5951952975221506E-002   3.8895407554075098E-002
  -5.0791468919778621E-002   1.5339314614020043E-002   3.8811073213694668E-002
  -4.8841856204477750E-002   1.4720449715578133E-002   3.8915717478984063E-002
  -4.6892243489176887E-002   1.4095358279895692E-002   3.9209340349943139E-002
  -6.0161761123554404E-002   1.8248837502141305E-002   3.4293774361617901E-002
  -5.8014376572000488E-002   1.7596761485207280E-002   3.3944713029376489E-002
  -5.5866992020446538E-002   1.6931880468266710E-002   3.3802216763971382E-002
  -5.3719607468892594E-002   1.6254194451320154E-002   3.3866285565402651E-002
  -5.1572222917338685E-002   1.5563703434367152E-002   3.4136919433670261E-002
  -6.5707853744879502E-002   1.9939310205100036E-002   2.9376453261520108E-002
  -6.3345110895905957E-002   1.9241569995192942E-002   2.8945065080321714E-002
  -6.0982368046932439E-002   1.8524446322513627E-002   2.8737828427126189E-002
  -5.8619625197958922E-002   1.7787939187062236E-002   2.8754743301933630E-002
  -5.6256882348985376E-002   1.7032048588838611E-002   2.8995809704743913E-002
  -3.7546324643307621E-002   1.1158667970952718E-002   4.9148115744528376E-002
  -3.5907955898011615E-002   1.0656919829173411E-002   4.8865797970486624E-002
  -3.4269587152715608E-002   1.0133329561827026E-002   4.8764726373334816E-002
  -3.2631218407419595E-002   9.5878971689129303E-003   4.8844900953072812E-002
  -3.0992849662123595E-002   9.0206226504318532E-003   4.9106321709700695E-002
  -4.2216944064499808E-002   1.2627013125424247E-002   4.4213072453562458E-002
  -4.0399127062865130E-002   1.2061125585953653E-002   4.3906984044879638E-002
  -3.8581310061230445E-002   1.1482494750840122E-002   4.3778545971984398E-002
  -3.6763493059595816E-002   1.0891120620083503E-002   4.3827758234876633E-002
  -3.4945676057961145E-002   1.0287003193684030E-002   4.4054620833556379E-002
  -4.6892243489176887E-002   1.4095358279895692E-002   3.9209340349943139E-002
  -4.4898574072305825E-002   1.3465331342733769E-002   3.8888580136543505E-002
  -4.2904904655434825E-002   1.2831659939853204E-002   3.8741874417829156E-002
  -4.0911235238563763E-002   1.2194344071253960E-002   3.8769223193799912E-002
  -3.8917565821692750E-002   1.1553383736936235E-002   3.8970626464455885E-002
  -5.1572222917338685E-002   1.5563703434367152E-002   3.4136919433670261E-002
  -4.9406296926333665E-002   1.4869537099513837E-002   3.3810586245478141E-002
  -4.7240370935328631E-002   1.4180825128866405E-002   3.3654711710869131E-002
  -4.5074444944323611E-002   1.3497567522424475E-002   3.3669295829842683E-002
  -4.2908518953318583E-002   1.2819764280188370E-002   3.3854338602399184E-002
  -5.6256882348985376E-002   1.7032048588838611E-002   2.8995809704743913E-002
  -5.3922295624948657E-002   1.6273742856294154E-002   2.8673002371683631E-002
  -5.1587708900911938E-002   1.5529990317879369E-002   2.8517057851104172E-002
  -4.9253122176875247E-002   1.4800790973594932E-002   2.8527976143004938E-002
  -4.6918535452838500E-002   1.4086144823440616E-002   2.8705757247386554E-002
  -3.0992849662123595E-002   9.0206226504318532E-003   4.9106321709700695E-002
  -2.9297987015869179E-002   8.4420564768928896E-003   4.8805274960672829E-002
  -2.7603124369614776E-002   7.8627491188062032E-003   4.8690662797789969E-002
  -2.5908261723360380E-002   7.2827005761717141E-003   4.8762485221052240E-002
  -2.4213399077105957E-002   6.7019108489896340E-003   4.9020742230459935E-002
  -3.4945676057961145E-002   1.0287003193684030E-002   4.4054620833556379E-002
  -3.3070820901571645E-002   9.6725259683329567E-003   4.3723709897220242E-002
  -3.1195965745182193E-002   9.0500724407219790E-003   4.3566349395009113E-002
  -2.9321110588792661E-002   8.4196426108509859E-003   4.3582539326923075E-002
  -2.7446255432403241E-002   7.7812364787201993E-003   4.3772279692961769E-002
  -3.8917565821692750E-002   1.1553383736936235E-002   3.8970626464455885E-002
  -3.6875602307188469E-002   1.0902995459772968E-002   3.8602616223099351E-002
  -3.4833638792684085E-002   1.0237395762637637E-002   3.8395272263847750E-002
  -3.2791675278179749E-002   9.5565846455302004E-003   3.8348594586700910E-002
  -3.0749711763675427E-002   8.8605621084506536E-003   3.8462583191658822E-002
  -4.2908518953318583E-002   1.2819764280188370E-002   3.3854338602399184E-002
  -4.0712331232719605E-002   1.2133464951213008E-002   3.3441993938310419E-002
  -3.8516143512120571E-002   1.1424719084553298E-002   3.3177431404306033E-002
  -3.6319955791521509E-002   1.0693526680209387E-002   3.3060651000386465E-002
  -3.4123768070922503E-002   9.9398877381809969E-003   3.3091652726551353E-002
  -4.6918535452838500E-002   1.4086144823440616E-002   2.8705757247386554E-002
  -4.4581007678165058E-002   1.3363934442652936E-002   2.8241843042853154E-002
  -4.2243479903491518E-002   1.2612042406468849E-002   2.7912826816383962E-002
  -3.9905952128818041E-002   1.1830468714888603E-002   2.7718708567979283E-002
  -3.7568424354144564E-002   1.1019213367911673E-002   2.7659488297639090E-002
  -2.4213399077105957E-002   6.7019108489896340E-003   4.9020742230459935E-002
  -2.2425096008055201E-002   6.1143282999342463E-003   4.8733220652517673E-002
  -2.0636792939004417E-002   5.5139012916803065E-003   4.8612029932625367E-002
  -1.8848489869953633E-002   4.9006298242285709E-003   4.8657170070783157E-002
  -1.7060186800902877E-002   4.2745138975781583E-003   4.8868641066990848E-002
  -2.7446255432403241E-002   7.7812364787201993E-003   4.3772279692961769E-002
  -2.5496510486320886E-002   7.1387668596153420E-003   4.3402771592583156E-002
  -2.3546765540238525E-002   6.4961465688223863E-003   4.3189816388217533E-002
  -2.1597020594156146E-002   5.8533756063419776E-003   4.3133414079865220E-002
  -1.9647275648073809E-002   5.2104539721735676E-003   4.3233564667526203E-002
  -3.0749711763675427E-002   8.8605621084506536E-003   3.8462583191658822E-002
  -2.8648302902598295E-002   8.1632054192963543E-003   3.8023782356354313E-002
  -2.6546894041521135E-002   7.4783918459645632E-003   3.7731756455026147E-002
  -2.4445485180444010E-002   6.8061213884556583E-003   3.7586505487674317E-002
  -2.2344076319366891E-002   6.1463940467693101E-003   3.7588029454298955E-002
  -3.4123768070922503E-002   9.9398877381809969E-003   3.3091652726551353E-002
  -3.1880473256887448E-002   9.1876439789773529E-003   3.2596252943831318E-002
  -2.9637178442852366E-002   8.4606371231065805E-003   3.2237850133050791E-002
  -2.7393883628817266E-002   7.7588671705693130E-003   3.2016444294209898E-002
  -2.5150588814782170E-002   7.0823341213649971E-003   3.1932035427308665E-002
  -3.7568424354144564E-002   1.1019213367911673E-002   2.7659488297639090E-002
  -3.5193021549188325E-002   1.0212082538658518E-002   2.7120183355014149E-002
  -3.2817618744232099E-002   9.4428824002488754E-003   2.6708097422291910E-002
  -3.0442215939275867E-002   8.7116129526827041E-003   2.6423230499472483E-002
  -2.8066813134319663E-002   8.0182741959604620E-003   2.6265582586555647E-002
  -1.7060186800902877E-002   4.2745138975781583E-003   4.8868641066990848E-002
  -1.5116896104910002E-002   3.7020764251811666E-003   4.8759421209460641E-002
  -1.3173605408917100E-002   3.2498403204897774E-003   4.8904334809908856E-002
  -1.1230314712924239E-002   2.9178055835031511E-003   4.9303381868335661E-002
  -9.2870240169313223E-003   2.7059722142221965E-003   4.9956562384740999E-002
  -1.9647275648073809E-002   5.2104539721735676E-003   4.3233564667526203E-002
  -1.7488077914620301E-002   4.6046428730811551E-003   4.3073693120128098E-002
  -1.5328880181166751E-002   4.0732035158281832E-003   4.3091502189673031E-002
  -1.3169682447713216E-002   3.6161359004142080E-003   4.3286991876160530E-002
  -1.1010484714259694E-002   3.2334400268400065E-003   4.3660162179590789E-002
  -2.2344076319366891E-002   6.1463940467693101E-003   3.7588029454298955E-002
  -2.0045424389488479E-002   5.5072093209811435E-003   3.7331676591167179E-002
  -1.7746772459610143E-002   4.8965667111664918E-003   3.7176551503942820E-002
  -1.5448120529731747E-002   4.3144662173256014E-003   3.7122654192625025E-002
  -1.3149468599853401E-002   3.7609078394582607E-003   3.7169984657214522E-002
  -2.5150588814782170E-002   7.0823341213649971E-003   3.1932035427308665E-002
  -2.2788935529514692E-002   6.4097757688809098E-003   3.1533371622577688E-002
  -2.0427282244247218E-002   5.7199299065049600E-003   3.1159482752718137E-002
  -1.8065628958979743E-002   5.0127965342366045E-003   3.0810368817729888E-002
  -1.5703975673712262E-002   4.2883756520761818E-003   3.0486029817612302E-002
  -2.8066813134319663E-002   8.0182741959604620E-003   2.6265582586555647E-002
  -2.5718611334698854E-002   7.3123422167810648E-003   2.5678778214359710E-002
  -2.3370409535078060E-002   6.5432931018432616E-003   2.5040295935999157E-002
  -2.1022207735457259E-002   5.7111268511481211E-003   2.4350135751473961E-002
  -1.8674005935836457E-002   4.8158434646944359E-003   2.3608297660784316E-002
  -9.2870240169313223E-003   2.7059722142221965E-003   4.9956562384740999E-002
  -7.8661867672461250E-003   2.8570712521492903E-003   5.0359880875541330E-002
  -6.4453495175608999E-003   3.6138337367880025E-003   5.1090514810416154E-002
  -5.0245122678756818E-003   4.9762596681381596E-003   5.2148464189365501E-002
  -3.6036750181904775E-003   6.9443490461998936E-003   5.3533729012389064E-002
  -1.1010484714259694E-002   3.2334400268400065E-003   4.3660162179590789E-002
  -9.2440764820082705E-003   3.1627236431381878E-003   4.4243838362926446E-002
  -7.4776682497567290E-003   3.6415944973428038E-003   4.5191341067320090E-002
  -5.7112600175052222E-003   4.6700525894524947E-003   4.6502670292771886E-002
  -3.9448517852537640E-003   6.2480979194682318E-003   4.8177826039281557E-002
  -1.3149468599853401E-002   3.7609078394582607E-003   3.7169984657214522E-002
  -1.1000978308051933E-002   3.4683760341275849E-003   3.7877942324279823E-002
  -8.8524880162504579E-003   3.6693552578973970E-003   3.8986237589386616E-002
  -6.7039977244489884E-003   4.3638455107670553E-003   4.0494870452535268E-002
  -4.5555074326475153E-003   5.5518467927369586E-003   4.2403840913725593E-002
  -1.5703975673712262E-002   4.2883756520761818E-003   3.0486029817612302E-002
  -1.3136892245377207E-002   3.7740284251170098E-003   3.1262192759601404E-002
  -1.0569808817042118E-002   3.6971160184518723E-003   3.2475204376615968E-002
  -8.0027253887070757E-003   4.0576384320818362E-003   3.4125064668655586E-002
  -5.4356419603720299E-003   4.8555956660057131E-003   3.6211773635721083E-002
  -1.8674005935836457E-002   4.8158434646944359E-003   2.3608297660784316E-002
  -1.5651818293984099E-002   4.0796808161059350E-003   2.4396589668891355E-002
  -1.2629630652131713E-002   3.7248767790067361E-003   2.5658241429007689E-002
  -9.6074430102793124E-003   3.7514313533961036E-003   2.7393252941133067E-002
  -6.5852553684269677E-003   4.1593445392741346E-003   2.9601624205267574E-002
  -3.6036750181904775E-003   6.9443490461998936E-003   5.3533729012389064E-002
  -4.1547766917096884E-003   9.5336103983122422E-003   5.1861368022992571E-002
  -4.7058783652288994E-003   1.2759552251814493E-002   5.0043444658415870E-002
  -5.2569800387481311E-003   1.6622174606706626E-002   4.8079958918658600E-002
  -5.8080817122673212E-003   2.1121477462988647E-002   4.5970910803721399E-002
  -3.9448517852537640E-003   6.2480979194682318E-003   4.8177826039281557E-002
  -4.5376557327814482E-003   8.6858191810038066E-003   4.7243068833988044E-002
  -5.1304596803092364E-003   1.2293305067672539E-002   4.6370469455857211E-002
  -5.7232636278369345E-003   1.7070555579474782E-002   4.5560027904889777E-002
  -6.3160675753647089E-003   2.3017570716409974E-002   4.4811744181085800E-002
  -4.5555074326475153E-003   5.5518467927369586E-003   4.2403840913725593E-002
  -4.9822934518402931E-003   7.8380279636954264E-003   4.2739771616278316E-002
  -5.4090794710331264E-003   1.1827057883530681E-002   4.3345580348337229E-002
  -5.8358654902258538E-003   1.7518936552242712E-002   4.4221267109903671E-002
  -6.2626515094187929E-003   2.4913663969831523E-002   4.5366831900975568E-002
  -5.4356419603720299E-003   4.8555956660057131E-003   3.6211773635721083E-002
  -5.4886898488863620E-003   6.9902367463869075E-003   3.8351476369862934E-002
  -5.5417377374006689E-003   1.1360810699388886E-002   4.0968777335855328E-002
  -5.5947856259149914E-003   1.7967317525010643E-002   4.4063676533698061E-002
  -5.6478335144294206E-003   2.6809757223252961E-002   4.7636173963390649E-002
  -6.5852553684269677E-003   4.1593445392741346E-003   2.9601624205267574E-002
  -6.0568449239193911E-003   6.1424455290787217E-003   3.4078183094742975E-002
  -5.5284344794118701E-003   1.0894563515246952E-002   3.9240060418411937E-002
  -5.0000240349042796E-003   1.8415698497778819E-002   4.5087256176274487E-002
  -4.4716135903967169E-003   2.8705850476674399E-002   5.1619770368330986E-002
  -7.5731415930671619E-002   2.5528333352226928E-002   2.8574683143323565E-002
  -7.3225525384223583E-002   2.3599172084249664E-002   2.8394900668885448E-002
  -7.0719634837775547E-002   2.2024614470402826E-002   2.8468601530438842E-002
  -6.8213744291327510E-002   2.0804660510686385E-002   2.8795785727983692E-002
  -6.5707853744879502E-002   1.9939310205100036E-002   2.9376453261520108E-002
  -8.1961867523566767E-002   2.3239741024119409E-002   1.9045226343343047E-002
  -7.9278080063474962E-002   2.2908727454733907E-002   1.9642355964920755E-002
  -7.6594292603383199E-002   2.2459758082058995E-002   2.0341796077794488E-002
  -7.3910505143291449E-002   2.1892832906094832E-002   2.1143546681964151E-002
  -7.1226717683199645E-002   2.1207951926841356E-002   2.2047607777429645E-002
  -8.7458144523518633E-002   2.0951148696011945E-002   1.1350196970664028E-002
  -8.4747632994478739E-002   2.2218282825218094E-002   1.2251679230838003E-002
  -8.2037121465438886E-002   2.2894901693715219E-002   1.3104299137612491E-002
  -7.9326609936398979E-002   2.2981005301503363E-002   1.3908056690987158E-002
  -7.6616098407359001E-002   2.2476593648582538E-002   1.4662951890962270E-002
  -9.2220246930527383E-002   1.8662556367904481E-002   5.4895950252864950E-003
  -8.9634184177234913E-002   2.1527838195702309E-002   6.2228704666371232E-003
  -8.7048121423942401E-002   2.3330045305371472E-002   6.7561107098924218E-003
  -8.4462058670649875E-002   2.4069177696911852E-002   7.0893157550525471E-003
  -8.1875995917357405E-002   2.3745235370323706E-002   7.2224856021175891E-003
  -9.6248174744592907E-002   1.6373964039796962E-002   1.4634205072104889E-003
  -9.3937733611743512E-002   2.0837393566186413E-002   1.5559296723179350E-003
  -9.1627292478893896E-002   2.3765188917027613E-002   1.2972307946345629E-003
  -8.9316851346044390E-002   2.5157350092320535E-002   6.8732387416049756E-004
  -8.7006410213194885E-002   2.5013877092065040E-002  -2.7379108910413619E-004
  -6.5707853744879502E-002   1.9939310205100036E-002   2.9376453261520108E-002
  -6.3345110895905957E-002   1.9241569995192942E-002   2.8945065080321714E-002
  -6.0982368046932439E-002   1.8524446322513627E-002   2.8737828427126189E-002
  -5.8619625197958922E-002   1.7787939187062236E-002   2.8754743301933630E-002
  -5.6256882348985376E-002   1.7032048588838611E-002   2.8995809704743913E-002
  -7.1226717683199645E-002   2.1207951926841356E-002   2.2047607777429645E-002
  -6.8653856962095861E-002   2.0461878389044744E-002   2.1719762766235287E-002
  -6.6080996240992007E-002   1.9711375537451802E-002   2.1588001971298676E-002
  -6.3508135519888154E-002   1.8956443372062128E-002   2.1652325392619652E-002
  -6.0935274798784356E-002   1.8197081892875999E-002   2.1912733030198472E-002
  -7.6616098407359001E-002   2.2476593648582538E-002   1.4662951890962270E-002
  -7.3861187125870004E-002   2.1682186782896712E-002   1.4453604198747465E-002
  -7.1106275844381034E-002   2.0898304752389865E-002   1.4412273411045042E-002
  -6.8351364562892050E-002   2.0124947557061960E-002   1.4538959527855257E-002
  -6.5596453281403080E-002   1.9362115196913304E-002   1.4833662549178145E-002
  -8.1875995917357405E-002   2.3745235370323706E-002   7.2224856021175891E-003
  -7.8967101387228428E-002   2.2902495176748430E-002   7.1465893778577868E-003
  -7.6058206857099492E-002   2.2085233967328068E-002   7.2106427463655837E-003
  -7.3149312326970584E-002   2.1293451742061958E-002   7.4146457076404246E-003
  -7.0240417796841578E-002   2.0527148500950596E-002   7.7585982616830314E-003
  -8.7006410213194885E-002   2.5013877092065040E-002  -2.7379108910413619E-004
  -8.3971599746171133E-002   2.4122803570600371E-002  -2.0128169643340854E-004
  -8.0936789279147381E-002   2.3272163182266048E-002  -1.6890022740009836E-005
  -7.7901978812123629E-002   2.2461955927061780E-002   2.7938393197531400E-004
  -7.4867168345099877E-002   2.1692181804988109E-002   6.8754016771332971E-004
  -5.6256882348985376E-002   1.7032048588838611E-002   2.8995809704743913E-002
  -5.3922295624948657E-002   1.6273742856294154E-002   2.8673002371683631E-002
  -5.1587708900911938E-002   1.5529990317879369E-002   2.8517057851104172E-002
  -4.9253122176875247E-002   1.4800790973594932E-002   2.8527976143004938E-002
  -4.6918535452838500E-002   1.4086144823440616E-002   2.8705757247386554E-002
  -6.0935274798784356E-002   1.8197081892875999E-002   2.1912733030198472E-002
  -5.8431644594556367E-002   1.7435791476883400E-002   2.1616882649186042E-002
  -5.5928014390328518E-002   1.6675072501074514E-002   2.1492256416075675E-002
  -5.3424384186100606E-002   1.5914924965449505E-002   2.1538854330867073E-002
  -5.0920753981872680E-002   1.5155348870008190E-002   2.1756676393560492E-002
  -6.5596453281403080E-002   1.9362115196913304E-002   1.4833662549178145E-002
  -6.2919418261562596E-002   1.8597840097472909E-002   1.4550787366267193E-002
  -6.0242383241722104E-002   1.7820154684269666E-002   1.4443497666679614E-002
  -5.7565348221881613E-002   1.7029058957303972E-002   1.4511793450415238E-002
  -5.4888313202041121E-002   1.6224552916575541E-002   1.4755674717474243E-002
  -7.0240417796841578E-002   2.0527148500950596E-002   7.7585982616830314E-003
  -6.7385616625967162E-002   1.9759888718061981E-002   7.4747165229273917E-003
  -6.4530815455092747E-002   1.8965236867464815E-002   7.3707816029164128E-003
  -6.1676014284218289E-002   1.8143192949158102E-002   7.4467935016499362E-003
  -5.8821213113343915E-002   1.7293756963143003E-002   7.7027522191281533E-003
  -7.4867168345099877E-002   2.1692181804988109E-002   6.8754016771332971E-004
  -7.1830239687770137E-002   2.0921937338651497E-002   3.8867011916626781E-004
  -6.8793311030440396E-002   2.0110319050659881E-002   2.7410822478546315E-004
  -6.5756382373110656E-002   1.9257326941012655E-002   3.4385448457047163E-004
  -6.2719453715780915E-002   1.8362961009710688E-002   5.9790889852140428E-004
  -4.6918535452838500E-002   1.4086144823440616E-002   2.8705757247386554E-002
  -4.4581007678165058E-002   1.3363934442652936E-002   2.8241843042853154E-002
  -4.2243479903491518E-002   1.2612042406468849E-002   2.7912826816383962E-002
  -3.9905952128818041E-002   1.1830468714888603E-002   2.7718708567979283E-002
  -3.7568424354144564E-002   1.1019213367911673E-002   2.7659488297639090E-002
  -5.0920753981872680E-002   1.5155348870008190E-002   2.1756676393560492E-002
  -4.8441240570528343E-002   1.4392676249631309E-002   2.1316286083773756E-002
  -4.5961727159183965E-002   1.3623239139199467E-002   2.1024969069264127E-002
  -4.3482213747839595E-002   1.2847037538713073E-002   2.0882725350032064E-002
  -4.1002700336495251E-002   1.2064071448171843E-002   2.0889554926077247E-002
  -5.4888313202041121E-002   1.6224552916575541E-002   1.4755674717474243E-002
  -5.2252638836812894E-002   1.5421418056609404E-002   1.4361725467775685E-002
  -4.9616964471584701E-002   1.4634435871930140E-002   1.4131024830567440E-002
  -4.6981290106356502E-002   1.3863606362537431E-002   1.4063572805849557E-002
  -4.4345615741128282E-002   1.3108929528431901E-002   1.4159369393621946E-002
  -5.8821213113343915E-002   1.7293756963143003E-002   7.7027522191281533E-003
  -5.6015202477018800E-002   1.6450159863587693E-002   7.3781611948593659E-003
  -5.3209191840693761E-002   1.5645632604660620E-002   7.2309941002937778E-003
  -5.0403181204368666E-002   1.4880175186362067E-002   7.2612509354318573E-003
  -4.7597170568043606E-002   1.4153787608692125E-002   7.4689317002729627E-003
  -6.2719453715780915E-002   1.8362961009710688E-002   5.9790889852140428E-004
  -5.9728931491145998E-002   1.7478901670565539E-002   3.6559326502461076E-004
  -5.6738409266511136E-002   1.6656829337391488E-002   3.2487687844373614E-004
  -5.3747887041876274E-002   1.5896744010186495E-002   4.7575973877925226E-004
  -5.0757364817241357E-002   1.5198645688952350E-002   8.1824184603063177E-004
  -3.7568424354144564E-002   1.1019213367911673E-002   2.7659488297639090E-002
  -3.5193021549188325E-002   1.0212082538658518E-002   2.7120183355014149E-002
  -3.2817618744232099E-002   9.4428824002488754E-003   2.6708097422291910E-002
  -3.0442215939275867E-002   8.7116129526827041E-003   2.6423230499472483E-002
  -2.8066813134319663E-002   8.0182741959604620E-003   2.6265582586555647E-002
  -4.1002700336495251E-002   1.2064071448171843E-002   2.0889554926077247E-002
  -3.8510612501689329E-002   1.1283545002557571E-002   2.0455863816493114E-002
  -3.6018524666883447E-002   1.0514662336852373E-002   2.0128323756705813E-002
  -3.3526436832077532E-002   9.7574234510562595E-003   1.9906934746714761E-002
  -3.1034348997271644E-002   9.0118283451690040E-003   1.9791696786520763E-002
  -4.4345615741128282E-002   1.3108929528431901E-002   1.4159369393621946E-002
  -4.1757910836578808E-002   1.2355007466456819E-002   1.3805005206144180E-002
  -3.9170205932029439E-002   1.1586442273456427E-002   1.3535724108356739E-002
  -3.6582501027480036E-002   1.0803233949429704E-002   1.3351526100259761E-002
  -3.3994796122930639E-002   1.0005382494377768E-002   1.3252411181853385E-002
  -4.7597170568043606E-002   1.4153787608692125E-002   7.4689317002729627E-003
  -4.4934916553856875E-002   1.3426469930355969E-002   7.1676075239667479E-003
  -4.2272662539670068E-002   1.2658222210059869E-002   6.9302984772448215E-003
  -3.9610408525483295E-002   1.1849044447803370E-002   6.7570045601071764E-003
  -3.6948154511296530E-002   1.0998936643586310E-002   6.6477257725540348E-003
  -5.0757364817241357E-002   1.5198645688952350E-002   8.1824184603063177E-004
  -4.8041629653523321E-002   1.4497932394255231E-002   5.4367076996125752E-004
  -4.5325894489805341E-002   1.3730002146664033E-002   3.1204686337008014E-004
  -4.2610159326087305E-002   1.2894854946176718E-002   1.2337012625671800E-004
  -3.9894424162369324E-002   1.1992490792795074E-002  -2.2359441377850509E-005
  -2.8066813134319663E-002   8.0182741959604620E-003   2.6265582586555647E-002
  -2.5718611334698854E-002   7.3123422167810648E-003   2.5678778214359710E-002
  -2.3370409535078060E-002   6.5432931018432616E-003   2.5040295935999157E-002
  -2.1022207735457259E-002   5.7111268511481211E-003   2.4350135751473961E-002
  -1.8674005935836457E-002   4.8158434646944359E-003   2.3608297660784316E-002
  -3.1034348997271644E-002   9.0118283451690040E-003   1.9791696786520763E-002
  -2.8720369397445392E-002   8.2694853071746954E-003   1.9195308468046790E-002
  -2.6406389797619167E-002   7.5220026250563121E-003   1.8582153656148515E-002
  -2.4092410197792902E-002   6.7693802988144647E-003   1.7952232350825714E-002
  -2.1778430597966691E-002   6.0116183284488756E-003   1.7305544552078278E-002
  -3.3994796122930639E-002   1.0005382494377768E-002   1.3252411181853385E-002
  -3.1680127310158838E-002   9.2266283975683538E-003   1.2704416408736291E-002
  -2.9365458497387146E-002   8.5007121482690018E-003   1.2174566554934610E-002
  -2.7050789684615321E-002   7.8276337464806903E-003   1.1662861620448467E-002
  -2.4736120871843598E-002   7.2073931922034817E-003   1.1169301605277820E-002
  -3.6948154511296530E-002   1.0998936643586310E-002   6.6477257725540348E-003
  -3.4597885072839195E-002   1.0183771487962054E-002   6.2061020364279282E-003
  -3.2247615634381908E-002   9.4794216714821494E-003   5.8175346323570756E-003
  -2.9897346195924587E-002   8.8858871941474189E-003   5.4820235603417929E-003
  -2.7547076757467290E-002   8.4031680559575606E-003   5.1995688203826593E-003
  -3.9894424162369324E-002   1.1992490792795074E-002  -2.2359441377850509E-005
  -3.7473642685486364E-002   1.1140914578355310E-002  -2.9963464887861058E-004
  -3.5052861208603514E-002   1.0458131194694353E-002  -4.8894211158423406E-004
  -3.2632079731720581E-002   9.9441406418138839E-003  -5.9028182949341645E-004
  -3.0211298254837704E-002   9.5989429197127496E-003  -6.0365380260773982E-004
  -1.8674005935836457E-002   4.8158434646944359E-003   2.3608297660784316E-002
  -1.5651818293984099E-002   4.0796808161059350E-003   2.4396589668891355E-002
  -1.2629630652131713E-002   3.7248767790067361E-003   2.5658241429007689E-002
  -9.6074430102793124E-003   3.7514313533961036E-003   2.7393252941133067E-002
  -6.5852553684269677E-003   4.1593445392741346E-003   2.9601624205267574E-002
  -2.1778430597966691E-002   6.0116183284488756E-003   1.7305544552078278E-002
  -1.8552179948886957E-002   5.3432401166878529E-003   1.8253907090067578E-002
  -1.5325929299807250E-002   4.8587690662591498E-003   1.9137035890502391E-002
  -1.2099678650727502E-002   4.5582051771627108E-003   1.9954930953382646E-002
  -8.8734280016476985E-003   4.4415484493987023E-003   2.0707592278708664E-002
  -2.4736120871843598E-002   7.2073931922034817E-003   1.1169301605277820E-002
  -2.1844400705100131E-002   6.6067994172691880E-003   1.2080283222992871E-002
  -1.8952680538356692E-002   5.9926613535112583E-003   1.2387437613589597E-002
  -1.6060960371613236E-002   5.3649790009292139E-003   1.2090764777068538E-002
  -1.3169240204869787E-002   4.7237523595234365E-003   1.1190264713429349E-002
  -2.7547076757467290E-002   8.4031680559575606E-003   5.1995688203826593E-003
  -2.5528480562623718E-002   7.8703587178508144E-003   5.8757180676668880E-003
  -2.3509884367780114E-002   7.1265536407635194E-003   5.4094465982692588E-003
  -2.1491288172936451E-002   6.1717528246957691E-003   3.8007544121903304E-003
  -1.9472691978092937E-002   5.0059562696478654E-003   1.0496415094298009E-003
  -3.0211298254837704E-002   9.5989429197127496E-003  -6.0365380260773982E-004
  -2.9604419521457648E-002   9.1339180184325519E-003  -3.5978837591010837E-004
  -2.8997540788077425E-002   8.2604459280161691E-003  -1.7969371554582836E-003
  -2.8390662054697285E-002   6.9785266484623104E-003  -4.9151001412514675E-003
  -2.7783783321317146E-002   5.2881601797722944E-003  -9.7142773332897780E-003
  -6.5852553684269677E-003   4.1593445392741346E-003   2.9601624205267574E-002
  -6.0568449239193911E-003   6.1424455290787217E-003   3.4078183094742975E-002
  -5.5284344794118701E-003   1.0894563515246952E-002   3.9240060418411937E-002
  -5.0000240349042796E-003   1.8415698497778819E-002   4.5087256176274487E-002
  -4.4716135903967169E-003   2.8705850476674399E-002   5.1619770368330986E-002
  -8.8734280016476985E-003   4.4415484493987023E-003   2.0707592278708664E-002
  -7.5873094945358432E-003   5.6585633345796471E-003   2.5875127757053862E-002
  -6.3011909874239602E-003   9.3590142843175683E-003   3.1872760926414501E-002
  -5.0150724803120356E-003   1.5542901298612619E-002   3.8700491786789831E-002
  -3.7289539732001109E-003   2.4210224377464007E-002   4.6358320338180325E-002
  -1.3169240204869787E-002   4.7237523595234365E-003   1.1190264713429349E-002
  -1.0980634378332063E-002   5.1746811400806281E-003   1.6763195848837537E-002
  -8.7920285517942287E-003   7.8234650533881983E-003   2.3311003932082561E-002
  -6.6034227252564741E-003   1.2670104099445700E-002   3.0833688963163998E-002
  -4.4148168987186709E-003   1.9714598278253614E-002   3.9331250942082008E-002
  -1.9472691978092937E-002   5.0059562696478654E-003   1.0496415094298009E-003
  -1.6236819575307839E-002   4.6907989455819143E-003   6.7423873700949016E-003
  -1.3000947172522799E-002   6.2879158224590434E-003   1.3554789435417405E-002
  -9.7650747697378207E-003   9.7973069002788068E-003   2.1486847705398007E-002
  -6.5292023669526675E-003   1.5218972179043444E-002   3.0538562180036949E-002
  -2.7783783321317146E-002   5.2881601797722944E-003  -9.7142773332897780E-003
  -2.3355865085463501E-002   4.2069167510825345E-003  -4.1872976791758054E-003
  -1.8927946849609689E-002   4.7523665915291113E-003   2.6041174364185016E-003
  -1.4500028613755905E-002   6.9245097011131629E-003   1.0659968013491748E-002
  -1.0072110377902233E-002   1.0723346079832830E-002   1.9980254052044177E-002
 </DataArray>
 </PointData>
 </Piece>
 </UnstructuredGrid>
 </VTKFile>
