 <VTKFile type="UnstructuredGrid"  version="0.1"   >
 <UnstructuredGrid>
 <Piece  NumberOfPoints="            25 "  NumberOfCells="           16 ">
 <Points>
 <DataArray  type="Float64" NumberOfComponents="3"  format="ascii" >
   0.0000000000000000        0.0000000000000000        0.0000000000000000     
  0.25000000000000000        0.0000000000000000        0.0000000000000000     
  0.50000000000000000        0.0000000000000000        0.0000000000000000     
  0.75000000000000000        0.0000000000000000        0.0000000000000000     
   1.0000000000000000        0.0000000000000000        0.0000000000000000     
   0.0000000000000000       0.25000000000000000        0.0000000000000000     
  0.25000000000000000       0.25000000000000000        0.0000000000000000     
  0.50000000000000000       0.25000000000000000        0.0000000000000000     
  0.75000000000000000       0.25000000000000000        0.0000000000000000     
   1.0000000000000000       0.25000000000000000        0.0000000000000000     
   0.0000000000000000       0.50000000000000000        0.0000000000000000     
  0.25000000000000000       0.50000000000000000        0.0000000000000000     
  0.50000000000000000       0.50000000000000000        0.0000000000000000     
  0.75000000000000000       0.50000000000000000        0.0000000000000000     
   1.0000000000000000       0.50000000000000000        0.0000000000000000     
   0.0000000000000000       0.75000000000000000        0.0000000000000000     
  0.25000000000000000       0.75000000000000000        0.0000000000000000     
  0.50000000000000000       0.75000000000000000        0.0000000000000000     
  0.75000000000000000       0.75000000000000000        0.0000000000000000     
   1.0000000000000000       0.75000000000000000        0.0000000000000000     
   0.0000000000000000        1.0000000000000000        0.0000000000000000     
  0.25000000000000000        1.0000000000000000        0.0000000000000000     
  0.50000000000000000        1.0000000000000000        0.0000000000000000     
  0.75000000000000000        1.0000000000000000        0.0000000000000000     
   1.0000000000000000        1.0000000000000000        0.0000000000000000     
 </DataArray>
 </Points>
 <Cells>
 <DataArray  type="Int32"  Name="connectivity"  format="ascii">
           0           1           6           5
           1           2           7           6
           2           3           8           7
           3           4           9           8
           5           6          11          10
           6           7          12          11
           7           8          13          12
           8           9          14          13
          10          11          16          15
          11          12          17          16
          12          13          18          17
          13          14          19          18
          15          16          21          20
          16          17          22          21
          17          18          23          22
          18          19          24          23
 </DataArray>
 <DataArray  type="Int32"  Name="offsets"  format="ascii"> 
           4
           8
          12
          16
          20
          24
          28
          32
          36
          40
          44
          48
          52
          56
          60
          64
 </DataArray>
 <DataArray  type="UInt8"  Name="types"  format="ascii">
 9
 9
 9
 9
 9
 9
 9
 9
 9
 9
 9
 9
 9
 9
 9
 9
 </DataArray>
 </Cells> 
 <PointData>
 <DataArray  type="Float64" Name="disp" NumberOfComponents="3" format="ascii">
   0.0000000000000000        0.0000000000000000        0.0000000000000000     
   3.2028500729657988E-002   2.3611062526888146E-002   0.0000000000000000     
   5.8369351808990860E-002   5.7240025365516957E-002   0.0000000000000000     
   7.9022553237998630E-002  0.10088688851588644        0.0000000000000000     
   9.3988105016681270E-002  0.15455165197799658        0.0000000000000000     
   0.0000000000000000        0.0000000000000000        0.0000000000000000     
   1.6014250364809763E-002   1.9168472488904936E-002   0.0000000000000000     
   2.9184675904463699E-002   5.1121796551199986E-002   0.0000000000000000     
   3.9511276618961810E-002   9.5859972186885162E-002   0.0000000000000000     
   4.6994052508304116E-002  0.15338299939596045        0.0000000000000000     
   0.0000000000000000        0.0000000000000000        0.0000000000000000     
  -1.8403681356637946E-014   1.7687609142912616E-002   0.0000000000000000     
  -2.3869795029440866E-014   4.9082386946409519E-002   0.0000000000000000     
  -1.6397473656670769E-014   9.4184333410490706E-002   0.0000000000000000     
   4.0072112295064244E-015  0.15299344853515617        0.0000000000000000     
   0.0000000000000000        0.0000000000000000        0.0000000000000000     
  -1.6014250364826503E-002   1.9168472488911188E-002   0.0000000000000000     
  -2.9184675904471852E-002   5.1121796551145543E-002   0.0000000000000000     
  -3.9511276618936018E-002   9.5859972186703071E-002   0.0000000000000000     
  -4.6994052508219038E-002  0.15338299939558375        0.0000000000000000     
   0.0000000000000000        0.0000000000000000        0.0000000000000000     
  -3.2028500729614537E-002   2.3611062526900643E-002   0.0000000000000000     
  -5.8369351808880227E-002   5.7240025365408065E-002   0.0000000000000000     
  -7.9022553237797055E-002  0.10088688851552226        0.0000000000000000     
  -9.3988105016365037E-002  0.15455165197724324        0.0000000000000000     
 </DataArray>
 <DataArray  type="Float64" Name="stress" NumberOfComponents="3" format="ascii">
   9197096849.6230011        2759129054.8869004        1717118065.0170286     
   7228388542.2334509        746887750.51515889        1163608829.3446355     
   5551578389.9198904       -292359703.60328484        872606500.61097085     
   4166666392.6823206       -358613307.46843052        844111078.81603432     
   3073652550.5207381        548126938.91972327        1078122563.9598272     
   4598548424.8055401        1379564527.4416621        1179327387.8962965     
   3614194271.1126647        373443875.25673628        881229037.91647363     
   2775789194.9564610       -146179851.80595410        845637594.87533009     
   2083333196.3369262       -179306653.74641037        1072553058.7728660     
   1536826275.2540634        274063469.43536961        1561975429.6090808     
  -6.5597710413772643E-003  -1.9679313124131791E-003   1000063828.8572747     
  -2.9004385889378811E-003  -1.2021061801659064E-004   787102440.77415013     
  -1.8896971899361593E-003  -7.1004328790218165E-003   836647959.62965584     
  -3.5276840972185497E-003  -2.2909055604917024E-002   1148700385.4237914     
  -7.8135300427575292E-003  -4.7544569014391254E-002   1723259718.1565573     
  -4598548424.8132963       -1379564527.4439890        1179327387.8999631     
  -3614194271.1132455       -373443875.25541043        881229037.91766477     
  -2775789194.9551592        146179851.79327798        845637594.87394738     
  -2083333196.3390408        179306653.70207536        1072553058.7688111     
  -1536826275.2648900       -274063469.52901864        1561975429.6022542     
  -9197096849.6146717       -2759129054.8844018        1717118065.0243618     
  -7228388542.2183666       -746887750.50913382        1163608829.3470182     
  -5551578389.9033480        292359703.59518003        872606500.60820556     
  -4166666392.6696157        358613307.42853975        844111078.80792546     
  -3073652550.5171680       -548126939.00905335        1078122563.9461756     
 </DataArray>
 <DataArray  type="Float64" Name="VM" NumberOfComponents="1" format="ascii">
   8698786686.2043629     
   7174301631.1268597     
   5900244142.6647320     
   4595813843.9822626     
   3398540299.5154181     
   4569276844.2718916     
   3765880467.3777084     
   3205845829.5236144     
   2863056719.4451895     
   3055332972.4895916     
   1732161362.3926661     
   1363301418.1823010     
   1449116774.1273987     
   1989607430.2279584     
   2984773386.4839811     
   4569276844.2808981     
   3765880467.3795776     
   3205845829.5152974     
   2863056719.4233298     
   3055332972.4689293     
   8698786686.2017498     
   7174301631.1160135     
   5900244142.6433153     
   4595813843.9445848     
   3398540299.4734974     
 </DataArray>
 <DataArray  type="Float64" Name="strain" NumberOfComponents="3" format="ascii">
  0.13948930221928219        0.0000000000000000        7.4408449484071243E-002
  0.11673870361798172       -2.3693813535914609E-002   5.0423049271600871E-002
   9.3988105016681270E-002  -3.2630553676320867E-002   3.7812948359808737E-002
   7.1237506415380819E-002  -2.6810220421218774E-002   3.6578146748694820E-002
   4.8486907814080354E-002  -6.2328137706083031E-003   4.6718644438259183E-002
   6.9744651109550693E-002   0.0000000000000000        5.1104186808839512E-002
   5.8369351808927397E-002  -1.1846906767951054E-002   3.8186591643047191E-002
   4.6994052508304116E-002  -1.6315276838214873E-002   3.6644295777930970E-002
   3.5618753207680820E-002  -1.3405110210791469E-002   4.6477299213490864E-002
   2.4243453907057538E-002  -3.1164068856808225E-003   6.7685601949726837E-002
  -9.9489860794221840E-014   0.0000000000000000        4.3336099250481902E-002
  -4.7739590058881731E-014   1.2498682644412895E-014   3.4107772433546506E-002
   4.0072112295064244E-015  -1.0889206203401613E-013   3.6254744917285087E-002
   5.5750543070942626E-014  -3.6417917292919100E-013   4.9777016701697624E-002
   1.0749734435933078E-013  -7.5334183335939997E-013   7.4674587786784152E-002
  -6.9744651109668335E-002   0.0000000000000000        5.1104186808998406E-002
  -5.8369351808943704E-002   1.1846906767976052E-002   3.8186591643098809E-002
  -4.6994052508219038E-002   1.6315276837997095E-002   3.6644295777871053E-002
  -3.5618753207494386E-002   1.3405110210063124E-002   4.6477299213315150E-002
  -2.4243453906769741E-002   3.1164068841741388E-003   6.7685601949431018E-002
 -0.13948930221915587        0.0000000000000000        7.4408449484389017E-002
 -0.11673870361776045        2.3693813535939606E-002   5.0423049271704122E-002
  -9.3988105016365037E-002   3.2630553676103076E-002   3.7812948359688910E-002
  -7.1237506414969634E-002   2.6810220420490413E-002   3.6578146748343435E-002
  -4.8486907813574204E-002   6.2328137691016194E-003   4.6718644437667607E-002
 </DataArray>
 </PointData>
 </Piece>
 <Piece  NumberOfPoints="            25 "  NumberOfCells="           16 ">
 <Points>
 <DataArray  type="Float64" NumberOfComponents="3"  format="ascii" >
  0.50000000000000000        0.0000000000000000        0.0000000000000000     
  0.75000000000000000        0.0000000000000000        0.0000000000000000     
   1.0000000000000000        0.0000000000000000        0.0000000000000000     
   1.2500000000000000        0.0000000000000000        0.0000000000000000     
   1.5000000000000000        0.0000000000000000        0.0000000000000000     
  0.50000000000000000       0.25000000000000000        0.0000000000000000     
  0.75000000000000000       0.25000000000000000        0.0000000000000000     
   1.0000000000000000       0.25000000000000000        0.0000000000000000     
   1.2500000000000000       0.25000000000000000        0.0000000000000000     
   1.5000000000000000       0.25000000000000000        0.0000000000000000     
  0.50000000000000000       0.50000000000000000        0.0000000000000000     
  0.75000000000000000       0.50000000000000000        0.0000000000000000     
   1.0000000000000000       0.50000000000000000        0.0000000000000000     
   1.2500000000000000       0.50000000000000000        0.0000000000000000     
   1.5000000000000000       0.50000000000000000        0.0000000000000000     
  0.50000000000000000       0.75000000000000000        0.0000000000000000     
  0.75000000000000000       0.75000000000000000        0.0000000000000000     
   1.0000000000000000       0.75000000000000000        0.0000000000000000     
   1.2500000000000000       0.75000000000000000        0.0000000000000000     
   1.5000000000000000       0.75000000000000000        0.0000000000000000     
  0.50000000000000000        1.0000000000000000        0.0000000000000000     
  0.75000000000000000        1.0000000000000000        0.0000000000000000     
   1.0000000000000000        1.0000000000000000        0.0000000000000000     
   1.2500000000000000        1.0000000000000000        0.0000000000000000     
   1.5000000000000000        1.0000000000000000        0.0000000000000000     
 </DataArray>
 </Points>
 <Cells>
 <DataArray  type="Int32"  Name="connectivity"  format="ascii">
           0           1           6           5
           1           2           7           6
           2           3           8           7
           3           4           9           8
           5           6          11          10
           6           7          12          11
           7           8          13          12
           8           9          14          13
          10          11          16          15
          11          12          17          16
          12          13          18          17
          13          14          19          18
          15          16          21          20
          16          17          22          21
          17          18          23          22
          18          19          24          23
 </DataArray>
 <DataArray  type="Int32"  Name="offsets"  format="ascii"> 
           4
           8
          12
          16
          20
          24
          28
          32
          36
          40
          44
          48
          52
          56
          60
          64
 </DataArray>
 <DataArray  type="UInt8"  Name="types"  format="ascii">
 9
 9
 9
 9
 9
 9
 9
 9
 9
 9
 9
 9
 9
 9
 9
 9
 </DataArray>
 </Cells> 
 <PointData>
 <DataArray  type="Float64" Name="disp" NumberOfComponents="3" format="ascii">
   5.8285995191800485E-002   5.5868365173311924E-002   0.0000000000000000     
   7.9063609482336705E-002  0.10156248234132254        0.0000000000000000     
   9.3904748399288904E-002  0.15317999178578104        0.0000000000000000     
  0.10280941194265709       0.21072089350668746        0.0000000000000000     
  0.10577760011244125       0.27418518750404181        0.0000000000000000     
   2.9142997595865472E-002   4.8552083893497341E-002   0.0000000000000000     
   3.9531804741130813E-002   9.7125651555316633E-002   0.0000000000000000     
   4.6952374199610111E-002  0.15081328673825239        0.0000000000000000     
   5.1404705971303345E-002  0.20961498944230461        0.0000000000000000     
   5.2888800056210550E-002  0.27353075966747326        0.0000000000000000     
   6.1704114040495028E-015   4.6113323467015598E-002   0.0000000000000000     
  -1.6500689703491389E-014   9.5646707960042793E-002   0.0000000000000000     
  -2.6314887768830175E-014  0.15002438505576215        0.0000000000000000     
  -2.3284542696733190E-014  0.20924635475417361        0.0000000000000000     
  -7.4037997954690127E-015  0.27331261705527715        0.0000000000000000     
  -2.9142997595777428E-002   4.8552083893866720E-002   0.0000000000000000     
  -3.9531804741105230E-002   9.7125651555501041E-002   0.0000000000000000     
  -4.6952374199620353E-002  0.15081328673831026        0.0000000000000000     
  -5.1404705971322823E-002  0.20961498944229445        0.0000000000000000     
  -5.2888800056212590E-002  0.27353075966745355        0.0000000000000000     
  -5.8285995191485321E-002   5.5868365174050687E-002   0.0000000000000000     
  -7.9063609482135394E-002  0.10156248234169130        0.0000000000000000     
  -9.3904748399172025E-002  0.15317999178589678        0.0000000000000000     
 -0.10280941194259524       0.21072089350666712        0.0000000000000000     
 -0.10577760011240503       0.27418518750400234        0.0000000000000000     
 </DataArray>
 <DataArray  type="Float64" Name="stress" NumberOfComponents="3" format="ascii">
   5490814804.0572987       -693965568.33825350        1254408316.9674265     
   4228917175.2086067       -151110698.96667767        842216175.23071229     
   2881640231.5109906        107146454.24181652        704015204.58299875     
   1448983972.9644496        80805891.287228286        839805405.02428544     
  -69051600.431018904       -230132387.83045107        1249586776.5545728     
   2745407402.0344400       -346982784.14522719        1557557197.4182086     
   2114458587.6080062       -75555349.471164584        1070658155.1877779     
   1440820115.7582686        53573227.125212610        857750284.04643404     
   724491986.48522413        40402945.643904269        918833583.99417627     
  -34525800.211128518       -115066193.91509697        1253908055.0310044     
   6.9400071769951076E-003   4.6407795189135986E-002   1658606824.2332029     
   3.0108699416448448E-003   2.3029311973882433E-002   1146805481.8389456     
   1.3942372897227744E-003   7.3622998723129520E-003   908995310.53386021     
   2.0912415572121195E-003  -5.9362999863739959E-004   945176310.31794751     
   5.1019628082733083E-003  -8.3751686904346605E-004   1255348481.1912055     
  -2745407402.0251989        346982784.23665047        1557557197.4124093     
  -2114458587.6063814        75555349.515902877        1070658155.1842148     
  -1440820115.7596295       -53573227.111732423        857750284.04527748     
  -724491986.48494565       -40402945.646261036        918833583.99559867     
   34525800.217671245        115066193.91232193        1253908055.0351756     
  -5490814804.0619783        693965568.42550182        1254408316.9558282     
  -4228917175.2201662        151110699.00746107        842216175.22358513     
  -2881640231.5248046       -107146454.23207271        704015204.58068621     
  -1448983972.9758904       -80805891.293101311        839805405.02712882     
   69051600.426578864        230132387.82438284        1249586776.5629160     
 </DataArray>
 <DataArray  type="Float64" Name="VM" NumberOfComponents="1" format="ascii">
   6257930369.9915600     
   4546822385.5562305     
   3081150025.2607732     
   2026034812.0163865     
   2173991574.5421066     
   3986003164.7374897     
   2841712343.4440489     
   2051548186.7788048     
   1740693795.9834731     
   2174239117.2212558     
   2872791289.3523698     
   1986325360.9435611     
   1574426061.6864951     
   1637093391.5811727     
   2174327350.6275911     
   3986003164.7633677     
   2841712343.4566255     
   2051548186.7826738     
   1740693795.9851770     
   2174239117.2282786     
   6257930370.0369024     
   4546822385.5835342     
   3081150025.2760849     
   2026034812.0260108     
   2173991574.5560417     
 </DataArray>
 <DataArray  type="Float64" Name="strain" NumberOfComponents="3" format="ascii">
   9.4983407909312922E-002  -3.9020166825924060E-002   5.4357693735255147E-002
   7.1237506414976837E-002  -2.3663097525487661E-002   3.6496034259997534E-002
   4.7491604920640765E-002  -1.2622426920191346E-002   3.0507325531929946E-002
   2.3745703426304686E-002  -5.8981550100351103E-003   3.6391567551052370E-002
  -1.9806803139288398E-007  -3.4902817950190901E-003   5.4148760317364819E-002
   4.7491703954633466E-002  -1.9510083412592652E-002   6.7494145221455706E-002
   3.5618753207489265E-002  -1.1831548762559443E-002   4.6395186724803708E-002
   2.3745802460345078E-002  -6.3112134600377991E-003   3.7169178975345475E-002
   1.1872851713200881E-002  -2.9490775050277163E-003   3.9816121973080973E-002
  -9.9033943323778573E-008  -1.7451408975293070E-003   5.4336015718010194E-002
  -1.1637218966242813E-013   7.3876321726729088E-013   7.1872962383438793E-002
  -6.4965394175331426E-014   3.6876751652314965E-013   4.9694904213020974E-002
  -1.3574211199518516E-014   1.1573381142326866E-013   3.9389796789800612E-002
   3.7822175946722325E-014  -2.0350041096683924E-014   4.0957640113777727E-002
   8.9220297816439142E-014  -3.9468428525424315E-014   5.4398434184952243E-002
  -4.7491703954936570E-002   1.9510083414070171E-002   6.7494145221204407E-002
  -3.5618753207685871E-002   1.1831548763296954E-002   4.6395186724649311E-002
  -2.3745802460435162E-002   6.3112134602692736E-003   3.7169178975295356E-002
  -1.1872851713184454E-002   2.9490775049870440E-003   3.9816121973142611E-002
   9.9034066244549357E-008   1.7451408974503424E-003   5.4336015718190939E-002
  -9.4983407909827150E-002   3.9020166827401587E-002   5.4357693734752556E-002
  -7.1237506415373408E-002   2.3663097526225182E-002   3.6496034259688691E-002
  -4.7491604920919708E-002   1.2622426920422810E-002   3.0507325531829738E-002
  -2.3745703426466001E-002   5.8981550099944302E-003   3.6391567551175584E-002
   1.9806798773336354E-007   3.4902817949401532E-003   5.4148760317726363E-002
 </DataArray>
 </PointData>
 </Piece>
 </UnstructuredGrid>
 </VTKFile>
