 <VTKFile type="UnstructuredGrid"  version="0.1"   >
 <UnstructuredGrid>
 <Piece  NumberOfPoints="          1600 "  NumberOfCells="         1024 ">
 <Points>
 <DataArray  type="Float64" NumberOfComponents="3"  format="ascii" >
   0.0000000000000000        0.0000000000000000        0.0000000000000000     
   3.1250000000000000E-002   0.0000000000000000        0.0000000000000000     
   6.2500000000000000E-002   0.0000000000000000        0.0000000000000000     
   9.3750000000000000E-002   0.0000000000000000        0.0000000000000000     
  0.12500000000000000        0.0000000000000000        0.0000000000000000     
   0.0000000000000000        3.1250000000000000E-002   0.0000000000000000     
   3.1250000000000000E-002   3.1250000000000000E-002   0.0000000000000000     
   6.2500000000000000E-002   3.1250000000000000E-002   0.0000000000000000     
   9.3750000000000000E-002   3.1250000000000000E-002   0.0000000000000000     
  0.12500000000000000        3.1250000000000000E-002   0.0000000000000000     
   0.0000000000000000        6.2500000000000000E-002   0.0000000000000000     
   3.1250000000000000E-002   6.2500000000000000E-002   0.0000000000000000     
   6.2500000000000000E-002   6.2500000000000000E-002   0.0000000000000000     
   9.3750000000000000E-002   6.2500000000000000E-002   0.0000000000000000     
  0.12500000000000000        6.2500000000000000E-002   0.0000000000000000     
   0.0000000000000000        9.3750000000000000E-002   0.0000000000000000     
   3.1250000000000000E-002   9.3750000000000000E-002   0.0000000000000000     
   6.2500000000000000E-002   9.3750000000000000E-002   0.0000000000000000     
   9.3750000000000000E-002   9.3750000000000000E-002   0.0000000000000000     
  0.12500000000000000        9.3750000000000000E-002   0.0000000000000000     
   0.0000000000000000       0.12500000000000000        0.0000000000000000     
   3.1250000000000000E-002  0.12500000000000000        0.0000000000000000     
   6.2500000000000000E-002  0.12500000000000000        0.0000000000000000     
   9.3750000000000000E-002  0.12500000000000000        0.0000000000000000     
  0.12500000000000000       0.12500000000000000        0.0000000000000000     
  0.12500000000000000        0.0000000000000000        0.0000000000000000     
  0.15625000000000000        0.0000000000000000        0.0000000000000000     
  0.18750000000000000        0.0000000000000000        0.0000000000000000     
  0.21875000000000000        0.0000000000000000        0.0000000000000000     
  0.25000000000000000        0.0000000000000000        0.0000000000000000     
  0.12500000000000000        3.1250000000000000E-002   0.0000000000000000     
  0.15625000000000000        3.1250000000000000E-002   0.0000000000000000     
  0.18750000000000000        3.1250000000000000E-002   0.0000000000000000     
  0.21875000000000000        3.1250000000000000E-002   0.0000000000000000     
  0.25000000000000000        3.1250000000000000E-002   0.0000000000000000     
  0.12500000000000000        6.2500000000000000E-002   0.0000000000000000     
  0.15625000000000000        6.2500000000000000E-002   0.0000000000000000     
  0.18750000000000000        6.2500000000000000E-002   0.0000000000000000     
  0.21875000000000000        6.2500000000000000E-002   0.0000000000000000     
  0.25000000000000000        6.2500000000000000E-002   0.0000000000000000     
  0.12500000000000000        9.3750000000000000E-002   0.0000000000000000     
  0.15625000000000000        9.3750000000000000E-002   0.0000000000000000     
  0.18750000000000000        9.3750000000000000E-002   0.0000000000000000     
  0.21875000000000000        9.3750000000000000E-002   0.0000000000000000     
  0.25000000000000000        9.3750000000000000E-002   0.0000000000000000     
  0.12500000000000000       0.12500000000000000        0.0000000000000000     
  0.15625000000000000       0.12500000000000000        0.0000000000000000     
  0.18750000000000000       0.12500000000000000        0.0000000000000000     
  0.21875000000000000       0.12500000000000000        0.0000000000000000     
  0.25000000000000000       0.12500000000000000        0.0000000000000000     
  0.25000000000000000        0.0000000000000000        0.0000000000000000     
  0.28125000000000000        0.0000000000000000        0.0000000000000000     
  0.31250000000000000        0.0000000000000000        0.0000000000000000     
  0.34375000000000000        0.0000000000000000        0.0000000000000000     
  0.37500000000000000        0.0000000000000000        0.0000000000000000     
  0.25000000000000000        3.1250000000000000E-002   0.0000000000000000     
  0.28125000000000000        3.1250000000000000E-002   0.0000000000000000     
  0.31250000000000000        3.1250000000000000E-002   0.0000000000000000     
  0.34375000000000000        3.1250000000000000E-002   0.0000000000000000     
  0.37500000000000000        3.1250000000000000E-002   0.0000000000000000     
  0.25000000000000000        6.2500000000000000E-002   0.0000000000000000     
  0.28125000000000000        6.2500000000000000E-002   0.0000000000000000     
  0.31250000000000000        6.2500000000000000E-002   0.0000000000000000     
  0.34375000000000000        6.2500000000000000E-002   0.0000000000000000     
  0.37500000000000000        6.2500000000000000E-002   0.0000000000000000     
  0.25000000000000000        9.3750000000000000E-002   0.0000000000000000     
  0.28125000000000000        9.3750000000000000E-002   0.0000000000000000     
  0.31250000000000000        9.3750000000000000E-002   0.0000000000000000     
  0.34375000000000000        9.3750000000000000E-002   0.0000000000000000     
  0.37500000000000000        9.3750000000000000E-002   0.0000000000000000     
  0.25000000000000000       0.12500000000000000        0.0000000000000000     
  0.28125000000000000       0.12500000000000000        0.0000000000000000     
  0.31250000000000000       0.12500000000000000        0.0000000000000000     
  0.34375000000000000       0.12500000000000000        0.0000000000000000     
  0.37500000000000000       0.12500000000000000        0.0000000000000000     
  0.37500000000000000        0.0000000000000000        0.0000000000000000     
  0.40625000000000000        0.0000000000000000        0.0000000000000000     
  0.43750000000000000        0.0000000000000000        0.0000000000000000     
  0.46875000000000000        0.0000000000000000        0.0000000000000000     
  0.50000000000000000        0.0000000000000000        0.0000000000000000     
  0.37500000000000000        3.1250000000000000E-002   0.0000000000000000     
  0.40625000000000000        3.1250000000000000E-002   0.0000000000000000     
  0.43750000000000000        3.1250000000000000E-002   0.0000000000000000     
  0.46875000000000000        3.1250000000000000E-002   0.0000000000000000     
  0.50000000000000000        3.1250000000000000E-002   0.0000000000000000     
  0.37500000000000000        6.2500000000000000E-002   0.0000000000000000     
  0.40625000000000000        6.2500000000000000E-002   0.0000000000000000     
  0.43750000000000000        6.2500000000000000E-002   0.0000000000000000     
  0.46875000000000000        6.2500000000000000E-002   0.0000000000000000     
  0.50000000000000000        6.2500000000000000E-002   0.0000000000000000     
  0.37500000000000000        9.3750000000000000E-002   0.0000000000000000     
  0.40625000000000000        9.3750000000000000E-002   0.0000000000000000     
  0.43750000000000000        9.3750000000000000E-002   0.0000000000000000     
  0.46875000000000000        9.3750000000000000E-002   0.0000000000000000     
  0.50000000000000000        9.3750000000000000E-002   0.0000000000000000     
  0.37500000000000000       0.12500000000000000        0.0000000000000000     
  0.40625000000000000       0.12500000000000000        0.0000000000000000     
  0.43750000000000000       0.12500000000000000        0.0000000000000000     
  0.46875000000000000       0.12500000000000000        0.0000000000000000     
  0.50000000000000000       0.12500000000000000        0.0000000000000000     
  0.50000000000000000        0.0000000000000000        0.0000000000000000     
  0.53125000000000000        0.0000000000000000        0.0000000000000000     
  0.56250000000000000        0.0000000000000000        0.0000000000000000     
  0.59375000000000000        0.0000000000000000        0.0000000000000000     
  0.62500000000000000        0.0000000000000000        0.0000000000000000     
  0.50000000000000000        3.1250000000000000E-002   0.0000000000000000     
  0.53125000000000000        3.1250000000000000E-002   0.0000000000000000     
  0.56250000000000000        3.1250000000000000E-002   0.0000000000000000     
  0.59375000000000000        3.1250000000000000E-002   0.0000000000000000     
  0.62500000000000000        3.1250000000000000E-002   0.0000000000000000     
  0.50000000000000000        6.2500000000000000E-002   0.0000000000000000     
  0.53125000000000000        6.2500000000000000E-002   0.0000000000000000     
  0.56250000000000000        6.2500000000000000E-002   0.0000000000000000     
  0.59375000000000000        6.2500000000000000E-002   0.0000000000000000     
  0.62500000000000000        6.2500000000000000E-002   0.0000000000000000     
  0.50000000000000000        9.3750000000000000E-002   0.0000000000000000     
  0.53125000000000000        9.3750000000000000E-002   0.0000000000000000     
  0.56250000000000000        9.3750000000000000E-002   0.0000000000000000     
  0.59375000000000000        9.3750000000000000E-002   0.0000000000000000     
  0.62500000000000000        9.3750000000000000E-002   0.0000000000000000     
  0.50000000000000000       0.12500000000000000        0.0000000000000000     
  0.53125000000000000       0.12500000000000000        0.0000000000000000     
  0.56250000000000000       0.12500000000000000        0.0000000000000000     
  0.59375000000000000       0.12500000000000000        0.0000000000000000     
  0.62500000000000000       0.12500000000000000        0.0000000000000000     
  0.62500000000000000        0.0000000000000000        0.0000000000000000     
  0.65625000000000000        0.0000000000000000        0.0000000000000000     
  0.68750000000000000        0.0000000000000000        0.0000000000000000     
  0.71875000000000000        0.0000000000000000        0.0000000000000000     
  0.75000000000000000        0.0000000000000000        0.0000000000000000     
  0.62500000000000000        3.1250000000000000E-002   0.0000000000000000     
  0.65625000000000000        3.1250000000000000E-002   0.0000000000000000     
  0.68750000000000000        3.1250000000000000E-002   0.0000000000000000     
  0.71875000000000000        3.1250000000000000E-002   0.0000000000000000     
  0.75000000000000000        3.1250000000000000E-002   0.0000000000000000     
  0.62500000000000000        6.2500000000000000E-002   0.0000000000000000     
  0.65625000000000000        6.2500000000000000E-002   0.0000000000000000     
  0.68750000000000000        6.2500000000000000E-002   0.0000000000000000     
  0.71875000000000000        6.2500000000000000E-002   0.0000000000000000     
  0.75000000000000000        6.2500000000000000E-002   0.0000000000000000     
  0.62500000000000000        9.3750000000000000E-002   0.0000000000000000     
  0.65625000000000000        9.3750000000000000E-002   0.0000000000000000     
  0.68750000000000000        9.3750000000000000E-002   0.0000000000000000     
  0.71875000000000000        9.3750000000000000E-002   0.0000000000000000     
  0.75000000000000000        9.3750000000000000E-002   0.0000000000000000     
  0.62500000000000000       0.12500000000000000        0.0000000000000000     
  0.65625000000000000       0.12500000000000000        0.0000000000000000     
  0.68750000000000000       0.12500000000000000        0.0000000000000000     
  0.71875000000000000       0.12500000000000000        0.0000000000000000     
  0.75000000000000000       0.12500000000000000        0.0000000000000000     
  0.75000000000000000        0.0000000000000000        0.0000000000000000     
  0.78125000000000000        0.0000000000000000        0.0000000000000000     
  0.81250000000000000        0.0000000000000000        0.0000000000000000     
  0.84375000000000000        0.0000000000000000        0.0000000000000000     
  0.87500000000000000        0.0000000000000000        0.0000000000000000     
  0.75000000000000000        3.1250000000000000E-002   0.0000000000000000     
  0.78125000000000000        3.1250000000000000E-002   0.0000000000000000     
  0.81250000000000000        3.1250000000000000E-002   0.0000000000000000     
  0.84375000000000000        3.1250000000000000E-002   0.0000000000000000     
  0.87500000000000000        3.1250000000000000E-002   0.0000000000000000     
  0.75000000000000000        6.2500000000000000E-002   0.0000000000000000     
  0.78125000000000000        6.2500000000000000E-002   0.0000000000000000     
  0.81250000000000000        6.2500000000000000E-002   0.0000000000000000     
  0.84375000000000000        6.2500000000000000E-002   0.0000000000000000     
  0.87500000000000000        6.2500000000000000E-002   0.0000000000000000     
  0.75000000000000000        9.3750000000000000E-002   0.0000000000000000     
  0.78125000000000000        9.3750000000000000E-002   0.0000000000000000     
  0.81250000000000000        9.3750000000000000E-002   0.0000000000000000     
  0.84375000000000000        9.3750000000000000E-002   0.0000000000000000     
  0.87500000000000000        9.3750000000000000E-002   0.0000000000000000     
  0.75000000000000000       0.12500000000000000        0.0000000000000000     
  0.78125000000000000       0.12500000000000000        0.0000000000000000     
  0.81250000000000000       0.12500000000000000        0.0000000000000000     
  0.84375000000000000       0.12500000000000000        0.0000000000000000     
  0.87500000000000000       0.12500000000000000        0.0000000000000000     
  0.87500000000000000        0.0000000000000000        0.0000000000000000     
  0.90625000000000000        0.0000000000000000        0.0000000000000000     
  0.93750000000000000        0.0000000000000000        0.0000000000000000     
  0.96875000000000000        0.0000000000000000        0.0000000000000000     
   1.0000000000000000        0.0000000000000000        0.0000000000000000     
  0.87500000000000000        3.1250000000000000E-002   0.0000000000000000     
  0.90625000000000000        3.1250000000000000E-002   0.0000000000000000     
  0.93750000000000000        3.1250000000000000E-002   0.0000000000000000     
  0.96875000000000000        3.1250000000000000E-002   0.0000000000000000     
   1.0000000000000000        3.1250000000000000E-002   0.0000000000000000     
  0.87500000000000000        6.2500000000000000E-002   0.0000000000000000     
  0.90625000000000000        6.2500000000000000E-002   0.0000000000000000     
  0.93750000000000000        6.2500000000000000E-002   0.0000000000000000     
  0.96875000000000000        6.2500000000000000E-002   0.0000000000000000     
   1.0000000000000000        6.2500000000000000E-002   0.0000000000000000     
  0.87500000000000000        9.3750000000000000E-002   0.0000000000000000     
  0.90625000000000000        9.3750000000000000E-002   0.0000000000000000     
  0.93750000000000000        9.3750000000000000E-002   0.0000000000000000     
  0.96875000000000000        9.3750000000000000E-002   0.0000000000000000     
   1.0000000000000000        9.3750000000000000E-002   0.0000000000000000     
  0.87500000000000000       0.12500000000000000        0.0000000000000000     
  0.90625000000000000       0.12500000000000000        0.0000000000000000     
  0.93750000000000000       0.12500000000000000        0.0000000000000000     
  0.96875000000000000       0.12500000000000000        0.0000000000000000     
   1.0000000000000000       0.12500000000000000        0.0000000000000000     
   0.0000000000000000       0.12500000000000000        0.0000000000000000     
   3.1250000000000000E-002  0.12500000000000000        0.0000000000000000     
   6.2500000000000000E-002  0.12500000000000000        0.0000000000000000     
   9.3750000000000000E-002  0.12500000000000000        0.0000000000000000     
  0.12500000000000000       0.12500000000000000        0.0000000000000000     
   0.0000000000000000       0.15625000000000000        0.0000000000000000     
   3.1250000000000000E-002  0.15625000000000000        0.0000000000000000     
   6.2500000000000000E-002  0.15625000000000000        0.0000000000000000     
   9.3750000000000000E-002  0.15625000000000000        0.0000000000000000     
  0.12500000000000000       0.15625000000000000        0.0000000000000000     
   0.0000000000000000       0.18750000000000000        0.0000000000000000     
   3.1250000000000000E-002  0.18750000000000000        0.0000000000000000     
   6.2500000000000000E-002  0.18750000000000000        0.0000000000000000     
   9.3750000000000000E-002  0.18750000000000000        0.0000000000000000     
  0.12500000000000000       0.18750000000000000        0.0000000000000000     
   0.0000000000000000       0.21875000000000000        0.0000000000000000     
   3.1250000000000000E-002  0.21875000000000000        0.0000000000000000     
   6.2500000000000000E-002  0.21875000000000000        0.0000000000000000     
   9.3750000000000000E-002  0.21875000000000000        0.0000000000000000     
  0.12500000000000000       0.21875000000000000        0.0000000000000000     
   0.0000000000000000       0.25000000000000000        0.0000000000000000     
   3.1250000000000000E-002  0.25000000000000000        0.0000000000000000     
   6.2500000000000000E-002  0.25000000000000000        0.0000000000000000     
   9.3750000000000000E-002  0.25000000000000000        0.0000000000000000     
  0.12500000000000000       0.25000000000000000        0.0000000000000000     
  0.12500000000000000       0.12500000000000000        0.0000000000000000     
  0.15625000000000000       0.12500000000000000        0.0000000000000000     
  0.18750000000000000       0.12500000000000000        0.0000000000000000     
  0.21875000000000000       0.12500000000000000        0.0000000000000000     
  0.25000000000000000       0.12500000000000000        0.0000000000000000     
  0.12500000000000000       0.15625000000000000        0.0000000000000000     
  0.15625000000000000       0.15625000000000000        0.0000000000000000     
  0.18750000000000000       0.15625000000000000        0.0000000000000000     
  0.21875000000000000       0.15625000000000000        0.0000000000000000     
  0.25000000000000000       0.15625000000000000        0.0000000000000000     
  0.12500000000000000       0.18750000000000000        0.0000000000000000     
  0.15625000000000000       0.18750000000000000        0.0000000000000000     
  0.18750000000000000       0.18750000000000000        0.0000000000000000     
  0.21875000000000000       0.18750000000000000        0.0000000000000000     
  0.25000000000000000       0.18750000000000000        0.0000000000000000     
  0.12500000000000000       0.21875000000000000        0.0000000000000000     
  0.15625000000000000       0.21875000000000000        0.0000000000000000     
  0.18750000000000000       0.21875000000000000        0.0000000000000000     
  0.21875000000000000       0.21875000000000000        0.0000000000000000     
  0.25000000000000000       0.21875000000000000        0.0000000000000000     
  0.12500000000000000       0.25000000000000000        0.0000000000000000     
  0.15625000000000000       0.25000000000000000        0.0000000000000000     
  0.18750000000000000       0.25000000000000000        0.0000000000000000     
  0.21875000000000000       0.25000000000000000        0.0000000000000000     
  0.25000000000000000       0.25000000000000000        0.0000000000000000     
  0.25000000000000000       0.12500000000000000        0.0000000000000000     
  0.28125000000000000       0.12500000000000000        0.0000000000000000     
  0.31250000000000000       0.12500000000000000        0.0000000000000000     
  0.34375000000000000       0.12500000000000000        0.0000000000000000     
  0.37500000000000000       0.12500000000000000        0.0000000000000000     
  0.25000000000000000       0.15625000000000000        0.0000000000000000     
  0.28125000000000000       0.15625000000000000        0.0000000000000000     
  0.31250000000000000       0.15625000000000000        0.0000000000000000     
  0.34375000000000000       0.15625000000000000        0.0000000000000000     
  0.37500000000000000       0.15625000000000000        0.0000000000000000     
  0.25000000000000000       0.18750000000000000        0.0000000000000000     
  0.28125000000000000       0.18750000000000000        0.0000000000000000     
  0.31250000000000000       0.18750000000000000        0.0000000000000000     
  0.34375000000000000       0.18750000000000000        0.0000000000000000     
  0.37500000000000000       0.18750000000000000        0.0000000000000000     
  0.25000000000000000       0.21875000000000000        0.0000000000000000     
  0.28125000000000000       0.21875000000000000        0.0000000000000000     
  0.31250000000000000       0.21875000000000000        0.0000000000000000     
  0.34375000000000000       0.21875000000000000        0.0000000000000000     
  0.37500000000000000       0.21875000000000000        0.0000000000000000     
  0.25000000000000000       0.25000000000000000        0.0000000000000000     
  0.28125000000000000       0.25000000000000000        0.0000000000000000     
  0.31250000000000000       0.25000000000000000        0.0000000000000000     
  0.34375000000000000       0.25000000000000000        0.0000000000000000     
  0.37500000000000000       0.25000000000000000        0.0000000000000000     
  0.37500000000000000       0.12500000000000000        0.0000000000000000     
  0.40625000000000000       0.12500000000000000        0.0000000000000000     
  0.43750000000000000       0.12500000000000000        0.0000000000000000     
  0.46875000000000000       0.12500000000000000        0.0000000000000000     
  0.50000000000000000       0.12500000000000000        0.0000000000000000     
  0.37500000000000000       0.15625000000000000        0.0000000000000000     
  0.40625000000000000       0.15625000000000000        0.0000000000000000     
  0.43750000000000000       0.15625000000000000        0.0000000000000000     
  0.46875000000000000       0.15625000000000000        0.0000000000000000     
  0.50000000000000000       0.15625000000000000        0.0000000000000000     
  0.37500000000000000       0.18750000000000000        0.0000000000000000     
  0.40625000000000000       0.18750000000000000        0.0000000000000000     
  0.43750000000000000       0.18750000000000000        0.0000000000000000     
  0.46875000000000000       0.18750000000000000        0.0000000000000000     
  0.50000000000000000       0.18750000000000000        0.0000000000000000     
  0.37500000000000000       0.21875000000000000        0.0000000000000000     
  0.40625000000000000       0.21875000000000000        0.0000000000000000     
  0.43750000000000000       0.21875000000000000        0.0000000000000000     
  0.46875000000000000       0.21875000000000000        0.0000000000000000     
  0.50000000000000000       0.21875000000000000        0.0000000000000000     
  0.37500000000000000       0.25000000000000000        0.0000000000000000     
  0.40625000000000000       0.25000000000000000        0.0000000000000000     
  0.43750000000000000       0.25000000000000000        0.0000000000000000     
  0.46875000000000000       0.25000000000000000        0.0000000000000000     
  0.50000000000000000       0.25000000000000000        0.0000000000000000     
  0.50000000000000000       0.12500000000000000        0.0000000000000000     
  0.53125000000000000       0.12500000000000000        0.0000000000000000     
  0.56250000000000000       0.12500000000000000        0.0000000000000000     
  0.59375000000000000       0.12500000000000000        0.0000000000000000     
  0.62500000000000000       0.12500000000000000        0.0000000000000000     
  0.50000000000000000       0.15625000000000000        0.0000000000000000     
  0.53125000000000000       0.15625000000000000        0.0000000000000000     
  0.56250000000000000       0.15625000000000000        0.0000000000000000     
  0.59375000000000000       0.15625000000000000        0.0000000000000000     
  0.62500000000000000       0.15625000000000000        0.0000000000000000     
  0.50000000000000000       0.18750000000000000        0.0000000000000000     
  0.53125000000000000       0.18750000000000000        0.0000000000000000     
  0.56250000000000000       0.18750000000000000        0.0000000000000000     
  0.59375000000000000       0.18750000000000000        0.0000000000000000     
  0.62500000000000000       0.18750000000000000        0.0000000000000000     
  0.50000000000000000       0.21875000000000000        0.0000000000000000     
  0.53125000000000000       0.21875000000000000        0.0000000000000000     
  0.56250000000000000       0.21875000000000000        0.0000000000000000     
  0.59375000000000000       0.21875000000000000        0.0000000000000000     
  0.62500000000000000       0.21875000000000000        0.0000000000000000     
  0.50000000000000000       0.25000000000000000        0.0000000000000000     
  0.53125000000000000       0.25000000000000000        0.0000000000000000     
  0.56250000000000000       0.25000000000000000        0.0000000000000000     
  0.59375000000000000       0.25000000000000000        0.0000000000000000     
  0.62500000000000000       0.25000000000000000        0.0000000000000000     
  0.62500000000000000       0.12500000000000000        0.0000000000000000     
  0.65625000000000000       0.12500000000000000        0.0000000000000000     
  0.68750000000000000       0.12500000000000000        0.0000000000000000     
  0.71875000000000000       0.12500000000000000        0.0000000000000000     
  0.75000000000000000       0.12500000000000000        0.0000000000000000     
  0.62500000000000000       0.15625000000000000        0.0000000000000000     
  0.65625000000000000       0.15625000000000000        0.0000000000000000     
  0.68750000000000000       0.15625000000000000        0.0000000000000000     
  0.71875000000000000       0.15625000000000000        0.0000000000000000     
  0.75000000000000000       0.15625000000000000        0.0000000000000000     
  0.62500000000000000       0.18750000000000000        0.0000000000000000     
  0.65625000000000000       0.18750000000000000        0.0000000000000000     
  0.68750000000000000       0.18750000000000000        0.0000000000000000     
  0.71875000000000000       0.18750000000000000        0.0000000000000000     
  0.75000000000000000       0.18750000000000000        0.0000000000000000     
  0.62500000000000000       0.21875000000000000        0.0000000000000000     
  0.65625000000000000       0.21875000000000000        0.0000000000000000     
  0.68750000000000000       0.21875000000000000        0.0000000000000000     
  0.71875000000000000       0.21875000000000000        0.0000000000000000     
  0.75000000000000000       0.21875000000000000        0.0000000000000000     
  0.62500000000000000       0.25000000000000000        0.0000000000000000     
  0.65625000000000000       0.25000000000000000        0.0000000000000000     
  0.68750000000000000       0.25000000000000000        0.0000000000000000     
  0.71875000000000000       0.25000000000000000        0.0000000000000000     
  0.75000000000000000       0.25000000000000000        0.0000000000000000     
  0.75000000000000000       0.12500000000000000        0.0000000000000000     
  0.78125000000000000       0.12500000000000000        0.0000000000000000     
  0.81250000000000000       0.12500000000000000        0.0000000000000000     
  0.84375000000000000       0.12500000000000000        0.0000000000000000     
  0.87500000000000000       0.12500000000000000        0.0000000000000000     
  0.75000000000000000       0.15625000000000000        0.0000000000000000     
  0.78125000000000000       0.15625000000000000        0.0000000000000000     
  0.81250000000000000       0.15625000000000000        0.0000000000000000     
  0.84375000000000000       0.15625000000000000        0.0000000000000000     
  0.87500000000000000       0.15625000000000000        0.0000000000000000     
  0.75000000000000000       0.18750000000000000        0.0000000000000000     
  0.78125000000000000       0.18750000000000000        0.0000000000000000     
  0.81250000000000000       0.18750000000000000        0.0000000000000000     
  0.84375000000000000       0.18750000000000000        0.0000000000000000     
  0.87500000000000000       0.18750000000000000        0.0000000000000000     
  0.75000000000000000       0.21875000000000000        0.0000000000000000     
  0.78125000000000000       0.21875000000000000        0.0000000000000000     
  0.81250000000000000       0.21875000000000000        0.0000000000000000     
  0.84375000000000000       0.21875000000000000        0.0000000000000000     
  0.87500000000000000       0.21875000000000000        0.0000000000000000     
  0.75000000000000000       0.25000000000000000        0.0000000000000000     
  0.78125000000000000       0.25000000000000000        0.0000000000000000     
  0.81250000000000000       0.25000000000000000        0.0000000000000000     
  0.84375000000000000       0.25000000000000000        0.0000000000000000     
  0.87500000000000000       0.25000000000000000        0.0000000000000000     
  0.87500000000000000       0.12500000000000000        0.0000000000000000     
  0.90625000000000000       0.12500000000000000        0.0000000000000000     
  0.93750000000000000       0.12500000000000000        0.0000000000000000     
  0.96875000000000000       0.12500000000000000        0.0000000000000000     
   1.0000000000000000       0.12500000000000000        0.0000000000000000     
  0.87500000000000000       0.15625000000000000        0.0000000000000000     
  0.90625000000000000       0.15625000000000000        0.0000000000000000     
  0.93750000000000000       0.15625000000000000        0.0000000000000000     
  0.96875000000000000       0.15625000000000000        0.0000000000000000     
   1.0000000000000000       0.15625000000000000        0.0000000000000000     
  0.87500000000000000       0.18750000000000000        0.0000000000000000     
  0.90625000000000000       0.18750000000000000        0.0000000000000000     
  0.93750000000000000       0.18750000000000000        0.0000000000000000     
  0.96875000000000000       0.18750000000000000        0.0000000000000000     
   1.0000000000000000       0.18750000000000000        0.0000000000000000     
  0.87500000000000000       0.21875000000000000        0.0000000000000000     
  0.90625000000000000       0.21875000000000000        0.0000000000000000     
  0.93750000000000000       0.21875000000000000        0.0000000000000000     
  0.96875000000000000       0.21875000000000000        0.0000000000000000     
   1.0000000000000000       0.21875000000000000        0.0000000000000000     
  0.87500000000000000       0.25000000000000000        0.0000000000000000     
  0.90625000000000000       0.25000000000000000        0.0000000000000000     
  0.93750000000000000       0.25000000000000000        0.0000000000000000     
  0.96875000000000000       0.25000000000000000        0.0000000000000000     
   1.0000000000000000       0.25000000000000000        0.0000000000000000     
   0.0000000000000000       0.25000000000000000        0.0000000000000000     
   3.1250000000000000E-002  0.25000000000000000        0.0000000000000000     
   6.2500000000000000E-002  0.25000000000000000        0.0000000000000000     
   9.3750000000000000E-002  0.25000000000000000        0.0000000000000000     
  0.12500000000000000       0.25000000000000000        0.0000000000000000     
   0.0000000000000000       0.28125000000000000        0.0000000000000000     
   3.1250000000000000E-002  0.28125000000000000        0.0000000000000000     
   6.2500000000000000E-002  0.28125000000000000        0.0000000000000000     
   9.3750000000000000E-002  0.28125000000000000        0.0000000000000000     
  0.12500000000000000       0.28125000000000000        0.0000000000000000     
   0.0000000000000000       0.31250000000000000        0.0000000000000000     
   3.1250000000000000E-002  0.31250000000000000        0.0000000000000000     
   6.2500000000000000E-002  0.31250000000000000        0.0000000000000000     
   9.3750000000000000E-002  0.31250000000000000        0.0000000000000000     
  0.12500000000000000       0.31250000000000000        0.0000000000000000     
   0.0000000000000000       0.34375000000000000        0.0000000000000000     
   3.1250000000000000E-002  0.34375000000000000        0.0000000000000000     
   6.2500000000000000E-002  0.34375000000000000        0.0000000000000000     
   9.3750000000000000E-002  0.34375000000000000        0.0000000000000000     
  0.12500000000000000       0.34375000000000000        0.0000000000000000     
   0.0000000000000000       0.37500000000000000        0.0000000000000000     
   3.1250000000000000E-002  0.37500000000000000        0.0000000000000000     
   6.2500000000000000E-002  0.37500000000000000        0.0000000000000000     
   9.3750000000000000E-002  0.37500000000000000        0.0000000000000000     
  0.12500000000000000       0.37500000000000000        0.0000000000000000     
  0.12500000000000000       0.25000000000000000        0.0000000000000000     
  0.15625000000000000       0.25000000000000000        0.0000000000000000     
  0.18750000000000000       0.25000000000000000        0.0000000000000000     
  0.21875000000000000       0.25000000000000000        0.0000000000000000     
  0.25000000000000000       0.25000000000000000        0.0000000000000000     
  0.12500000000000000       0.28125000000000000        0.0000000000000000     
  0.15625000000000000       0.28125000000000000        0.0000000000000000     
  0.18750000000000000       0.28125000000000000        0.0000000000000000     
  0.21875000000000000       0.28125000000000000        0.0000000000000000     
  0.25000000000000000       0.28125000000000000        0.0000000000000000     
  0.12500000000000000       0.31250000000000000        0.0000000000000000     
  0.15625000000000000       0.31250000000000000        0.0000000000000000     
  0.18750000000000000       0.31250000000000000        0.0000000000000000     
  0.21875000000000000       0.31250000000000000        0.0000000000000000     
  0.25000000000000000       0.31250000000000000        0.0000000000000000     
  0.12500000000000000       0.34375000000000000        0.0000000000000000     
  0.15625000000000000       0.34375000000000000        0.0000000000000000     
  0.18750000000000000       0.34375000000000000        0.0000000000000000     
  0.21875000000000000       0.34375000000000000        0.0000000000000000     
  0.25000000000000000       0.34375000000000000        0.0000000000000000     
  0.12500000000000000       0.37500000000000000        0.0000000000000000     
  0.15625000000000000       0.37500000000000000        0.0000000000000000     
  0.18750000000000000       0.37500000000000000        0.0000000000000000     
  0.21875000000000000       0.37500000000000000        0.0000000000000000     
  0.25000000000000000       0.37500000000000000        0.0000000000000000     
  0.25000000000000000       0.25000000000000000        0.0000000000000000     
  0.28125000000000000       0.25000000000000000        0.0000000000000000     
  0.31250000000000000       0.25000000000000000        0.0000000000000000     
  0.34375000000000000       0.25000000000000000        0.0000000000000000     
  0.37500000000000000       0.25000000000000000        0.0000000000000000     
  0.25000000000000000       0.28125000000000000        0.0000000000000000     
  0.28125000000000000       0.28125000000000000        0.0000000000000000     
  0.31250000000000000       0.28125000000000000        0.0000000000000000     
  0.34375000000000000       0.28125000000000000        0.0000000000000000     
  0.37500000000000000       0.28125000000000000        0.0000000000000000     
  0.25000000000000000       0.31250000000000000        0.0000000000000000     
  0.28125000000000000       0.31250000000000000        0.0000000000000000     
  0.31250000000000000       0.31250000000000000        0.0000000000000000     
  0.34375000000000000       0.31250000000000000        0.0000000000000000     
  0.37500000000000000       0.31250000000000000        0.0000000000000000     
  0.25000000000000000       0.34375000000000000        0.0000000000000000     
  0.28125000000000000       0.34375000000000000        0.0000000000000000     
  0.31250000000000000       0.34375000000000000        0.0000000000000000     
  0.34375000000000000       0.34375000000000000        0.0000000000000000     
  0.37500000000000000       0.34375000000000000        0.0000000000000000     
  0.25000000000000000       0.37500000000000000        0.0000000000000000     
  0.28125000000000000       0.37500000000000000        0.0000000000000000     
  0.31250000000000000       0.37500000000000000        0.0000000000000000     
  0.34375000000000000       0.37500000000000000        0.0000000000000000     
  0.37500000000000000       0.37500000000000000        0.0000000000000000     
  0.37500000000000000       0.25000000000000000        0.0000000000000000     
  0.40625000000000000       0.25000000000000000        0.0000000000000000     
  0.43750000000000000       0.25000000000000000        0.0000000000000000     
  0.46875000000000000       0.25000000000000000        0.0000000000000000     
  0.50000000000000000       0.25000000000000000        0.0000000000000000     
  0.37500000000000000       0.28125000000000000        0.0000000000000000     
  0.40625000000000000       0.28125000000000000        0.0000000000000000     
  0.43750000000000000       0.28125000000000000        0.0000000000000000     
  0.46875000000000000       0.28125000000000000        0.0000000000000000     
  0.50000000000000000       0.28125000000000000        0.0000000000000000     
  0.37500000000000000       0.31250000000000000        0.0000000000000000     
  0.40625000000000000       0.31250000000000000        0.0000000000000000     
  0.43750000000000000       0.31250000000000000        0.0000000000000000     
  0.46875000000000000       0.31250000000000000        0.0000000000000000     
  0.50000000000000000       0.31250000000000000        0.0000000000000000     
  0.37500000000000000       0.34375000000000000        0.0000000000000000     
  0.40625000000000000       0.34375000000000000        0.0000000000000000     
  0.43750000000000000       0.34375000000000000        0.0000000000000000     
  0.46875000000000000       0.34375000000000000        0.0000000000000000     
  0.50000000000000000       0.34375000000000000        0.0000000000000000     
  0.37500000000000000       0.37500000000000000        0.0000000000000000     
  0.40625000000000000       0.37500000000000000        0.0000000000000000     
  0.43750000000000000       0.37500000000000000        0.0000000000000000     
  0.46875000000000000       0.37500000000000000        0.0000000000000000     
  0.50000000000000000       0.37500000000000000        0.0000000000000000     
  0.50000000000000000       0.25000000000000000        0.0000000000000000     
  0.53125000000000000       0.25000000000000000        0.0000000000000000     
  0.56250000000000000       0.25000000000000000        0.0000000000000000     
  0.59375000000000000       0.25000000000000000        0.0000000000000000     
  0.62500000000000000       0.25000000000000000        0.0000000000000000     
  0.50000000000000000       0.28125000000000000        0.0000000000000000     
  0.53125000000000000       0.28125000000000000        0.0000000000000000     
  0.56250000000000000       0.28125000000000000        0.0000000000000000     
  0.59375000000000000       0.28125000000000000        0.0000000000000000     
  0.62500000000000000       0.28125000000000000        0.0000000000000000     
  0.50000000000000000       0.31250000000000000        0.0000000000000000     
  0.53125000000000000       0.31250000000000000        0.0000000000000000     
  0.56250000000000000       0.31250000000000000        0.0000000000000000     
  0.59375000000000000       0.31250000000000000        0.0000000000000000     
  0.62500000000000000       0.31250000000000000        0.0000000000000000     
  0.50000000000000000       0.34375000000000000        0.0000000000000000     
  0.53125000000000000       0.34375000000000000        0.0000000000000000     
  0.56250000000000000       0.34375000000000000        0.0000000000000000     
  0.59375000000000000       0.34375000000000000        0.0000000000000000     
  0.62500000000000000       0.34375000000000000        0.0000000000000000     
  0.50000000000000000       0.37500000000000000        0.0000000000000000     
  0.53125000000000000       0.37500000000000000        0.0000000000000000     
  0.56250000000000000       0.37500000000000000        0.0000000000000000     
  0.59375000000000000       0.37500000000000000        0.0000000000000000     
  0.62500000000000000       0.37500000000000000        0.0000000000000000     
  0.62500000000000000       0.25000000000000000        0.0000000000000000     
  0.65625000000000000       0.25000000000000000        0.0000000000000000     
  0.68750000000000000       0.25000000000000000        0.0000000000000000     
  0.71875000000000000       0.25000000000000000        0.0000000000000000     
  0.75000000000000000       0.25000000000000000        0.0000000000000000     
  0.62500000000000000       0.28125000000000000        0.0000000000000000     
  0.65625000000000000       0.28125000000000000        0.0000000000000000     
  0.68750000000000000       0.28125000000000000        0.0000000000000000     
  0.71875000000000000       0.28125000000000000        0.0000000000000000     
  0.75000000000000000       0.28125000000000000        0.0000000000000000     
  0.62500000000000000       0.31250000000000000        0.0000000000000000     
  0.65625000000000000       0.31250000000000000        0.0000000000000000     
  0.68750000000000000       0.31250000000000000        0.0000000000000000     
  0.71875000000000000       0.31250000000000000        0.0000000000000000     
  0.75000000000000000       0.31250000000000000        0.0000000000000000     
  0.62500000000000000       0.34375000000000000        0.0000000000000000     
  0.65625000000000000       0.34375000000000000        0.0000000000000000     
  0.68750000000000000       0.34375000000000000        0.0000000000000000     
  0.71875000000000000       0.34375000000000000        0.0000000000000000     
  0.75000000000000000       0.34375000000000000        0.0000000000000000     
  0.62500000000000000       0.37500000000000000        0.0000000000000000     
  0.65625000000000000       0.37500000000000000        0.0000000000000000     
  0.68750000000000000       0.37500000000000000        0.0000000000000000     
  0.71875000000000000       0.37500000000000000        0.0000000000000000     
  0.75000000000000000       0.37500000000000000        0.0000000000000000     
  0.75000000000000000       0.25000000000000000        0.0000000000000000     
  0.78125000000000000       0.25000000000000000        0.0000000000000000     
  0.81250000000000000       0.25000000000000000        0.0000000000000000     
  0.84375000000000000       0.25000000000000000        0.0000000000000000     
  0.87500000000000000       0.25000000000000000        0.0000000000000000     
  0.75000000000000000       0.28125000000000000        0.0000000000000000     
  0.78125000000000000       0.28125000000000000        0.0000000000000000     
  0.81250000000000000       0.28125000000000000        0.0000000000000000     
  0.84375000000000000       0.28125000000000000        0.0000000000000000     
  0.87500000000000000       0.28125000000000000        0.0000000000000000     
  0.75000000000000000       0.31250000000000000        0.0000000000000000     
  0.78125000000000000       0.31250000000000000        0.0000000000000000     
  0.81250000000000000       0.31250000000000000        0.0000000000000000     
  0.84375000000000000       0.31250000000000000        0.0000000000000000     
  0.87500000000000000       0.31250000000000000        0.0000000000000000     
  0.75000000000000000       0.34375000000000000        0.0000000000000000     
  0.78125000000000000       0.34375000000000000        0.0000000000000000     
  0.81250000000000000       0.34375000000000000        0.0000000000000000     
  0.84375000000000000       0.34375000000000000        0.0000000000000000     
  0.87500000000000000       0.34375000000000000        0.0000000000000000     
  0.75000000000000000       0.37500000000000000        0.0000000000000000     
  0.78125000000000000       0.37500000000000000        0.0000000000000000     
  0.81250000000000000       0.37500000000000000        0.0000000000000000     
  0.84375000000000000       0.37500000000000000        0.0000000000000000     
  0.87500000000000000       0.37500000000000000        0.0000000000000000     
  0.87500000000000000       0.25000000000000000        0.0000000000000000     
  0.90625000000000000       0.25000000000000000        0.0000000000000000     
  0.93750000000000000       0.25000000000000000        0.0000000000000000     
  0.96875000000000000       0.25000000000000000        0.0000000000000000     
   1.0000000000000000       0.25000000000000000        0.0000000000000000     
  0.87500000000000000       0.28125000000000000        0.0000000000000000     
  0.90625000000000000       0.28125000000000000        0.0000000000000000     
  0.93750000000000000       0.28125000000000000        0.0000000000000000     
  0.96875000000000000       0.28125000000000000        0.0000000000000000     
   1.0000000000000000       0.28125000000000000        0.0000000000000000     
  0.87500000000000000       0.31250000000000000        0.0000000000000000     
  0.90625000000000000       0.31250000000000000        0.0000000000000000     
  0.93750000000000000       0.31250000000000000        0.0000000000000000     
  0.96875000000000000       0.31250000000000000        0.0000000000000000     
   1.0000000000000000       0.31250000000000000        0.0000000000000000     
  0.87500000000000000       0.34375000000000000        0.0000000000000000     
  0.90625000000000000       0.34375000000000000        0.0000000000000000     
  0.93750000000000000       0.34375000000000000        0.0000000000000000     
  0.96875000000000000       0.34375000000000000        0.0000000000000000     
   1.0000000000000000       0.34375000000000000        0.0000000000000000     
  0.87500000000000000       0.37500000000000000        0.0000000000000000     
  0.90625000000000000       0.37500000000000000        0.0000000000000000     
  0.93750000000000000       0.37500000000000000        0.0000000000000000     
  0.96875000000000000       0.37500000000000000        0.0000000000000000     
   1.0000000000000000       0.37500000000000000        0.0000000000000000     
   0.0000000000000000       0.37500000000000000        0.0000000000000000     
   3.1250000000000000E-002  0.37500000000000000        0.0000000000000000     
   6.2500000000000000E-002  0.37500000000000000        0.0000000000000000     
   9.3750000000000000E-002  0.37500000000000000        0.0000000000000000     
  0.12500000000000000       0.37500000000000000        0.0000000000000000     
   0.0000000000000000       0.40625000000000000        0.0000000000000000     
   3.1250000000000000E-002  0.40625000000000000        0.0000000000000000     
   6.2500000000000000E-002  0.40625000000000000        0.0000000000000000     
   9.3750000000000000E-002  0.40625000000000000        0.0000000000000000     
  0.12500000000000000       0.40625000000000000        0.0000000000000000     
   0.0000000000000000       0.43750000000000000        0.0000000000000000     
   3.1250000000000000E-002  0.43750000000000000        0.0000000000000000     
   6.2500000000000000E-002  0.43750000000000000        0.0000000000000000     
   9.3750000000000000E-002  0.43750000000000000        0.0000000000000000     
  0.12500000000000000       0.43750000000000000        0.0000000000000000     
   0.0000000000000000       0.46875000000000000        0.0000000000000000     
   3.1250000000000000E-002  0.46875000000000000        0.0000000000000000     
   6.2500000000000000E-002  0.46875000000000000        0.0000000000000000     
   9.3750000000000000E-002  0.46875000000000000        0.0000000000000000     
  0.12500000000000000       0.46875000000000000        0.0000000000000000     
   0.0000000000000000       0.50000000000000000        0.0000000000000000     
   3.1250000000000000E-002  0.50000000000000000        0.0000000000000000     
   6.2500000000000000E-002  0.50000000000000000        0.0000000000000000     
   9.3750000000000000E-002  0.50000000000000000        0.0000000000000000     
  0.12500000000000000       0.50000000000000000        0.0000000000000000     
  0.12500000000000000       0.37500000000000000        0.0000000000000000     
  0.15625000000000000       0.37500000000000000        0.0000000000000000     
  0.18750000000000000       0.37500000000000000        0.0000000000000000     
  0.21875000000000000       0.37500000000000000        0.0000000000000000     
  0.25000000000000000       0.37500000000000000        0.0000000000000000     
  0.12500000000000000       0.40625000000000000        0.0000000000000000     
  0.15625000000000000       0.40625000000000000        0.0000000000000000     
  0.18750000000000000       0.40625000000000000        0.0000000000000000     
  0.21875000000000000       0.40625000000000000        0.0000000000000000     
  0.25000000000000000       0.40625000000000000        0.0000000000000000     
  0.12500000000000000       0.43750000000000000        0.0000000000000000     
  0.15625000000000000       0.43750000000000000        0.0000000000000000     
  0.18750000000000000       0.43750000000000000        0.0000000000000000     
  0.21875000000000000       0.43750000000000000        0.0000000000000000     
  0.25000000000000000       0.43750000000000000        0.0000000000000000     
  0.12500000000000000       0.46875000000000000        0.0000000000000000     
  0.15625000000000000       0.46875000000000000        0.0000000000000000     
  0.18750000000000000       0.46875000000000000        0.0000000000000000     
  0.21875000000000000       0.46875000000000000        0.0000000000000000     
  0.25000000000000000       0.46875000000000000        0.0000000000000000     
  0.12500000000000000       0.50000000000000000        0.0000000000000000     
  0.15625000000000000       0.50000000000000000        0.0000000000000000     
  0.18750000000000000       0.50000000000000000        0.0000000000000000     
  0.21875000000000000       0.50000000000000000        0.0000000000000000     
  0.25000000000000000       0.50000000000000000        0.0000000000000000     
  0.25000000000000000       0.37500000000000000        0.0000000000000000     
  0.28125000000000000       0.37500000000000000        0.0000000000000000     
  0.31250000000000000       0.37500000000000000        0.0000000000000000     
  0.34375000000000000       0.37500000000000000        0.0000000000000000     
  0.37500000000000000       0.37500000000000000        0.0000000000000000     
  0.25000000000000000       0.40625000000000000        0.0000000000000000     
  0.28125000000000000       0.40625000000000000        0.0000000000000000     
  0.31250000000000000       0.40625000000000000        0.0000000000000000     
  0.34375000000000000       0.40625000000000000        0.0000000000000000     
  0.37500000000000000       0.40625000000000000        0.0000000000000000     
  0.25000000000000000       0.43750000000000000        0.0000000000000000     
  0.28125000000000000       0.43750000000000000        0.0000000000000000     
  0.31250000000000000       0.43750000000000000        0.0000000000000000     
  0.34375000000000000       0.43750000000000000        0.0000000000000000     
  0.37500000000000000       0.43750000000000000        0.0000000000000000     
  0.25000000000000000       0.46875000000000000        0.0000000000000000     
  0.28125000000000000       0.46875000000000000        0.0000000000000000     
  0.31250000000000000       0.46875000000000000        0.0000000000000000     
  0.34375000000000000       0.46875000000000000        0.0000000000000000     
  0.37500000000000000       0.46875000000000000        0.0000000000000000     
  0.25000000000000000       0.50000000000000000        0.0000000000000000     
  0.28125000000000000       0.50000000000000000        0.0000000000000000     
  0.31250000000000000       0.50000000000000000        0.0000000000000000     
  0.34375000000000000       0.50000000000000000        0.0000000000000000     
  0.37500000000000000       0.50000000000000000        0.0000000000000000     
  0.37500000000000000       0.37500000000000000        0.0000000000000000     
  0.40625000000000000       0.37500000000000000        0.0000000000000000     
  0.43750000000000000       0.37500000000000000        0.0000000000000000     
  0.46875000000000000       0.37500000000000000        0.0000000000000000     
  0.50000000000000000       0.37500000000000000        0.0000000000000000     
  0.37500000000000000       0.40625000000000000        0.0000000000000000     
  0.40625000000000000       0.40625000000000000        0.0000000000000000     
  0.43750000000000000       0.40625000000000000        0.0000000000000000     
  0.46875000000000000       0.40625000000000000        0.0000000000000000     
  0.50000000000000000       0.40625000000000000        0.0000000000000000     
  0.37500000000000000       0.43750000000000000        0.0000000000000000     
  0.40625000000000000       0.43750000000000000        0.0000000000000000     
  0.43750000000000000       0.43750000000000000        0.0000000000000000     
  0.46875000000000000       0.43750000000000000        0.0000000000000000     
  0.50000000000000000       0.43750000000000000        0.0000000000000000     
  0.37500000000000000       0.46875000000000000        0.0000000000000000     
  0.40625000000000000       0.46875000000000000        0.0000000000000000     
  0.43750000000000000       0.46875000000000000        0.0000000000000000     
  0.46875000000000000       0.46875000000000000        0.0000000000000000     
  0.50000000000000000       0.46875000000000000        0.0000000000000000     
  0.37500000000000000       0.50000000000000000        0.0000000000000000     
  0.40625000000000000       0.50000000000000000        0.0000000000000000     
  0.43750000000000000       0.50000000000000000        0.0000000000000000     
  0.46875000000000000       0.50000000000000000        0.0000000000000000     
  0.50000000000000000       0.50000000000000000        0.0000000000000000     
  0.50000000000000000       0.37500000000000000        0.0000000000000000     
  0.53125000000000000       0.37500000000000000        0.0000000000000000     
  0.56250000000000000       0.37500000000000000        0.0000000000000000     
  0.59375000000000000       0.37500000000000000        0.0000000000000000     
  0.62500000000000000       0.37500000000000000        0.0000000000000000     
  0.50000000000000000       0.40625000000000000        0.0000000000000000     
  0.53125000000000000       0.40625000000000000        0.0000000000000000     
  0.56250000000000000       0.40625000000000000        0.0000000000000000     
  0.59375000000000000       0.40625000000000000        0.0000000000000000     
  0.62500000000000000       0.40625000000000000        0.0000000000000000     
  0.50000000000000000       0.43750000000000000        0.0000000000000000     
  0.53125000000000000       0.43750000000000000        0.0000000000000000     
  0.56250000000000000       0.43750000000000000        0.0000000000000000     
  0.59375000000000000       0.43750000000000000        0.0000000000000000     
  0.62500000000000000       0.43750000000000000        0.0000000000000000     
  0.50000000000000000       0.46875000000000000        0.0000000000000000     
  0.53125000000000000       0.46875000000000000        0.0000000000000000     
  0.56250000000000000       0.46875000000000000        0.0000000000000000     
  0.59375000000000000       0.46875000000000000        0.0000000000000000     
  0.62500000000000000       0.46875000000000000        0.0000000000000000     
  0.50000000000000000       0.50000000000000000        0.0000000000000000     
  0.53125000000000000       0.50000000000000000        0.0000000000000000     
  0.56250000000000000       0.50000000000000000        0.0000000000000000     
  0.59375000000000000       0.50000000000000000        0.0000000000000000     
  0.62500000000000000       0.50000000000000000        0.0000000000000000     
  0.62500000000000000       0.37500000000000000        0.0000000000000000     
  0.65625000000000000       0.37500000000000000        0.0000000000000000     
  0.68750000000000000       0.37500000000000000        0.0000000000000000     
  0.71875000000000000       0.37500000000000000        0.0000000000000000     
  0.75000000000000000       0.37500000000000000        0.0000000000000000     
  0.62500000000000000       0.40625000000000000        0.0000000000000000     
  0.65625000000000000       0.40625000000000000        0.0000000000000000     
  0.68750000000000000       0.40625000000000000        0.0000000000000000     
  0.71875000000000000       0.40625000000000000        0.0000000000000000     
  0.75000000000000000       0.40625000000000000        0.0000000000000000     
  0.62500000000000000       0.43750000000000000        0.0000000000000000     
  0.65625000000000000       0.43750000000000000        0.0000000000000000     
  0.68750000000000000       0.43750000000000000        0.0000000000000000     
  0.71875000000000000       0.43750000000000000        0.0000000000000000     
  0.75000000000000000       0.43750000000000000        0.0000000000000000     
  0.62500000000000000       0.46875000000000000        0.0000000000000000     
  0.65625000000000000       0.46875000000000000        0.0000000000000000     
  0.68750000000000000       0.46875000000000000        0.0000000000000000     
  0.71875000000000000       0.46875000000000000        0.0000000000000000     
  0.75000000000000000       0.46875000000000000        0.0000000000000000     
  0.62500000000000000       0.50000000000000000        0.0000000000000000     
  0.65625000000000000       0.50000000000000000        0.0000000000000000     
  0.68750000000000000       0.50000000000000000        0.0000000000000000     
  0.71875000000000000       0.50000000000000000        0.0000000000000000     
  0.75000000000000000       0.50000000000000000        0.0000000000000000     
  0.75000000000000000       0.37500000000000000        0.0000000000000000     
  0.78125000000000000       0.37500000000000000        0.0000000000000000     
  0.81250000000000000       0.37500000000000000        0.0000000000000000     
  0.84375000000000000       0.37500000000000000        0.0000000000000000     
  0.87500000000000000       0.37500000000000000        0.0000000000000000     
  0.75000000000000000       0.40625000000000000        0.0000000000000000     
  0.78125000000000000       0.40625000000000000        0.0000000000000000     
  0.81250000000000000       0.40625000000000000        0.0000000000000000     
  0.84375000000000000       0.40625000000000000        0.0000000000000000     
  0.87500000000000000       0.40625000000000000        0.0000000000000000     
  0.75000000000000000       0.43750000000000000        0.0000000000000000     
  0.78125000000000000       0.43750000000000000        0.0000000000000000     
  0.81250000000000000       0.43750000000000000        0.0000000000000000     
  0.84375000000000000       0.43750000000000000        0.0000000000000000     
  0.87500000000000000       0.43750000000000000        0.0000000000000000     
  0.75000000000000000       0.46875000000000000        0.0000000000000000     
  0.78125000000000000       0.46875000000000000        0.0000000000000000     
  0.81250000000000000       0.46875000000000000        0.0000000000000000     
  0.84375000000000000       0.46875000000000000        0.0000000000000000     
  0.87500000000000000       0.46875000000000000        0.0000000000000000     
  0.75000000000000000       0.50000000000000000        0.0000000000000000     
  0.78125000000000000       0.50000000000000000        0.0000000000000000     
  0.81250000000000000       0.50000000000000000        0.0000000000000000     
  0.84375000000000000       0.50000000000000000        0.0000000000000000     
  0.87500000000000000       0.50000000000000000        0.0000000000000000     
  0.87500000000000000       0.37500000000000000        0.0000000000000000     
  0.90625000000000000       0.37500000000000000        0.0000000000000000     
  0.93750000000000000       0.37500000000000000        0.0000000000000000     
  0.96875000000000000       0.37500000000000000        0.0000000000000000     
   1.0000000000000000       0.37500000000000000        0.0000000000000000     
  0.87500000000000000       0.40625000000000000        0.0000000000000000     
  0.90625000000000000       0.40625000000000000        0.0000000000000000     
  0.93750000000000000       0.40625000000000000        0.0000000000000000     
  0.96875000000000000       0.40625000000000000        0.0000000000000000     
   1.0000000000000000       0.40625000000000000        0.0000000000000000     
  0.87500000000000000       0.43750000000000000        0.0000000000000000     
  0.90625000000000000       0.43750000000000000        0.0000000000000000     
  0.93750000000000000       0.43750000000000000        0.0000000000000000     
  0.96875000000000000       0.43750000000000000        0.0000000000000000     
   1.0000000000000000       0.43750000000000000        0.0000000000000000     
  0.87500000000000000       0.46875000000000000        0.0000000000000000     
  0.90625000000000000       0.46875000000000000        0.0000000000000000     
  0.93750000000000000       0.46875000000000000        0.0000000000000000     
  0.96875000000000000       0.46875000000000000        0.0000000000000000     
   1.0000000000000000       0.46875000000000000        0.0000000000000000     
  0.87500000000000000       0.50000000000000000        0.0000000000000000     
  0.90625000000000000       0.50000000000000000        0.0000000000000000     
  0.93750000000000000       0.50000000000000000        0.0000000000000000     
  0.96875000000000000       0.50000000000000000        0.0000000000000000     
   1.0000000000000000       0.50000000000000000        0.0000000000000000     
   0.0000000000000000       0.50000000000000000        0.0000000000000000     
   3.1250000000000000E-002  0.50000000000000000        0.0000000000000000     
   6.2500000000000000E-002  0.50000000000000000        0.0000000000000000     
   9.3750000000000000E-002  0.50000000000000000        0.0000000000000000     
  0.12500000000000000       0.50000000000000000        0.0000000000000000     
   0.0000000000000000       0.53125000000000000        0.0000000000000000     
   3.1250000000000000E-002  0.53125000000000000        0.0000000000000000     
   6.2500000000000000E-002  0.53125000000000000        0.0000000000000000     
   9.3750000000000000E-002  0.53125000000000000        0.0000000000000000     
  0.12500000000000000       0.53125000000000000        0.0000000000000000     
   0.0000000000000000       0.56250000000000000        0.0000000000000000     
   3.1250000000000000E-002  0.56250000000000000        0.0000000000000000     
   6.2500000000000000E-002  0.56250000000000000        0.0000000000000000     
   9.3750000000000000E-002  0.56250000000000000        0.0000000000000000     
  0.12500000000000000       0.56250000000000000        0.0000000000000000     
   0.0000000000000000       0.59375000000000000        0.0000000000000000     
   3.1250000000000000E-002  0.59375000000000000        0.0000000000000000     
   6.2500000000000000E-002  0.59375000000000000        0.0000000000000000     
   9.3750000000000000E-002  0.59375000000000000        0.0000000000000000     
  0.12500000000000000       0.59375000000000000        0.0000000000000000     
   0.0000000000000000       0.62500000000000000        0.0000000000000000     
   3.1250000000000000E-002  0.62500000000000000        0.0000000000000000     
   6.2500000000000000E-002  0.62500000000000000        0.0000000000000000     
   9.3750000000000000E-002  0.62500000000000000        0.0000000000000000     
  0.12500000000000000       0.62500000000000000        0.0000000000000000     
  0.12500000000000000       0.50000000000000000        0.0000000000000000     
  0.15625000000000000       0.50000000000000000        0.0000000000000000     
  0.18750000000000000       0.50000000000000000        0.0000000000000000     
  0.21875000000000000       0.50000000000000000        0.0000000000000000     
  0.25000000000000000       0.50000000000000000        0.0000000000000000     
  0.12500000000000000       0.53125000000000000        0.0000000000000000     
  0.15625000000000000       0.53125000000000000        0.0000000000000000     
  0.18750000000000000       0.53125000000000000        0.0000000000000000     
  0.21875000000000000       0.53125000000000000        0.0000000000000000     
  0.25000000000000000       0.53125000000000000        0.0000000000000000     
  0.12500000000000000       0.56250000000000000        0.0000000000000000     
  0.15625000000000000       0.56250000000000000        0.0000000000000000     
  0.18750000000000000       0.56250000000000000        0.0000000000000000     
  0.21875000000000000       0.56250000000000000        0.0000000000000000     
  0.25000000000000000       0.56250000000000000        0.0000000000000000     
  0.12500000000000000       0.59375000000000000        0.0000000000000000     
  0.15625000000000000       0.59375000000000000        0.0000000000000000     
  0.18750000000000000       0.59375000000000000        0.0000000000000000     
  0.21875000000000000       0.59375000000000000        0.0000000000000000     
  0.25000000000000000       0.59375000000000000        0.0000000000000000     
  0.12500000000000000       0.62500000000000000        0.0000000000000000     
  0.15625000000000000       0.62500000000000000        0.0000000000000000     
  0.18750000000000000       0.62500000000000000        0.0000000000000000     
  0.21875000000000000       0.62500000000000000        0.0000000000000000     
  0.25000000000000000       0.62500000000000000        0.0000000000000000     
  0.25000000000000000       0.50000000000000000        0.0000000000000000     
  0.28125000000000000       0.50000000000000000        0.0000000000000000     
  0.31250000000000000       0.50000000000000000        0.0000000000000000     
  0.34375000000000000       0.50000000000000000        0.0000000000000000     
  0.37500000000000000       0.50000000000000000        0.0000000000000000     
  0.25000000000000000       0.53125000000000000        0.0000000000000000     
  0.28125000000000000       0.53125000000000000        0.0000000000000000     
  0.31250000000000000       0.53125000000000000        0.0000000000000000     
  0.34375000000000000       0.53125000000000000        0.0000000000000000     
  0.37500000000000000       0.53125000000000000        0.0000000000000000     
  0.25000000000000000       0.56250000000000000        0.0000000000000000     
  0.28125000000000000       0.56250000000000000        0.0000000000000000     
  0.31250000000000000       0.56250000000000000        0.0000000000000000     
  0.34375000000000000       0.56250000000000000        0.0000000000000000     
  0.37500000000000000       0.56250000000000000        0.0000000000000000     
  0.25000000000000000       0.59375000000000000        0.0000000000000000     
  0.28125000000000000       0.59375000000000000        0.0000000000000000     
  0.31250000000000000       0.59375000000000000        0.0000000000000000     
  0.34375000000000000       0.59375000000000000        0.0000000000000000     
  0.37500000000000000       0.59375000000000000        0.0000000000000000     
  0.25000000000000000       0.62500000000000000        0.0000000000000000     
  0.28125000000000000       0.62500000000000000        0.0000000000000000     
  0.31250000000000000       0.62500000000000000        0.0000000000000000     
  0.34375000000000000       0.62500000000000000        0.0000000000000000     
  0.37500000000000000       0.62500000000000000        0.0000000000000000     
  0.37500000000000000       0.50000000000000000        0.0000000000000000     
  0.40625000000000000       0.50000000000000000        0.0000000000000000     
  0.43750000000000000       0.50000000000000000        0.0000000000000000     
  0.46875000000000000       0.50000000000000000        0.0000000000000000     
  0.50000000000000000       0.50000000000000000        0.0000000000000000     
  0.37500000000000000       0.53125000000000000        0.0000000000000000     
  0.40625000000000000       0.53125000000000000        0.0000000000000000     
  0.43750000000000000       0.53125000000000000        0.0000000000000000     
  0.46875000000000000       0.53125000000000000        0.0000000000000000     
  0.50000000000000000       0.53125000000000000        0.0000000000000000     
  0.37500000000000000       0.56250000000000000        0.0000000000000000     
  0.40625000000000000       0.56250000000000000        0.0000000000000000     
  0.43750000000000000       0.56250000000000000        0.0000000000000000     
  0.46875000000000000       0.56250000000000000        0.0000000000000000     
  0.50000000000000000       0.56250000000000000        0.0000000000000000     
  0.37500000000000000       0.59375000000000000        0.0000000000000000     
  0.40625000000000000       0.59375000000000000        0.0000000000000000     
  0.43750000000000000       0.59375000000000000        0.0000000000000000     
  0.46875000000000000       0.59375000000000000        0.0000000000000000     
  0.50000000000000000       0.59375000000000000        0.0000000000000000     
  0.37500000000000000       0.62500000000000000        0.0000000000000000     
  0.40625000000000000       0.62500000000000000        0.0000000000000000     
  0.43750000000000000       0.62500000000000000        0.0000000000000000     
  0.46875000000000000       0.62500000000000000        0.0000000000000000     
  0.50000000000000000       0.62500000000000000        0.0000000000000000     
  0.50000000000000000       0.50000000000000000        0.0000000000000000     
  0.53125000000000000       0.50000000000000000        0.0000000000000000     
  0.56250000000000000       0.50000000000000000        0.0000000000000000     
  0.59375000000000000       0.50000000000000000        0.0000000000000000     
  0.62500000000000000       0.50000000000000000        0.0000000000000000     
  0.50000000000000000       0.53125000000000000        0.0000000000000000     
  0.53125000000000000       0.53125000000000000        0.0000000000000000     
  0.56250000000000000       0.53125000000000000        0.0000000000000000     
  0.59375000000000000       0.53125000000000000        0.0000000000000000     
  0.62500000000000000       0.53125000000000000        0.0000000000000000     
  0.50000000000000000       0.56250000000000000        0.0000000000000000     
  0.53125000000000000       0.56250000000000000        0.0000000000000000     
  0.56250000000000000       0.56250000000000000        0.0000000000000000     
  0.59375000000000000       0.56250000000000000        0.0000000000000000     
  0.62500000000000000       0.56250000000000000        0.0000000000000000     
  0.50000000000000000       0.59375000000000000        0.0000000000000000     
  0.53125000000000000       0.59375000000000000        0.0000000000000000     
  0.56250000000000000       0.59375000000000000        0.0000000000000000     
  0.59375000000000000       0.59375000000000000        0.0000000000000000     
  0.62500000000000000       0.59375000000000000        0.0000000000000000     
  0.50000000000000000       0.62500000000000000        0.0000000000000000     
  0.53125000000000000       0.62500000000000000        0.0000000000000000     
  0.56250000000000000       0.62500000000000000        0.0000000000000000     
  0.59375000000000000       0.62500000000000000        0.0000000000000000     
  0.62500000000000000       0.62500000000000000        0.0000000000000000     
  0.62500000000000000       0.50000000000000000        0.0000000000000000     
  0.65625000000000000       0.50000000000000000        0.0000000000000000     
  0.68750000000000000       0.50000000000000000        0.0000000000000000     
  0.71875000000000000       0.50000000000000000        0.0000000000000000     
  0.75000000000000000       0.50000000000000000        0.0000000000000000     
  0.62500000000000000       0.53125000000000000        0.0000000000000000     
  0.65625000000000000       0.53125000000000000        0.0000000000000000     
  0.68750000000000000       0.53125000000000000        0.0000000000000000     
  0.71875000000000000       0.53125000000000000        0.0000000000000000     
  0.75000000000000000       0.53125000000000000        0.0000000000000000     
  0.62500000000000000       0.56250000000000000        0.0000000000000000     
  0.65625000000000000       0.56250000000000000        0.0000000000000000     
  0.68750000000000000       0.56250000000000000        0.0000000000000000     
  0.71875000000000000       0.56250000000000000        0.0000000000000000     
  0.75000000000000000       0.56250000000000000        0.0000000000000000     
  0.62500000000000000       0.59375000000000000        0.0000000000000000     
  0.65625000000000000       0.59375000000000000        0.0000000000000000     
  0.68750000000000000       0.59375000000000000        0.0000000000000000     
  0.71875000000000000       0.59375000000000000        0.0000000000000000     
  0.75000000000000000       0.59375000000000000        0.0000000000000000     
  0.62500000000000000       0.62500000000000000        0.0000000000000000     
  0.65625000000000000       0.62500000000000000        0.0000000000000000     
  0.68750000000000000       0.62500000000000000        0.0000000000000000     
  0.71875000000000000       0.62500000000000000        0.0000000000000000     
  0.75000000000000000       0.62500000000000000        0.0000000000000000     
  0.75000000000000000       0.50000000000000000        0.0000000000000000     
  0.78125000000000000       0.50000000000000000        0.0000000000000000     
  0.81250000000000000       0.50000000000000000        0.0000000000000000     
  0.84375000000000000       0.50000000000000000        0.0000000000000000     
  0.87500000000000000       0.50000000000000000        0.0000000000000000     
  0.75000000000000000       0.53125000000000000        0.0000000000000000     
  0.78125000000000000       0.53125000000000000        0.0000000000000000     
  0.81250000000000000       0.53125000000000000        0.0000000000000000     
  0.84375000000000000       0.53125000000000000        0.0000000000000000     
  0.87500000000000000       0.53125000000000000        0.0000000000000000     
  0.75000000000000000       0.56250000000000000        0.0000000000000000     
  0.78125000000000000       0.56250000000000000        0.0000000000000000     
  0.81250000000000000       0.56250000000000000        0.0000000000000000     
  0.84375000000000000       0.56250000000000000        0.0000000000000000     
  0.87500000000000000       0.56250000000000000        0.0000000000000000     
  0.75000000000000000       0.59375000000000000        0.0000000000000000     
  0.78125000000000000       0.59375000000000000        0.0000000000000000     
  0.81250000000000000       0.59375000000000000        0.0000000000000000     
  0.84375000000000000       0.59375000000000000        0.0000000000000000     
  0.87500000000000000       0.59375000000000000        0.0000000000000000     
  0.75000000000000000       0.62500000000000000        0.0000000000000000     
  0.78125000000000000       0.62500000000000000        0.0000000000000000     
  0.81250000000000000       0.62500000000000000        0.0000000000000000     
  0.84375000000000000       0.62500000000000000        0.0000000000000000     
  0.87500000000000000       0.62500000000000000        0.0000000000000000     
  0.87500000000000000       0.50000000000000000        0.0000000000000000     
  0.90625000000000000       0.50000000000000000        0.0000000000000000     
  0.93750000000000000       0.50000000000000000        0.0000000000000000     
  0.96875000000000000       0.50000000000000000        0.0000000000000000     
   1.0000000000000000       0.50000000000000000        0.0000000000000000     
  0.87500000000000000       0.53125000000000000        0.0000000000000000     
  0.90625000000000000       0.53125000000000000        0.0000000000000000     
  0.93750000000000000       0.53125000000000000        0.0000000000000000     
  0.96875000000000000       0.53125000000000000        0.0000000000000000     
   1.0000000000000000       0.53125000000000000        0.0000000000000000     
  0.87500000000000000       0.56250000000000000        0.0000000000000000     
  0.90625000000000000       0.56250000000000000        0.0000000000000000     
  0.93750000000000000       0.56250000000000000        0.0000000000000000     
  0.96875000000000000       0.56250000000000000        0.0000000000000000     
   1.0000000000000000       0.56250000000000000        0.0000000000000000     
  0.87500000000000000       0.59375000000000000        0.0000000000000000     
  0.90625000000000000       0.59375000000000000        0.0000000000000000     
  0.93750000000000000       0.59375000000000000        0.0000000000000000     
  0.96875000000000000       0.59375000000000000        0.0000000000000000     
   1.0000000000000000       0.59375000000000000        0.0000000000000000     
  0.87500000000000000       0.62500000000000000        0.0000000000000000     
  0.90625000000000000       0.62500000000000000        0.0000000000000000     
  0.93750000000000000       0.62500000000000000        0.0000000000000000     
  0.96875000000000000       0.62500000000000000        0.0000000000000000     
   1.0000000000000000       0.62500000000000000        0.0000000000000000     
   0.0000000000000000       0.62500000000000000        0.0000000000000000     
   3.1250000000000000E-002  0.62500000000000000        0.0000000000000000     
   6.2500000000000000E-002  0.62500000000000000        0.0000000000000000     
   9.3750000000000000E-002  0.62500000000000000        0.0000000000000000     
  0.12500000000000000       0.62500000000000000        0.0000000000000000     
   0.0000000000000000       0.65625000000000000        0.0000000000000000     
   3.1250000000000000E-002  0.65625000000000000        0.0000000000000000     
   6.2500000000000000E-002  0.65625000000000000        0.0000000000000000     
   9.3750000000000000E-002  0.65625000000000000        0.0000000000000000     
  0.12500000000000000       0.65625000000000000        0.0000000000000000     
   0.0000000000000000       0.68750000000000000        0.0000000000000000     
   3.1250000000000000E-002  0.68750000000000000        0.0000000000000000     
   6.2500000000000000E-002  0.68750000000000000        0.0000000000000000     
   9.3750000000000000E-002  0.68750000000000000        0.0000000000000000     
  0.12500000000000000       0.68750000000000000        0.0000000000000000     
   0.0000000000000000       0.71875000000000000        0.0000000000000000     
   3.1250000000000000E-002  0.71875000000000000        0.0000000000000000     
   6.2500000000000000E-002  0.71875000000000000        0.0000000000000000     
   9.3750000000000000E-002  0.71875000000000000        0.0000000000000000     
  0.12500000000000000       0.71875000000000000        0.0000000000000000     
   0.0000000000000000       0.75000000000000000        0.0000000000000000     
   3.1250000000000000E-002  0.75000000000000000        0.0000000000000000     
   6.2500000000000000E-002  0.75000000000000000        0.0000000000000000     
   9.3750000000000000E-002  0.75000000000000000        0.0000000000000000     
  0.12500000000000000       0.75000000000000000        0.0000000000000000     
  0.12500000000000000       0.62500000000000000        0.0000000000000000     
  0.15625000000000000       0.62500000000000000        0.0000000000000000     
  0.18750000000000000       0.62500000000000000        0.0000000000000000     
  0.21875000000000000       0.62500000000000000        0.0000000000000000     
  0.25000000000000000       0.62500000000000000        0.0000000000000000     
  0.12500000000000000       0.65625000000000000        0.0000000000000000     
  0.15625000000000000       0.65625000000000000        0.0000000000000000     
  0.18750000000000000       0.65625000000000000        0.0000000000000000     
  0.21875000000000000       0.65625000000000000        0.0000000000000000     
  0.25000000000000000       0.65625000000000000        0.0000000000000000     
  0.12500000000000000       0.68750000000000000        0.0000000000000000     
  0.15625000000000000       0.68750000000000000        0.0000000000000000     
  0.18750000000000000       0.68750000000000000        0.0000000000000000     
  0.21875000000000000       0.68750000000000000        0.0000000000000000     
  0.25000000000000000       0.68750000000000000        0.0000000000000000     
  0.12500000000000000       0.71875000000000000        0.0000000000000000     
  0.15625000000000000       0.71875000000000000        0.0000000000000000     
  0.18750000000000000       0.71875000000000000        0.0000000000000000     
  0.21875000000000000       0.71875000000000000        0.0000000000000000     
  0.25000000000000000       0.71875000000000000        0.0000000000000000     
  0.12500000000000000       0.75000000000000000        0.0000000000000000     
  0.15625000000000000       0.75000000000000000        0.0000000000000000     
  0.18750000000000000       0.75000000000000000        0.0000000000000000     
  0.21875000000000000       0.75000000000000000        0.0000000000000000     
  0.25000000000000000       0.75000000000000000        0.0000000000000000     
  0.25000000000000000       0.62500000000000000        0.0000000000000000     
  0.28125000000000000       0.62500000000000000        0.0000000000000000     
  0.31250000000000000       0.62500000000000000        0.0000000000000000     
  0.34375000000000000       0.62500000000000000        0.0000000000000000     
  0.37500000000000000       0.62500000000000000        0.0000000000000000     
  0.25000000000000000       0.65625000000000000        0.0000000000000000     
  0.28125000000000000       0.65625000000000000        0.0000000000000000     
  0.31250000000000000       0.65625000000000000        0.0000000000000000     
  0.34375000000000000       0.65625000000000000        0.0000000000000000     
  0.37500000000000000       0.65625000000000000        0.0000000000000000     
  0.25000000000000000       0.68750000000000000        0.0000000000000000     
  0.28125000000000000       0.68750000000000000        0.0000000000000000     
  0.31250000000000000       0.68750000000000000        0.0000000000000000     
  0.34375000000000000       0.68750000000000000        0.0000000000000000     
  0.37500000000000000       0.68750000000000000        0.0000000000000000     
  0.25000000000000000       0.71875000000000000        0.0000000000000000     
  0.28125000000000000       0.71875000000000000        0.0000000000000000     
  0.31250000000000000       0.71875000000000000        0.0000000000000000     
  0.34375000000000000       0.71875000000000000        0.0000000000000000     
  0.37500000000000000       0.71875000000000000        0.0000000000000000     
  0.25000000000000000       0.75000000000000000        0.0000000000000000     
  0.28125000000000000       0.75000000000000000        0.0000000000000000     
  0.31250000000000000       0.75000000000000000        0.0000000000000000     
  0.34375000000000000       0.75000000000000000        0.0000000000000000     
  0.37500000000000000       0.75000000000000000        0.0000000000000000     
  0.37500000000000000       0.62500000000000000        0.0000000000000000     
  0.40625000000000000       0.62500000000000000        0.0000000000000000     
  0.43750000000000000       0.62500000000000000        0.0000000000000000     
  0.46875000000000000       0.62500000000000000        0.0000000000000000     
  0.50000000000000000       0.62500000000000000        0.0000000000000000     
  0.37500000000000000       0.65625000000000000        0.0000000000000000     
  0.40625000000000000       0.65625000000000000        0.0000000000000000     
  0.43750000000000000       0.65625000000000000        0.0000000000000000     
  0.46875000000000000       0.65625000000000000        0.0000000000000000     
  0.50000000000000000       0.65625000000000000        0.0000000000000000     
  0.37500000000000000       0.68750000000000000        0.0000000000000000     
  0.40625000000000000       0.68750000000000000        0.0000000000000000     
  0.43750000000000000       0.68750000000000000        0.0000000000000000     
  0.46875000000000000       0.68750000000000000        0.0000000000000000     
  0.50000000000000000       0.68750000000000000        0.0000000000000000     
  0.37500000000000000       0.71875000000000000        0.0000000000000000     
  0.40625000000000000       0.71875000000000000        0.0000000000000000     
  0.43750000000000000       0.71875000000000000        0.0000000000000000     
  0.46875000000000000       0.71875000000000000        0.0000000000000000     
  0.50000000000000000       0.71875000000000000        0.0000000000000000     
  0.37500000000000000       0.75000000000000000        0.0000000000000000     
  0.40625000000000000       0.75000000000000000        0.0000000000000000     
  0.43750000000000000       0.75000000000000000        0.0000000000000000     
  0.46875000000000000       0.75000000000000000        0.0000000000000000     
  0.50000000000000000       0.75000000000000000        0.0000000000000000     
  0.50000000000000000       0.62500000000000000        0.0000000000000000     
  0.53125000000000000       0.62500000000000000        0.0000000000000000     
  0.56250000000000000       0.62500000000000000        0.0000000000000000     
  0.59375000000000000       0.62500000000000000        0.0000000000000000     
  0.62500000000000000       0.62500000000000000        0.0000000000000000     
  0.50000000000000000       0.65625000000000000        0.0000000000000000     
  0.53125000000000000       0.65625000000000000        0.0000000000000000     
  0.56250000000000000       0.65625000000000000        0.0000000000000000     
  0.59375000000000000       0.65625000000000000        0.0000000000000000     
  0.62500000000000000       0.65625000000000000        0.0000000000000000     
  0.50000000000000000       0.68750000000000000        0.0000000000000000     
  0.53125000000000000       0.68750000000000000        0.0000000000000000     
  0.56250000000000000       0.68750000000000000        0.0000000000000000     
  0.59375000000000000       0.68750000000000000        0.0000000000000000     
  0.62500000000000000       0.68750000000000000        0.0000000000000000     
  0.50000000000000000       0.71875000000000000        0.0000000000000000     
  0.53125000000000000       0.71875000000000000        0.0000000000000000     
  0.56250000000000000       0.71875000000000000        0.0000000000000000     
  0.59375000000000000       0.71875000000000000        0.0000000000000000     
  0.62500000000000000       0.71875000000000000        0.0000000000000000     
  0.50000000000000000       0.75000000000000000        0.0000000000000000     
  0.53125000000000000       0.75000000000000000        0.0000000000000000     
  0.56250000000000000       0.75000000000000000        0.0000000000000000     
  0.59375000000000000       0.75000000000000000        0.0000000000000000     
  0.62500000000000000       0.75000000000000000        0.0000000000000000     
  0.62500000000000000       0.62500000000000000        0.0000000000000000     
  0.65625000000000000       0.62500000000000000        0.0000000000000000     
  0.68750000000000000       0.62500000000000000        0.0000000000000000     
  0.71875000000000000       0.62500000000000000        0.0000000000000000     
  0.75000000000000000       0.62500000000000000        0.0000000000000000     
  0.62500000000000000       0.65625000000000000        0.0000000000000000     
  0.65625000000000000       0.65625000000000000        0.0000000000000000     
  0.68750000000000000       0.65625000000000000        0.0000000000000000     
  0.71875000000000000       0.65625000000000000        0.0000000000000000     
  0.75000000000000000       0.65625000000000000        0.0000000000000000     
  0.62500000000000000       0.68750000000000000        0.0000000000000000     
  0.65625000000000000       0.68750000000000000        0.0000000000000000     
  0.68750000000000000       0.68750000000000000        0.0000000000000000     
  0.71875000000000000       0.68750000000000000        0.0000000000000000     
  0.75000000000000000       0.68750000000000000        0.0000000000000000     
  0.62500000000000000       0.71875000000000000        0.0000000000000000     
  0.65625000000000000       0.71875000000000000        0.0000000000000000     
  0.68750000000000000       0.71875000000000000        0.0000000000000000     
  0.71875000000000000       0.71875000000000000        0.0000000000000000     
  0.75000000000000000       0.71875000000000000        0.0000000000000000     
  0.62500000000000000       0.75000000000000000        0.0000000000000000     
  0.65625000000000000       0.75000000000000000        0.0000000000000000     
  0.68750000000000000       0.75000000000000000        0.0000000000000000     
  0.71875000000000000       0.75000000000000000        0.0000000000000000     
  0.75000000000000000       0.75000000000000000        0.0000000000000000     
  0.75000000000000000       0.62500000000000000        0.0000000000000000     
  0.78125000000000000       0.62500000000000000        0.0000000000000000     
  0.81250000000000000       0.62500000000000000        0.0000000000000000     
  0.84375000000000000       0.62500000000000000        0.0000000000000000     
  0.87500000000000000       0.62500000000000000        0.0000000000000000     
  0.75000000000000000       0.65625000000000000        0.0000000000000000     
  0.78125000000000000       0.65625000000000000        0.0000000000000000     
  0.81250000000000000       0.65625000000000000        0.0000000000000000     
  0.84375000000000000       0.65625000000000000        0.0000000000000000     
  0.87500000000000000       0.65625000000000000        0.0000000000000000     
  0.75000000000000000       0.68750000000000000        0.0000000000000000     
  0.78125000000000000       0.68750000000000000        0.0000000000000000     
  0.81250000000000000       0.68750000000000000        0.0000000000000000     
  0.84375000000000000       0.68750000000000000        0.0000000000000000     
  0.87500000000000000       0.68750000000000000        0.0000000000000000     
  0.75000000000000000       0.71875000000000000        0.0000000000000000     
  0.78125000000000000       0.71875000000000000        0.0000000000000000     
  0.81250000000000000       0.71875000000000000        0.0000000000000000     
  0.84375000000000000       0.71875000000000000        0.0000000000000000     
  0.87500000000000000       0.71875000000000000        0.0000000000000000     
  0.75000000000000000       0.75000000000000000        0.0000000000000000     
  0.78125000000000000       0.75000000000000000        0.0000000000000000     
  0.81250000000000000       0.75000000000000000        0.0000000000000000     
  0.84375000000000000       0.75000000000000000        0.0000000000000000     
  0.87500000000000000       0.75000000000000000        0.0000000000000000     
  0.87500000000000000       0.62500000000000000        0.0000000000000000     
  0.90625000000000000       0.62500000000000000        0.0000000000000000     
  0.93750000000000000       0.62500000000000000        0.0000000000000000     
  0.96875000000000000       0.62500000000000000        0.0000000000000000     
   1.0000000000000000       0.62500000000000000        0.0000000000000000     
  0.87500000000000000       0.65625000000000000        0.0000000000000000     
  0.90625000000000000       0.65625000000000000        0.0000000000000000     
  0.93750000000000000       0.65625000000000000        0.0000000000000000     
  0.96875000000000000       0.65625000000000000        0.0000000000000000     
   1.0000000000000000       0.65625000000000000        0.0000000000000000     
  0.87500000000000000       0.68750000000000000        0.0000000000000000     
  0.90625000000000000       0.68750000000000000        0.0000000000000000     
  0.93750000000000000       0.68750000000000000        0.0000000000000000     
  0.96875000000000000       0.68750000000000000        0.0000000000000000     
   1.0000000000000000       0.68750000000000000        0.0000000000000000     
  0.87500000000000000       0.71875000000000000        0.0000000000000000     
  0.90625000000000000       0.71875000000000000        0.0000000000000000     
  0.93750000000000000       0.71875000000000000        0.0000000000000000     
  0.96875000000000000       0.71875000000000000        0.0000000000000000     
   1.0000000000000000       0.71875000000000000        0.0000000000000000     
  0.87500000000000000       0.75000000000000000        0.0000000000000000     
  0.90625000000000000       0.75000000000000000        0.0000000000000000     
  0.93750000000000000       0.75000000000000000        0.0000000000000000     
  0.96875000000000000       0.75000000000000000        0.0000000000000000     
   1.0000000000000000       0.75000000000000000        0.0000000000000000     
   0.0000000000000000       0.75000000000000000        0.0000000000000000     
   3.1250000000000000E-002  0.75000000000000000        0.0000000000000000     
   6.2500000000000000E-002  0.75000000000000000        0.0000000000000000     
   9.3750000000000000E-002  0.75000000000000000        0.0000000000000000     
  0.12500000000000000       0.75000000000000000        0.0000000000000000     
   0.0000000000000000       0.78125000000000000        0.0000000000000000     
   3.1250000000000000E-002  0.78125000000000000        0.0000000000000000     
   6.2500000000000000E-002  0.78125000000000000        0.0000000000000000     
   9.3750000000000000E-002  0.78125000000000000        0.0000000000000000     
  0.12500000000000000       0.78125000000000000        0.0000000000000000     
   0.0000000000000000       0.81250000000000000        0.0000000000000000     
   3.1250000000000000E-002  0.81250000000000000        0.0000000000000000     
   6.2500000000000000E-002  0.81250000000000000        0.0000000000000000     
   9.3750000000000000E-002  0.81250000000000000        0.0000000000000000     
  0.12500000000000000       0.81250000000000000        0.0000000000000000     
   0.0000000000000000       0.84375000000000000        0.0000000000000000     
   3.1250000000000000E-002  0.84375000000000000        0.0000000000000000     
   6.2500000000000000E-002  0.84375000000000000        0.0000000000000000     
   9.3750000000000000E-002  0.84375000000000000        0.0000000000000000     
  0.12500000000000000       0.84375000000000000        0.0000000000000000     
   0.0000000000000000       0.87500000000000000        0.0000000000000000     
   3.1250000000000000E-002  0.87500000000000000        0.0000000000000000     
   6.2500000000000000E-002  0.87500000000000000        0.0000000000000000     
   9.3750000000000000E-002  0.87500000000000000        0.0000000000000000     
  0.12500000000000000       0.87500000000000000        0.0000000000000000     
  0.12500000000000000       0.75000000000000000        0.0000000000000000     
  0.15625000000000000       0.75000000000000000        0.0000000000000000     
  0.18750000000000000       0.75000000000000000        0.0000000000000000     
  0.21875000000000000       0.75000000000000000        0.0000000000000000     
  0.25000000000000000       0.75000000000000000        0.0000000000000000     
  0.12500000000000000       0.78125000000000000        0.0000000000000000     
  0.15625000000000000       0.78125000000000000        0.0000000000000000     
  0.18750000000000000       0.78125000000000000        0.0000000000000000     
  0.21875000000000000       0.78125000000000000        0.0000000000000000     
  0.25000000000000000       0.78125000000000000        0.0000000000000000     
  0.12500000000000000       0.81250000000000000        0.0000000000000000     
  0.15625000000000000       0.81250000000000000        0.0000000000000000     
  0.18750000000000000       0.81250000000000000        0.0000000000000000     
  0.21875000000000000       0.81250000000000000        0.0000000000000000     
  0.25000000000000000       0.81250000000000000        0.0000000000000000     
  0.12500000000000000       0.84375000000000000        0.0000000000000000     
  0.15625000000000000       0.84375000000000000        0.0000000000000000     
  0.18750000000000000       0.84375000000000000        0.0000000000000000     
  0.21875000000000000       0.84375000000000000        0.0000000000000000     
  0.25000000000000000       0.84375000000000000        0.0000000000000000     
  0.12500000000000000       0.87500000000000000        0.0000000000000000     
  0.15625000000000000       0.87500000000000000        0.0000000000000000     
  0.18750000000000000       0.87500000000000000        0.0000000000000000     
  0.21875000000000000       0.87500000000000000        0.0000000000000000     
  0.25000000000000000       0.87500000000000000        0.0000000000000000     
  0.25000000000000000       0.75000000000000000        0.0000000000000000     
  0.28125000000000000       0.75000000000000000        0.0000000000000000     
  0.31250000000000000       0.75000000000000000        0.0000000000000000     
  0.34375000000000000       0.75000000000000000        0.0000000000000000     
  0.37500000000000000       0.75000000000000000        0.0000000000000000     
  0.25000000000000000       0.78125000000000000        0.0000000000000000     
  0.28125000000000000       0.78125000000000000        0.0000000000000000     
  0.31250000000000000       0.78125000000000000        0.0000000000000000     
  0.34375000000000000       0.78125000000000000        0.0000000000000000     
  0.37500000000000000       0.78125000000000000        0.0000000000000000     
  0.25000000000000000       0.81250000000000000        0.0000000000000000     
  0.28125000000000000       0.81250000000000000        0.0000000000000000     
  0.31250000000000000       0.81250000000000000        0.0000000000000000     
  0.34375000000000000       0.81250000000000000        0.0000000000000000     
  0.37500000000000000       0.81250000000000000        0.0000000000000000     
  0.25000000000000000       0.84375000000000000        0.0000000000000000     
  0.28125000000000000       0.84375000000000000        0.0000000000000000     
  0.31250000000000000       0.84375000000000000        0.0000000000000000     
  0.34375000000000000       0.84375000000000000        0.0000000000000000     
  0.37500000000000000       0.84375000000000000        0.0000000000000000     
  0.25000000000000000       0.87500000000000000        0.0000000000000000     
  0.28125000000000000       0.87500000000000000        0.0000000000000000     
  0.31250000000000000       0.87500000000000000        0.0000000000000000     
  0.34375000000000000       0.87500000000000000        0.0000000000000000     
  0.37500000000000000       0.87500000000000000        0.0000000000000000     
  0.37500000000000000       0.75000000000000000        0.0000000000000000     
  0.40625000000000000       0.75000000000000000        0.0000000000000000     
  0.43750000000000000       0.75000000000000000        0.0000000000000000     
  0.46875000000000000       0.75000000000000000        0.0000000000000000     
  0.50000000000000000       0.75000000000000000        0.0000000000000000     
  0.37500000000000000       0.78125000000000000        0.0000000000000000     
  0.40625000000000000       0.78125000000000000        0.0000000000000000     
  0.43750000000000000       0.78125000000000000        0.0000000000000000     
  0.46875000000000000       0.78125000000000000        0.0000000000000000     
  0.50000000000000000       0.78125000000000000        0.0000000000000000     
  0.37500000000000000       0.81250000000000000        0.0000000000000000     
  0.40625000000000000       0.81250000000000000        0.0000000000000000     
  0.43750000000000000       0.81250000000000000        0.0000000000000000     
  0.46875000000000000       0.81250000000000000        0.0000000000000000     
  0.50000000000000000       0.81250000000000000        0.0000000000000000     
  0.37500000000000000       0.84375000000000000        0.0000000000000000     
  0.40625000000000000       0.84375000000000000        0.0000000000000000     
  0.43750000000000000       0.84375000000000000        0.0000000000000000     
  0.46875000000000000       0.84375000000000000        0.0000000000000000     
  0.50000000000000000       0.84375000000000000        0.0000000000000000     
  0.37500000000000000       0.87500000000000000        0.0000000000000000     
  0.40625000000000000       0.87500000000000000        0.0000000000000000     
  0.43750000000000000       0.87500000000000000        0.0000000000000000     
  0.46875000000000000       0.87500000000000000        0.0000000000000000     
  0.50000000000000000       0.87500000000000000        0.0000000000000000     
  0.50000000000000000       0.75000000000000000        0.0000000000000000     
  0.53125000000000000       0.75000000000000000        0.0000000000000000     
  0.56250000000000000       0.75000000000000000        0.0000000000000000     
  0.59375000000000000       0.75000000000000000        0.0000000000000000     
  0.62500000000000000       0.75000000000000000        0.0000000000000000     
  0.50000000000000000       0.78125000000000000        0.0000000000000000     
  0.53125000000000000       0.78125000000000000        0.0000000000000000     
  0.56250000000000000       0.78125000000000000        0.0000000000000000     
  0.59375000000000000       0.78125000000000000        0.0000000000000000     
  0.62500000000000000       0.78125000000000000        0.0000000000000000     
  0.50000000000000000       0.81250000000000000        0.0000000000000000     
  0.53125000000000000       0.81250000000000000        0.0000000000000000     
  0.56250000000000000       0.81250000000000000        0.0000000000000000     
  0.59375000000000000       0.81250000000000000        0.0000000000000000     
  0.62500000000000000       0.81250000000000000        0.0000000000000000     
  0.50000000000000000       0.84375000000000000        0.0000000000000000     
  0.53125000000000000       0.84375000000000000        0.0000000000000000     
  0.56250000000000000       0.84375000000000000        0.0000000000000000     
  0.59375000000000000       0.84375000000000000        0.0000000000000000     
  0.62500000000000000       0.84375000000000000        0.0000000000000000     
  0.50000000000000000       0.87500000000000000        0.0000000000000000     
  0.53125000000000000       0.87500000000000000        0.0000000000000000     
  0.56250000000000000       0.87500000000000000        0.0000000000000000     
  0.59375000000000000       0.87500000000000000        0.0000000000000000     
  0.62500000000000000       0.87500000000000000        0.0000000000000000     
  0.62500000000000000       0.75000000000000000        0.0000000000000000     
  0.65625000000000000       0.75000000000000000        0.0000000000000000     
  0.68750000000000000       0.75000000000000000        0.0000000000000000     
  0.71875000000000000       0.75000000000000000        0.0000000000000000     
  0.75000000000000000       0.75000000000000000        0.0000000000000000     
  0.62500000000000000       0.78125000000000000        0.0000000000000000     
  0.65625000000000000       0.78125000000000000        0.0000000000000000     
  0.68750000000000000       0.78125000000000000        0.0000000000000000     
  0.71875000000000000       0.78125000000000000        0.0000000000000000     
  0.75000000000000000       0.78125000000000000        0.0000000000000000     
  0.62500000000000000       0.81250000000000000        0.0000000000000000     
  0.65625000000000000       0.81250000000000000        0.0000000000000000     
  0.68750000000000000       0.81250000000000000        0.0000000000000000     
  0.71875000000000000       0.81250000000000000        0.0000000000000000     
  0.75000000000000000       0.81250000000000000        0.0000000000000000     
  0.62500000000000000       0.84375000000000000        0.0000000000000000     
  0.65625000000000000       0.84375000000000000        0.0000000000000000     
  0.68750000000000000       0.84375000000000000        0.0000000000000000     
  0.71875000000000000       0.84375000000000000        0.0000000000000000     
  0.75000000000000000       0.84375000000000000        0.0000000000000000     
  0.62500000000000000       0.87500000000000000        0.0000000000000000     
  0.65625000000000000       0.87500000000000000        0.0000000000000000     
  0.68750000000000000       0.87500000000000000        0.0000000000000000     
  0.71875000000000000       0.87500000000000000        0.0000000000000000     
  0.75000000000000000       0.87500000000000000        0.0000000000000000     
  0.75000000000000000       0.75000000000000000        0.0000000000000000     
  0.78125000000000000       0.75000000000000000        0.0000000000000000     
  0.81250000000000000       0.75000000000000000        0.0000000000000000     
  0.84375000000000000       0.75000000000000000        0.0000000000000000     
  0.87500000000000000       0.75000000000000000        0.0000000000000000     
  0.75000000000000000       0.78125000000000000        0.0000000000000000     
  0.78125000000000000       0.78125000000000000        0.0000000000000000     
  0.81250000000000000       0.78125000000000000        0.0000000000000000     
  0.84375000000000000       0.78125000000000000        0.0000000000000000     
  0.87500000000000000       0.78125000000000000        0.0000000000000000     
  0.75000000000000000       0.81250000000000000        0.0000000000000000     
  0.78125000000000000       0.81250000000000000        0.0000000000000000     
  0.81250000000000000       0.81250000000000000        0.0000000000000000     
  0.84375000000000000       0.81250000000000000        0.0000000000000000     
  0.87500000000000000       0.81250000000000000        0.0000000000000000     
  0.75000000000000000       0.84375000000000000        0.0000000000000000     
  0.78125000000000000       0.84375000000000000        0.0000000000000000     
  0.81250000000000000       0.84375000000000000        0.0000000000000000     
  0.84375000000000000       0.84375000000000000        0.0000000000000000     
  0.87500000000000000       0.84375000000000000        0.0000000000000000     
  0.75000000000000000       0.87500000000000000        0.0000000000000000     
  0.78125000000000000       0.87500000000000000        0.0000000000000000     
  0.81250000000000000       0.87500000000000000        0.0000000000000000     
  0.84375000000000000       0.87500000000000000        0.0000000000000000     
  0.87500000000000000       0.87500000000000000        0.0000000000000000     
  0.87500000000000000       0.75000000000000000        0.0000000000000000     
  0.90625000000000000       0.75000000000000000        0.0000000000000000     
  0.93750000000000000       0.75000000000000000        0.0000000000000000     
  0.96875000000000000       0.75000000000000000        0.0000000000000000     
   1.0000000000000000       0.75000000000000000        0.0000000000000000     
  0.87500000000000000       0.78125000000000000        0.0000000000000000     
  0.90625000000000000       0.78125000000000000        0.0000000000000000     
  0.93750000000000000       0.78125000000000000        0.0000000000000000     
  0.96875000000000000       0.78125000000000000        0.0000000000000000     
   1.0000000000000000       0.78125000000000000        0.0000000000000000     
  0.87500000000000000       0.81250000000000000        0.0000000000000000     
  0.90625000000000000       0.81250000000000000        0.0000000000000000     
  0.93750000000000000       0.81250000000000000        0.0000000000000000     
  0.96875000000000000       0.81250000000000000        0.0000000000000000     
   1.0000000000000000       0.81250000000000000        0.0000000000000000     
  0.87500000000000000       0.84375000000000000        0.0000000000000000     
  0.90625000000000000       0.84375000000000000        0.0000000000000000     
  0.93750000000000000       0.84375000000000000        0.0000000000000000     
  0.96875000000000000       0.84375000000000000        0.0000000000000000     
   1.0000000000000000       0.84375000000000000        0.0000000000000000     
  0.87500000000000000       0.87500000000000000        0.0000000000000000     
  0.90625000000000000       0.87500000000000000        0.0000000000000000     
  0.93750000000000000       0.87500000000000000        0.0000000000000000     
  0.96875000000000000       0.87500000000000000        0.0000000000000000     
   1.0000000000000000       0.87500000000000000        0.0000000000000000     
   0.0000000000000000       0.87500000000000000        0.0000000000000000     
   3.1250000000000000E-002  0.87500000000000000        0.0000000000000000     
   6.2500000000000000E-002  0.87500000000000000        0.0000000000000000     
   9.3750000000000000E-002  0.87500000000000000        0.0000000000000000     
  0.12500000000000000       0.87500000000000000        0.0000000000000000     
   0.0000000000000000       0.90625000000000000        0.0000000000000000     
   3.1250000000000000E-002  0.90625000000000000        0.0000000000000000     
   6.2500000000000000E-002  0.90625000000000000        0.0000000000000000     
   9.3750000000000000E-002  0.90625000000000000        0.0000000000000000     
  0.12500000000000000       0.90625000000000000        0.0000000000000000     
   0.0000000000000000       0.93750000000000000        0.0000000000000000     
   3.1250000000000000E-002  0.93750000000000000        0.0000000000000000     
   6.2500000000000000E-002  0.93750000000000000        0.0000000000000000     
   9.3750000000000000E-002  0.93750000000000000        0.0000000000000000     
  0.12500000000000000       0.93750000000000000        0.0000000000000000     
   0.0000000000000000       0.96875000000000000        0.0000000000000000     
   3.1250000000000000E-002  0.96875000000000000        0.0000000000000000     
   6.2500000000000000E-002  0.96875000000000000        0.0000000000000000     
   9.3750000000000000E-002  0.96875000000000000        0.0000000000000000     
  0.12500000000000000       0.96875000000000000        0.0000000000000000     
   0.0000000000000000        1.0000000000000000        0.0000000000000000     
   3.1250000000000000E-002   1.0000000000000000        0.0000000000000000     
   6.2500000000000000E-002   1.0000000000000000        0.0000000000000000     
   9.3750000000000000E-002   1.0000000000000000        0.0000000000000000     
  0.12500000000000000        1.0000000000000000        0.0000000000000000     
  0.12500000000000000       0.87500000000000000        0.0000000000000000     
  0.15625000000000000       0.87500000000000000        0.0000000000000000     
  0.18750000000000000       0.87500000000000000        0.0000000000000000     
  0.21875000000000000       0.87500000000000000        0.0000000000000000     
  0.25000000000000000       0.87500000000000000        0.0000000000000000     
  0.12500000000000000       0.90625000000000000        0.0000000000000000     
  0.15625000000000000       0.90625000000000000        0.0000000000000000     
  0.18750000000000000       0.90625000000000000        0.0000000000000000     
  0.21875000000000000       0.90625000000000000        0.0000000000000000     
  0.25000000000000000       0.90625000000000000        0.0000000000000000     
  0.12500000000000000       0.93750000000000000        0.0000000000000000     
  0.15625000000000000       0.93750000000000000        0.0000000000000000     
  0.18750000000000000       0.93750000000000000        0.0000000000000000     
  0.21875000000000000       0.93750000000000000        0.0000000000000000     
  0.25000000000000000       0.93750000000000000        0.0000000000000000     
  0.12500000000000000       0.96875000000000000        0.0000000000000000     
  0.15625000000000000       0.96875000000000000        0.0000000000000000     
  0.18750000000000000       0.96875000000000000        0.0000000000000000     
  0.21875000000000000       0.96875000000000000        0.0000000000000000     
  0.25000000000000000       0.96875000000000000        0.0000000000000000     
  0.12500000000000000        1.0000000000000000        0.0000000000000000     
  0.15625000000000000        1.0000000000000000        0.0000000000000000     
  0.18750000000000000        1.0000000000000000        0.0000000000000000     
  0.21875000000000000        1.0000000000000000        0.0000000000000000     
  0.25000000000000000        1.0000000000000000        0.0000000000000000     
  0.25000000000000000       0.87500000000000000        0.0000000000000000     
  0.28125000000000000       0.87500000000000000        0.0000000000000000     
  0.31250000000000000       0.87500000000000000        0.0000000000000000     
  0.34375000000000000       0.87500000000000000        0.0000000000000000     
  0.37500000000000000       0.87500000000000000        0.0000000000000000     
  0.25000000000000000       0.90625000000000000        0.0000000000000000     
  0.28125000000000000       0.90625000000000000        0.0000000000000000     
  0.31250000000000000       0.90625000000000000        0.0000000000000000     
  0.34375000000000000       0.90625000000000000        0.0000000000000000     
  0.37500000000000000       0.90625000000000000        0.0000000000000000     
  0.25000000000000000       0.93750000000000000        0.0000000000000000     
  0.28125000000000000       0.93750000000000000        0.0000000000000000     
  0.31250000000000000       0.93750000000000000        0.0000000000000000     
  0.34375000000000000       0.93750000000000000        0.0000000000000000     
  0.37500000000000000       0.93750000000000000        0.0000000000000000     
  0.25000000000000000       0.96875000000000000        0.0000000000000000     
  0.28125000000000000       0.96875000000000000        0.0000000000000000     
  0.31250000000000000       0.96875000000000000        0.0000000000000000     
  0.34375000000000000       0.96875000000000000        0.0000000000000000     
  0.37500000000000000       0.96875000000000000        0.0000000000000000     
  0.25000000000000000        1.0000000000000000        0.0000000000000000     
  0.28125000000000000        1.0000000000000000        0.0000000000000000     
  0.31250000000000000        1.0000000000000000        0.0000000000000000     
  0.34375000000000000        1.0000000000000000        0.0000000000000000     
  0.37500000000000000        1.0000000000000000        0.0000000000000000     
  0.37500000000000000       0.87500000000000000        0.0000000000000000     
  0.40625000000000000       0.87500000000000000        0.0000000000000000     
  0.43750000000000000       0.87500000000000000        0.0000000000000000     
  0.46875000000000000       0.87500000000000000        0.0000000000000000     
  0.50000000000000000       0.87500000000000000        0.0000000000000000     
  0.37500000000000000       0.90625000000000000        0.0000000000000000     
  0.40625000000000000       0.90625000000000000        0.0000000000000000     
  0.43750000000000000       0.90625000000000000        0.0000000000000000     
  0.46875000000000000       0.90625000000000000        0.0000000000000000     
  0.50000000000000000       0.90625000000000000        0.0000000000000000     
  0.37500000000000000       0.93750000000000000        0.0000000000000000     
  0.40625000000000000       0.93750000000000000        0.0000000000000000     
  0.43750000000000000       0.93750000000000000        0.0000000000000000     
  0.46875000000000000       0.93750000000000000        0.0000000000000000     
  0.50000000000000000       0.93750000000000000        0.0000000000000000     
  0.37500000000000000       0.96875000000000000        0.0000000000000000     
  0.40625000000000000       0.96875000000000000        0.0000000000000000     
  0.43750000000000000       0.96875000000000000        0.0000000000000000     
  0.46875000000000000       0.96875000000000000        0.0000000000000000     
  0.50000000000000000       0.96875000000000000        0.0000000000000000     
  0.37500000000000000        1.0000000000000000        0.0000000000000000     
  0.40625000000000000        1.0000000000000000        0.0000000000000000     
  0.43750000000000000        1.0000000000000000        0.0000000000000000     
  0.46875000000000000        1.0000000000000000        0.0000000000000000     
  0.50000000000000000        1.0000000000000000        0.0000000000000000     
  0.50000000000000000       0.87500000000000000        0.0000000000000000     
  0.53125000000000000       0.87500000000000000        0.0000000000000000     
  0.56250000000000000       0.87500000000000000        0.0000000000000000     
  0.59375000000000000       0.87500000000000000        0.0000000000000000     
  0.62500000000000000       0.87500000000000000        0.0000000000000000     
  0.50000000000000000       0.90625000000000000        0.0000000000000000     
  0.53125000000000000       0.90625000000000000        0.0000000000000000     
  0.56250000000000000       0.90625000000000000        0.0000000000000000     
  0.59375000000000000       0.90625000000000000        0.0000000000000000     
  0.62500000000000000       0.90625000000000000        0.0000000000000000     
  0.50000000000000000       0.93750000000000000        0.0000000000000000     
  0.53125000000000000       0.93750000000000000        0.0000000000000000     
  0.56250000000000000       0.93750000000000000        0.0000000000000000     
  0.59375000000000000       0.93750000000000000        0.0000000000000000     
  0.62500000000000000       0.93750000000000000        0.0000000000000000     
  0.50000000000000000       0.96875000000000000        0.0000000000000000     
  0.53125000000000000       0.96875000000000000        0.0000000000000000     
  0.56250000000000000       0.96875000000000000        0.0000000000000000     
  0.59375000000000000       0.96875000000000000        0.0000000000000000     
  0.62500000000000000       0.96875000000000000        0.0000000000000000     
  0.50000000000000000        1.0000000000000000        0.0000000000000000     
  0.53125000000000000        1.0000000000000000        0.0000000000000000     
  0.56250000000000000        1.0000000000000000        0.0000000000000000     
  0.59375000000000000        1.0000000000000000        0.0000000000000000     
  0.62500000000000000        1.0000000000000000        0.0000000000000000     
  0.62500000000000000       0.87500000000000000        0.0000000000000000     
  0.65625000000000000       0.87500000000000000        0.0000000000000000     
  0.68750000000000000       0.87500000000000000        0.0000000000000000     
  0.71875000000000000       0.87500000000000000        0.0000000000000000     
  0.75000000000000000       0.87500000000000000        0.0000000000000000     
  0.62500000000000000       0.90625000000000000        0.0000000000000000     
  0.65625000000000000       0.90625000000000000        0.0000000000000000     
  0.68750000000000000       0.90625000000000000        0.0000000000000000     
  0.71875000000000000       0.90625000000000000        0.0000000000000000     
  0.75000000000000000       0.90625000000000000        0.0000000000000000     
  0.62500000000000000       0.93750000000000000        0.0000000000000000     
  0.65625000000000000       0.93750000000000000        0.0000000000000000     
  0.68750000000000000       0.93750000000000000        0.0000000000000000     
  0.71875000000000000       0.93750000000000000        0.0000000000000000     
  0.75000000000000000       0.93750000000000000        0.0000000000000000     
  0.62500000000000000       0.96875000000000000        0.0000000000000000     
  0.65625000000000000       0.96875000000000000        0.0000000000000000     
  0.68750000000000000       0.96875000000000000        0.0000000000000000     
  0.71875000000000000       0.96875000000000000        0.0000000000000000     
  0.75000000000000000       0.96875000000000000        0.0000000000000000     
  0.62500000000000000        1.0000000000000000        0.0000000000000000     
  0.65625000000000000        1.0000000000000000        0.0000000000000000     
  0.68750000000000000        1.0000000000000000        0.0000000000000000     
  0.71875000000000000        1.0000000000000000        0.0000000000000000     
  0.75000000000000000        1.0000000000000000        0.0000000000000000     
  0.75000000000000000       0.87500000000000000        0.0000000000000000     
  0.78125000000000000       0.87500000000000000        0.0000000000000000     
  0.81250000000000000       0.87500000000000000        0.0000000000000000     
  0.84375000000000000       0.87500000000000000        0.0000000000000000     
  0.87500000000000000       0.87500000000000000        0.0000000000000000     
  0.75000000000000000       0.90625000000000000        0.0000000000000000     
  0.78125000000000000       0.90625000000000000        0.0000000000000000     
  0.81250000000000000       0.90625000000000000        0.0000000000000000     
  0.84375000000000000       0.90625000000000000        0.0000000000000000     
  0.87500000000000000       0.90625000000000000        0.0000000000000000     
  0.75000000000000000       0.93750000000000000        0.0000000000000000     
  0.78125000000000000       0.93750000000000000        0.0000000000000000     
  0.81250000000000000       0.93750000000000000        0.0000000000000000     
  0.84375000000000000       0.93750000000000000        0.0000000000000000     
  0.87500000000000000       0.93750000000000000        0.0000000000000000     
  0.75000000000000000       0.96875000000000000        0.0000000000000000     
  0.78125000000000000       0.96875000000000000        0.0000000000000000     
  0.81250000000000000       0.96875000000000000        0.0000000000000000     
  0.84375000000000000       0.96875000000000000        0.0000000000000000     
  0.87500000000000000       0.96875000000000000        0.0000000000000000     
  0.75000000000000000        1.0000000000000000        0.0000000000000000     
  0.78125000000000000        1.0000000000000000        0.0000000000000000     
  0.81250000000000000        1.0000000000000000        0.0000000000000000     
  0.84375000000000000        1.0000000000000000        0.0000000000000000     
  0.87500000000000000        1.0000000000000000        0.0000000000000000     
  0.87500000000000000       0.87500000000000000        0.0000000000000000     
  0.90625000000000000       0.87500000000000000        0.0000000000000000     
  0.93750000000000000       0.87500000000000000        0.0000000000000000     
  0.96875000000000000       0.87500000000000000        0.0000000000000000     
   1.0000000000000000       0.87500000000000000        0.0000000000000000     
  0.87500000000000000       0.90625000000000000        0.0000000000000000     
  0.90625000000000000       0.90625000000000000        0.0000000000000000     
  0.93750000000000000       0.90625000000000000        0.0000000000000000     
  0.96875000000000000       0.90625000000000000        0.0000000000000000     
   1.0000000000000000       0.90625000000000000        0.0000000000000000     
  0.87500000000000000       0.93750000000000000        0.0000000000000000     
  0.90625000000000000       0.93750000000000000        0.0000000000000000     
  0.93750000000000000       0.93750000000000000        0.0000000000000000     
  0.96875000000000000       0.93750000000000000        0.0000000000000000     
   1.0000000000000000       0.93750000000000000        0.0000000000000000     
  0.87500000000000000       0.96875000000000000        0.0000000000000000     
  0.90625000000000000       0.96875000000000000        0.0000000000000000     
  0.93750000000000000       0.96875000000000000        0.0000000000000000     
  0.96875000000000000       0.96875000000000000        0.0000000000000000     
   1.0000000000000000       0.96875000000000000        0.0000000000000000     
  0.87500000000000000        1.0000000000000000        0.0000000000000000     
  0.90625000000000000        1.0000000000000000        0.0000000000000000     
  0.93750000000000000        1.0000000000000000        0.0000000000000000     
  0.96875000000000000        1.0000000000000000        0.0000000000000000     
   1.0000000000000000        1.0000000000000000        0.0000000000000000     
 </DataArray>
 </Points>
 <Cells>
 <DataArray  type="Int32"  Name="connectivity"  format="ascii">
           0           1           6           5
           1           2           7           6
           2           3           8           7
           3           4           9           8
           5           6          11          10
           6           7          12          11
           7           8          13          12
           8           9          14          13
          10          11          16          15
          11          12          17          16
          12          13          18          17
          13          14          19          18
          15          16          21          20
          16          17          22          21
          17          18          23          22
          18          19          24          23
          25          26          31          30
          26          27          32          31
          27          28          33          32
          28          29          34          33
          30          31          36          35
          31          32          37          36
          32          33          38          37
          33          34          39          38
          35          36          41          40
          36          37          42          41
          37          38          43          42
          38          39          44          43
          40          41          46          45
          41          42          47          46
          42          43          48          47
          43          44          49          48
          50          51          56          55
          51          52          57          56
          52          53          58          57
          53          54          59          58
          55          56          61          60
          56          57          62          61
          57          58          63          62
          58          59          64          63
          60          61          66          65
          61          62          67          66
          62          63          68          67
          63          64          69          68
          65          66          71          70
          66          67          72          71
          67          68          73          72
          68          69          74          73
          75          76          81          80
          76          77          82          81
          77          78          83          82
          78          79          84          83
          80          81          86          85
          81          82          87          86
          82          83          88          87
          83          84          89          88
          85          86          91          90
          86          87          92          91
          87          88          93          92
          88          89          94          93
          90          91          96          95
          91          92          97          96
          92          93          98          97
          93          94          99          98
         100         101         106         105
         101         102         107         106
         102         103         108         107
         103         104         109         108
         105         106         111         110
         106         107         112         111
         107         108         113         112
         108         109         114         113
         110         111         116         115
         111         112         117         116
         112         113         118         117
         113         114         119         118
         115         116         121         120
         116         117         122         121
         117         118         123         122
         118         119         124         123
         125         126         131         130
         126         127         132         131
         127         128         133         132
         128         129         134         133
         130         131         136         135
         131         132         137         136
         132         133         138         137
         133         134         139         138
         135         136         141         140
         136         137         142         141
         137         138         143         142
         138         139         144         143
         140         141         146         145
         141         142         147         146
         142         143         148         147
         143         144         149         148
         150         151         156         155
         151         152         157         156
         152         153         158         157
         153         154         159         158
         155         156         161         160
         156         157         162         161
         157         158         163         162
         158         159         164         163
         160         161         166         165
         161         162         167         166
         162         163         168         167
         163         164         169         168
         165         166         171         170
         166         167         172         171
         167         168         173         172
         168         169         174         173
         175         176         181         180
         176         177         182         181
         177         178         183         182
         178         179         184         183
         180         181         186         185
         181         182         187         186
         182         183         188         187
         183         184         189         188
         185         186         191         190
         186         187         192         191
         187         188         193         192
         188         189         194         193
         190         191         196         195
         191         192         197         196
         192         193         198         197
         193         194         199         198
         200         201         206         205
         201         202         207         206
         202         203         208         207
         203         204         209         208
         205         206         211         210
         206         207         212         211
         207         208         213         212
         208         209         214         213
         210         211         216         215
         211         212         217         216
         212         213         218         217
         213         214         219         218
         215         216         221         220
         216         217         222         221
         217         218         223         222
         218         219         224         223
         225         226         231         230
         226         227         232         231
         227         228         233         232
         228         229         234         233
         230         231         236         235
         231         232         237         236
         232         233         238         237
         233         234         239         238
         235         236         241         240
         236         237         242         241
         237         238         243         242
         238         239         244         243
         240         241         246         245
         241         242         247         246
         242         243         248         247
         243         244         249         248
         250         251         256         255
         251         252         257         256
         252         253         258         257
         253         254         259         258
         255         256         261         260
         256         257         262         261
         257         258         263         262
         258         259         264         263
         260         261         266         265
         261         262         267         266
         262         263         268         267
         263         264         269         268
         265         266         271         270
         266         267         272         271
         267         268         273         272
         268         269         274         273
         275         276         281         280
         276         277         282         281
         277         278         283         282
         278         279         284         283
         280         281         286         285
         281         282         287         286
         282         283         288         287
         283         284         289         288
         285         286         291         290
         286         287         292         291
         287         288         293         292
         288         289         294         293
         290         291         296         295
         291         292         297         296
         292         293         298         297
         293         294         299         298
         300         301         306         305
         301         302         307         306
         302         303         308         307
         303         304         309         308
         305         306         311         310
         306         307         312         311
         307         308         313         312
         308         309         314         313
         310         311         316         315
         311         312         317         316
         312         313         318         317
         313         314         319         318
         315         316         321         320
         316         317         322         321
         317         318         323         322
         318         319         324         323
         325         326         331         330
         326         327         332         331
         327         328         333         332
         328         329         334         333
         330         331         336         335
         331         332         337         336
         332         333         338         337
         333         334         339         338
         335         336         341         340
         336         337         342         341
         337         338         343         342
         338         339         344         343
         340         341         346         345
         341         342         347         346
         342         343         348         347
         343         344         349         348
         350         351         356         355
         351         352         357         356
         352         353         358         357
         353         354         359         358
         355         356         361         360
         356         357         362         361
         357         358         363         362
         358         359         364         363
         360         361         366         365
         361         362         367         366
         362         363         368         367
         363         364         369         368
         365         366         371         370
         366         367         372         371
         367         368         373         372
         368         369         374         373
         375         376         381         380
         376         377         382         381
         377         378         383         382
         378         379         384         383
         380         381         386         385
         381         382         387         386
         382         383         388         387
         383         384         389         388
         385         386         391         390
         386         387         392         391
         387         388         393         392
         388         389         394         393
         390         391         396         395
         391         392         397         396
         392         393         398         397
         393         394         399         398
         400         401         406         405
         401         402         407         406
         402         403         408         407
         403         404         409         408
         405         406         411         410
         406         407         412         411
         407         408         413         412
         408         409         414         413
         410         411         416         415
         411         412         417         416
         412         413         418         417
         413         414         419         418
         415         416         421         420
         416         417         422         421
         417         418         423         422
         418         419         424         423
         425         426         431         430
         426         427         432         431
         427         428         433         432
         428         429         434         433
         430         431         436         435
         431         432         437         436
         432         433         438         437
         433         434         439         438
         435         436         441         440
         436         437         442         441
         437         438         443         442
         438         439         444         443
         440         441         446         445
         441         442         447         446
         442         443         448         447
         443         444         449         448
         450         451         456         455
         451         452         457         456
         452         453         458         457
         453         454         459         458
         455         456         461         460
         456         457         462         461
         457         458         463         462
         458         459         464         463
         460         461         466         465
         461         462         467         466
         462         463         468         467
         463         464         469         468
         465         466         471         470
         466         467         472         471
         467         468         473         472
         468         469         474         473
         475         476         481         480
         476         477         482         481
         477         478         483         482
         478         479         484         483
         480         481         486         485
         481         482         487         486
         482         483         488         487
         483         484         489         488
         485         486         491         490
         486         487         492         491
         487         488         493         492
         488         489         494         493
         490         491         496         495
         491         492         497         496
         492         493         498         497
         493         494         499         498
         500         501         506         505
         501         502         507         506
         502         503         508         507
         503         504         509         508
         505         506         511         510
         506         507         512         511
         507         508         513         512
         508         509         514         513
         510         511         516         515
         511         512         517         516
         512         513         518         517
         513         514         519         518
         515         516         521         520
         516         517         522         521
         517         518         523         522
         518         519         524         523
         525         526         531         530
         526         527         532         531
         527         528         533         532
         528         529         534         533
         530         531         536         535
         531         532         537         536
         532         533         538         537
         533         534         539         538
         535         536         541         540
         536         537         542         541
         537         538         543         542
         538         539         544         543
         540         541         546         545
         541         542         547         546
         542         543         548         547
         543         544         549         548
         550         551         556         555
         551         552         557         556
         552         553         558         557
         553         554         559         558
         555         556         561         560
         556         557         562         561
         557         558         563         562
         558         559         564         563
         560         561         566         565
         561         562         567         566
         562         563         568         567
         563         564         569         568
         565         566         571         570
         566         567         572         571
         567         568         573         572
         568         569         574         573
         575         576         581         580
         576         577         582         581
         577         578         583         582
         578         579         584         583
         580         581         586         585
         581         582         587         586
         582         583         588         587
         583         584         589         588
         585         586         591         590
         586         587         592         591
         587         588         593         592
         588         589         594         593
         590         591         596         595
         591         592         597         596
         592         593         598         597
         593         594         599         598
         600         601         606         605
         601         602         607         606
         602         603         608         607
         603         604         609         608
         605         606         611         610
         606         607         612         611
         607         608         613         612
         608         609         614         613
         610         611         616         615
         611         612         617         616
         612         613         618         617
         613         614         619         618
         615         616         621         620
         616         617         622         621
         617         618         623         622
         618         619         624         623
         625         626         631         630
         626         627         632         631
         627         628         633         632
         628         629         634         633
         630         631         636         635
         631         632         637         636
         632         633         638         637
         633         634         639         638
         635         636         641         640
         636         637         642         641
         637         638         643         642
         638         639         644         643
         640         641         646         645
         641         642         647         646
         642         643         648         647
         643         644         649         648
         650         651         656         655
         651         652         657         656
         652         653         658         657
         653         654         659         658
         655         656         661         660
         656         657         662         661
         657         658         663         662
         658         659         664         663
         660         661         666         665
         661         662         667         666
         662         663         668         667
         663         664         669         668
         665         666         671         670
         666         667         672         671
         667         668         673         672
         668         669         674         673
         675         676         681         680
         676         677         682         681
         677         678         683         682
         678         679         684         683
         680         681         686         685
         681         682         687         686
         682         683         688         687
         683         684         689         688
         685         686         691         690
         686         687         692         691
         687         688         693         692
         688         689         694         693
         690         691         696         695
         691         692         697         696
         692         693         698         697
         693         694         699         698
         700         701         706         705
         701         702         707         706
         702         703         708         707
         703         704         709         708
         705         706         711         710
         706         707         712         711
         707         708         713         712
         708         709         714         713
         710         711         716         715
         711         712         717         716
         712         713         718         717
         713         714         719         718
         715         716         721         720
         716         717         722         721
         717         718         723         722
         718         719         724         723
         725         726         731         730
         726         727         732         731
         727         728         733         732
         728         729         734         733
         730         731         736         735
         731         732         737         736
         732         733         738         737
         733         734         739         738
         735         736         741         740
         736         737         742         741
         737         738         743         742
         738         739         744         743
         740         741         746         745
         741         742         747         746
         742         743         748         747
         743         744         749         748
         750         751         756         755
         751         752         757         756
         752         753         758         757
         753         754         759         758
         755         756         761         760
         756         757         762         761
         757         758         763         762
         758         759         764         763
         760         761         766         765
         761         762         767         766
         762         763         768         767
         763         764         769         768
         765         766         771         770
         766         767         772         771
         767         768         773         772
         768         769         774         773
         775         776         781         780
         776         777         782         781
         777         778         783         782
         778         779         784         783
         780         781         786         785
         781         782         787         786
         782         783         788         787
         783         784         789         788
         785         786         791         790
         786         787         792         791
         787         788         793         792
         788         789         794         793
         790         791         796         795
         791         792         797         796
         792         793         798         797
         793         794         799         798
         800         801         806         805
         801         802         807         806
         802         803         808         807
         803         804         809         808
         805         806         811         810
         806         807         812         811
         807         808         813         812
         808         809         814         813
         810         811         816         815
         811         812         817         816
         812         813         818         817
         813         814         819         818
         815         816         821         820
         816         817         822         821
         817         818         823         822
         818         819         824         823
         825         826         831         830
         826         827         832         831
         827         828         833         832
         828         829         834         833
         830         831         836         835
         831         832         837         836
         832         833         838         837
         833         834         839         838
         835         836         841         840
         836         837         842         841
         837         838         843         842
         838         839         844         843
         840         841         846         845
         841         842         847         846
         842         843         848         847
         843         844         849         848
         850         851         856         855
         851         852         857         856
         852         853         858         857
         853         854         859         858
         855         856         861         860
         856         857         862         861
         857         858         863         862
         858         859         864         863
         860         861         866         865
         861         862         867         866
         862         863         868         867
         863         864         869         868
         865         866         871         870
         866         867         872         871
         867         868         873         872
         868         869         874         873
         875         876         881         880
         876         877         882         881
         877         878         883         882
         878         879         884         883
         880         881         886         885
         881         882         887         886
         882         883         888         887
         883         884         889         888
         885         886         891         890
         886         887         892         891
         887         888         893         892
         888         889         894         893
         890         891         896         895
         891         892         897         896
         892         893         898         897
         893         894         899         898
         900         901         906         905
         901         902         907         906
         902         903         908         907
         903         904         909         908
         905         906         911         910
         906         907         912         911
         907         908         913         912
         908         909         914         913
         910         911         916         915
         911         912         917         916
         912         913         918         917
         913         914         919         918
         915         916         921         920
         916         917         922         921
         917         918         923         922
         918         919         924         923
         925         926         931         930
         926         927         932         931
         927         928         933         932
         928         929         934         933
         930         931         936         935
         931         932         937         936
         932         933         938         937
         933         934         939         938
         935         936         941         940
         936         937         942         941
         937         938         943         942
         938         939         944         943
         940         941         946         945
         941         942         947         946
         942         943         948         947
         943         944         949         948
         950         951         956         955
         951         952         957         956
         952         953         958         957
         953         954         959         958
         955         956         961         960
         956         957         962         961
         957         958         963         962
         958         959         964         963
         960         961         966         965
         961         962         967         966
         962         963         968         967
         963         964         969         968
         965         966         971         970
         966         967         972         971
         967         968         973         972
         968         969         974         973
         975         976         981         980
         976         977         982         981
         977         978         983         982
         978         979         984         983
         980         981         986         985
         981         982         987         986
         982         983         988         987
         983         984         989         988
         985         986         991         990
         986         987         992         991
         987         988         993         992
         988         989         994         993
         990         991         996         995
         991         992         997         996
         992         993         998         997
         993         994         999         998
        1000        1001        1006        1005
        1001        1002        1007        1006
        1002        1003        1008        1007
        1003        1004        1009        1008
        1005        1006        1011        1010
        1006        1007        1012        1011
        1007        1008        1013        1012
        1008        1009        1014        1013
        1010        1011        1016        1015
        1011        1012        1017        1016
        1012        1013        1018        1017
        1013        1014        1019        1018
        1015        1016        1021        1020
        1016        1017        1022        1021
        1017        1018        1023        1022
        1018        1019        1024        1023
        1025        1026        1031        1030
        1026        1027        1032        1031
        1027        1028        1033        1032
        1028        1029        1034        1033
        1030        1031        1036        1035
        1031        1032        1037        1036
        1032        1033        1038        1037
        1033        1034        1039        1038
        1035        1036        1041        1040
        1036        1037        1042        1041
        1037        1038        1043        1042
        1038        1039        1044        1043
        1040        1041        1046        1045
        1041        1042        1047        1046
        1042        1043        1048        1047
        1043        1044        1049        1048
        1050        1051        1056        1055
        1051        1052        1057        1056
        1052        1053        1058        1057
        1053        1054        1059        1058
        1055        1056        1061        1060
        1056        1057        1062        1061
        1057        1058        1063        1062
        1058        1059        1064        1063
        1060        1061        1066        1065
        1061        1062        1067        1066
        1062        1063        1068        1067
        1063        1064        1069        1068
        1065        1066        1071        1070
        1066        1067        1072        1071
        1067        1068        1073        1072
        1068        1069        1074        1073
        1075        1076        1081        1080
        1076        1077        1082        1081
        1077        1078        1083        1082
        1078        1079        1084        1083
        1080        1081        1086        1085
        1081        1082        1087        1086
        1082        1083        1088        1087
        1083        1084        1089        1088
        1085        1086        1091        1090
        1086        1087        1092        1091
        1087        1088        1093        1092
        1088        1089        1094        1093
        1090        1091        1096        1095
        1091        1092        1097        1096
        1092        1093        1098        1097
        1093        1094        1099        1098
        1100        1101        1106        1105
        1101        1102        1107        1106
        1102        1103        1108        1107
        1103        1104        1109        1108
        1105        1106        1111        1110
        1106        1107        1112        1111
        1107        1108        1113        1112
        1108        1109        1114        1113
        1110        1111        1116        1115
        1111        1112        1117        1116
        1112        1113        1118        1117
        1113        1114        1119        1118
        1115        1116        1121        1120
        1116        1117        1122        1121
        1117        1118        1123        1122
        1118        1119        1124        1123
        1125        1126        1131        1130
        1126        1127        1132        1131
        1127        1128        1133        1132
        1128        1129        1134        1133
        1130        1131        1136        1135
        1131        1132        1137        1136
        1132        1133        1138        1137
        1133        1134        1139        1138
        1135        1136        1141        1140
        1136        1137        1142        1141
        1137        1138        1143        1142
        1138        1139        1144        1143
        1140        1141        1146        1145
        1141        1142        1147        1146
        1142        1143        1148        1147
        1143        1144        1149        1148
        1150        1151        1156        1155
        1151        1152        1157        1156
        1152        1153        1158        1157
        1153        1154        1159        1158
        1155        1156        1161        1160
        1156        1157        1162        1161
        1157        1158        1163        1162
        1158        1159        1164        1163
        1160        1161        1166        1165
        1161        1162        1167        1166
        1162        1163        1168        1167
        1163        1164        1169        1168
        1165        1166        1171        1170
        1166        1167        1172        1171
        1167        1168        1173        1172
        1168        1169        1174        1173
        1175        1176        1181        1180
        1176        1177        1182        1181
        1177        1178        1183        1182
        1178        1179        1184        1183
        1180        1181        1186        1185
        1181        1182        1187        1186
        1182        1183        1188        1187
        1183        1184        1189        1188
        1185        1186        1191        1190
        1186        1187        1192        1191
        1187        1188        1193        1192
        1188        1189        1194        1193
        1190        1191        1196        1195
        1191        1192        1197        1196
        1192        1193        1198        1197
        1193        1194        1199        1198
        1200        1201        1206        1205
        1201        1202        1207        1206
        1202        1203        1208        1207
        1203        1204        1209        1208
        1205        1206        1211        1210
        1206        1207        1212        1211
        1207        1208        1213        1212
        1208        1209        1214        1213
        1210        1211        1216        1215
        1211        1212        1217        1216
        1212        1213        1218        1217
        1213        1214        1219        1218
        1215        1216        1221        1220
        1216        1217        1222        1221
        1217        1218        1223        1222
        1218        1219        1224        1223
        1225        1226        1231        1230
        1226        1227        1232        1231
        1227        1228        1233        1232
        1228        1229        1234        1233
        1230        1231        1236        1235
        1231        1232        1237        1236
        1232        1233        1238        1237
        1233        1234        1239        1238
        1235        1236        1241        1240
        1236        1237        1242        1241
        1237        1238        1243        1242
        1238        1239        1244        1243
        1240        1241        1246        1245
        1241        1242        1247        1246
        1242        1243        1248        1247
        1243        1244        1249        1248
        1250        1251        1256        1255
        1251        1252        1257        1256
        1252        1253        1258        1257
        1253        1254        1259        1258
        1255        1256        1261        1260
        1256        1257        1262        1261
        1257        1258        1263        1262
        1258        1259        1264        1263
        1260        1261        1266        1265
        1261        1262        1267        1266
        1262        1263        1268        1267
        1263        1264        1269        1268
        1265        1266        1271        1270
        1266        1267        1272        1271
        1267        1268        1273        1272
        1268        1269        1274        1273
        1275        1276        1281        1280
        1276        1277        1282        1281
        1277        1278        1283        1282
        1278        1279        1284        1283
        1280        1281        1286        1285
        1281        1282        1287        1286
        1282        1283        1288        1287
        1283        1284        1289        1288
        1285        1286        1291        1290
        1286        1287        1292        1291
        1287        1288        1293        1292
        1288        1289        1294        1293
        1290        1291        1296        1295
        1291        1292        1297        1296
        1292        1293        1298        1297
        1293        1294        1299        1298
        1300        1301        1306        1305
        1301        1302        1307        1306
        1302        1303        1308        1307
        1303        1304        1309        1308
        1305        1306        1311        1310
        1306        1307        1312        1311
        1307        1308        1313        1312
        1308        1309        1314        1313
        1310        1311        1316        1315
        1311        1312        1317        1316
        1312        1313        1318        1317
        1313        1314        1319        1318
        1315        1316        1321        1320
        1316        1317        1322        1321
        1317        1318        1323        1322
        1318        1319        1324        1323
        1325        1326        1331        1330
        1326        1327        1332        1331
        1327        1328        1333        1332
        1328        1329        1334        1333
        1330        1331        1336        1335
        1331        1332        1337        1336
        1332        1333        1338        1337
        1333        1334        1339        1338
        1335        1336        1341        1340
        1336        1337        1342        1341
        1337        1338        1343        1342
        1338        1339        1344        1343
        1340        1341        1346        1345
        1341        1342        1347        1346
        1342        1343        1348        1347
        1343        1344        1349        1348
        1350        1351        1356        1355
        1351        1352        1357        1356
        1352        1353        1358        1357
        1353        1354        1359        1358
        1355        1356        1361        1360
        1356        1357        1362        1361
        1357        1358        1363        1362
        1358        1359        1364        1363
        1360        1361        1366        1365
        1361        1362        1367        1366
        1362        1363        1368        1367
        1363        1364        1369        1368
        1365        1366        1371        1370
        1366        1367        1372        1371
        1367        1368        1373        1372
        1368        1369        1374        1373
        1375        1376        1381        1380
        1376        1377        1382        1381
        1377        1378        1383        1382
        1378        1379        1384        1383
        1380        1381        1386        1385
        1381        1382        1387        1386
        1382        1383        1388        1387
        1383        1384        1389        1388
        1385        1386        1391        1390
        1386        1387        1392        1391
        1387        1388        1393        1392
        1388        1389        1394        1393
        1390        1391        1396        1395
        1391        1392        1397        1396
        1392        1393        1398        1397
        1393        1394        1399        1398
        1400        1401        1406        1405
        1401        1402        1407        1406
        1402        1403        1408        1407
        1403        1404        1409        1408
        1405        1406        1411        1410
        1406        1407        1412        1411
        1407        1408        1413        1412
        1408        1409        1414        1413
        1410        1411        1416        1415
        1411        1412        1417        1416
        1412        1413        1418        1417
        1413        1414        1419        1418
        1415        1416        1421        1420
        1416        1417        1422        1421
        1417        1418        1423        1422
        1418        1419        1424        1423
        1425        1426        1431        1430
        1426        1427        1432        1431
        1427        1428        1433        1432
        1428        1429        1434        1433
        1430        1431        1436        1435
        1431        1432        1437        1436
        1432        1433        1438        1437
        1433        1434        1439        1438
        1435        1436        1441        1440
        1436        1437        1442        1441
        1437        1438        1443        1442
        1438        1439        1444        1443
        1440        1441        1446        1445
        1441        1442        1447        1446
        1442        1443        1448        1447
        1443        1444        1449        1448
        1450        1451        1456        1455
        1451        1452        1457        1456
        1452        1453        1458        1457
        1453        1454        1459        1458
        1455        1456        1461        1460
        1456        1457        1462        1461
        1457        1458        1463        1462
        1458        1459        1464        1463
        1460        1461        1466        1465
        1461        1462        1467        1466
        1462        1463        1468        1467
        1463        1464        1469        1468
        1465        1466        1471        1470
        1466        1467        1472        1471
        1467        1468        1473        1472
        1468        1469        1474        1473
        1475        1476        1481        1480
        1476        1477        1482        1481
        1477        1478        1483        1482
        1478        1479        1484        1483
        1480        1481        1486        1485
        1481        1482        1487        1486
        1482        1483        1488        1487
        1483        1484        1489        1488
        1485        1486        1491        1490
        1486        1487        1492        1491
        1487        1488        1493        1492
        1488        1489        1494        1493
        1490        1491        1496        1495
        1491        1492        1497        1496
        1492        1493        1498        1497
        1493        1494        1499        1498
        1500        1501        1506        1505
        1501        1502        1507        1506
        1502        1503        1508        1507
        1503        1504        1509        1508
        1505        1506        1511        1510
        1506        1507        1512        1511
        1507        1508        1513        1512
        1508        1509        1514        1513
        1510        1511        1516        1515
        1511        1512        1517        1516
        1512        1513        1518        1517
        1513        1514        1519        1518
        1515        1516        1521        1520
        1516        1517        1522        1521
        1517        1518        1523        1522
        1518        1519        1524        1523
        1525        1526        1531        1530
        1526        1527        1532        1531
        1527        1528        1533        1532
        1528        1529        1534        1533
        1530        1531        1536        1535
        1531        1532        1537        1536
        1532        1533        1538        1537
        1533        1534        1539        1538
        1535        1536        1541        1540
        1536        1537        1542        1541
        1537        1538        1543        1542
        1538        1539        1544        1543
        1540        1541        1546        1545
        1541        1542        1547        1546
        1542        1543        1548        1547
        1543        1544        1549        1548
        1550        1551        1556        1555
        1551        1552        1557        1556
        1552        1553        1558        1557
        1553        1554        1559        1558
        1555        1556        1561        1560
        1556        1557        1562        1561
        1557        1558        1563        1562
        1558        1559        1564        1563
        1560        1561        1566        1565
        1561        1562        1567        1566
        1562        1563        1568        1567
        1563        1564        1569        1568
        1565        1566        1571        1570
        1566        1567        1572        1571
        1567        1568        1573        1572
        1568        1569        1574        1573
        1575        1576        1581        1580
        1576        1577        1582        1581
        1577        1578        1583        1582
        1578        1579        1584        1583
        1580        1581        1586        1585
        1581        1582        1587        1586
        1582        1583        1588        1587
        1583        1584        1589        1588
        1585        1586        1591        1590
        1586        1587        1592        1591
        1587        1588        1593        1592
        1588        1589        1594        1593
        1590        1591        1596        1595
        1591        1592        1597        1596
        1592        1593        1598        1597
        1593        1594        1599        1598
 </DataArray>
 <DataArray  type="Int32"  Name="offsets"  format="ascii"> 
           4
           8
          12
          16
          20
          24
          28
          32
          36
          40
          44
          48
          52
          56
          60
          64
          68
          72
          76
          80
          84
          88
          92
          96
         100
         104
         108
         112
         116
         120
         124
         128
         132
         136
         140
         144
         148
         152
         156
         160
         164
         168
         172
         176
         180
         184
         188
         192
         196
         200
         204
         208
         212
         216
         220
         224
         228
         232
         236
         240
         244
         248
         252
         256
         260
         264
         268
         272
         276
         280
         284
         288
         292
         296
         300
         304
         308
         312
         316
         320
         324
         328
         332
         336
         340
         344
         348
         352
         356
         360
         364
         368
         372
         376
         380
         384
         388
         392
         396
         400
         404
         408
         412
         416
         420
         424
         428
         432
         436
         440
         444
         448
         452
         456
         460
         464
         468
         472
         476
         480
         484
         488
         492
         496
         500
         504
         508
         512
         516
         520
         524
         528
         532
         536
         540
         544
         548
         552
         556
         560
         564
         568
         572
         576
         580
         584
         588
         592
         596
         600
         604
         608
         612
         616
         620
         624
         628
         632
         636
         640
         644
         648
         652
         656
         660
         664
         668
         672
         676
         680
         684
         688
         692
         696
         700
         704
         708
         712
         716
         720
         724
         728
         732
         736
         740
         744
         748
         752
         756
         760
         764
         768
         772
         776
         780
         784
         788
         792
         796
         800
         804
         808
         812
         816
         820
         824
         828
         832
         836
         840
         844
         848
         852
         856
         860
         864
         868
         872
         876
         880
         884
         888
         892
         896
         900
         904
         908
         912
         916
         920
         924
         928
         932
         936
         940
         944
         948
         952
         956
         960
         964
         968
         972
         976
         980
         984
         988
         992
         996
        1000
        1004
        1008
        1012
        1016
        1020
        1024
        1028
        1032
        1036
        1040
        1044
        1048
        1052
        1056
        1060
        1064
        1068
        1072
        1076
        1080
        1084
        1088
        1092
        1096
        1100
        1104
        1108
        1112
        1116
        1120
        1124
        1128
        1132
        1136
        1140
        1144
        1148
        1152
        1156
        1160
        1164
        1168
        1172
        1176
        1180
        1184
        1188
        1192
        1196
        1200
        1204
        1208
        1212
        1216
        1220
        1224
        1228
        1232
        1236
        1240
        1244
        1248
        1252
        1256
        1260
        1264
        1268
        1272
        1276
        1280
        1284
        1288
        1292
        1296
        1300
        1304
        1308
        1312
        1316
        1320
        1324
        1328
        1332
        1336
        1340
        1344
        1348
        1352
        1356
        1360
        1364
        1368
        1372
        1376
        1380
        1384
        1388
        1392
        1396
        1400
        1404
        1408
        1412
        1416
        1420
        1424
        1428
        1432
        1436
        1440
        1444
        1448
        1452
        1456
        1460
        1464
        1468
        1472
        1476
        1480
        1484
        1488
        1492
        1496
        1500
        1504
        1508
        1512
        1516
        1520
        1524
        1528
        1532
        1536
        1540
        1544
        1548
        1552
        1556
        1560
        1564
        1568
        1572
        1576
        1580
        1584
        1588
        1592
        1596
        1600
        1604
        1608
        1612
        1616
        1620
        1624
        1628
        1632
        1636
        1640
        1644
        1648
        1652
        1656
        1660
        1664
        1668
        1672
        1676
        1680
        1684
        1688
        1692
        1696
        1700
        1704
        1708
        1712
        1716
        1720
        1724
        1728
        1732
        1736
        1740
        1744
        1748
        1752
        1756
        1760
        1764
        1768
        1772
        1776
        1780
        1784
        1788
        1792
        1796
        1800
        1804
        1808
        1812
        1816
        1820
        1824
        1828
        1832
        1836
        1840
        1844
        1848
        1852
        1856
        1860
        1864
        1868
        1872
        1876
        1880
        1884
        1888
        1892
        1896
        1900
        1904
        1908
        1912
        1916
        1920
        1924
        1928
        1932
        1936
        1940
        1944
        1948
        1952
        1956
        1960
        1964
        1968
        1972
        1976
        1980
        1984
        1988
        1992
        1996
        2000
        2004
        2008
        2012
        2016
        2020
        2024
        2028
        2032
        2036
        2040
        2044
        2048
        2052
        2056
        2060
        2064
        2068
        2072
        2076
        2080
        2084
        2088
        2092
        2096
        2100
        2104
        2108
        2112
        2116
        2120
        2124
        2128
        2132
        2136
        2140
        2144
        2148
        2152
        2156
        2160
        2164
        2168
        2172
        2176
        2180
        2184
        2188
        2192
        2196
        2200
        2204
        2208
        2212
        2216
        2220
        2224
        2228
        2232
        2236
        2240
        2244
        2248
        2252
        2256
        2260
        2264
        2268
        2272
        2276
        2280
        2284
        2288
        2292
        2296
        2300
        2304
        2308
        2312
        2316
        2320
        2324
        2328
        2332
        2336
        2340
        2344
        2348
        2352
        2356
        2360
        2364
        2368
        2372
        2376
        2380
        2384
        2388
        2392
        2396
        2400
        2404
        2408
        2412
        2416
        2420
        2424
        2428
        2432
        2436
        2440
        2444
        2448
        2452
        2456
        2460
        2464
        2468
        2472
        2476
        2480
        2484
        2488
        2492
        2496
        2500
        2504
        2508
        2512
        2516
        2520
        2524
        2528
        2532
        2536
        2540
        2544
        2548
        2552
        2556
        2560
        2564
        2568
        2572
        2576
        2580
        2584
        2588
        2592
        2596
        2600
        2604
        2608
        2612
        2616
        2620
        2624
        2628
        2632
        2636
        2640
        2644
        2648
        2652
        2656
        2660
        2664
        2668
        2672
        2676
        2680
        2684
        2688
        2692
        2696
        2700
        2704
        2708
        2712
        2716
        2720
        2724
        2728
        2732
        2736
        2740
        2744
        2748
        2752
        2756
        2760
        2764
        2768
        2772
        2776
        2780
        2784
        2788
        2792
        2796
        2800
        2804
        2808
        2812
        2816
        2820
        2824
        2828
        2832
        2836
        2840
        2844
        2848
        2852
        2856
        2860
        2864
        2868
        2872
        2876
        2880
        2884
        2888
        2892
        2896
        2900
        2904
        2908
        2912
        2916
        2920
        2924
        2928
        2932
        2936
        2940
        2944
        2948
        2952
        2956
        2960
        2964
        2968
        2972
        2976
        2980
        2984
        2988
        2992
        2996
        3000
        3004
        3008
        3012
        3016
        3020
        3024
        3028
        3032
        3036
        3040
        3044
        3048
        3052
        3056
        3060
        3064
        3068
        3072
        3076
        3080
        3084
        3088
        3092
        3096
        3100
        3104
        3108
        3112
        3116
        3120
        3124
        3128
        3132
        3136
        3140
        3144
        3148
        3152
        3156
        3160
        3164
        3168
        3172
        3176
        3180
        3184
        3188
        3192
        3196
        3200
        3204
        3208
        3212
        3216
        3220
        3224
        3228
        3232
        3236
        3240
        3244
        3248
        3252
        3256
        3260
        3264
        3268
        3272
        3276
        3280
        3284
        3288
        3292
        3296
        3300
        3304
        3308
        3312
        3316
        3320
        3324
        3328
        3332
        3336
        3340
        3344
        3348
        3352
        3356
        3360
        3364
        3368
        3372
        3376
        3380
        3384
        3388
        3392
        3396
        3400
        3404
        3408
        3412
        3416
        3420
        3424
        3428
        3432
        3436
        3440
        3444
        3448
        3452
        3456
        3460
        3464
        3468
        3472
        3476
        3480
        3484
        3488
        3492
        3496
        3500
        3504
        3508
        3512
        3516
        3520
        3524
        3528
        3532
        3536
        3540
        3544
        3548
        3552
        3556
        3560
        3564
        3568
        3572
        3576
        3580
        3584
        3588
        3592
        3596
        3600
        3604
        3608
        3612
        3616
        3620
        3624
        3628
        3632
        3636
        3640
        3644
        3648
        3652
        3656
        3660
        3664
        3668
        3672
        3676
        3680
        3684
        3688
        3692
        3696
        3700
        3704
        3708
        3712
        3716
        3720
        3724
        3728
        3732
        3736
        3740
        3744
        3748
        3752
        3756
        3760
        3764
        3768
        3772
        3776
        3780
        3784
        3788
        3792
        3796
        3800
        3804
        3808
        3812
        3816
        3820
        3824
        3828
        3832
        3836
        3840
        3844
        3848
        3852
        3856
        3860
        3864
        3868
        3872
        3876
        3880
        3884
        3888
        3892
        3896
        3900
        3904
        3908
        3912
        3916
        3920
        3924
        3928
        3932
        3936
        3940
        3944
        3948
        3952
        3956
        3960
        3964
        3968
        3972
        3976
        3980
        3984
        3988
        3992
        3996
        4000
        4004
        4008
        4012
        4016
        4020
        4024
        4028
        4032
        4036
        4040
        4044
        4048
        4052
        4056
        4060
        4064
        4068
        4072
        4076
        4080
        4084
        4088
        4092
        4096
 </DataArray>
 <DataArray  type="UInt8"  Name="types"  format="ascii">
 9
 9
 9
 9
 9
 9
 9
 9
 9
 9
 9
 9
 9
 9
 9
 9
 9
 9
 9
 9
 9
 9
 9
 9
 9
 9
 9
 9
 9
 9
 9
 9
 9
 9
 9
 9
 9
 9
 9
 9
 9
 9
 9
 9
 9
 9
 9
 9
 9
 9
 9
 9
 9
 9
 9
 9
 9
 9
 9
 9
 9
 9
 9
 9
 9
 9
 9
 9
 9
 9
 9
 9
 9
 9
 9
 9
 9
 9
 9
 9
 9
 9
 9
 9
 9
 9
 9
 9
 9
 9
 9
 9
 9
 9
 9
 9
 9
 9
 9
 9
 9
 9
 9
 9
 9
 9
 9
 9
 9
 9
 9
 9
 9
 9
 9
 9
 9
 9
 9
 9
 9
 9
 9
 9
 9
 9
 9
 9
 9
 9
 9
 9
 9
 9
 9
 9
 9
 9
 9
 9
 9
 9
 9
 9
 9
 9
 9
 9
 9
 9
 9
 9
 9
 9
 9
 9
 9
 9
 9
 9
 9
 9
 9
 9
 9
 9
 9
 9
 9
 9
 9
 9
 9
 9
 9
 9
 9
 9
 9
 9
 9
 9
 9
 9
 9
 9
 9
 9
 9
 9
 9
 9
 9
 9
 9
 9
 9
 9
 9
 9
 9
 9
 9
 9
 9
 9
 9
 9
 9
 9
 9
 9
 9
 9
 9
 9
 9
 9
 9
 9
 9
 9
 9
 9
 9
 9
 9
 9
 9
 9
 9
 9
 9
 9
 9
 9
 9
 9
 9
 9
 9
 9
 9
 9
 9
 9
 9
 9
 9
 9
 9
 9
 9
 9
 9
 9
 9
 9
 9
 9
 9
 9
 9
 9
 9
 9
 9
 9
 9
 9
 9
 9
 9
 9
 9
 9
 9
 9
 9
 9
 9
 9
 9
 9
 9
 9
 9
 9
 9
 9
 9
 9
 9
 9
 9
 9
 9
 9
 9
 9
 9
 9
 9
 9
 9
 9
 9
 9
 9
 9
 9
 9
 9
 9
 9
 9
 9
 9
 9
 9
 9
 9
 9
 9
 9
 9
 9
 9
 9
 9
 9
 9
 9
 9
 9
 9
 9
 9
 9
 9
 9
 9
 9
 9
 9
 9
 9
 9
 9
 9
 9
 9
 9
 9
 9
 9
 9
 9
 9
 9
 9
 9
 9
 9
 9
 9
 9
 9
 9
 9
 9
 9
 9
 9
 9
 9
 9
 9
 9
 9
 9
 9
 9
 9
 9
 9
 9
 9
 9
 9
 9
 9
 9
 9
 9
 9
 9
 9
 9
 9
 9
 9
 9
 9
 9
 9
 9
 9
 9
 9
 9
 9
 9
 9
 9
 9
 9
 9
 9
 9
 9
 9
 9
 9
 9
 9
 9
 9
 9
 9
 9
 9
 9
 9
 9
 9
 9
 9
 9
 9
 9
 9
 9
 9
 9
 9
 9
 9
 9
 9
 9
 9
 9
 9
 9
 9
 9
 9
 9
 9
 9
 9
 9
 9
 9
 9
 9
 9
 9
 9
 9
 9
 9
 9
 9
 9
 9
 9
 9
 9
 9
 9
 9
 9
 9
 9
 9
 9
 9
 9
 9
 9
 9
 9
 9
 9
 9
 9
 9
 9
 9
 9
 9
 9
 9
 9
 9
 9
 9
 9
 9
 9
 9
 9
 9
 9
 9
 9
 9
 9
 9
 9
 9
 9
 9
 9
 9
 9
 9
 9
 9
 9
 9
 9
 9
 9
 9
 9
 9
 9
 9
 9
 9
 9
 9
 9
 9
 9
 9
 9
 9
 9
 9
 9
 9
 9
 9
 9
 9
 9
 9
 9
 9
 9
 9
 9
 9
 9
 9
 9
 9
 9
 9
 9
 9
 9
 9
 9
 9
 9
 9
 9
 9
 9
 9
 9
 9
 9
 9
 9
 9
 9
 9
 9
 9
 9
 9
 9
 9
 9
 9
 9
 9
 9
 9
 9
 9
 9
 9
 9
 9
 9
 9
 9
 9
 9
 9
 9
 9
 9
 9
 9
 9
 9
 9
 9
 9
 9
 9
 9
 9
 9
 9
 9
 9
 9
 9
 9
 9
 9
 9
 9
 9
 9
 9
 9
 9
 9
 9
 9
 9
 9
 9
 9
 9
 9
 9
 9
 9
 9
 9
 9
 9
 9
 9
 9
 9
 9
 9
 9
 9
 9
 9
 9
 9
 9
 9
 9
 9
 9
 9
 9
 9
 9
 9
 9
 9
 9
 9
 9
 9
 9
 9
 9
 9
 9
 9
 9
 9
 9
 9
 9
 9
 9
 9
 9
 9
 9
 9
 9
 9
 9
 9
 9
 9
 9
 9
 9
 9
 9
 9
 9
 9
 9
 9
 9
 9
 9
 9
 9
 9
 9
 9
 9
 9
 9
 9
 9
 9
 9
 9
 9
 9
 9
 9
 9
 9
 9
 9
 9
 9
 9
 9
 9
 9
 9
 9
 9
 9
 9
 9
 9
 9
 9
 9
 9
 9
 9
 9
 9
 9
 9
 9
 9
 9
 9
 9
 9
 9
 9
 9
 9
 9
 9
 9
 9
 9
 9
 9
 9
 9
 9
 9
 9
 9
 9
 9
 9
 9
 9
 9
 9
 9
 9
 9
 9
 9
 9
 9
 9
 9
 9
 9
 9
 9
 9
 9
 9
 9
 9
 9
 9
 9
 9
 9
 9
 9
 9
 9
 9
 9
 9
 9
 9
 9
 9
 9
 9
 9
 9
 9
 9
 9
 9
 9
 9
 9
 9
 9
 9
 9
 9
 9
 9
 9
 9
 9
 9
 9
 9
 9
 9
 9
 9
 9
 9
 9
 9
 9
 9
 9
 9
 9
 9
 9
 9
 9
 9
 9
 9
 9
 9
 9
 9
 9
 9
 9
 9
 9
 9
 9
 9
 9
 9
 9
 9
 9
 9
 9
 9
 9
 9
 9
 9
 9
 9
 9
 9
 9
 9
 9
 9
 9
 9
 9
 9
 9
 9
 9
 9
 9
 9
 9
 9
 9
 9
 9
 9
 9
 9
 9
 9
 9
 9
 9
 9
 9
 9
 9
 9
 9
 9
 9
 9
 9
 9
 9
 9
 9
 9
 9
 9
 9
 9
 9
 9
 9
 9
 9
 9
 9
 9
 9
 9
 9
 9
 9
 9
 9
 9
 9
 9
 9
 9
 9
 9
 9
 9
 9
 9
 9
 9
 9
 9
 9
 9
 9
 9
 9
 9
 9
 9
 9
 9
 9
 9
 9
 9
 9
 9
 9
 9
 9
 9
 9
 9
 9
 9
 9
 9
 9
 9
 9
 9
 9
 9
 9
 9
 9
 9
 9
 9
 9
 9
 </DataArray>
 </Cells> 
 <PointData>
 <DataArray  type="Float64" Name="disp" NumberOfComponents="3" format="ascii">
   0.0000000000000000        0.0000000000000000        0.0000000000000000     
   6.0959146398747435E-003   3.7904269248527143E-003   0.0000000000000000     
   1.1665946588042105E-002   7.3238284932346017E-003   0.0000000000000000     
   1.6710095844502088E-002   1.0600204705145663E-002   0.0000000000000000     
   2.1228362409254686E-002   1.3619555560585894E-002   0.0000000000000000     
   0.0000000000000000        0.0000000000000000        0.0000000000000000     
   4.8911351976787410E-003   3.0221468130976247E-003   0.0000000000000000     
   9.5736208724414261E-003   6.0605246898738016E-003   0.0000000000000000     
   1.4047457024288054E-002   9.1151336303285316E-003   0.0000000000000000     
   1.8312643653218628E-002   1.2185973634461816E-002   0.0000000000000000     
   0.0000000000000000        0.0000000000000000        0.0000000000000000     
   3.9535694947924064E-003   2.4251211717961187E-003   0.0000000000000000     
   7.9106321493679268E-003   5.0628884671630207E-003   0.0000000000000000     
   1.1871187963726562E-002   7.9133018861007060E-003   0.0000000000000000     
   1.5835236937868310E-002   1.0976361428609176E-002   0.0000000000000000     
   0.0000000000000000        0.0000000000000000        0.0000000000000000     
   3.2832175312157395E-003   1.9993500009481968E-003   0.0000000000000000     
   6.6769804188216084E-003   4.3309198251022581E-003   0.0000000000000000     
   1.0181288662817606E-002   6.9947094724621857E-003   0.0000000000000000     
   1.3796142263203732E-002   9.9907189430279760E-003   0.0000000000000000     
   0.0000000000000000        0.0000000000000000        0.0000000000000000     
   2.8800793069487405E-003   1.7448333005538582E-003   0.0000000000000000     
   5.8726656808024708E-003   3.8646187636915139E-003   0.0000000000000000     
   8.9777591215611883E-003   6.3593563894129681E-003   0.0000000000000000     
   1.2195359629224897E-002   9.2290461777182198E-003   0.0000000000000000     
   2.1228362409254686E-002   1.3619555560585894E-002   0.0000000000000000     
   2.5433554285519588E-002   1.6612496079447720E-002   0.0000000000000000     
   2.9538479476516499E-002   1.9809641281623561E-002   0.0000000000000000     
   3.3543137982245397E-002   2.3210991167113417E-002   0.0000000000000000     
   3.7447529802706297E-002   2.6816545735917283E-002   0.0000000000000000     
   1.8312643653218628E-002   1.2185973634461816E-002   0.0000000000000000     
   2.2407359777391209E-002   1.5341412216834993E-002   0.0000000000000000     
   2.6369784414963866E-002   1.8649816892009424E-002   0.0000000000000000     
   3.0199917565936599E-002   2.2111187659985099E-002   0.0000000000000000     
   3.3897759230309410E-002   2.5725524520762016E-002   0.0000000000000000     
   1.5835236937868310E-002   1.0976361428609176E-002   0.0000000000000000     
   1.9730988754411385E-002   1.4210903995831230E-002   0.0000000000000000     
   2.3486653095973999E-002   1.7575766488909687E-002   0.0000000000000000     
   2.7102229962556155E-002   2.1070948907844521E-002   0.0000000000000000     
   3.0577719354157845E-002   2.4696451252635757E-002   0.0000000000000000     
   1.3796142263203732E-002   9.9907189430279760E-003   0.0000000000000000     
   1.7404441216580118E-002   1.3220971416436429E-002   0.0000000000000000     
   2.0889085519546900E-002   1.6587490072324330E-002   0.0000000000000000     
   2.4250075172104063E-002   2.0090274910691690E-002   0.0000000000000000     
   2.7487410174251624E-002   2.3729325931538495E-002   0.0000000000000000     
   1.2195359629224897E-002   9.2290461777182198E-003   0.0000000000000000     
   1.5427717163897412E-002   1.2371614478650584E-002   0.0000000000000000     
   1.8577081685682558E-002   1.5684987642253376E-002   0.0000000000000000     
   2.1643453194580328E-002   1.9169165668526594E-002   0.0000000000000000     
   2.4626831690590732E-002   2.2824148557470239E-002   0.0000000000000000     
   3.7447529802706297E-002   2.6816545735917283E-002   0.0000000000000000     
   4.1256163823027138E-002   3.0621644020171750E-002   0.0000000000000000     
   4.4973548928335862E-002   3.4621625052013418E-002   0.0000000000000000     
   4.8599685118632482E-002   3.8816488831442265E-002   0.0000000000000000     
   5.2134572393916973E-002   4.3206235358458314E-002   0.0000000000000000     
   3.3897759230309410E-002   2.5725524520762016E-002   0.0000000000000000     
   3.7486567701292578E-002   2.9521637365757119E-002   0.0000000000000000     
   4.0989601272096401E-002   3.3528336086387341E-002   0.0000000000000000     
   4.4406859942720874E-002   3.7745620682652671E-002   0.0000000000000000     
   4.7738343713165994E-002   4.2173491154553114E-002   0.0000000000000000     
   3.0577719354157845E-002   2.4696451252635757E-002   0.0000000000000000     
   3.3942585663861158E-002   2.8496806602395782E-002   0.0000000000000000     
   3.7226293284748156E-002   3.2516548036236978E-002   0.0000000000000000     
   4.0428842216818847E-002   3.6755675554159366E-002   0.0000000000000000     
   4.3550232460073224E-002   4.1214189156162921E-002   0.0000000000000000     
   2.7487410174251624E-002   2.3729325931538495E-002   0.0000000000000000     
   3.0624217710732878E-002   2.7547151730087722E-002   0.0000000000000000     
   3.3683624966291147E-002   3.1586260901562351E-002   0.0000000000000000     
   3.6665631940926403E-002   3.5846653445962350E-002   0.0000000000000000     
   3.9570238634638676E-002   4.0328329363287736E-002   0.0000000000000000     
   2.4626831690590732E-002   2.2824148557470239E-002   0.0000000000000000     
   2.7531463841907747E-002   2.6672672748832966E-002   0.0000000000000000     
   3.0361596316725352E-002   3.0737474682363430E-002   0.0000000000000000     
   3.3117229115043556E-002   3.5018554358061629E-002   0.0000000000000000     
   3.5798362236862349E-002   3.9515911775927566E-002   0.0000000000000000     
   5.2134572393916973E-002   4.3206235358458314E-002   0.0000000000000000     
   5.5574980003405917E-002   4.7795438639308803E-002   0.0000000000000000     
   5.8917677196315868E-002   5.2588672680240985E-002   0.0000000000000000     
   6.2162663972646803E-002   5.7585937481254866E-002   0.0000000000000000     
   6.5309940332398758E-002   6.2787233042350454E-002   0.0000000000000000     
   4.7738343713165994E-002   4.2173491154553114E-002   0.0000000000000000     
   5.0979738035595398E-002   4.6805547018523318E-002   0.0000000000000000     
   5.4126728362172728E-002   5.1635387790997925E-002   0.0000000000000000     
   5.7179314692897977E-002   5.6663013471976914E-002   0.0000000000000000     
   6.0137497027771158E-002   6.1888424061460334E-002   0.0000000000000000     
   4.3550232460073224E-002   4.1214189156162921E-002   0.0000000000000000     
   4.6586236939090968E-002   4.5879712857381648E-002   0.0000000000000000     
   4.9532628578451761E-002   5.0739870672949536E-002   0.0000000000000000     
   5.2389407378155589E-002   5.5794662602866578E-002   0.0000000000000000     
   5.5156573338202473E-002   6.1044088647132781E-002   0.0000000000000000     
   3.9570238634638676E-002   4.0328329363287736E-002   0.0000000000000000     
   4.2394476713892633E-002   4.5017936155883807E-002   0.0000000000000000     
   4.5135377845152959E-002   4.9902121326095839E-002   0.0000000000000000     
   4.7792942028419647E-002   5.4980884873923830E-002   0.0000000000000000     
   5.0367169263692710E-002   6.0254226799367802E-002   0.0000000000000000     
   3.5798362236862349E-002   3.9515911775927566E-002   0.0000000000000000     
   3.8404457360000394E-002   4.4220216914029775E-002   0.0000000000000000     
   4.0934976162276322E-002   4.9122139750436826E-002   0.0000000000000000     
   4.3389918643690142E-002   5.4221680285148691E-002   0.0000000000000000     
   4.5769284804241861E-002   5.9518838518165404E-002   0.0000000000000000     
   6.5309940332398758E-002   6.2787233042350454E-002   0.0000000000000000     
   6.8363767793937782E-002   6.8179051339408367E-002   0.0000000000000000     
   7.1328407875629968E-002   7.3747884348309284E-002   0.0000000000000000     
   7.4203860577475314E-002   7.9493732069053205E-002   0.0000000000000000     
   7.6990125899473821E-002   8.5416594501640131E-002   0.0000000000000000     
   6.0137497027771158E-002   6.1888424061460334E-002   0.0000000000000000     
   6.3006344705489215E-002   6.7302463959975203E-002   0.0000000000000000     
   6.5790927064749080E-002   7.2895977568048637E-002   0.0000000000000000     
   6.8491244105550769E-002   7.8668964885680620E-002   0.0000000000000000     
   7.1107295827894296E-002   8.4621425912871168E-002   0.0000000000000000     
   5.5156573338202473E-002   6.1044088647132781E-002   0.0000000000000000     
   5.7839227681357769E-002   6.6481257467337310E-002   0.0000000000000000     
   6.0442471630386838E-002   7.2099277725069411E-002   0.0000000000000000     
   6.2966305185289700E-002   7.7898149420329021E-002   0.0000000000000000     
   6.5410728346066330E-002   8.3877872553116212E-002   0.0000000000000000     
   5.0367169263692710E-002   6.0254226799367802E-002   0.0000000000000000     
   5.2862416721543466E-002   6.5715431861494727E-002   0.0000000000000000     
   5.5283041572543261E-002   7.1357784819371606E-002   0.0000000000000000     
   5.7629043816692087E-002   7.7181285672998451E-002   0.0000000000000000     
   5.9900423453989944E-002   8.3185934422375221E-002   0.0000000000000000     
   4.5769284804241861E-002   5.9518838518165404E-002   0.0000000000000000     
   4.8075911826046307E-002   6.5004987142447415E-002   0.0000000000000000     
   5.0312636891218329E-002   7.0671498850955236E-002   0.0000000000000000     
   5.2479459999757935E-002   7.6518373643688853E-002   0.0000000000000000     
   5.4576381151665118E-002   8.2545611520648293E-002   0.0000000000000000     
   7.6990125899473821E-002   8.5416594501640131E-002   0.0000000000000000     
   7.9679251823511654E-002   9.1507974570981226E-002   0.0000000000000000     
   8.2263286331475005E-002   9.7759375201987714E-002   0.0000000000000000     
   8.4742229423363860E-002  0.10417079639465955        0.0000000000000000     
   8.7116081099178233E-002  0.11074223814899675        0.0000000000000000     
   7.1107295827894296E-002   8.4621425912871168E-002   0.0000000000000000     
   7.3631593365661718E-002   9.0743034146990295E-002   0.0000000000000000     
   7.6056647852735179E-002   9.7023463085408115E-002   0.0000000000000000     
   7.8382459289114637E-002  0.10346271272812457        0.0000000000000000     
   8.0609027674800118E-002  0.11006078307513972        0.0000000000000000     
   6.5410728346066330E-002   8.3877872553116212E-002   0.0000000000000000     
   6.7768896003440715E-002   9.0027098407141307E-002   0.0000000000000000     
   7.0033963048136846E-002   9.6334478266114756E-002   0.0000000000000000     
   7.2205929480154668E-002  0.10280001213003657        0.0000000000000000     
   7.4284795299494250E-002  0.10942369999890678        0.0000000000000000     
   5.9900423453989944E-002   8.3185934422375221E-002   0.0000000000000000     
   6.2091159736848645E-002   8.9360167351434219E-002   0.0000000000000000     
   6.4195231917679979E-002   9.5692420744107679E-002   0.0000000000000000     
   6.6212639996483996E-002  0.10218269460039558        0.0000000000000000     
   6.8143383973260627E-002  0.10883098892029791        0.0000000000000000     
   5.4576381151665118E-002   8.2545611520648293E-002   0.0000000000000000     
   5.6598384565885472E-002   8.8742240979869075E-002   0.0000000000000000     
   5.8540454461364626E-002   9.5097290519386826E-002   0.0000000000000000     
   6.0402590838102559E-002  0.10161076013920152        0.0000000000000000     
   6.2184793696099278E-002  0.10828264983931318        0.0000000000000000     
   8.7116081099178233E-002  0.11074223814899675        0.0000000000000000     
   8.9394552244069544E-002  0.11745943805639669        0.0000000000000000     
   9.1587353743189215E-002  0.12430813370825677        0.0000000000000000     
   9.3694485596537286E-002  0.13128832510457691        0.0000000000000000     
   9.5715947804113716E-002  0.13840001224535717        0.0000000000000000     
   8.0609027674800118E-002  0.11006078307513972        0.0000000000000000     
   8.2746510463706083E-002  0.11680442822197562        0.0000000000000000     
   8.4805065109747016E-002  0.12368040226415433        0.0000000000000000     
   8.6784691612922946E-002  0.13068870520167594        0.0000000000000000     
   8.8685389973233844E-002  0.13782933703454034        0.0000000000000000     
   7.4284795299494250E-002  0.10942369999890678        0.0000000000000000     
   7.6280448471122420E-002  0.11619284820534947        0.0000000000000000     
   7.8202776960006090E-002  0.12309476308198884        0.0000000000000000     
   8.0051780766145247E-002  0.13012944462882489        0.0000000000000000     
   8.1827459889539905E-002  0.13729689284585755        0.0000000000000000     
   6.8143383973260627E-002  0.10883098892029791        0.0000000000000000     
   6.9996366266318541E-002  0.11562469800651831        0.0000000000000000     
   7.1780489293966410E-002  0.12255121616176028        0.0000000000000000     
   7.3495753056204163E-002  0.12961054338602382        0.0000000000000000     
   7.5142157553031816E-002  0.13680267967930893        0.0000000000000000     
   6.2184793696099278E-002  0.10828264983931318        0.0000000000000000     
   6.3894263849294503E-002  0.11509997762548210        0.0000000000000000     
   6.5538202111627974E-002  0.12204976150346862        0.0000000000000000     
   6.7116608483099693E-002  0.12913200147327272        0.0000000000000000     
   6.8629482963709659E-002  0.13634669753489437        0.0000000000000000     
   9.5715947804113716E-002  0.13840001224535717        0.0000000000000000     
   9.7639574080993080E-002  0.14563321227019549        0.0000000000000000     
   9.9453198142249968E-002  0.15297794231868983        0.0000000000000000     
  0.10115681998788435       0.16043420239084019        0.0000000000000000     
  0.10275043961789626       0.16800199248664660        0.0000000000000000     
   8.8685389973233844E-002  0.13782933703454034        0.0000000000000000     
   9.0495603341845185E-002  0.14509121783273682        0.0000000000000000     
   9.2203774869922400E-002  0.15246326766625468        0.0000000000000000     
   9.3809904557465518E-002  0.15994548653509391        0.0000000000000000     
   9.5313992404474496E-002  0.16753787443925450        0.0000000000000000     
   8.1827459889539905E-002  0.13729689284585755        0.0000000000000000     
   8.3519096806602355E-002  0.14458550802326289        0.0000000000000000     
   8.5115973993744931E-002  0.15198369045121679        0.0000000000000000     
   8.6618091450967702E-002  0.15949144012971930        0.0000000000000000     
   8.8025449178270584E-002  0.16710875705877035        0.0000000000000000     
   7.5142157553031816E-002  0.13680267967930893        0.0000000000000000     
   7.6710054475264577E-002  0.14411608284177368        0.0000000000000000     
   7.8189795513717616E-002  0.15153921067357615        0.0000000000000000     
   7.9581380668390919E-002  0.15907206317471631        0.0000000000000000     
   8.0884809939284513E-002  0.16671464034519418        0.0000000000000000     
   6.8629482963709659E-002  0.13634669753489437        0.0000000000000000     
   7.0068476347831893E-002  0.14368294228826919        0.0000000000000000     
   7.1425239429840401E-002  0.15112982833333274        0.0000000000000000     
   7.2699772209735211E-002  0.15868735567008499        0.0000000000000000     
   7.3892074687516296E-002  0.16635552429852596        0.0000000000000000     
   0.0000000000000000        0.0000000000000000        0.0000000000000000     
   2.8800793069487405E-003   1.7448333005538582E-003   0.0000000000000000     
   5.8726656808024708E-003   3.8646187636915139E-003   0.0000000000000000     
   8.9777591215611883E-003   6.3593563894129681E-003   0.0000000000000000     
   1.2195359629224897E-002   9.2290461777182198E-003   0.0000000000000000     
   0.0000000000000000        0.0000000000000000        0.0000000000000000     
   2.6103212037238855E-003   1.5889163390981160E-003   0.0000000000000000     
   5.2897231290831015E-003   3.5566771430432247E-003   0.0000000000000000     
   8.0382057760776462E-003   5.9032824118353255E-003   0.0000000000000000     
   1.0855769144707523E-002   8.6287321454744173E-003   0.0000000000000000     
   0.0000000000000000        0.0000000000000000        0.0000000000000000     
   2.3401096032736502E-003   1.4589443850659828E-003   0.0000000000000000     
   4.7201879574360894E-003   3.2997868232698250E-003   0.0000000000000000     
   7.1402350624873200E-003   5.5225273146115262E-003   0.0000000000000000     
   9.6002509184273405E-003   8.1271658590910869E-003   0.0000000000000000     
   0.0000000000000000        0.0000000000000000        0.0000000000000000     
   2.0694445055980336E-003   1.3549174384574582E-003   0.0000000000000000     
   4.1640601658614355E-003   3.0939478043713153E-003   0.0000000000000000     
   6.2838469807902060E-003   5.2170910977415710E-003   0.0000000000000000     
   8.4288049503843439E-003   7.7243473185682259E-003   0.0000000000000000     
   0.0000000000000000        0.0000000000000000        0.0000000000000000     
   1.7983259106970372E-003   1.2768354992725422E-003   0.0000000000000000     
   3.6213397543591389E-003   2.9391600863476960E-003   0.0000000000000000     
   5.4690415309863044E-003   4.9869737612254607E-003   0.0000000000000000     
   7.3414312405785352E-003   7.4202765239058353E-003   0.0000000000000000     
   1.2195359629224897E-002   9.2290461777182198E-003   0.0000000000000000     
   1.5427717163897412E-002   1.2371614478650584E-002   0.0000000000000000     
   1.8577081685682558E-002   1.5684987642253376E-002   0.0000000000000000     
   2.1643453194580328E-002   1.9169165668526594E-002   0.0000000000000000     
   2.4626831690590732E-002   2.2824148557470239E-002   0.0000000000000000     
   1.0855769144707523E-002   8.6287321454744173E-003   0.0000000000000000     
   1.3689052480454983E-002   1.1650752411665025E-002   0.0000000000000000     
   1.6484695028802274E-002   1.4887069278111663E-002   0.0000000000000000     
   1.9242696789749401E-002   1.8337682744814340E-002   0.0000000000000000     
   2.1963057763296361E-002   2.2002592811773043E-002   0.0000000000000000     
   9.6002509184273405E-003   8.1271658590910869E-003   0.0000000000000000     
   1.2076683050344546E-002   1.1046304444671074E-002   0.0000000000000000     
   1.4545978983327343E-002   1.4212545059314047E-002   0.0000000000000000     
   1.7008138717375724E-002   1.7625887703020010E-002   0.0000000000000000     
   1.9463162252489688E-002   2.1286332375788964E-002   0.0000000000000000     
   8.4288049503843439E-003   7.7243473185682259E-003   0.0000000000000000     
   1.0590608873566108E-002   1.0558270577668729E-002   0.0000000000000000     
   1.2760933549257759E-002   1.3661414985860522E-002   0.0000000000000000     
   1.4939778977459300E-002   1.7033780543143615E-002   0.0000000000000000     
   1.7127145158170726E-002   2.0675367249518004E-002   0.0000000000000000     
   7.3414312405785352E-003   7.4202765239058353E-003   0.0000000000000000     
   9.2308299501196664E-003   1.0186650810657992E-002   0.0000000000000000     
   1.1129558726593531E-002   1.3233679057751097E-002   0.0000000000000000     
   1.3037617570000128E-002   1.6561361265185152E-002   0.0000000000000000     
   1.4955006480339463E-002   2.0169697432960154E-002   0.0000000000000000     
   2.4626831690590732E-002   2.2824148557470239E-002   0.0000000000000000     
   2.7531463841907747E-002   2.6672672748832966E-002   0.0000000000000000     
   3.0361596316725352E-002   3.0737474682363430E-002   0.0000000000000000     
   3.3117229115043556E-002   3.5018554358061629E-002   0.0000000000000000     
   3.5798362236862349E-002   3.9515911775927566E-002   0.0000000000000000     
   2.1963057763296361E-002   2.2002592811773043E-002   0.0000000000000000     
   2.4629314966692017E-002   2.5879845008552886E-002   0.0000000000000000     
   2.7225005417185231E-002   2.9967484864718976E-002   0.0000000000000000     
   2.9750129114775998E-002   3.4265512380271319E-002   0.0000000000000000     
   3.2204686059464332E-002   3.8773927555209892E-002   0.0000000000000000     
   1.9463162252489688E-002   2.1286332375788964E-002   0.0000000000000000     
   2.1882761994391951E-002   2.5175143859168875E-002   0.0000000000000000     
   2.4238650348805204E-002   2.9273586934707729E-002   0.0000000000000000     
   2.6530827315729456E-002   3.3581661602405506E-002   0.0000000000000000     
   2.8759292895164705E-002   3.8099367862262215E-002   0.0000000000000000     
   1.7127145158170726E-002   2.0675367249518004E-002   0.0000000000000000     
   1.9291804925007545E-002   2.4558569300680937E-002   0.0000000000000000     
   2.1402531111585278E-002   2.8655780892329671E-002   0.0000000000000000     
   2.3459323717903921E-002   3.2967002024464211E-002   0.0000000000000000     
   2.5462182743963477E-002   3.7492232697084557E-002   0.0000000000000000     
   1.4955006480339463E-002   2.0169697432960154E-002   0.0000000000000000     
   1.6856443758538810E-002   2.4030121333089061E-002   0.0000000000000000     
   1.8716647705525453E-002   2.8114066737584820E-002   0.0000000000000000     
   2.0535618321299399E-002   3.2421533646447433E-002   0.0000000000000000     
   2.2313355605860639E-002   3.6952522059676890E-002   0.0000000000000000     
   3.5798362236862349E-002   3.9515911775927566E-002   0.0000000000000000     
   3.8404457360000394E-002   4.4220216914029775E-002   0.0000000000000000     
   4.0934976162276322E-002   4.9122139750436826E-002   0.0000000000000000     
   4.3389918643690142E-002   5.4221680285148691E-002   0.0000000000000000     
   4.5769284804241861E-002   5.9518838518165404E-002   0.0000000000000000     
   3.2204686059464332E-002   3.8773927555209892E-002   0.0000000000000000     
   3.4590248449925726E-002   4.3488335344431306E-002   0.0000000000000000     
   3.6908388484835686E-002   4.8404340702832144E-002   0.0000000000000000     
   3.9159106164194206E-002   5.3521943630412391E-002   0.0000000000000000     
   4.1342401488001300E-002   5.8841144127172076E-002   0.0000000000000000     
   2.8759292895164705E-002   3.8099367862262215E-002   0.0000000000000000     
   3.0925919556180122E-002   4.2824071659700119E-002   0.0000000000000000     
   3.3032579767844877E-002   4.7753138940141431E-002   0.0000000000000000     
   3.5079273530158973E-002   5.2886569703586177E-002   0.0000000000000000     
   3.7066000843122400E-002   5.8224363950034337E-002   0.0000000000000000     
   2.5462182743963477E-002   3.7492232697084557E-002   0.0000000000000000     
   2.7411470678763591E-002   4.2227425859836208E-002   0.0000000000000000     
   2.9307550011303904E-002   4.7168534462364700E-002   0.0000000000000000     
   3.1150420741584434E-002   5.2315558504670019E-002   0.0000000000000000     
   3.2940082869605168E-002   5.7668497986752179E-002   0.0000000000000000     
   2.2313355605860639E-002   3.6952522059676890E-002   0.0000000000000000     
   2.4046901817676117E-002   4.1698397944839587E-002   0.0000000000000000     
   2.5733299215212765E-002   4.6650527269501939E-002   0.0000000000000000     
   2.7372547798470592E-002   5.1808910033663946E-002   0.0000000000000000     
   2.8964647567449587E-002   5.7173546237325602E-002   0.0000000000000000     
   4.5769284804241861E-002   5.9518838518165404E-002   0.0000000000000000     
   4.8075911826046307E-002   6.5004987142447415E-002   0.0000000000000000     
   5.0312636891218329E-002   7.0671498850955236E-002   0.0000000000000000     
   5.2479459999757935E-002   7.6518373643688853E-002   0.0000000000000000     
   5.4576381151665118E-002   8.2545611520648293E-002   0.0000000000000000     
   4.1342401488001300E-002   5.8841144127172076E-002   0.0000000000000000     
   4.3459497142437194E-002   6.4350842981575326E-002   0.0000000000000000     
   4.5511615813682120E-002   7.0039940982086324E-002   0.0000000000000000     
   4.7498757501736079E-002   7.5908438128705041E-002   0.0000000000000000     
   4.9420922206599056E-002   8.1956334421431493E-002   0.0000000000000000     
   3.7066000843122400E-002   5.8224363950034337E-002   0.0000000000000000     
   3.8992956818287024E-002   6.3753919050258415E-002   0.0000000000000000     
   4.0860336567204648E-002   6.9462632375030864E-002   0.0000000000000000     
   4.2668140089875288E-002   7.5350503924351747E-002   0.0000000000000000     
   4.4416367386298963E-002   8.1417533698220995E-002   0.0000000000000000     
   3.2940082869605168E-002   5.7668497986752179E-002   0.0000000000000000     
   3.4676290853595776E-002   6.3214215348496638E-002   0.0000000000000000     
   3.6358799151785921E-002   6.8939573029788898E-002   0.0000000000000000     
   3.7987607764175597E-002   7.4844571030628970E-002   0.0000000000000000     
   3.9562716690764818E-002   8.0929209351016801E-002   0.0000000000000000     
   2.8964647567449587E-002   5.7173546237325602E-002   0.0000000000000000     
   3.0509499248363468E-002   6.2731731876290039E-002   0.0000000000000000     
   3.2007003567425939E-002   6.8470762946360397E-002   0.0000000000000000     
   3.3457160524636993E-002   7.4390639447536697E-002   0.0000000000000000     
   3.4859970119996642E-002   8.0491361379818924E-002   0.0000000000000000     
   5.4576381151665118E-002   8.2545611520648293E-002   0.0000000000000000     
   5.6598384565885472E-002   8.8742240979869075E-002   0.0000000000000000     
   5.8540454461364626E-002   9.5097290519386826E-002   0.0000000000000000     
   6.0402590838102559E-002  0.10161076013920152        0.0000000000000000     
   6.2184793696099278E-002  0.10828264983931318        0.0000000000000000     
   4.9420922206599056E-002   8.1956334421431493E-002   0.0000000000000000     
   5.1273998149313250E-002   8.8173426003216190E-002   0.0000000000000000     
   5.3053873550920824E-002   9.4549509017009703E-002   0.0000000000000000     
   5.4760548411421771E-002  0.10108458346281200        0.0000000000000000     
   5.6394022730816090E-002  0.10777864934062309        0.0000000000000000     
   4.4416367386298963E-002   8.1417533698220995E-002   0.0000000000000000     
   4.6101428145893970E-002   8.7653829132245911E-002   0.0000000000000000     
   4.7719732058078654E-002   9.4049497662033757E-002   0.0000000000000000     
   4.9271279122853007E-002  0.10060453928758452        0.0000000000000000     
   5.0756069340217036E-002  0.10731895400889822        0.0000000000000000     
   3.9562716690764818E-002   8.0929209351016801E-002   0.0000000000000000     
   4.1080674555627639E-002   8.7183450366958237E-002   0.0000000000000000     
   4.2538029982838114E-002   9.3597256454459016E-002   0.0000000000000000     
   4.3934782972396266E-002  0.10017062761351914        0.0000000000000000     
   4.5270933524302080E-002  0.10690356384413860        0.0000000000000000     
   3.4859970119996642E-002   8.0491361379818924E-002   0.0000000000000000     
   3.6211737378514255E-002   8.6762289707353141E-002   0.0000000000000000     
   3.7508767325199227E-002   9.3192785394285424E-002   0.0000000000000000     
   3.8751059960051550E-002   9.9782848440615773E-002   0.0000000000000000     
   3.9938615283071230E-002  0.10653247884634419        0.0000000000000000     
   6.2184793696099278E-002  0.10828264983931318        0.0000000000000000     
   6.3894263849294503E-002  0.11509997762548210        0.0000000000000000     
   6.5538202111627974E-002  0.12204976150346862        0.0000000000000000     
   6.7116608483099693E-002  0.12913200147327272        0.0000000000000000     
   6.8629482963709659E-002  0.13634669753489437        0.0000000000000000     
   5.6394022730816090E-002  0.10777864934062309        0.0000000000000000     
   5.7959799315784738E-002  0.11461823118103553        0.0000000000000000     
   5.9463380973008587E-002  0.12158985351464190        0.0000000000000000     
   6.0904767702487685E-002  0.12869351634144219        0.0000000000000000     
   6.2283959504221990E-002  0.13592921966143637        0.0000000000000000     
   5.0756069340217036E-002  0.10731895400889822        0.0000000000000000     
   5.2178630761523702E-002  0.11417900279197331        0.0000000000000000     
   5.3543491438125999E-002  0.12117094660280818        0.0000000000000000     
   5.4850651370023908E-002  0.12829478544140288        0.0000000000000000     
   5.6100110557217454E-002  0.13555051930775738        0.0000000000000000     
   4.5270933524302080E-002  0.10690356384413860        0.0000000000000000     
   4.6550758186511422E-002  0.11378229245829538        0.0000000000000000     
   4.7778533506980199E-002  0.12079304076796746        0.0000000000000000     
   4.8954259485708390E-002  0.12793580877315475        0.0000000000000000     
   5.0077936122696010E-002  0.13521059647385736        0.0000000000000000     
   3.9938615283071230E-002  0.10653247884634419        0.0000000000000000     
   4.1076181590747898E-002  0.11342810018000180        0.0000000000000000     
   4.2168507179571206E-002  0.12045613601011967        0.0000000000000000     
   4.3215592049541125E-002  0.12761658633669787        0.0000000000000000     
   4.4217436200657677E-002  0.13490945115973638        0.0000000000000000     
   6.8629482963709659E-002  0.13634669753489437        0.0000000000000000     
   7.0068476347831893E-002  0.14368294228826919        0.0000000000000000     
   7.1425239429840401E-002  0.15112982833333274        0.0000000000000000     
   7.2699772209735211E-002  0.15868735567008499        0.0000000000000000     
   7.3892074687516296E-002  0.16635552429852596        0.0000000000000000     
   6.2283959504221990E-002  0.13592921966143637        0.0000000000000000     
   6.3593725774308774E-002  0.14328683802163864        0.0000000000000000     
   6.4826835908845235E-002  0.15075624596906306        0.0000000000000000     
   6.5983289907831394E-002  0.15833744350370973        0.0000000000000000     
   6.7063087771267238E-002  0.16603043062557860        0.0000000000000000     
   5.6100110557217454E-002  0.13555051930775738        0.0000000000000000     
   5.7285166104699789E-002  0.14292852170077111        0.0000000000000000     
   5.8399115117464095E-002  0.15041916611934367        0.0000000000000000     
   5.9441957595510374E-002  0.15802245256347494        0.0000000000000000     
   6.0413693538838645E-002  0.16573838103316493        0.0000000000000000     
   5.0077936122696010E-002  0.13521059647385736        0.0000000000000000     
   5.1142797339004911E-002  0.14260799332566682        0.0000000000000000     
   5.2142077055696963E-002  0.15011858878417450        0.0000000000000000     
   5.3075775272772151E-002  0.15774238284938055        0.0000000000000000     
   5.3943891990230503E-002  0.16547937552128492        0.0000000000000000     
   4.4217436200657677E-002  0.13490945115973638        0.0000000000000000     
   4.5166619477224147E-002  0.14232525289632550        0.0000000000000000     
   4.6055721723543837E-002  0.14985451396355559        0.0000000000000000     
   4.6884742939616725E-002  0.15749723436142660        0.0000000000000000     
   4.7653683125442839E-002  0.16525341408993863        0.0000000000000000     
   0.0000000000000000        0.0000000000000000        0.0000000000000000     
   1.7983259106970372E-003   1.2768354992725422E-003   0.0000000000000000     
   3.6213397543591389E-003   2.9391600863476960E-003   0.0000000000000000     
   5.4690415309863044E-003   4.9869737612254607E-003   0.0000000000000000     
   7.3414312405785352E-003   7.4202765239058353E-003   0.0000000000000000     
   0.0000000000000000        0.0000000000000000        0.0000000000000000     
   1.5350255781437846E-003   1.2175769578703713E-003   0.0000000000000000     
   3.0993755270927455E-003   2.8209023811122998E-003   0.0000000000000000     
   4.6930498468468838E-003   4.8099762697257865E-003   0.0000000000000000     
   6.3160485374061971E-003   7.1847986237108287E-003   0.0000000000000000     
   0.0000000000000000        0.0000000000000000        0.0000000000000000     
   1.2878152675113996E-003   1.1700202046100810E-003   0.0000000000000000     
   2.6055162882258009E-003   2.7246534005784615E-003   0.0000000000000000     
   3.9531030621432033E-003   4.6638995879051412E-003   0.0000000000000000     
   5.3305755892636073E-003   6.9877587665901197E-003   0.0000000000000000     
   0.0000000000000000        0.0000000000000000        0.0000000000000000     
   1.0566949787998829E-003   1.1341652394916714E-003   0.0000000000000000     
   2.1397620377583051E-003   2.6504131447461798E-003   0.0000000000000000     
   3.2492011768752663E-003   4.5487437157635258E-003   0.0000000000000000     
   4.3850123961507665E-003   6.8291569525437083E-003   0.0000000000000000     
   0.0000000000000000        0.0000000000000000        0.0000000000000000     
   8.4166471200923412E-004   1.1100120625151426E-003   0.0000000000000000     
   1.7021127756902581E-003   2.5981816136154559E-003   0.0000000000000000     
   2.5813441910430722E-003   4.4645086533009401E-003   0.0000000000000000     
   3.4793589580676752E-003   6.7089931815715945E-003   0.0000000000000000     
   7.3414312405785352E-003   7.4202765239058353E-003   0.0000000000000000     
   9.2308299501196664E-003   1.0186650810657992E-002   0.0000000000000000     
   1.1129558726593531E-002   1.3233679057751097E-002   0.0000000000000000     
   1.3037617570000128E-002   1.6561361265185152E-002   0.0000000000000000     
   1.4955006480339463E-002   2.0169697432960154E-002   0.0000000000000000     
   6.3160485374061971E-003   7.1847986237108287E-003   0.0000000000000000     
   7.9556728854205828E-003   9.8958198851795930E-003   0.0000000000000000     
   9.5992241775399376E-003   1.2893490496244244E-002   0.0000000000000000     
   1.1246702413764260E-002   1.6177810456904782E-002   0.0000000000000000     
   1.2898107594093548E-002   1.9748779767161204E-002   0.0000000000000000     
   5.3305755892636073E-003   6.9877587665901197E-003   0.0000000000000000     
   6.7234642848842240E-003   9.6501525427742669E-003   0.0000000000000000     
   8.1172995643022695E-003   1.2605002522598451E-002   0.0000000000000000     
   9.5120814275177420E-003   1.5852308706062669E-002   0.0000000000000000     
   1.0907809874530640E-002   1.9392071093166926E-002   0.0000000000000000     
   4.3850123961507665E-003   6.8291569525437083E-003   0.0000000000000000     
   5.5342041485105919E-003   9.4496487834420106E-003   0.0000000000000000     
   6.6837848868805255E-003   1.2368215136813710E-002   0.0000000000000000     
   7.8337546112605717E-003   1.5584856012658813E-002   0.0000000000000000     
   8.9841133216507288E-003   1.9099571410977314E-002   0.0000000000000000     
   3.4793589580676752E-003   6.7089931815715945E-003   0.0000000000000000     
   4.3878924762996837E-003   9.2943086071828242E-003   0.0000000000000000     
   5.2986801452747099E-003   1.2183128338890029E-002   0.0000000000000000     
   6.2117219649927540E-003   1.5375452376693211E-002   0.0000000000000000     
   7.1270179354538180E-003   1.8871280720592371E-002   0.0000000000000000     
   1.4955006480339463E-002   2.0169697432960154E-002   0.0000000000000000     
   1.6856443758538810E-002   2.4030121333089061E-002   0.0000000000000000     
   1.8716647705525453E-002   2.8114066737584820E-002   0.0000000000000000     
   2.0535618321299399E-002   3.2421533646447433E-002   0.0000000000000000     
   2.2313355605860639E-002   3.6952522059676890E-002   0.0000000000000000     
   1.2898107594093548E-002   1.9748779767161204E-002   0.0000000000000000     
   1.4537121380529427E-002   2.3580244588413037E-002   0.0000000000000000     
   1.6147425435073508E-002   2.7646051082059787E-002   0.0000000000000000     
   1.7729019757725794E-002   3.1946199248101471E-002   0.0000000000000000     
   1.9281904348486284E-002   3.6480689086538072E-002   0.0000000000000000     
   1.0907809874530640E-002   1.9392071093166926E-002   0.0000000000000000     
   1.2294280676523089E-002   2.3199383698672634E-002   0.0000000000000000     
   1.3661289604677216E-002   2.7249340537341207E-002   0.0000000000000000     
   1.5008836658993019E-002   3.1541941609172661E-002   0.0000000000000000     
   1.6336921839470497E-002   3.6077186914166975E-002   0.0000000000000000     
   8.9841133216507288E-003   1.9099571410977314E-002   0.0000000000000000     
   1.0127921646519798E-002   2.2887538663867855E-002   0.0000000000000000     
   1.1258240214336575E-002   2.6923935103429088E-002   0.0000000000000000     
   1.2375069025101071E-002   3.1208760729661000E-002   0.0000000000000000     
   1.3478408078813276E-002   3.5742015542563600E-002   0.0000000000000000     
   7.1270179354538180E-003   1.8871280720592371E-002   0.0000000000000000     
   8.0380442905195471E-003   2.2644709483998705E-002   0.0000000000000000     
   8.9382772640515910E-003   2.6669834780323413E-002   0.0000000000000000     
   9.8277168560499499E-003   3.0946656609566494E-002   0.0000000000000000     
   1.0706363066514624E-002   3.5475174971727946E-002   0.0000000000000000     
   2.2313355605860639E-002   3.6952522059676890E-002   0.0000000000000000     
   2.4046901817676117E-002   4.1698397944839587E-002   0.0000000000000000     
   2.5733299215212765E-002   4.6650527269501939E-002   0.0000000000000000     
   2.7372547798470592E-002   5.1808910033663946E-002   0.0000000000000000     
   2.8964647567449587E-002   5.7173546237325602E-002   0.0000000000000000     
   1.9281904348486284E-002   3.6480689086538072E-002   0.0000000000000000     
   2.0799766688289829E-002   4.1235536843102841E-002   0.0000000000000000     
   2.2276294258071289E-002   4.6196758763529008E-002   0.0000000000000000     
   2.3711487057830657E-002   5.1364354847816568E-002   0.0000000000000000     
   2.5105345087567940E-002   5.6738325095965519E-002   0.0000000000000000     
   1.6336921839470497E-002   3.6077186914166975E-002   0.0000000000000000     
   1.7637619005976855E-002   4.0837391483018536E-002   0.0000000000000000     
   1.8903002018379307E-002   4.5804870346421701E-002   0.0000000000000000     
   2.0133070876677855E-002   5.0979623504376487E-002   0.0000000000000000     
   2.1327825580872487E-002   5.6361650956882878E-002   0.0000000000000000     
   1.3478408078813276E-002   3.5742015542563600E-002   0.0000000000000000     
   1.4560458770737195E-002   4.0503961864586692E-002   0.0000000000000000     
   1.5613422496136826E-002   4.5474862018180059E-002   0.0000000000000000     
   1.6637299255012172E-002   5.0654716003343717E-002   0.0000000000000000     
   1.7632089047363231E-002   5.6043523820077670E-002   0.0000000000000000     
   1.0706363066514624E-002   3.5475174971727946E-002   0.0000000000000000     
   1.1568285982570842E-002   4.0235247987807296E-002   0.0000000000000000     
   1.2407555691343840E-002   4.5206733778804062E-002   0.0000000000000000     
   1.3224172192833613E-002   5.0389632344718258E-002   0.0000000000000000     
   1.4018135487040166E-002   5.5783943685549869E-002   0.0000000000000000     
   2.8964647567449587E-002   5.7173546237325602E-002   0.0000000000000000     
   3.0509499248363468E-002   6.2731731876290039E-002   0.0000000000000000     
   3.2007003567425939E-002   6.8470762946360397E-002   0.0000000000000000     
   3.3457160524636993E-002   7.4390639447536697E-002   0.0000000000000000     
   3.4859970119996642E-002   8.0491361379818924E-002   0.0000000000000000     
   2.5105345087567940E-002   5.6738325095965519E-002   0.0000000000000000     
   2.6458092462273819E-002   6.2306596939442162E-002   0.0000000000000000     
   2.7769953296938998E-002   6.8057097809712738E-002   0.0000000000000000     
   2.9040927591563473E-002   7.3989827706777256E-002   0.0000000000000000     
   3.0271015346147234E-002   8.0104786630635708E-002   0.0000000000000000     
   2.1327825580872487E-002   5.6361650956882878E-002   0.0000000000000000     
   2.2487580955010550E-002   6.1938938843756577E-002   0.0000000000000000     
   2.3612651823139399E-002   6.7699473304813226E-002   0.0000000000000000     
   2.4703038185259017E-002   7.3643254340052866E-002   0.0000000000000000     
   2.5758740041369420E-002   7.9770281949475511E-002   0.0000000000000000     
   1.7632089047363231E-002   5.6043523820077670E-002   0.0000000000000000     
   1.8597964726573660E-002   6.1628757589233266E-002   0.0000000000000000     
   1.9535099146027128E-002   6.7397889431661903E-002   0.0000000000000000     
   2.0443492305723645E-002   7.3350919347363611E-002   0.0000000000000000     
   2.1323144205663197E-002   7.9487847336338333E-002   0.0000000000000000     
   1.4018135487040166E-002   5.5783943685549869E-002   0.0000000000000000     
   1.4789243776963149E-002   6.1376053175872261E-002   0.0000000000000000     
   1.5537295265602208E-002   6.7152346190258769E-002   0.0000000000000000     
   1.6262289952957344E-002   7.3112822728709406E-002   0.0000000000000000     
   1.6964227839028564E-002   7.9257482791224160E-002   0.0000000000000000     
   3.4859970119996642E-002   8.0491361379818924E-002   0.0000000000000000     
   3.6211737378514255E-002   8.6762289707353141E-002   0.0000000000000000     
   3.7508767325199227E-002   9.3192785394285424E-002   0.0000000000000000     
   3.8751059960051550E-002   9.9782848440615773E-002   0.0000000000000000     
   3.9938615283071230E-002  0.10653247884634419        0.0000000000000000     
   3.0271015346147234E-002   8.0104786630635708E-002   0.0000000000000000     
   3.1456272275128698E-002   8.6390641171602778E-002   0.0000000000000000     
   3.2592754092946270E-002   9.2836057919993123E-002   0.0000000000000000     
   3.3680460799599958E-002   9.9441036875806785E-002   0.0000000000000000     
   3.4719392395089740E-002  0.10620557803904371        0.0000000000000000     
   2.5758740041369420E-002   7.9770281949475511E-002   0.0000000000000000     
   2.6775934906045851E-002   8.6068798777879221E-002   0.0000000000000000     
   2.7750800293863568E-002   9.2527047470062213E-002   0.0000000000000000     
   2.8683336204822569E-002   9.9145028026024387E-002   0.0000000000000000     
   2.9573542638922857E-002  0.10592274044576586        0.0000000000000000     
   2.1323144205663197E-002   7.9487847336338333E-002   0.0000000000000000     
   2.2170725271265710E-002   8.5796762526182513E-002   0.0000000000000000     
   2.2982905927951110E-002   9.2265754044492623E-002   0.0000000000000000     
   2.3759686175719396E-002   9.8894821891268678E-002   0.0000000000000000     
   2.4501066014570565E-002  0.10568396606651062        0.0000000000000000     
   1.6964227839028564E-002   7.9257482791224160E-002   0.0000000000000000     
   1.7640643370788276E-002   8.5574532416512639E-002   0.0000000000000000     
   1.8289070995208895E-002   9.2052177643284439E-002   0.0000000000000000     
   1.8909510712290425E-002   9.8690418471539559E-002   0.0000000000000000     
   1.9501962522032869E-002  0.10548925490127800        0.0000000000000000     
   3.9938615283071230E-002  0.10653247884634419        0.0000000000000000     
   4.1076181590747898E-002  0.11342810018000180        0.0000000000000000     
   4.2168507179571206E-002  0.12045613601011967        0.0000000000000000     
   4.3215592049541125E-002  0.12761658633669787        0.0000000000000000     
   4.4217436200657677E-002  0.13490945115973638        0.0000000000000000     
   3.4719392395089740E-002  0.10620557803904371        0.0000000000000000     
   3.5714765190857076E-002  0.11311633627278438        0.0000000000000000     
   3.6671795498343360E-002  0.12015996644010918        0.0000000000000000     
   3.7590483317548599E-002  0.12733646854101818        0.0000000000000000     
   3.8470828648472802E-002  0.13464584257551132        0.0000000000000000     
   2.9573542638922857E-002  0.10592274044576586        0.0000000000000000     
   3.0426373203462854E-002  0.11284691105233496        0.0000000000000000     
   3.1246781505741006E-002  0.11990426616878024        0.0000000000000000     
   3.2034767545757285E-002  0.12709480579510163        0.0000000000000000     
   3.2790331323511716E-002  0.13441852993129913        0.0000000000000000     
   2.4501066014570565E-002  0.10568396606651062        0.0000000000000000     
   2.5211005628565264E-002  0.11261982451865364        0.0000000000000000     
   2.5893465201764141E-002  0.11968903519613282        0.0000000000000000     
   2.6548444734167193E-002  0.12689159809894826        0.0000000000000000     
   2.7175944225774410E-002  0.13422751322709983        0.0000000000000000     
   1.9501962522032869E-002  0.10548925490127800        0.0000000000000000     
   2.0068662466164296E-002  0.11243507667174031        0.0000000000000000     
   2.0611846586412776E-002  0.11951427352216697        0.0000000000000000     
   2.1131514882778309E-002  0.12672684545255800        0.0000000000000000     
   2.1627667355260900E-002  0.13407279246291340        0.0000000000000000     
   4.4217436200657677E-002  0.13490945115973638        0.0000000000000000     
   4.5166619477224147E-002  0.14232525289632550        0.0000000000000000     
   4.6055721723543837E-002  0.14985451396355559        0.0000000000000000     
   4.6884742939616725E-002  0.15749723436142660        0.0000000000000000     
   4.7653683125442839E-002  0.16525341408993863        0.0000000000000000     
   3.8470828648472802E-002  0.13464584257551132        0.0000000000000000     
   3.9304912543786132E-002  0.14207846801149346        0.0000000000000000     
   4.0084816056158747E-002  0.14962472431686946        0.0000000000000000     
   4.0810539185590640E-002  0.15728461149163930        0.0000000000000000     
   4.1482081932081825E-002  0.16505812953580301        0.0000000000000000     
   3.2790331323511716E-002  0.13441852993129913        0.0000000000000000     
   3.3505956563119464E-002  0.14186580626991682        0.0000000000000000     
   3.4174126988695701E-002  0.14942700250349869        0.0000000000000000     
   3.4794842600240447E-002  0.15710211863204476        0.0000000000000000     
   3.5368103397753675E-002  0.16489115465555501        0.0000000000000000     
   2.7175944225774410E-002  0.13422751322709983        0.0000000000000000     
   2.7769751535224145E-002  0.14168726767159553        0.0000000000000000     
   2.8323654521154717E-002  0.14926134852344328        0.0000000000000000     
   2.8837653183566118E-002  0.15694975578264295        0.0000000000000000     
   2.9311747522458378E-002  0.16475248944919468        0.0000000000000000     
   2.1627667355260900E-002  0.13407279246291340        0.0000000000000000     
   2.2096297460100181E-002  0.14154285221652962        0.0000000000000000     
   2.2533398653535777E-002  0.14912776237670314        0.0000000000000000     
   2.2938970935567699E-002  0.15682752294343391        0.0000000000000000     
   2.3313014306195937E-002  0.16464213391672197        0.0000000000000000     
   0.0000000000000000        0.0000000000000000        0.0000000000000000     
   8.4166471200923412E-004   1.1100120625151426E-003   0.0000000000000000     
   1.7021127756902581E-003   2.5981816136154559E-003   0.0000000000000000     
   2.5813441910430722E-003   4.4645086533009401E-003   0.0000000000000000     
   3.4793589580676752E-003   6.7089931815715945E-003   0.0000000000000000     
   0.0000000000000000        0.0000000000000000        0.0000000000000000     
   6.3382172563798515E-004   1.0939975649716662E-003   0.0000000000000000     
   1.2780331513126458E-003   2.5621078409309990E-003   0.0000000000000000     
   1.9326342770239824E-003   4.4043308278779994E-003   0.0000000000000000     
   2.5976251027719950E-003   6.6206665258126667E-003   0.0000000000000000     
   0.0000000000000000        0.0000000000000000        0.0000000000000000     
   4.2426327818466749E-004   1.0825586381524135E-003   0.0000000000000000     
   8.5298781391645413E-004   2.5363408604375192E-003   0.0000000000000000     
   1.2861736071953596E-003   4.3613466668553187E-003   0.0000000000000000     
   1.7238206580213842E-003   6.5575760574058109E-003   0.0000000000000000     
   0.0000000000000000        0.0000000000000000        0.0000000000000000     
   2.1298936964928155E-004   1.0756952820573848E-003   0.0000000000000000     
   4.2697676350168286E-004   2.5208806721350174E-003   0.0000000000000000     
   6.4196218155720378E-004   4.3355561702328980E-003   0.0000000000000000     
   8.5794562381584472E-004   6.5197217763510278E-003   0.0000000000000000     
   0.0000000000000000        0.0000000000000000        0.0000000000000000     
   3.1827107139018040E-014   1.0734074966865796E-003   0.0000000000000000     
   6.8332221391659287E-014   2.5157272760234924E-003   0.0000000000000000     
   1.0951509881243493E-013   4.3269593380107375E-003   0.0000000000000000     
   1.5537598334683378E-013   6.5071036826483174E-003   0.0000000000000000     
   3.4793589580676752E-003   6.7089931815715945E-003   0.0000000000000000     
   4.3878924762996837E-003   9.2943086071828242E-003   0.0000000000000000     
   5.2986801452747099E-003   1.2183128338890029E-002   0.0000000000000000     
   6.2117219649927540E-003   1.5375452376693211E-002   0.0000000000000000     
   7.1270179354538180E-003   1.8871280720592371E-002   0.0000000000000000     
   2.5976251027719950E-003   6.6206665258126667E-003   0.0000000000000000     
   3.2700211164466792E-003   9.1781450205467192E-003   0.0000000000000000     
   3.9468378059380332E-003   1.2043796397891873E-002   0.0000000000000000     
   4.6280751712460561E-003   1.5217620657848133E-002   0.0000000000000000     
   5.3137332123707488E-003   1.8699617800415493E-002   0.0000000000000000     
   1.7238206580213842E-003   6.5575760574058109E-003   0.0000000000000000     
   2.1660819171467590E-003   9.0951710300837037E-003   0.0000000000000000     
   2.6131103353237138E-003   1.1944273582883715E-002   0.0000000000000000     
   3.0649059125522496E-003   1.5104883715805839E-002   0.0000000000000000     
   3.5214686488323661E-003   1.8577001428850080E-002   0.0000000000000000     
   8.5794562381584472E-004   6.5197217763510278E-003   0.0000000000000000     
   1.0760748783999218E-003   9.0453866357937864E-003   0.0000000000000000     
   1.2974977334317514E-003   1.1884559893865556E-002   0.0000000000000000     
   1.5222141889113334E-003   1.5037241550566334E-002   0.0000000000000000     
   1.7502242448386687E-003   1.8503431605896126E-002   0.0000000000000000     
   1.5537598334683378E-013   6.5071036826483174E-003   0.0000000000000000     
   2.0616841567289157E-013   9.0287918376769586E-003   0.0000000000000000     
   2.6214565186557376E-013   1.1864655330837392E-002   0.0000000000000000     
   3.2330856945101370E-013   1.5014694162129614E-002   0.0000000000000000     
   3.8965651451977612E-013   1.8478908331553634E-002   0.0000000000000000     
   7.1270179354538180E-003   1.8871280720592371E-002   0.0000000000000000     
   8.0380442905195471E-003   2.2644709483998705E-002   0.0000000000000000     
   8.9382772640515910E-003   2.6669834780323413E-002   0.0000000000000000     
   9.8277168560499499E-003   3.0946656609566494E-002   0.0000000000000000     
   1.0706363066514624E-002   3.5475174971727946E-002   0.0000000000000000     
   5.3137332123707488E-003   1.8699617800415493E-002   0.0000000000000000     
   5.9969391331417942E-003   2.2462428388142896E-002   0.0000000000000000     
   6.6708201373888720E-003   2.6478692983579286E-002   0.0000000000000000     
   7.3353762251119857E-003   3.0748411586724658E-002   0.0000000000000000     
   7.9906073963111335E-003   3.5271584197579003E-002   0.0000000000000000     
   3.5214686488323661E-003   1.8577001428850080E-002   0.0000000000000000     
   3.9768966990059865E-003   2.2332227605378157E-002   0.0000000000000000     
   4.4252882179150318E-003   2.6342163128751803E-002   0.0000000000000000     
   4.8666432055595038E-003   3.0606807998971013E-002   0.0000000000000000     
   5.3009616619394016E-003   3.5126162216035782E-002   0.0000000000000000     
   1.7502242448386687E-003   1.8503431605896126E-002   0.0000000000000000     
   1.9779169881121248E-003   2.2254107135704485E-002   0.0000000000000000     
   2.2016815056300700E-003   2.6260245215840965E-002   0.0000000000000000     
   2.4215177973925047E-003   3.0521845846305563E-002   0.0000000000000000     
   2.6374258633994289E-003   3.5038909027098282E-002   0.0000000000000000     
   3.8965651451977612E-013   1.8478908331553634E-002   0.0000000000000000     
   4.6020934459101159E-013   2.2228066979121872E-002   0.0000000000000000     
   5.3398645639794740E-013   2.6232939244846761E-002   0.0000000000000000     
   6.1098808710980876E-013   3.0493525128728306E-002   0.0000000000000000     
   6.9121401310989761E-013   3.5009824630766503E-002   0.0000000000000000     
   1.0706363066514624E-002   3.5475174971727946E-002   0.0000000000000000     
   1.1568285982570842E-002   4.0235247987807296E-002   0.0000000000000000     
   1.2407555691343840E-002   4.5206733778804062E-002   0.0000000000000000     
   1.3224172192833613E-002   5.0389632344718258E-002   0.0000000000000000     
   1.4018135487040166E-002   5.5783943685549869E-002   0.0000000000000000     
   7.9906073963111335E-003   3.5271584197579003E-002   0.0000000000000000     
   8.6330088102366392E-003   4.0028436482595062E-002   0.0000000000000000     
   9.2590756261388320E-003   4.4999194108225525E-002   0.0000000000000000     
   9.8688078440177050E-003   5.0183857074470428E-002   0.0000000000000000     
   1.0462205463873263E-002   5.5582425381329736E-002   0.0000000000000000     
   5.3009616619394016E-003   3.5126162216035782E-002   0.0000000000000000     
   5.7265354224934261E-003   3.9880713978864682E-002   0.0000000000000000     
   6.1416563226602819E-003   4.4850951486376259E-002   0.0000000000000000     
   6.5463243624399635E-003   5.0036874738570533E-002   0.0000000000000000     
   6.9405395418324738E-003   5.5438483735447477E-002   0.0000000000000000     
   2.6374258633994289E-003   3.5038909027098282E-002   0.0000000000000000     
   2.8488658193412037E-003   3.9792080476616178E-002   0.0000000000000000     
   3.0552977809081908E-003   4.4762005913256277E-002   0.0000000000000000     
   3.2567217481003904E-003   4.9948685337018600E-002   0.0000000000000000     
   3.4531377209178022E-003   5.5352118747903120E-002   0.0000000000000000     
   6.9121401310989761E-013   3.5009824630766503E-002   0.0000000000000000     
   7.7997016397629571E-013   3.9762535975849528E-002   0.0000000000000000     
   8.8256062614339159E-013   4.4732357388865558E-002   0.0000000000000000     
   9.9898531829602233E-013   4.9919288869814601E-002   0.0000000000000000     
   1.1292451349009802E-012   5.5323330418696651E-002   0.0000000000000000     
   1.4018135487040166E-002   5.5783943685549869E-002   0.0000000000000000     
   1.4789243776963149E-002   6.1376053175872261E-002   0.0000000000000000     
   1.5537295265602208E-002   6.7152346190258769E-002   0.0000000000000000     
   1.6262289952957344E-002   7.3112822728709406E-002   0.0000000000000000     
   1.6964227839028564E-002   7.9257482791224160E-002   0.0000000000000000     
   1.0462205463873263E-002   5.5582425381329736E-002   0.0000000000000000     
   1.1038711058334471E-002   6.1180082932184125E-002   0.0000000000000000     
   1.1597767200030289E-002   6.6962013630414222E-002   0.0000000000000000     
   1.2139373888960726E-002   7.2928217476020046E-002   0.0000000000000000     
   1.2663531125125776E-002   7.9078694469001592E-002   0.0000000000000000     
   6.9405395418324738E-003   5.5438483735447477E-002   0.0000000000000000     
   7.3236595228430819E-003   6.1040104186679434E-002   0.0000000000000000     
   7.6950419674770548E-003   6.6826061801938716E-002   0.0000000000000000     
   8.0546868757343914E-003   7.2796356581225297E-002   0.0000000000000000     
   8.4025942476150927E-003   7.8950988524539190E-002   0.0000000000000000     
   3.4531377209178022E-003   5.5352118747903120E-002   0.0000000000000000     
   3.6440891704889837E-003   6.0956116939358221E-002   0.0000000000000000     
   3.8291195679424966E-003   6.6744490704832224E-002   0.0000000000000000     
   4.0082289132783383E-003   7.2717240044325157E-002   0.0000000000000000     
   4.1814172064965115E-003   7.8874364957836979E-002   0.0000000000000000     
   1.1292451349009802E-012   5.5323330418696651E-002   0.0000000000000000     
   1.2721774588636547E-012   6.0928121190220459E-002   0.0000000000000000     
   1.4266192394085664E-012   6.6717300339094773E-002   0.0000000000000000     
   1.5925709102165841E-012   7.2690867865319600E-002   0.0000000000000000     
   1.7700324712877080E-012   7.8848823768894932E-002   0.0000000000000000     
   1.6964227839028564E-002   7.9257482791224160E-002   0.0000000000000000     
   1.7640643370788276E-002   8.5574532416512639E-002   0.0000000000000000     
   1.8289070995208895E-002   9.2052177643284439E-002   0.0000000000000000     
   1.8909510712290425E-002   9.8690418471539559E-002   0.0000000000000000     
   1.9501962522032869E-002  0.10548925490127800        0.0000000000000000     
   1.2663531125125776E-002   7.9078694469001592E-002   0.0000000000000000     
   1.3168714635240445E-002   8.5401871257682810E-002   0.0000000000000000     
   1.3653400146019746E-002   9.1886174490387634E-002   0.0000000000000000     
   1.4117587657463673E-002   9.8531604167116107E-002   0.0000000000000000     
   1.4561277169572225E-002  0.10533816028786823        0.0000000000000000     
   8.4025942476150927E-003   7.8950988524539190E-002   0.0000000000000000     
   8.7379644952491307E-003   8.5278541858506265E-002   0.0000000000000000     
   9.0599980307664758E-003   9.1767600809752325E-002   0.0000000000000000     
   9.3686948541671280E-003   9.8418165378277356E-002   0.0000000000000000     
   9.6640549654510872E-003  0.10523023556408145        0.0000000000000000     
   4.1814172064965115E-003   7.8874364957836979E-002   0.0000000000000000     
   4.3483929508143226E-003   8.5204544218982992E-002   0.0000000000000000     
   4.5088646494490844E-003   9.1696456601378443E-002   0.0000000000000000     
   4.6628323024007941E-003   9.8350102105023346E-002   0.0000000000000000     
   4.8102959096694535E-003  0.10516548072991769        0.0000000000000000     
   1.7700324712877080E-012   7.8848823768894932E-002   0.0000000000000000     
   1.9360253417782802E-012   8.5179878339113030E-002   0.0000000000000000     
   2.0675716997861637E-012   9.1672741865266041E-002   0.0000000000000000     
   2.1646720603073905E-012   9.8327414347354022E-002   0.0000000000000000     
   2.2273255288751681E-012  0.10514389578537696        0.0000000000000000     
   1.9501962522032869E-002  0.10548925490127800        0.0000000000000000     
   2.0068662466164296E-002  0.11243507667174031        0.0000000000000000     
   2.0611846586412776E-002  0.11951427352216697        0.0000000000000000     
   2.1131514882778309E-002  0.12672684545255800        0.0000000000000000     
   2.1627667355260900E-002  0.13407279246291340        0.0000000000000000     
   1.4561277169572225E-002  0.10533816028786823        0.0000000000000000     
   1.4984997845046769E-002  0.11229194548120686        0.0000000000000000     
   1.5389278846588656E-002  0.11937906237569500        0.0000000000000000     
   1.5774120174197895E-002  0.12659951097133254        0.0000000000000000     
   1.6139521827874481E-002  0.13395329126811958        0.0000000000000000     
   9.6640549654510872E-003  0.10523023556408145        0.0000000000000000     
   9.9456658939995075E-003  0.11218970891666515        0.0000000000000000     
   1.0213115169193543E-002  0.11928248298552917        0.0000000000000000     
   1.0466402791033190E-002  0.12650855777067346        0.0000000000000000     
   1.0705528759518454E-002  0.13386793327209806        0.0000000000000000     
   4.8102959096694535E-003  0.10516548072991769        0.0000000000000000     
   4.9506666130225158E-003  0.11212836697811519        0.0000000000000000     
   5.0833555542274290E-003  0.11922453535166955        0.0000000000000000     
   5.2083627332842001E-003  0.12645398585058074        0.0000000000000000     
   5.3256881501928212E-003  0.13381671847484877        0.0000000000000000     
   2.2273255288751681E-012  0.10514389578537696        0.0000000000000000     
   2.1157893145828943E-012  0.11210791966555696        0.0000000000000000     
   1.6903195423217943E-012  0.11920521947411608        0.0000000000000000     
   9.5091810944566979E-013  0.12643579521105439        0.0000000000000000     
  -1.0241590561732572E-013  0.13379964687637186        0.0000000000000000     
   2.1627667355260900E-002  0.13407279246291340        0.0000000000000000     
   2.2096297460100181E-002  0.14154285221652962        0.0000000000000000     
   2.2533398653535777E-002  0.14912776237670314        0.0000000000000000     
   2.2938970935567699E-002  0.15682752294343391        0.0000000000000000     
   2.3313014306195937E-002  0.16464213391672197        0.0000000000000000     
   1.6139521827874481E-002  0.13395329126811958        0.0000000000000000     
   1.6483719919717449E-002  0.14143141756853431        0.0000000000000000     
   1.6804950561825842E-002  0.14902490417505496        0.0000000000000000     
   1.7103213754199653E-002  0.15673375108768156        0.0000000000000000     
   1.7378509496838883E-002  0.16455795830641406        0.0000000000000000     
   1.0705528759518454E-002  0.13386793327209806        0.0000000000000000     
   1.0930144496045839E-002  0.14135182139142471        0.0000000000000000     
   1.1139901422011850E-002  0.14895143403027528        0.0000000000000000     
   1.1334799537416493E-002  0.15666677118864977        0.0000000000000000     
   1.1514838842259761E-002  0.16449783286654815        0.0000000000000000     
   5.3256881501928212E-003  0.13381671847484877        0.0000000000000000     
   5.4355711890853430E-003  0.14130406368520085        0.0000000000000000     
   5.5382512340938078E-003  0.14890735194236412        0.0000000000000000     
   5.6337282852182164E-003  0.15662658324633849        0.0000000000000000     
   5.7220023424585671E-003  0.16446175759712411        0.0000000000000000     
  -1.0241590561732572E-013  0.13379964687637186        0.0000000000000000     
  -1.1640350142116951E-012  0.14128814444986276        0.0000000000000000     
  -1.9282888003360754E-012  0.14889265791132145        0.0000000000000000     
  -2.3951757732124795E-012  0.15661318726074788        0.0000000000000000     
  -2.5647001883344345E-012  0.16444973249814210        0.0000000000000000     
   0.0000000000000000        0.0000000000000000        0.0000000000000000     
   3.1827107139018040E-014   1.0734074966865796E-003   0.0000000000000000     
   6.8332221391659287E-014   2.5157272760234924E-003   0.0000000000000000     
   1.0951509881243493E-013   4.3269593380107375E-003   0.0000000000000000     
   1.5537598334683378E-013   6.5071036826483174E-003   0.0000000000000000     
   0.0000000000000000        0.0000000000000000        0.0000000000000000     
  -2.1298936958673775E-004   1.0756952820405060E-003   0.0000000000000000     
  -4.2697676336736983E-004   2.5208806721038765E-003   0.0000000000000000     
  -6.4196218134189619E-004   4.3355561701901111E-003   0.0000000000000000     
  -8.5794562351031666E-004   6.5197217762992107E-003   0.0000000000000000     
   0.0000000000000000        0.0000000000000000        0.0000000000000000     
  -4.2426327812545531E-004   1.0825586381196712E-003   0.0000000000000000     
  -8.5298781378919514E-004   2.5363408603771014E-003   0.0000000000000000     
  -1.2861736069912195E-003   4.3613466667722913E-003   0.0000000000000000     
  -1.7238206577315284E-003   6.5575760573052385E-003   0.0000000000000000     
   0.0000000000000000        0.0000000000000000        0.0000000000000000     
  -6.3382172558432528E-004   1.0939975649240754E-003   0.0000000000000000     
  -1.2780331511971436E-003   2.5621078408431673E-003   0.0000000000000000     
  -1.9326342768384544E-003   4.4043308277572774E-003   0.0000000000000000     
  -2.5976251025082585E-003   6.6206665256664035E-003   0.0000000000000000     
   0.0000000000000000        0.0000000000000000        0.0000000000000000     
  -8.4166471196334787E-004   1.1100120624537183E-003   0.0000000000000000     
  -1.7021127755912149E-003   2.5981816135020749E-003   0.0000000000000000     
  -2.5813441908836016E-003   4.4645086531450691E-003   0.0000000000000000     
  -3.4793589578405075E-003   6.7089931813827030E-003   0.0000000000000000     
   1.5537598334683378E-013   6.5071036826483174E-003   0.0000000000000000     
   2.0616841567289157E-013   9.0287918376769586E-003   0.0000000000000000     
   2.6214565186557376E-013   1.1864655330837392E-002   0.0000000000000000     
   3.2330856945101370E-013   1.5014694162129614E-002   0.0000000000000000     
   3.8965651451977612E-013   1.8478908331553634E-002   0.0000000000000000     
  -8.5794562351031666E-004   6.5197217762992107E-003   0.0000000000000000     
  -1.0760748779944493E-003   9.0453866357349498E-003   0.0000000000000000     
  -1.2974977329161118E-003   1.1884559893801100E-002   0.0000000000000000     
  -1.5222141882753042E-003   1.5037241550497668E-002   0.0000000000000000     
  -1.7502242440720255E-003   1.8503431605824648E-002   0.0000000000000000     
  -1.7238206577315284E-003   6.5575760573052385E-003   0.0000000000000000     
  -2.1660819167618793E-003   9.0951710299694843E-003   0.0000000000000000     
  -2.6131103348340304E-003   1.1944273582758562E-002   0.0000000000000000     
  -3.0649059119479813E-003   1.5104883715672474E-002   0.0000000000000000     
  -3.5214686481037324E-003   1.8577001428711215E-002   0.0000000000000000     
  -2.5976251025082585E-003   6.6206665256664035E-003   0.0000000000000000     
  -3.2700211160961216E-003   9.1781450203805622E-003   0.0000000000000000     
  -3.9468378054916100E-003   1.2043796397709772E-002   0.0000000000000000     
  -4.6280751706947246E-003   1.5217620657654030E-002   0.0000000000000000     
  -5.3137332117054632E-003   1.8699617800213342E-002   0.0000000000000000     
  -3.4793589578405075E-003   6.7089931813827030E-003   0.0000000000000000     
  -4.3878924759971757E-003   9.2943086069681869E-003   0.0000000000000000     
  -5.2986801448888510E-003   1.2183128338654732E-002   0.0000000000000000     
  -6.2117219645155325E-003   1.5375452376442340E-002   0.0000000000000000     
  -7.1270179348772193E-003   1.8871280720331011E-002   0.0000000000000000     
   3.8965651451977612E-013   1.8478908331553634E-002   0.0000000000000000     
   4.6020934459101159E-013   2.2228066979121872E-002   0.0000000000000000     
   5.3398645639794740E-013   2.6232939244846761E-002   0.0000000000000000     
   6.1098808710980876E-013   3.0493525128728306E-002   0.0000000000000000     
   6.9121401310989761E-013   3.5009824630766503E-002   0.0000000000000000     
  -1.7502242440720255E-003   1.8503431605824648E-002   0.0000000000000000     
  -1.9779169872066286E-003   2.2254107135632594E-002   0.0000000000000000     
  -2.2016815045794664E-003   2.6260245215772072E-002   0.0000000000000000     
  -2.4215177961905373E-003   3.0521845846243081E-002   0.0000000000000000     
  -2.6374258620398415E-003   3.5038909027045623E-002   0.0000000000000000     
  -3.5214686481037324E-003   1.8577001428711215E-002   0.0000000000000000     
  -3.9768966981452575E-003   2.2332227605238935E-002   0.0000000000000000     
  -4.4252882169165328E-003   2.6342163128619776E-002   0.0000000000000000     
  -4.8666432044175588E-003   3.0606807998853736E-002   0.0000000000000000     
  -5.3009616606483354E-003   3.5126162215940823E-002   0.0000000000000000     
  -5.3137332117054632E-003   1.8699617800213342E-002   0.0000000000000000     
  -5.9969391323556782E-003   2.2462428387940884E-002   0.0000000000000000     
  -6.6708201364772150E-003   2.6478692983389861E-002   0.0000000000000000     
  -7.3353762240700804E-003   3.0748411586560262E-002   0.0000000000000000     
  -7.9906073951342693E-003   3.5271584197452105E-002   0.0000000000000000     
  -7.1270179348772193E-003   1.8871280720331011E-002   0.0000000000000000     
  -8.0380442898378892E-003   2.2644709483738444E-002   0.0000000000000000     
  -8.9382772632615147E-003   2.6669834780082332E-002   0.0000000000000000     
  -9.8277168551481001E-003   3.0946656609362667E-002   0.0000000000000000     
  -1.0706363065497644E-002   3.5475174971579461E-002   0.0000000000000000     
   6.9121401310989761E-013   3.5009824630766503E-002   0.0000000000000000     
   7.7997016397629571E-013   3.9762535975849528E-002   0.0000000000000000     
   8.8256062614339159E-013   4.4732357388865558E-002   0.0000000000000000     
   9.9898531829602233E-013   4.9919288869814601E-002   0.0000000000000000     
   1.1292451349009802E-012   5.5323330418696651E-002   0.0000000000000000     
  -2.6374258620398415E-003   3.5038909027045623E-002   0.0000000000000000     
  -2.8488658178079007E-003   3.9792080476571665E-002   0.0000000000000000     
  -3.0552977791752358E-003   4.4762005913213172E-002   0.0000000000000000     
  -3.2567217461418490E-003   4.9948685336970167E-002   0.0000000000000000     
  -3.4531377187077368E-003   5.5352118747842634E-002   0.0000000000000000     
  -5.3009616606483354E-003   3.5126162215940823E-002   0.0000000000000000     
  -5.7265354210400332E-003   3.9880713978789471E-002   0.0000000000000000     
  -6.1416563210238253E-003   4.4850951486308181E-002   0.0000000000000000     
  -6.5463243605997090E-003   5.0036874738496891E-002   0.0000000000000000     
  -6.9405395397676862E-003   5.5438483735355662E-002   0.0000000000000000     
  -7.9906073951342693E-003   3.5271584197452105E-002   0.0000000000000000     
  -8.6330088089164297E-003   4.0028436482502996E-002   0.0000000000000000     
  -9.2590756246632017E-003   4.4999194108150557E-002   0.0000000000000000     
  -9.8688078423745974E-003   5.0183857074394808E-002   0.0000000000000000     
  -1.0462205462050605E-002   5.5582425381235728E-002   0.0000000000000000     
  -1.0706363065497644E-002   3.5475174971579461E-002   0.0000000000000000     
  -1.1568285981437087E-002   4.0235247987712192E-002   0.0000000000000000     
  -1.2407555690093377E-002   4.5206733778740328E-002   0.0000000000000000     
  -1.3224172191466507E-002   5.0389632344663871E-002   0.0000000000000000     
  -1.4018135485556487E-002   5.5783943685482833E-002   0.0000000000000000     
   1.1292451349009802E-012   5.5323330418696651E-002   0.0000000000000000     
   1.2721774588636547E-012   6.0928121190220459E-002   0.0000000000000000     
   1.4266192394085664E-012   6.6717300339094773E-002   0.0000000000000000     
   1.5925709102165841E-012   7.2690867865319600E-002   0.0000000000000000     
   1.7700324712877080E-012   7.8848823768894932E-002   0.0000000000000000     
  -3.4531377187077368E-003   5.5352118747842634E-002   0.0000000000000000     
  -3.6440891680027386E-003   6.0956116939282358E-002   0.0000000000000000     
  -3.8291195651566894E-003   6.6744490704741130E-002   0.0000000000000000     
  -4.0082289101695916E-003   7.2717240044218950E-002   0.0000000000000000     
  -4.1814172030414437E-003   7.8874364957715826E-002   0.0000000000000000     
  -6.9405395397676862E-003   5.5438483735355662E-002   0.0000000000000000     
  -7.3236595205311622E-003   6.1040104186560161E-002   0.0000000000000000     
  -7.6950419648935450E-003   6.6826061801786116E-002   0.0000000000000000     
  -8.0546868728548233E-003   7.2796356581033506E-002   0.0000000000000000     
  -8.4025942444150136E-003   7.8950988524302351E-002   0.0000000000000000     
  -1.0462205462050605E-002   5.5582425381235728E-002   0.0000000000000000     
  -1.1038711056313094E-002   6.1180082932053854E-002   0.0000000000000000     
  -1.1597767197783935E-002   6.6962013630229689E-002   0.0000000000000000     
  -1.2139373886463134E-002   7.2928217475763252E-002   0.0000000000000000     
  -1.2663531122350682E-002   7.9078694468654565E-002   0.0000000000000000     
  -1.4018135485556487E-002   5.5783943685482833E-002   0.0000000000000000     
  -1.4789243775348534E-002   6.1376053175763431E-002   0.0000000000000000     
  -1.5537295263827876E-002   6.7152346190071877E-002   0.0000000000000000     
  -1.6262289950994508E-002   7.3112822728408203E-002   0.0000000000000000     
  -1.6964227836848440E-002   7.9257482790772410E-002   0.0000000000000000     
   1.7700324712877080E-012   7.8848823768894932E-002   0.0000000000000000     
   1.9360253417782802E-012   8.5179878339113030E-002   0.0000000000000000     
   2.0675716997861637E-012   9.1672741865266041E-002   0.0000000000000000     
   2.1646720603073905E-012   9.8327414347354022E-002   0.0000000000000000     
   2.2273255288751681E-012  0.10514389578537696        0.0000000000000000     
  -4.1814172030414437E-003   7.8874364957715826E-002   0.0000000000000000     
  -4.3483929470311935E-003   8.5204544218885223E-002   0.0000000000000000     
  -4.5088646453977903E-003   9.1696456601380663E-002   0.0000000000000000     
  -4.6628322981412352E-003   9.8350102105202106E-002   0.0000000000000000     
  -4.8102959052615264E-003  0.10516548073034962        0.0000000000000000     
  -8.4025942444150136E-003   7.8950988524302351E-002   0.0000000000000000     
  -8.7379644917327613E-003   8.5278541858288523E-002   0.0000000000000000     
  -9.0599980269667341E-003   9.1767600809687849E-002   0.0000000000000000     
  -9.3686948501169216E-003   9.8418165378500330E-002   0.0000000000000000     
  -9.6640549611833309E-003  0.10523023556472602        0.0000000000000000     
  -1.2663531122350682E-002   7.9078694468654565E-002   0.0000000000000000     
  -1.3168714632168685E-002   8.5401871257322876E-002   0.0000000000000000     
  -1.3653400142639252E-002   9.1886174490187600E-002   0.0000000000000000     
  -1.4117587653762391E-002   9.8531604167248710E-002   0.0000000000000000     
  -1.4561277165538089E-002  0.10533816028850618        0.0000000000000000     
  -1.6964227836848440E-002   7.9257482790772410E-002   0.0000000000000000     
  -1.7640643368338961E-002   8.5574532415988350E-002   0.0000000000000000     
  -1.8289070992415359E-002   9.2052177642879957E-002   0.0000000000000000     
  -1.8909510709077641E-002   9.8690418471447217E-002   0.0000000000000000     
  -1.9501962518325800E-002  0.10548925490169010        0.0000000000000000     
   2.2273255288751681E-012  0.10514389578537696        0.0000000000000000     
   2.1157893145828943E-012  0.11210791966555696        0.0000000000000000     
   1.6903195423217943E-012  0.11920521947411608        0.0000000000000000     
   9.5091810944566979E-013  0.12643579521105439        0.0000000000000000     
  -1.0241590561732572E-013  0.13379964687637186        0.0000000000000000     
  -4.8102959052615264E-003  0.10516548073034962        0.0000000000000000     
  -4.9506666087883828E-003  0.11212836697883515        0.0000000000000000     
  -5.0833555507515176E-003  0.11922453535267080        0.0000000000000000     
  -5.2083627311509369E-003  0.12645398585185655        0.0000000000000000     
  -5.3256881499866363E-003  0.13381671847639237        0.0000000000000000     
  -9.6640549611833309E-003  0.10523023556472602        0.0000000000000000     
  -9.9456658897577131E-003  0.11218970891779455        0.0000000000000000     
  -1.0213115165431823E-002  0.11928248298713563        0.0000000000000000     
  -1.0466402788205655E-002  0.12650855777274925        0.0000000000000000     
  -1.0705528758079215E-002  0.13386793327463542        0.0000000000000000     
  -1.4561277165538089E-002  0.10533816028850618        0.0000000000000000     
  -1.4984997840792205E-002  0.11229194548243510        0.0000000000000000     
  -1.5389278842350586E-002  0.11937906237751056        0.0000000000000000     
  -1.5774120170213235E-002  0.12659951097373254        0.0000000000000000     
  -1.6139521824380155E-002  0.13395329127110103        0.0000000000000000     
  -1.9501962518325800E-002  0.10548925490169010        0.0000000000000000     
  -2.0068662461891852E-002  0.11243507667275683        0.0000000000000000     
  -2.0611846581507821E-002  0.11951427352379561        0.0000000000000000     
  -2.1131514877173685E-002  0.12672684545480642        0.0000000000000000     
  -2.1627667348889455E-002  0.13407279246578929        0.0000000000000000     
  -1.0241590561732572E-013  0.13379964687637186        0.0000000000000000     
  -1.1640350142116951E-012  0.14128814444986276        0.0000000000000000     
  -1.9282888003360754E-012  0.14889265791132145        0.0000000000000000     
  -2.3951757732124795E-012  0.15661318726074788        0.0000000000000000     
  -2.5647001883344345E-012  0.16444973249814210        0.0000000000000000     
  -5.3256881499866363E-003  0.13381671847639237        0.0000000000000000     
  -5.4355711908187117E-003  0.14130406368536511        0.0000000000000000     
  -5.5382512372072574E-003  0.14890735193786164        0.0000000000000000     
  -5.6337282891522761E-003  0.15662658323388201        0.0000000000000000     
  -5.7220023466537651E-003  0.16446175757342613        0.0000000000000000     
  -1.0705528758079215E-002  0.13386793327463542        0.0000000000000000     
  -1.0930144495995107E-002  0.14135182139166258        0.0000000000000000     
  -1.1139901422895924E-002  0.14895143402269911        0.0000000000000000     
  -1.1334799538781675E-002  0.15666677116774511        0.0000000000000000     
  -1.1514838843652354E-002  0.16449783282680044        0.0000000000000000     
  -1.6139521824380155E-002  0.13395329127110103        0.0000000000000000     
  -1.6483719916693215E-002  0.14143141756875516        0.0000000000000000     
  -1.6804950558994287E-002  0.14902490416583386        0.0000000000000000     
  -1.7103213751283371E-002  0.15673375106233714        0.0000000000000000     
  -1.7378509493560464E-002  0.16455795825826502        0.0000000000000000     
  -2.1627667348889455E-002  0.13407279246578929        0.0000000000000000     
  -2.2096297452913038E-002  0.14154285221664284        0.0000000000000000     
  -2.2533398645502335E-002  0.14912776236726580        0.0000000000000000     
  -2.2938970926657361E-002  0.15682752291765811        0.0000000000000000     
  -2.3313014296378099E-002  0.16464213386781984        0.0000000000000000     
   0.0000000000000000        0.0000000000000000        0.0000000000000000     
  -8.4166471196334787E-004   1.1100120624537183E-003   0.0000000000000000     
  -1.7021127755912149E-003   2.5981816135020749E-003   0.0000000000000000     
  -2.5813441908836016E-003   4.4645086531450691E-003   0.0000000000000000     
  -3.4793589578405075E-003   6.7089931813827030E-003   0.0000000000000000     
   0.0000000000000000        0.0000000000000000        0.0000000000000000     
  -1.0566949787634782E-003   1.1341652394180673E-003   0.0000000000000000     
  -2.1397620376793014E-003   2.6504131446103232E-003   0.0000000000000000     
  -3.2492011767474688E-003   4.5487437155767672E-003   0.0000000000000000     
  -4.3850123959679821E-003   6.8291569523173997E-003   0.0000000000000000     
   0.0000000000000000        0.0000000000000000        0.0000000000000000     
  -1.2878152674856713E-003   1.1700202045265894E-003   0.0000000000000000     
  -2.6055162881692935E-003   2.7246534004244120E-003   0.0000000000000000     
  -3.9531030620508657E-003   4.6638995876934685E-003   0.0000000000000000     
  -5.3305755891303900E-003   6.9877587663337588E-003   0.0000000000000000     
   0.0000000000000000        0.0000000000000000        0.0000000000000000     
  -1.5350255781299272E-003   1.2175769577792842E-003   0.0000000000000000     
  -3.0993755270611913E-003   2.8209023809443422E-003   0.0000000000000000     
  -4.6930498467937926E-003   4.8099762694951724E-003   0.0000000000000000     
  -6.3160485373277312E-003   7.1847986234317759E-003   0.0000000000000000     
   0.0000000000000000        0.0000000000000000        0.0000000000000000     
  -1.7983259106962460E-003   1.2768354991761523E-003   0.0000000000000000     
  -3.6213397543549955E-003   2.9391600861701128E-003   0.0000000000000000     
  -5.4690415309762482E-003   4.9869737609818804E-003   0.0000000000000000     
  -7.3414312405600032E-003   7.4202765236114562E-003   0.0000000000000000     
  -3.4793589578405075E-003   6.7089931813827030E-003   0.0000000000000000     
  -4.3878924759971757E-003   9.2943086069681869E-003   0.0000000000000000     
  -5.2986801448888510E-003   1.2183128338654732E-002   0.0000000000000000     
  -6.2117219645155325E-003   1.5375452376442340E-002   0.0000000000000000     
  -7.1270179348772193E-003   1.8871280720331011E-002   0.0000000000000000     
  -4.3850123959679821E-003   6.8291569523173997E-003   0.0000000000000000     
  -5.5342041482664061E-003   9.4496487831848552E-003   0.0000000000000000     
  -6.6837848865683065E-003   1.2368215136531767E-002   0.0000000000000000     
  -7.8337546108736833E-003   1.5584856012358136E-002   0.0000000000000000     
  -8.9841133211825373E-003   1.9099571410663964E-002   0.0000000000000000     
  -5.3305755891303900E-003   6.9877587663337588E-003   0.0000000000000000     
  -6.7234642847051745E-003   9.6501525424830710E-003   0.0000000000000000     
  -8.1172995640725297E-003   1.2605002522279198E-002   0.0000000000000000     
  -9.5120814272324529E-003   1.5852308705722143E-002   0.0000000000000000     
  -1.0907809874184949E-002   1.9392071092811901E-002   0.0000000000000000     
  -6.3160485373277312E-003   7.1847986234317759E-003   0.0000000000000000     
  -7.9556728853134792E-003   9.8958198848628359E-003   0.0000000000000000     
  -9.5992241774015205E-003   1.2893490495897031E-002   0.0000000000000000     
  -1.1246702413591842E-002   1.6177810456534360E-002   0.0000000000000000     
  -1.2898107593884458E-002   1.9748779766774829E-002   0.0000000000000000     
  -7.3414312405600032E-003   7.4202765236114562E-003   0.0000000000000000     
  -9.2308299500913262E-003   1.0186650810324148E-002   0.0000000000000000     
  -1.1129558726555275E-002   1.3233679057385260E-002   0.0000000000000000     
  -1.3037617569951856E-002   1.6561361264794790E-002   0.0000000000000000     
  -1.4955006480281065E-002   2.0169697432552747E-002   0.0000000000000000     
  -7.1270179348772193E-003   1.8871280720331011E-002   0.0000000000000000     
  -8.0380442898378892E-003   2.2644709483738444E-002   0.0000000000000000     
  -8.9382772632615147E-003   2.6669834780082332E-002   0.0000000000000000     
  -9.8277168551481001E-003   3.0946656609362667E-002   0.0000000000000000     
  -1.0706363065497644E-002   3.5475174971579461E-002   0.0000000000000000     
  -8.9841133211825373E-003   1.9099571410663964E-002   0.0000000000000000     
  -1.0127921645965812E-002   2.2887538663556806E-002   0.0000000000000000     
  -1.1258240213694457E-002   2.6923935103144201E-002   0.0000000000000000     
  -1.2375069024368471E-002   3.1208760729426171E-002   0.0000000000000000     
  -1.3478408077987857E-002   3.5742015542402701E-002   0.0000000000000000     
  -1.0907809874184949E-002   1.9392071092811901E-002   0.0000000000000000     
  -1.2294280676113370E-002   2.3199383698321131E-002   0.0000000000000000     
  -1.3661289604201069E-002   2.7249340537022493E-002   0.0000000000000000     
  -1.5008836658448047E-002   3.1541941608915984E-002   0.0000000000000000     
  -1.6336921838854306E-002   3.6077186914001622E-002   0.0000000000000000     
  -1.2898107593884458E-002   1.9748779766774829E-002   0.0000000000000000     
  -1.4537121380280562E-002   2.3580244588031443E-002   0.0000000000000000     
  -1.6147425434781350E-002   2.7646051081717207E-002   0.0000000000000000     
  -1.7729019757386832E-002   3.1946199247832124E-002   0.0000000000000000     
  -1.9281904348096995E-002   3.6480689086376208E-002   0.0000000000000000     
  -1.4955006480281065E-002   2.0169697432552747E-002   0.0000000000000000     
  -1.6856443758467388E-002   2.4030121332687726E-002   0.0000000000000000     
  -1.8716647705435307E-002   2.8114066737228344E-002   0.0000000000000000     
  -2.0535618321184813E-002   3.2421533646174588E-002   0.0000000000000000     
  -2.2313355605715922E-002   3.6952522059526469E-002   0.0000000000000000     
  -1.0706363065497644E-002   3.5475174971579461E-002   0.0000000000000000     
  -1.1568285981437087E-002   4.0235247987712192E-002   0.0000000000000000     
  -1.2407555690093377E-002   4.5206733778740328E-002   0.0000000000000000     
  -1.3224172191466507E-002   5.0389632344663871E-002   0.0000000000000000     
  -1.4018135485556487E-002   5.5783943685482833E-002   0.0000000000000000     
  -1.3478408077987857E-002   3.5742015542402701E-002   0.0000000000000000     
  -1.4560458769824237E-002   4.0503961864499803E-002   0.0000000000000000     
  -1.5613422495149246E-002   4.5474862018143471E-002   0.0000000000000000     
  -1.6637299253962887E-002   5.0654716003333704E-002   0.0000000000000000     
  -1.7632089046265152E-002   5.6043523820070523E-002   0.0000000000000000     
  -1.6336921838854306E-002   3.6077186914001622E-002   0.0000000000000000     
  -1.7637619005300111E-002   4.0837391482948557E-002   0.0000000000000000     
  -1.8903002017665736E-002   4.5804870346425983E-002   0.0000000000000000     
  -2.0133070875951165E-002   5.0979623504433920E-002   0.0000000000000000     
  -2.1327825580156421E-002   5.6361650956972334E-002   0.0000000000000000     
  -1.9281904348096995E-002   3.6480689086376208E-002   0.0000000000000000     
  -2.0799766687864707E-002   4.1235536843058446E-002   0.0000000000000000     
  -2.2276294257642826E-002   4.6196758763587878E-002   0.0000000000000000     
  -2.3711487057431351E-002   5.1364354847964477E-002   0.0000000000000000     
  -2.5105345087230283E-002   5.6738325096188279E-002   0.0000000000000000     
  -2.2313355605715922E-002   3.6952522059526469E-002   0.0000000000000000     
  -2.4046901817518021E-002   4.1698397944829484E-002   0.0000000000000000     
  -2.5733299215080531E-002   4.6650527269629129E-002   0.0000000000000000     
  -2.7372547798403431E-002   5.1808910033925418E-002   0.0000000000000000     
  -2.8964647567486745E-002   5.7173546237718351E-002   0.0000000000000000     
  -1.4018135485556487E-002   5.5783943685482833E-002   0.0000000000000000     
  -1.4789243775348534E-002   6.1376053175763431E-002   0.0000000000000000     
  -1.5537295263827876E-002   6.7152346190071877E-002   0.0000000000000000     
  -1.6262289950994508E-002   7.3112822728408203E-002   0.0000000000000000     
  -1.6964227836848440E-002   7.9257482790772410E-002   0.0000000000000000     
  -1.7632089046265152E-002   5.6043523820070523E-002   0.0000000000000000     
  -1.8597964725419757E-002   6.1628757589188010E-002   0.0000000000000000     
  -1.9535099144790399E-002   6.7397889431520280E-002   0.0000000000000000     
  -2.0443492304377083E-002   7.3350919347067320E-002   0.0000000000000000     
  -2.1323144204179814E-002   7.9487847335829170E-002   0.0000000000000000     
  -2.1327825580156421E-002   5.6361650956972334E-002   0.0000000000000000     
  -2.2487580954309028E-002   6.1938938843826702E-002   0.0000000000000000     
  -2.3612651822436544E-002   6.7699473304782432E-002   0.0000000000000000     
  -2.4703038184538971E-002   7.3643254339839592E-002   0.0000000000000000     
  -2.5758740040616301E-002   7.9770281948998115E-002   0.0000000000000000     
  -2.5105345087230283E-002   5.6738325096188279E-002   0.0000000000000000     
  -2.6458092462016362E-002   6.2306596939679493E-002   0.0000000000000000     
  -2.7769953296766320E-002   6.8057097809858386E-002   0.0000000000000000     
  -2.9040927591480175E-002   7.3989827706724937E-002   0.0000000000000000     
  -3.0271015346157917E-002   8.0104786630279187E-002   0.0000000000000000     
  -2.8964647567486745E-002   5.7173546237718351E-002   0.0000000000000000     
  -3.0509499248541742E-002   6.2731731876746410E-002   0.0000000000000000     
  -3.2007003567779725E-002   6.8470762946748129E-002   0.0000000000000000     
  -3.3457160525200695E-002   7.4390639447723450E-002   0.0000000000000000     
  -3.4859970120804641E-002   8.0491361379672444E-002   0.0000000000000000     
  -1.6964227836848440E-002   7.9257482790772410E-002   0.0000000000000000     
  -1.7640643368338961E-002   8.5574532415988350E-002   0.0000000000000000     
  -1.8289070992415359E-002   9.2052177642879957E-002   0.0000000000000000     
  -1.8909510709077641E-002   9.8690418471447217E-002   0.0000000000000000     
  -1.9501962518325800E-002  0.10548925490169010        0.0000000000000000     
  -2.1323144204179814E-002   7.9487847335829170E-002   0.0000000000000000     
  -2.2170725269565653E-002   8.5796762525526163E-002   0.0000000000000000     
  -2.2982905925901673E-002   9.2265754043878656E-002   0.0000000000000000     
  -2.3759686173187893E-002   9.8894821890886678E-002   0.0000000000000000     
  -2.4501066011424287E-002  0.10568396606655023        0.0000000000000000     
  -2.5758740040616301E-002   7.9770281948998115E-002   0.0000000000000000     
  -2.6775934905170828E-002   8.6068798777177560E-002   0.0000000000000000     
  -2.7750800292704856E-002   9.2527047469297546E-002   0.0000000000000000     
  -2.8683336203218369E-002   9.9145028025358017E-002   0.0000000000000000     
  -2.9573542636711376E-002  0.10592274044535900        0.0000000000000000     
  -3.0271015346157917E-002   8.0104786630279187E-002   0.0000000000000000     
  -3.1456272275154497E-002   8.6390641170942584E-002   0.0000000000000000     
  -3.2592754092824881E-002   9.2836057919136572E-002   0.0000000000000000     
  -3.3680460799169074E-002   9.9441036874861208E-002   0.0000000000000000     
  -3.4719392394187067E-002  0.10620557803811646        0.0000000000000000     
  -3.4859970120804641E-002   8.0491361379672444E-002   0.0000000000000000     
  -3.6211737379516648E-002   8.6762289706821177E-002   0.0000000000000000     
  -3.7508767326261773E-002   9.3192785393395774E-002   0.0000000000000000     
  -3.8751059961040009E-002   9.9782848439396235E-002   0.0000000000000000     
  -3.9938615283851363E-002  0.10653247884482256        0.0000000000000000     
  -1.9501962518325800E-002  0.10548925490169010        0.0000000000000000     
  -2.0068662461891852E-002  0.11243507667275683        0.0000000000000000     
  -2.0611846581507821E-002  0.11951427352379561        0.0000000000000000     
  -2.1131514877173685E-002  0.12672684545480642        0.0000000000000000     
  -2.1627667348889455E-002  0.13407279246578929        0.0000000000000000     
  -2.4501066011424287E-002  0.10568396606655023        0.0000000000000000     
  -2.5211005624559069E-002  0.11261982451922084        0.0000000000000000     
  -2.5893465196540448E-002  0.11968903519725016        0.0000000000000000     
  -2.6548444727368416E-002  0.12689159810063808        0.0000000000000000     
  -2.7175944217042981E-002  0.13422751322938475        0.0000000000000000     
  -2.9573542636711376E-002  0.10592274044535900        0.0000000000000000     
  -3.0426373200296265E-002  0.11284691105228825        0.0000000000000000     
  -3.1246781501085435E-002  0.11990426616913349        0.0000000000000000     
  -3.2034767539078864E-002  0.12709480579589480        0.0000000000000000     
  -3.2790331314276583E-002  0.13441852993257211        0.0000000000000000     
  -3.4719392394187067E-002  0.10620557803811646        0.0000000000000000     
  -3.5714765189103437E-002  0.11311633627195905        0.0000000000000000     
  -3.6671795495142767E-002  0.12015996643944575        0.0000000000000000     
  -3.7590483312305051E-002  0.12733646854057654        0.0000000000000000     
  -3.8470828640590281E-002  0.13464584257535139        0.0000000000000000     
  -3.9938615283851363E-002  0.10653247884482256        0.0000000000000000     
  -4.1076181590980587E-002  0.11342810017823328        0.0000000000000000     
  -4.2168507178712449E-002  0.12045613600818685        0.0000000000000000     
  -4.3215592047046940E-002  0.12761658633468331        0.0000000000000000     
  -4.4217436195984068E-002  0.13490945115772265        0.0000000000000000     
  -2.1627667348889455E-002  0.13407279246578929        0.0000000000000000     
  -2.2096297452913038E-002  0.14154285221664284        0.0000000000000000     
  -2.2533398645502335E-002  0.14912776236726580        0.0000000000000000     
  -2.2938970926657361E-002  0.15682752291765811        0.0000000000000000     
  -2.3313014296378099E-002  0.16464213386781984        0.0000000000000000     
  -2.7175944217042981E-002  0.13422751322938475        0.0000000000000000     
  -2.7769751524480489E-002  0.14168726767145787        0.0000000000000000     
  -2.8323654508597317E-002  0.14926134851482534        0.0000000000000000     
  -2.8837653169393466E-002  0.15694975575948711        0.0000000000000000     
  -2.9311747506868928E-002  0.16475248940544321        0.0000000000000000     
  -3.2790331314276583E-002  0.13441852993257211        0.0000000000000000     
  -3.3505956551221475E-002  0.14186580626933246        0.0000000000000000     
  -3.4174126974456445E-002  0.14942700249634278        0.0000000000000000     
  -3.4794842583981495E-002  0.15710211861360313        0.0000000000000000     
  -3.5368103379796616E-002  0.16489115462111351        0.0000000000000000     
  -3.8470828640590281E-002  0.13464584257535139        0.0000000000000000     
  -3.9304912533135991E-002  0.14207846801026658        0.0000000000000000     
  -4.0084816043079723E-002  0.14962472431181817        0.0000000000000000     
  -4.0810539170421434E-002  0.15728461148000616        0.0000000000000000     
  -4.1482081915161173E-002  0.16505812951483065        0.0000000000000000     
  -4.4217436195984068E-002  0.13490945115772265        0.0000000000000000     
  -4.5166619470224045E-002  0.14232525289426023        0.0000000000000000     
  -4.6055721714467132E-002  0.14985451396125143        0.0000000000000000     
  -4.6884742928713315E-002  0.15749723435869628        0.0000000000000000     
  -4.7653683112962586E-002  0.16525341408659469        0.0000000000000000     
   0.0000000000000000        0.0000000000000000        0.0000000000000000     
  -1.7983259106962460E-003   1.2768354991761523E-003   0.0000000000000000     
  -3.6213397543549955E-003   2.9391600861701128E-003   0.0000000000000000     
  -5.4690415309762482E-003   4.9869737609818804E-003   0.0000000000000000     
  -7.3414312405600032E-003   7.4202765236114562E-003   0.0000000000000000     
   0.0000000000000000        0.0000000000000000        0.0000000000000000     
  -2.0694445056108537E-003   1.3549174383586421E-003   0.0000000000000000     
  -4.1640601658857390E-003   3.0939478041891681E-003   0.0000000000000000     
  -6.2838469808246568E-003   5.2170910974915774E-003   0.0000000000000000     
  -8.4288049504276062E-003   7.7243473182658715E-003   0.0000000000000000     
   0.0000000000000000        0.0000000000000000        0.0000000000000000     
  -2.3401096032999755E-003   1.4589443849682023E-003   0.0000000000000000     
  -4.7201879574884573E-003   3.2997868230889523E-003   0.0000000000000000     
  -7.1402350625654459E-003   5.5225273143622499E-003   0.0000000000000000     
  -9.6002509185309400E-003   8.1271658587880966E-003   0.0000000000000000     
   0.0000000000000000        0.0000000000000000        0.0000000000000000     
  -2.6103212037636111E-003   1.5889163390048326E-003   0.0000000000000000     
  -5.2897231291631486E-003   3.5566771428694648E-003   0.0000000000000000     
  -8.0382057761986120E-003   5.9032824115938963E-003   0.0000000000000000     
  -1.0855769144869999E-002   8.6287321451781300E-003   0.0000000000000000     
   0.0000000000000000        0.0000000000000000        0.0000000000000000     
  -2.8800793070017615E-003   1.7448333004685330E-003   0.0000000000000000     
  -5.8726656809098138E-003   3.8646187635307063E-003   0.0000000000000000     
  -8.9777591217241569E-003   6.3593563891865199E-003   0.0000000000000000     
  -1.2195359629444789E-002   9.2290461774359751E-003   0.0000000000000000     
  -7.3414312405600032E-003   7.4202765236114562E-003   0.0000000000000000     
  -9.2308299500913262E-003   1.0186650810324148E-002   0.0000000000000000     
  -1.1129558726555275E-002   1.3233679057385260E-002   0.0000000000000000     
  -1.3037617569951856E-002   1.6561361264794790E-002   0.0000000000000000     
  -1.4955006480281065E-002   2.0169697432552747E-002   0.0000000000000000     
  -8.4288049504276062E-003   7.7243473182658715E-003   0.0000000000000000     
  -1.0590608873618823E-002   1.0558270577325767E-002   0.0000000000000000     
  -1.2760933549322539E-002   1.3661414985484979E-002   0.0000000000000000     
  -1.4939778977538757E-002   1.7033780542743512E-002   0.0000000000000000     
  -1.7127145158267479E-002   2.0675367249101361E-002   0.0000000000000000     
  -9.6002509185309400E-003   8.1271658587880966E-003   0.0000000000000000     
  -1.2076683050476090E-002   1.1046304444326452E-002   0.0000000000000000     
  -1.4545978983492053E-002   1.4212545058937284E-002   0.0000000000000000     
  -1.7008138717578825E-002   1.7625887702620587E-002   0.0000000000000000     
  -1.9463162252736404E-002   2.1286332375376374E-002   0.0000000000000000     
  -1.0855769144869999E-002   8.6287321451781300E-003   0.0000000000000000     
  -1.3689052480663126E-002   1.1650752411326210E-002   0.0000000000000000     
  -1.6484695029063814E-002   1.4887069277742178E-002   0.0000000000000000     
  -1.9242696790072050E-002   1.8337682744426036E-002   0.0000000000000000     
  -2.1963057763687840E-002   2.2002592811377782E-002   0.0000000000000000     
  -1.2195359629444789E-002   9.2290461774359751E-003   0.0000000000000000     
  -1.5427717164179932E-002   1.2371614478325030E-002   0.0000000000000000     
  -1.8577081686037816E-002   1.5684987641899656E-002   0.0000000000000000     
  -2.1643453195018435E-002   1.9169165668159842E-002   0.0000000000000000     
  -2.4626831691121790E-002   2.2824148557105597E-002   0.0000000000000000     
  -1.4955006480281065E-002   2.0169697432552747E-002   0.0000000000000000     
  -1.6856443758467388E-002   2.4030121332687726E-002   0.0000000000000000     
  -1.8716647705435307E-002   2.8114066737228344E-002   0.0000000000000000     
  -2.0535618321184813E-002   3.2421533646174588E-002   0.0000000000000000     
  -2.2313355605715922E-002   3.6952522059526469E-002   0.0000000000000000     
  -1.7127145158267479E-002   2.0675367249101361E-002   0.0000000000000000     
  -1.9291804925119095E-002   2.4558569300272282E-002   0.0000000000000000     
  -2.1402531111704010E-002   2.8655780891970024E-002   0.0000000000000000     
  -2.3459323718022229E-002   3.2967002024194600E-002   0.0000000000000000     
  -2.5462182744073743E-002   3.7492232696945994E-002   0.0000000000000000     
  -1.9463162252736404E-002   2.1286332375376374E-002   0.0000000000000000     
  -2.1882761994680932E-002   2.5175143858767384E-002   0.0000000000000000     
  -2.4238650349128567E-002   2.9273586934356388E-002   0.0000000000000000     
  -2.6530827316079298E-002   3.3581661602143383E-002   0.0000000000000000     
  -2.8759292895533129E-002   3.8099367862128357E-002   0.0000000000000000     
  -2.1963057763687840E-002   2.2002592811377782E-002   0.0000000000000000     
  -2.4629314967152902E-002   2.5879845008173044E-002   0.0000000000000000     
  -2.7225005417708961E-002   2.9967484864387429E-002   0.0000000000000000     
  -2.9750129115356020E-002   3.4265512380020943E-002   0.0000000000000000     
  -3.2204686060094072E-002   3.8773927555073584E-002   0.0000000000000000     
  -2.4626831691121790E-002   2.2824148557105597E-002   0.0000000000000000     
  -2.7531463842535010E-002   2.6672672748489255E-002   0.0000000000000000     
  -3.0361596317445207E-002   3.0737474682063153E-002   0.0000000000000000     
  -3.3117229115852395E-002   3.5018554357827275E-002   0.0000000000000000     
  -3.5798362237756579E-002   3.9515911775781655E-002   0.0000000000000000     
  -2.2313355605715922E-002   3.6952522059526469E-002   0.0000000000000000     
  -2.4046901817518021E-002   4.1698397944829484E-002   0.0000000000000000     
  -2.5733299215080531E-002   4.6650527269629129E-002   0.0000000000000000     
  -2.7372547798403431E-002   5.1808910033925418E-002   0.0000000000000000     
  -2.8964647567486745E-002   5.7173546237718351E-002   0.0000000000000000     
  -2.5462182744073743E-002   3.7492232696945994E-002   0.0000000000000000     
  -2.7411470678882981E-002   4.2227425859855790E-002   0.0000000000000000     
  -2.9307550011474358E-002   4.7168534462555547E-002   0.0000000000000000     
  -3.1150420741847866E-002   5.2315558505045275E-002   0.0000000000000000     
  -3.2940082870003523E-002   5.7668497987324978E-002   0.0000000000000000     
  -2.8759292895533129E-002   3.8099367862128357E-002   0.0000000000000000     
  -3.0925919556582492E-002   4.2824071659731483E-002   0.0000000000000000     
  -3.3032579768319810E-002   4.7753138940372905E-002   0.0000000000000000     
  -3.5079273530745095E-002   5.2886569704052616E-002   0.0000000000000000     
  -3.7066000843858346E-002   5.8224363950770595E-002   0.0000000000000000     
  -3.2204686060094072E-002   3.8773927555073584E-002   0.0000000000000000     
  -3.4590248450616562E-002   4.3488335344456591E-002   0.0000000000000000     
  -3.6908388485616908E-002   4.8404340703081201E-002   0.0000000000000000     
  -3.9159106165095124E-002   5.3521943630947408E-002   0.0000000000000000     
  -4.1342401489051210E-002   5.8841144128055224E-002   0.0000000000000000     
  -3.5798362237756579E-002   3.9515911775781655E-002   0.0000000000000000     
  -3.8404457360985175E-002   4.4220216914031094E-002   0.0000000000000000     
  -4.0934976163365631E-002   4.9122139750680437E-002   0.0000000000000000     
  -4.3389918644897947E-002   5.4221680285729677E-002   0.0000000000000000     
  -4.5769284805582108E-002   5.9518838519178829E-002   0.0000000000000000     
  -2.8964647567486745E-002   5.7173546237718351E-002   0.0000000000000000     
  -3.0509499248541742E-002   6.2731731876746410E-002   0.0000000000000000     
  -3.2007003567779725E-002   6.8470762946748129E-002   0.0000000000000000     
  -3.3457160525200695E-002   7.4390639447723450E-002   0.0000000000000000     
  -3.4859970120804641E-002   8.0491361379672444E-002   0.0000000000000000     
  -3.2940082870003523E-002   5.7668497987324978E-002   0.0000000000000000     
  -3.4676290854183230E-002   6.3214215349195982E-002   0.0000000000000000     
  -3.6358799152628886E-002   6.8939573030459556E-002   0.0000000000000000     
  -3.7987607765340506E-002   7.4844571031115747E-002   0.0000000000000000     
  -3.9562716692318090E-002   8.0929209351164544E-002   0.0000000000000000     
  -3.7066000843858346E-002   5.8224363950770595E-002   0.0000000000000000     
  -3.8992956819238860E-002   6.3753919051196678E-002   0.0000000000000000     
  -4.0860336568465938E-002   6.9462632376000630E-002   0.0000000000000000     
  -4.2668140091539589E-002   7.5350503925182485E-002   0.0000000000000000     
  -4.4416367388459804E-002   8.1417533698742217E-002   0.0000000000000000     
  -4.1342401489051210E-002   5.8841144128055224E-002   0.0000000000000000     
  -4.3459497143708635E-002   6.4350842982748555E-002   0.0000000000000000     
  -4.5511615815290882E-002   7.0039940983371393E-002   0.0000000000000000     
  -4.7498757503797936E-002   7.5908438129923664E-002   0.0000000000000000     
  -4.9420922209229806E-002   8.1956334422405408E-002   0.0000000000000000     
  -4.5769284805582108E-002   5.9518838519178829E-002   0.0000000000000000     
  -4.8075911827592556E-002   6.5004987143851611E-002   0.0000000000000000     
  -5.0312636893103703E-002   7.0671498852571762E-002   0.0000000000000000     
  -5.2479460002115536E-002   7.6518373645339283E-002   0.0000000000000000     
  -5.4576381154628081E-002   8.2545611522154200E-002   0.0000000000000000     
  -3.4859970120804641E-002   8.0491361379672444E-002   0.0000000000000000     
  -3.6211737379516648E-002   8.6762289706821177E-002   0.0000000000000000     
  -3.7508767326261773E-002   9.3192785393395774E-002   0.0000000000000000     
  -3.8751059961040009E-002   9.9782848439396235E-002   0.0000000000000000     
  -3.9938615283851363E-002  0.10653247884482256        0.0000000000000000     
  -3.9562716692318090E-002   8.0929209351164544E-002   0.0000000000000000     
  -4.1080674557555902E-002   8.7183450366657422E-002   0.0000000000000000     
  -4.2538029985048256E-002   9.3597256453645861E-002   0.0000000000000000     
  -4.3934782974795146E-002  0.10017062761212989        0.0000000000000000     
  -4.5270933526796557E-002  0.10690356384210943        0.0000000000000000     
  -4.4416367388459804E-002   8.1417533698742217E-002   0.0000000000000000     
  -4.6101428148570871E-002   8.7653829132295399E-002   0.0000000000000000     
  -4.7719732061217088E-002   9.4049497661457593E-002   0.0000000000000000     
  -4.9271279126398462E-002  0.10060453928622885        0.0000000000000000     
  -5.0756069344114987E-002  0.10731895400660911        0.0000000000000000     
  -4.9420922209229806E-002   8.1956334422405408E-002   0.0000000000000000     
  -5.1273998152561562E-002   8.8173426003735067E-002   0.0000000000000000     
  -5.3053873554768281E-002   9.4549509016830971E-002   0.0000000000000000     
  -5.4760548415849965E-002  0.10108458346169316        0.0000000000000000     
  -5.6394022735806612E-002  0.10777864933832161        0.0000000000000000     
  -5.4576381154628081E-002   8.2545611522154200E-002   0.0000000000000000     
  -5.6598384569527954E-002   8.8742240980976425E-002   0.0000000000000000     
  -5.8540454465701816E-002   9.5097290519765967E-002   0.0000000000000000     
  -6.0402590843149646E-002  0.10161076013852280        0.0000000000000000     
  -6.2184793701871480E-002  0.10828264983724695        0.0000000000000000     
  -3.9938615283851363E-002  0.10653247884482256        0.0000000000000000     
  -4.1076181590980587E-002  0.11342810017823328        0.0000000000000000     
  -4.2168507178712449E-002  0.12045613600818685        0.0000000000000000     
  -4.3215592047046940E-002  0.12761658633468331        0.0000000000000000     
  -4.4217436195984068E-002  0.13490945115772265        0.0000000000000000     
  -4.5270933526796557E-002  0.10690356384210943        0.0000000000000000     
  -4.6550758188845666E-002  0.11378229245565301        0.0000000000000000     
  -4.7778533508735593E-002  0.12079304076482908        0.0000000000000000     
  -4.8954259486466360E-002  0.12793580876963764        0.0000000000000000     
  -5.0077936122037967E-002  0.13521059647007871        0.0000000000000000     
  -5.0756069344114987E-002  0.10731895400660911        0.0000000000000000     
  -5.2178630765616615E-002  0.11417900278876041        0.0000000000000000     
  -5.3543491442153340E-002  0.12117094659884473        0.0000000000000000     
  -5.4850651373725141E-002  0.12829478543686210        0.0000000000000000     
  -5.6100110560332032E-002  0.13555051930281248        0.0000000000000000     
  -5.6394022735806612E-002  0.10777864933832161        0.0000000000000000     
  -5.7959799321293450E-002  0.11461823117755547        0.0000000000000000     
  -5.9463380978965662E-002  0.12158985351023384        0.0000000000000000     
  -6.0904767708823249E-002  0.12869351633635667        0.0000000000000000     
  -6.2283959510866238E-002  0.13592921965592406        0.0000000000000000     
  -6.2184793701871480E-002  0.10828264983724695        0.0000000000000000     
  -6.3894263855876154E-002  0.11509997762203820        0.0000000000000000     
  -6.5538202119172564E-002  0.12204976149899635        0.0000000000000000     
  -6.7116608491760724E-002  0.12913200146812137        0.0000000000000000     
  -6.8629482973640618E-002  0.13634669752941331        0.0000000000000000     
  -4.4217436195984068E-002  0.13490945115772265        0.0000000000000000     
  -4.5166619470224045E-002  0.14232525289426023        0.0000000000000000     
  -4.6055721714467132E-002  0.14985451396125143        0.0000000000000000     
  -4.6884742928713315E-002  0.15749723435869628        0.0000000000000000     
  -4.7653683112962586E-002  0.16525341408659469        0.0000000000000000     
  -5.0077936122037967E-002  0.13521059647007871        0.0000000000000000     
  -5.1142797336790217E-002  0.14260799332275206        0.0000000000000000     
  -5.2142077052062953E-002  0.15011858878425749        0.0000000000000000     
  -5.3075775267856166E-002  0.15774238285459505        0.0000000000000000     
  -5.3943891984169864E-002  0.16547937553376466        0.0000000000000000     
  -5.6100110560332032E-002  0.13555051930281248        0.0000000000000000     
  -5.7285166107139095E-002  0.14292852169718062        0.0000000000000000     
  -5.8399115119311444E-002  0.15041916612045117        0.0000000000000000     
  -5.9441957596849067E-002  0.15802245257262415        0.0000000000000000     
  -6.0413693539751970E-002  0.16573838105369953        0.0000000000000000     
  -6.2283959510866238E-002  0.13592921965592406        0.0000000000000000     
  -6.3593725781270677E-002  0.14328683801754594        0.0000000000000000     
  -6.4826835916212577E-002  0.15075624596983248        0.0000000000000000     
  -6.5983289915692009E-002  0.15833744351278362        0.0000000000000000     
  -6.7063087779708902E-002  0.16603043064639936        0.0000000000000000     
  -6.8629482973640618E-002  0.13634669752941331        0.0000000000000000     
  -7.0068476359184950E-002  0.14368294228384804        0.0000000000000000     
  -7.1425239442766394E-002  0.15112982833240141        0.0000000000000000     
  -7.2699772224384993E-002  0.15868735567507342        0.0000000000000000     
  -7.3892074704040689E-002  0.16635552431186407        0.0000000000000000     
   0.0000000000000000        0.0000000000000000        0.0000000000000000     
  -2.8800793070017615E-003   1.7448333004685330E-003   0.0000000000000000     
  -5.8726656809098138E-003   3.8646187635307063E-003   0.0000000000000000     
  -8.9777591217241569E-003   6.3593563891865199E-003   0.0000000000000000     
  -1.2195359629444789E-002   9.2290461774359751E-003   0.0000000000000000     
   0.0000000000000000        0.0000000000000000        0.0000000000000000     
  -3.2832175312776505E-003   1.9993500008731752E-003   0.0000000000000000     
  -6.6769804189486786E-003   4.3309198249585562E-003   0.0000000000000000     
  -1.0181288663013084E-002   6.9947094722561422E-003   0.0000000000000000     
  -1.3796142263470866E-002   9.9907189427659356E-003   0.0000000000000000     
   0.0000000000000000        0.0000000000000000        0.0000000000000000     
  -3.9535694948545025E-003   2.4251211717326296E-003   0.0000000000000000     
  -7.9106321494999670E-003   5.0628884670388934E-003   0.0000000000000000     
  -1.1871187963936394E-002   7.9133018859187925E-003   0.0000000000000000     
  -1.5835236938163785E-002   1.0976361428372324E-002   0.0000000000000000     
   0.0000000000000000        0.0000000000000000        0.0000000000000000     
  -4.8911351977323171E-003   3.0221468130468966E-003   0.0000000000000000     
  -9.5736208725636807E-003   6.0605246897717192E-003   0.0000000000000000     
  -1.4047457024494094E-002   9.1151336301744657E-003   0.0000000000000000     
  -1.8312643653523555E-002   1.2185973634255139E-002   0.0000000000000000     
   0.0000000000000000        0.0000000000000000        0.0000000000000000     
  -6.0959146399110938E-003   3.7904269248159764E-003   0.0000000000000000     
  -1.1665946588139818E-002   7.3238284931570318E-003   0.0000000000000000     
  -1.6710095844686176E-002   1.0600204705023167E-002   0.0000000000000000     
  -2.1228362409550165E-002   1.3619555560414380E-002   0.0000000000000000     
  -1.2195359629444789E-002   9.2290461774359751E-003   0.0000000000000000     
  -1.5427717164179932E-002   1.2371614478325030E-002   0.0000000000000000     
  -1.8577081686037816E-002   1.5684987641899656E-002   0.0000000000000000     
  -2.1643453195018435E-002   1.9169165668159842E-002   0.0000000000000000     
  -2.4626831691121790E-002   2.2824148557105597E-002   0.0000000000000000     
  -1.3796142263470866E-002   9.9907189427659356E-003   0.0000000000000000     
  -1.7404441216926345E-002   1.3220971416130791E-002   0.0000000000000000     
  -2.0889085519983842E-002   1.6587490071993567E-002   0.0000000000000000     
  -2.4250075172643361E-002   2.0090274910354262E-002   0.0000000000000000     
  -2.7487410174904903E-002   2.3729325931212877E-002   0.0000000000000000     
  -1.5835236938163785E-002   1.0976361428372324E-002   0.0000000000000000     
  -1.9730988754802187E-002   1.4210903995551359E-002   0.0000000000000000     
  -2.3486653096471667E-002   1.7575766488607762E-002   0.0000000000000000     
  -2.7102229963172200E-002   2.1070948907541541E-002   0.0000000000000000     
  -3.0577719354903818E-002   2.4696451252352685E-002   0.0000000000000000     
  -1.8312643653523555E-002   1.2185973634255139E-002   0.0000000000000000     
  -2.2407359777807476E-002   1.5341412216586733E-002   0.0000000000000000     
  -2.6369784415501279E-002   1.8649816891742242E-002   0.0000000000000000     
  -3.0199917566604968E-002   2.2111187659721674E-002   0.0000000000000000     
  -3.3897759231118541E-002   2.5725524520525019E-002   0.0000000000000000     
  -2.1228362409550165E-002   1.3619555560414380E-002   0.0000000000000000     
  -2.5433554285942201E-002   1.6612496079236917E-002   0.0000000000000000     
  -2.9538479477072693E-002   1.9809641281397009E-002   0.0000000000000000     
  -3.3543137982941645E-002   2.3210991166894672E-002   0.0000000000000000     
  -3.7447529803549061E-002   2.6816545735729887E-002   0.0000000000000000     
  -2.4626831691121790E-002   2.2824148557105597E-002   0.0000000000000000     
  -2.7531463842535010E-002   2.6672672748489255E-002   0.0000000000000000     
  -3.0361596317445207E-002   3.0737474682063153E-002   0.0000000000000000     
  -3.3117229115852395E-002   3.5018554357827275E-002   0.0000000000000000     
  -3.5798362237756579E-002   3.9515911775781655E-002   0.0000000000000000     
  -2.7487410174904903E-002   2.3729325931212877E-002   0.0000000000000000     
  -3.0624217711506849E-002   2.7547151729789041E-002   0.0000000000000000     
  -3.3683624967187589E-002   3.1586260901302392E-002   0.0000000000000000     
  -3.6665631941947129E-002   3.5846653445752927E-002   0.0000000000000000     
  -3.9570238635785453E-002   4.0328329363140639E-002   0.0000000000000000     
  -3.0577719354903818E-002   2.4696451252352685E-002   0.0000000000000000     
  -3.3942585664748039E-002   2.8496806602145423E-002   0.0000000000000000     
  -3.7226293285786388E-002   3.2516548036023982E-002   0.0000000000000000     
  -4.0428842218018873E-002   3.6755675553988384E-002   0.0000000000000000     
  -4.3550232461445522E-002   4.1214189156038590E-002   0.0000000000000000     
  -3.3897759231118541E-002   2.5725524520525019E-002   0.0000000000000000     
  -3.7486567702258562E-002   2.9521637365558406E-002   0.0000000000000000     
  -4.0989601273241603E-002   3.3528336086227947E-002   0.0000000000000000     
  -4.4406859944067671E-002   3.7745620682533655E-002   0.0000000000000000     
  -4.7738343714736758E-002   4.2173491154475523E-002   0.0000000000000000     
  -3.7447529803549061E-002   2.6816545735729887E-002   0.0000000000000000     
  -4.1256163824038433E-002   3.0621644020027986E-002   0.0000000000000000     
  -4.4973548929553235E-002   3.4621625051914275E-002   0.0000000000000000     
  -4.8599685120093487E-002   3.8816488831388760E-002   0.0000000000000000     
  -5.2134572395659190E-002   4.3206235358451438E-002   0.0000000000000000     
  -3.5798362237756579E-002   3.9515911775781655E-002   0.0000000000000000     
  -3.8404457360985175E-002   4.4220216914031094E-002   0.0000000000000000     
  -4.0934976163365631E-002   4.9122139750680437E-002   0.0000000000000000     
  -4.3389918644897947E-002   5.4221680285729677E-002   0.0000000000000000     
  -4.5769284805582108E-002   5.9518838519178829E-002   0.0000000000000000     
  -3.9570238635785453E-002   4.0328329363140639E-002   0.0000000000000000     
  -4.2394476715166239E-002   4.5017936155866994E-002   0.0000000000000000     
  -4.5135377846553158E-002   4.9902121326333440E-002   0.0000000000000000     
  -4.7792942029946189E-002   5.4980884874539983E-002   0.0000000000000000     
  -5.0367169265345346E-002   6.0254226800486636E-002   0.0000000000000000     
  -4.3550232461445522E-002   4.1214189156038590E-002   0.0000000000000000     
  -4.6586236940637654E-002   4.5879712857376256E-002   0.0000000000000000     
  -4.9532628580166646E-002   5.0739870673203034E-002   0.0000000000000000     
  -5.2389407380032511E-002   5.5794662603518903E-002   0.0000000000000000     
  -5.5156573340235215E-002   6.1044088648323863E-002   0.0000000000000000     
  -4.7738343714736758E-002   4.2173491154475523E-002   0.0000000000000000     
  -5.0979738037399393E-002   4.6805547018558935E-002   0.0000000000000000     
  -5.4126728364206102E-002   5.1635387791289213E-002   0.0000000000000000     
  -5.7179314695156878E-002   5.6663013472666404E-002   0.0000000000000000     
  -6.0137497030251716E-002   6.1888424062690503E-002   0.0000000000000000     
  -5.2134572395659190E-002   4.3206235358451438E-002   0.0000000000000000     
  -5.5574980005451483E-002   4.7795438639414961E-002   0.0000000000000000     
  -5.8917677198671518E-002   5.2588672680591995E-002   0.0000000000000000     
  -6.2162663975319311E-002   5.7585937481982527E-002   0.0000000000000000     
  -6.5309940335394834E-002   6.2787233043586563E-002   0.0000000000000000     
  -4.5769284805582108E-002   5.9518838519178829E-002   0.0000000000000000     
  -4.8075911827592556E-002   6.5004987143851611E-002   0.0000000000000000     
  -5.0312636893103703E-002   7.0671498852571762E-002   0.0000000000000000     
  -5.2479460002115536E-002   7.6518373645339283E-002   0.0000000000000000     
  -5.4576381154628081E-002   8.2545611522154200E-002   0.0000000000000000     
  -5.0367169265345346E-002   6.0254226800486636E-002   0.0000000000000000     
  -5.2862416723384487E-002   6.5715431863092547E-002   0.0000000000000000     
  -5.5283041574697468E-002   7.1357784821276887E-002   0.0000000000000000     
  -5.7629043819284298E-002   7.7181285675039651E-002   0.0000000000000000     
  -5.9900423457144955E-002   8.3185934424380867E-002   0.0000000000000000     
  -5.5156573340235215E-002   6.1044088648323863E-002   0.0000000000000000     
  -5.7839227683578298E-002   6.6481257469058114E-002   0.0000000000000000     
  -6.0442471632865251E-002   7.2099277727161876E-002   0.0000000000000000     
  -6.2966305188096067E-002   7.7898149422635121E-002   0.0000000000000000     
  -6.5410728349270766E-002   8.3877872555477836E-002   0.0000000000000000     
  -6.0137497030251716E-002   6.1888424062690503E-002   0.0000000000000000     
  -6.3006344708173984E-002   6.7302463961748327E-002   0.0000000000000000     
  -6.5790927067607030E-002   7.2895977570226714E-002   0.0000000000000000     
  -6.8491244108550856E-002   7.8668964888125623E-002   0.0000000000000000     
  -7.1107295831005474E-002   8.4621425915445123E-002   0.0000000000000000     
  -6.5309940335394834E-002   6.2787233043586563E-002   0.0000000000000000     
  -6.8363767797171543E-002   6.8179051341163144E-002   0.0000000000000000     
  -7.1328407878922806E-002   7.3747884350471388E-002   0.0000000000000000     
  -7.4203860580648665E-002   7.9493732071511211E-002   0.0000000000000000     
  -7.6990125902349105E-002   8.5416594504282670E-002   0.0000000000000000     
  -5.4576381154628081E-002   8.2545611522154200E-002   0.0000000000000000     
  -5.6598384569527954E-002   8.8742240980976425E-002   0.0000000000000000     
  -5.8540454465701816E-002   9.5097290519765967E-002   0.0000000000000000     
  -6.0402590843149646E-002  0.10161076013852280        0.0000000000000000     
  -6.2184793701871480E-002  0.10828264983724695        0.0000000000000000     
  -5.9900423457144955E-002   8.3185934424380867E-002   0.0000000000000000     
  -6.2091159740655953E-002   8.9360167353116721E-002   0.0000000000000000     
  -6.4195231922193743E-002   9.5692420745063456E-002   0.0000000000000000     
  -6.6212640001758319E-002  0.10218269460022106        0.0000000000000000     
  -6.8143383979349728E-002  0.10883098891858957        0.0000000000000000     
  -6.5410728349270766E-002   8.3877872555477836E-002   0.0000000000000000     
  -6.7768896007131416E-002   9.0027098409253201E-002   0.0000000000000000     
  -7.0033963052420087E-002   9.6334478267524323E-002   0.0000000000000000     
  -7.2205929485136780E-002  0.10280001213029123        0.0000000000000000     
  -7.4284795305281523E-002  0.10942369999755389        0.0000000000000000     
  -7.1107295831005474E-002   8.4621425915445123E-002   0.0000000000000000     
  -7.3631593368954307E-002   9.0743034149385851E-002   0.0000000000000000     
  -7.6056647856380832E-002   9.7023463087148598E-002   0.0000000000000000     
  -7.8382459293285037E-002  0.10346271272873327        0.0000000000000000     
  -8.0609027679666906E-002  0.11006078307413997        0.0000000000000000     
  -7.6990125902349105E-002   8.5416594504282670E-002   0.0000000000000000     
  -7.9679251826124689E-002   9.1507974573514686E-002   0.0000000000000000     
  -8.2263286334076008E-002   9.7759375203936211E-002   0.0000000000000000     
  -8.4742229426203047E-002  0.10417079639554723        0.0000000000000000     
  -8.7116081102505835E-002  0.11074223814834776        0.0000000000000000     
  -6.2184793701871480E-002  0.10828264983724695        0.0000000000000000     
  -6.3894263855876154E-002  0.11509997762203820        0.0000000000000000     
  -6.5538202119172564E-002  0.12204976149899635        0.0000000000000000     
  -6.7116608491760724E-002  0.12913200146812137        0.0000000000000000     
  -6.8629482973640618E-002  0.13634669752941331        0.0000000000000000     
  -6.8143383979349728E-002  0.10883098891858957        0.0000000000000000     
  -6.9996366273405830E-002  0.11562469800329578        0.0000000000000000     
  -7.1780489302364595E-002  0.12255121615746657        0.0000000000000000     
  -7.3495753066226008E-002  0.12961054338110195        0.0000000000000000     
  -7.5142157564990070E-002  0.13680267967420190        0.0000000000000000     
  -7.4284795305281523E-002  0.10942369999755389        0.0000000000000000     
  -7.6280448477923604E-002  0.11619284820241541        0.0000000000000000     
  -7.8202776968132270E-002  0.12309476307797880        0.0000000000000000     
  -8.0051780775907591E-002  0.13012944462424414        0.0000000000000000     
  -8.1827459901249483E-002  0.13729689284121138        0.0000000000000000     
  -8.0609027679666906E-002  0.11006078307413997        0.0000000000000000     
  -8.2746510469429435E-002  0.11680442821939706        0.0000000000000000     
  -8.4805065116475606E-002  0.12368040226053308        0.0000000000000000     
  -8.6784691620805418E-002  0.13068870519754794        0.0000000000000000     
  -8.8685389982418872E-002  0.13782933703044176        0.0000000000000000     
  -8.7116081102505835E-002  0.11074223814834776        0.0000000000000000     
  -8.9394552247923351E-002  0.11745943805424081        0.0000000000000000     
  -9.1587353747394573E-002  0.12430813370512935        0.0000000000000000     
  -9.3694485600919544E-002  0.13128832510101343        0.0000000000000000     
  -9.5715947808498222E-002  0.13840001224189297        0.0000000000000000     
  -6.8629482973640618E-002  0.13634669752941331        0.0000000000000000     
  -7.0068476359184950E-002  0.14368294228384804        0.0000000000000000     
  -7.1425239442766394E-002  0.15112982833240141        0.0000000000000000     
  -7.2699772224384993E-002  0.15868735567507342        0.0000000000000000     
  -7.3892074704040689E-002  0.16635552431186407        0.0000000000000000     
  -7.5142157564990070E-002  0.13680267967420190        0.0000000000000000     
  -7.6710054489333768E-002  0.14411608283710950        0.0000000000000000     
  -7.8189795529934089E-002  0.15153921067016773        0.0000000000000000     
  -7.9581380686791048E-002  0.15907206317337663        0.0000000000000000     
  -8.0884809959904630E-002  0.16671464034673616        0.0000000000000000     
  -8.1827459901249483E-002  0.13729689284121138        0.0000000000000000     
  -8.3519096820168934E-002  0.14458550801835296        0.0000000000000000     
  -8.5115974008676834E-002  0.15198369044514123        0.0000000000000000     
  -8.6618091466773225E-002  0.15949144012157626        0.0000000000000000     
  -8.8025449194458080E-002  0.16710875704765799        0.0000000000000000     
  -8.8685389982418872E-002  0.13782933703044176        0.0000000000000000     
  -9.0495603351690462E-002  0.14509121782757842        0.0000000000000000     
  -9.2203774878994685E-002  0.15246326765732190        0.0000000000000000     
  -9.3809904564331525E-002  0.15994548651967228        0.0000000000000000     
  -9.5313992407701026E-002  0.16753787441462953        0.0000000000000000     
  -9.5715947808498222E-002  0.13840001224189297        0.0000000000000000     
  -9.7639574083898339E-002  0.14563321226478584        0.0000000000000000     
  -9.9453198140887572E-002  0.15297794230670977        0.0000000000000000     
 -0.10115681997946595       0.16043420236766476        0.0000000000000000     
 -0.10275043959963345       0.16800199244765082        0.0000000000000000     
 </DataArray>
 <DataArray  type="Float64" Name="stress" NumberOfComponents="3" format="ascii">
   13416487354.503950        4024946206.3511848        2893986168.4343100     
   11766437464.460281        1890429133.1328721        1715836013.3660045     
   10313668903.823322        413516491.27024317        810752993.19301224     
   9058181672.5930672       -405791719.23670149        178737107.91533208     
   7999975770.7695141       -567495498.38796234       -180211642.46703383     
   10539871562.134722        3161961468.6404161        2225746176.9292421     
   9667547231.4983177        1589570646.5151632        1446712447.3076177     
   8943866182.4575005        512657429.70853376        863140570.54402232     
   8368828415.0122719       -68778181.779474258        475030546.63845634     
   7942433929.1626272       -154736187.94886065        282382375.59092081     
   8337912084.1864071        2501373625.2559223        1712343219.7002289     
   8021583935.7078838        1424590241.0489142        1275681526.4123149     
   7805261021.0138283        681157636.12346697        956876403.94514620     
   7688943340.1042414        271075810.47957945        755927852.29872191     
   7672630892.9791231        194344764.11725330        672835871.47304380     
   6810608920.6590052        2043182676.1977017        1353777296.7472718     
   6828547577.0889816        1395487916.7341242        1202743250.6800954     
   6897853419.4923048        919017110.51504540        1091960493.3963811     
   7018526447.8689795        613770257.54046464        1021429024.8961275     
   7190566662.2190046        479747357.81038427        991148845.17933667     
   5957962071.5525188        1787388621.4657557        1150048408.0703697     
   6088438155.6416101        1502263673.5707941        1227897620.1109605     
   6221643377.8929310        1226235852.8832688        1268392838.8977284     
   6357577738.3064833        959305159.40318072        1271534064.4306738     
   6496241236.8822680        701471593.13052988        1237321296.7097974     
   7999975770.7695141       -567495498.38796234       -180211642.46703383     
   7917672851.5637665       -200131776.69190216       -78323734.289594904     
   7793888562.9921818        28960713.784694195       -9030933.4162453543     
   7628622905.0547590        119781973.04183102        27666760.153022006     
   7421875877.7514973        72332001.079503059        31769346.418203179     
   7942433929.1626272       -154736187.94886065        282382375.59092081     
   7739776495.8174534        16404548.473407269        281087160.53147084     
   7513735754.6175585        109600925.37994528        265088884.65511733     
   7264311705.5629435        124852942.77074766        234387547.96185189     
   6991504348.6536074        62160600.645817757        188983150.45168096     
   7672630892.9791231        194344764.11725330        672835871.47304380     
   7400739078.3150272        184598555.11188269        589471938.27301610     
   7123562017.3073311        157234858.29451132        509296990.74325693     
   6841099709.9560337        112253673.66513610        432311028.88377041     
   6553352156.2611361        49655001.223760605        358514052.69455320     
   7190566662.2190046        479747357.81038427        991148845.17933667     
   6900560599.0564947        304450243.22352576        846830598.93503380     
   6623367351.0615082        171862512.52839947        723593384.84817767     
   6358986918.2340374        81984165.724999189        621437202.91877365     
   6107419300.5740871        34815202.813330412        540362053.14681411     
   6496241236.8822680        701471593.13052988        1237321296.7097974     
   6239241058.0418558        375959612.80833769        1053163142.5175264     
   6013151755.8800831        153483888.08160806        907978066.96987987     
   5817973330.3969488        34044418.950335264        801766070.06686139     
   5653705781.5924520        17641205.414523363        734527151.80846918     
   7421875877.7514973        72332001.079503059        31769346.418203179     
   7219476781.3606701       -18338597.479049206        14870026.458041688     
   7029201907.6082344       -68595120.576301575        2329783.3478206438     
   6851051256.4942026       -78437568.212213993       -5851382.9124594722     
   6685024828.0185566       -47865940.386828423       -9673472.3227994610     
   6991504348.6536074        62160600.645817757        188983150.45168096     
   6809027674.5011339        2864381.2854113579        180640027.00036997     
   6634305902.4478531       -30582164.411021709        176022525.52904674     
   6467339032.4937716       -38179036.443458080        175130646.03771263     
   6308127064.6388836       -19926234.811912298        177964388.52637079     
   6553352156.2611361        49655001.223760605        358514052.69455320     
   6388988033.2900124        21190199.744386911        353629585.12302220     
   6228009491.8788815        4010670.1316711903        351837284.66153687     
   6070416532.0277500       -1883587.6143815517        353137151.31008554     
   5916209153.7366190        3507426.5062282085        357529185.06867141     
   6107419300.5740871        34815202.813330412        540362053.14681411     
   5959357857.7273045        36638857.897893429        533838700.82600701     
   5810312675.9013233        35183383.051793575        529774060.74528611     
   5660283755.0961418        30448778.275021315        528168132.90465271     
   5509271095.3117609        22435043.567584991        529020917.30411029     
   5653705781.5924520        17641205.414523363        734527151.80846918     
   5520137147.8130121        49210355.745924950        721267374.10931706     
   5381215454.5151758        62935974.349334002        709832853.78029871     
   5236940701.6989412        58818061.224744797        700223590.82141912     
   5087312889.3643093        36856616.372168541        692439585.23267901     
   6685024828.0185566       -47865940.386828423       -9673472.3227994610     
   6508960976.2121649       -9398780.3025498390       -3613840.6687236968     
   6327964171.6078920        12625203.788791418        4339245.5031225309     
   6142034414.2057276        18206011.887163162        14185786.192751711     
   5951171704.0056868        7343643.9926044941        25925781.400148153     
   6308127064.6388836       -19926234.811912298        177964388.52637079     
   6133099162.4741182        832998.09217333794        174702857.40179560     
   5955097376.8247709        11679286.047642231        174431200.83304986     
   5774121707.6908369        12612629.054490566        177149418.82013124     
   5590172155.0723219        3633027.1127369404        182857511.36304951     
   5916209153.7366190        3507426.5062282085        357529185.06867141     
   5745349829.8936424        7498520.8341605663        347232072.03096288     
   5573475691.8793869        8106901.2578208447        341021253.58713430     
   5400586739.6938410        5332567.7771866322        338896729.73719704     
   5226682973.3370113       -824479.60771727562        340858500.48114848     
   5509271095.3117609        22435043.567584991        529020917.30411029     
   5345712978.4707365        10597787.923426867        513973803.21877652     
   5183099116.7717295        1908049.4193165302        504109403.76538885     
   5021429510.2147379       -3634171.9447391033        499427718.94394654     
   4860704158.7997580       -6028876.1687531471        499928748.75444400     
   5087312889.3643093        36856616.372168541        692439585.23267901     
   4934188608.2053995        10130799.359959126        674928050.96524394     
   4783967651.5018034       -6917269.4678688049        663695651.36780715     
   4636650019.2535238       -14287590.111311436        658742386.44037080     
   4492235711.4605579       -11980162.570376158        660068256.18294001     
   5951171704.0056868        7343643.9926044941        25925781.400148153     
   5776774522.5839825       -3181063.0599498749        20491962.367217373     
   5604276009.7020226       -7376874.9800250530        18717685.426852386     
   5433676165.3598137       -5243791.7676005363        20602950.579053197     
   5264974989.5573521        3218186.5773231983        26147757.823831335     
   5590172155.0723219        3633027.1127369404        182857511.36304951     
   5426734286.0904846       -1861831.3610680103        178343407.01844570     
   5264510677.5450735       -3309155.0467729568        177439266.63222855     
   5103501329.4360886       -708943.94439411163        180145090.20439661     
   4943706241.7635336        5938801.9460844994        186460877.73493627     
   5226682973.3370113       -824479.60771727562        340858500.48114848     
   5074062764.9830875       -1331985.0463328362        336465634.70432854     
   4921972408.9622736       -73316.041266679764        335633154.75171030     
   4770411905.2745600        2951527.4074749947        338361060.62328953     
   4619381253.9199514        7742545.2999033928        344649352.31907588     
   4860704158.7997580       -6028876.1687531471        499928748.75444400     
   4718759959.2617970       -1591524.1157674789        494858645.42486680     
   4576661203.9536152        2330642.0364739895        493299349.78531104     
   4434407892.8752155        5737622.2880005836        495250861.83576727     
   4292000026.0265923        8629416.6387827396        500713181.57623744     
   4492235711.4605579       -11980162.570376158        660068256.18294001     
   4360825868.9266014       -2640448.5693867207        653522439.18006027     
   4228577062.5191050        3902719.1864686012        650437851.73301756     
   4095489292.2380633        7649340.6971759796        650814493.84180605     
   3961562558.0834832        8599415.9627499580        654652365.50642347     
   5264974989.5573521        3218186.5773231983        26147757.823831335     
   5063203276.3400927        3230872.0631878376        23077915.945405398     
   4860503357.2415676        149537.94484472275        24218286.298032925     
   4656875232.2617855       -6025815.7776818275        29568868.881732490     
   4452318901.4007463       -15295189.104424000        39129663.696484238     
   4943706241.7635336        5938801.9460844994        186460877.73493627     
   4752621547.9795046        4145347.1075167656        181543883.98745251     
   4560946119.7619610        382777.49056100845        181054263.80165160     
   4368679957.1109047       -5348906.9047746658        184992017.17751375     
   4175823060.0263329       -13049706.078483820        193357144.11506772     
   4619381253.9199514        7742545.2999033928        344649352.31907588     
   4439604040.5137796        4329088.4203011990        338278923.39156044     
   4259573564.1218376        71421.588128566742        336553029.35634601     
   4079289824.7441282       -5030455.1966092587        339471670.21343201     
   3898752822.3806438       -10976541.933923244        347034845.96280187     
   4292000026.0265923        8629416.6387827396        500713181.57623744     
   4124150753.9429092        3782096.0015437603        493283034.15773219     
   3956385690.3211946       -784529.76246309280        490714582.96214056     
   3788704835.1614518       -5070460.6532268524        493007827.98946780     
   3621108188.4636803       -9075696.6707468033        500162769.23970520     
   3961562558.0834832        8599415.9627499580        654652365.50642347     
   3806261688.2669005        2504369.8512444496        646556216.28596056     
   3651382498.3600321       -2185076.5612154007        643538924.61902785     
   3496924988.3628855       -5468923.2746016979        645600490.50563037     
   3342889158.2754498       -7347170.2889504433        652740913.94577074     
   4452318901.4007463       -15295189.104424000        39129663.696484238     
   4288602512.1967592       -12730753.512633324        32430354.739672210     
   4125538610.0309944       -7991361.1267902851        31129586.804141857     
   3963127194.9034567       -1077011.9468519688        35227359.889886759     
   3801368266.8141427        8012294.0271754265        44723673.996915899     
   4175823060.0263329       -13049706.078483820        193357144.11506772     
   4025734132.3598199       -8206017.2973961830        186651845.93262231     
   3876047431.7396040       -2021571.6953082085        184504687.94480419     
   3726762958.1656780        5503630.7277517319        186915670.15161145     
   3577880711.6380548        14369589.971800804        193884792.55304599     
   3898752822.3806438       -10976541.933923244        347034845.96280187     
   3759890211.0325937       -4573943.5292282104        340031588.56413847     
   3621179566.7389207        2335211.7233657837        336746070.53345925     
   3482620889.4996171        9750923.8238775730        337178291.87074876     
   3344214179.3146777        17673192.772262335        341328252.57601219     
   3621108188.4636803       -9075696.6707468033        500162769.23970520     
   3491070748.2150984       -1834532.2081358433        492569582.63425231     
   3360935015.0289469        5078989.1292562485        487853734.57011521     
   3230700988.9052534        11664867.341489196        486015225.04730785     
   3100368669.8439927        17923102.428527117        487054054.06581813     
   3342889158.2754498       -7347170.2889504433        652740913.94577074     
   3219275743.9073124        12216.665843844414        644265828.14293826     
   3095313776.6096935        6209760.5223678350        637827680.05477381     
   2971003256.3825970        11245461.280630827        633426469.68128288     
   2846344183.2260160        15119318.940603971        631062197.02245915     
   3801368266.8141427        8012294.0271754265        44723673.996915899     
   3588045665.6868463        951136.92012476921        45239775.187128499     
   3373621328.3984394       -9782474.0572841167        51884743.325354591     
   3158095254.9489527       -24188538.904972076        64658578.411583290     
   2941467445.3383627       -42267057.622991443        83561280.445834443     
   3577880711.6380548        14369589.971800804        193884792.55304599     
   3380121623.8510165        8240410.1000194550        189582778.08872348     
   3181741350.7288785        40612.444552302361        190908758.34537697     
   2982739892.2716274       -10229802.994593143        197862733.32301101     
   2783117248.4792776       -22570836.217421055        210444703.02160442     
   3344214179.3146777        17673192.772262335        341328252.57601219     
   3160587541.3620696        12046671.084009290        332768765.08748859     
   2976820268.9003420        5951367.6987038851        329336400.09290522     
   2792912361.9295158       -612717.38363969326        331031157.59223461     
   2608863820.4495521       -7645584.1630425453        337853037.58549875     
   3100368669.8439927        17923102.428527117        487054054.06581813     
   2929443418.2199841        12369919.872062683        474797736.18341368     
   2758858082.9128451        7949791.7051701546        467167668.56789923     
   2588612663.9225731        4662717.9278522730        464163851.21927333     
   2418707161.2492013        2508698.5401613712        465786284.13753343     
   2846344183.2260160        15119318.940603971        631062197.02245915     
   2686689254.4247551        9210156.4641494751        615669691.37650383     
   2527854792.7663631        6035884.4639258385        604402563.77038515     
   2369840798.2508430        5596502.9399176836        597260814.20411980     
   2212647270.8781853        7892011.8921526670        594244442.67768610     
   5957962071.5525188        1787388621.4657557        1150048408.0703697     
   6088438155.6416101        1502263673.5707941        1227897620.1109605     
   6221643377.8929310        1226235852.8832688        1268392838.8977284     
   6357577738.3064833        959305159.40318072        1271534064.4306738     
   6496241236.8822680        701471593.13052988        1237321296.7097974     
   5434614525.6922445        1630384357.7076735        1033472571.0827962     
   5489888127.7574396        1372513079.4588711        1113861208.3820801     
   5547359989.6902914        1121969334.1022656        1167466467.4599981     
   5607030111.4908028        878753121.63785684        1194288348.3165505     
   5668898493.1589727        642864442.06564450        1194326850.9517369     
   4895209271.9034824        1468562781.5710447        936365803.19782376     
   4905482149.1803703        1247005700.1390793        1018674507.7454672     
   4917422408.0303440        1031006557.2840705        1084770449.1042016     
   4931030048.4534044        820565353.00601768        1134653627.2740264     
   4946305070.4495525        615682087.30492127        1168324042.2549427     
   4339746310.1862326        1301923893.0558698        858728104.41545272     
   4335220219.9104033        1125741535.6114182        942337518.20112109     
   4331830632.9130898        953347522.42868280        1020304783.8303369     
   4329577549.1942902        784741853.50766361        1092629901.3031006     
   4328460968.7540045        619924528.84835982        1159312870.6194108     
   3768225640.5404940        1130467692.1621482        800559474.73568249     
   3779102339.9475398        1008720585.8758879        884850239.74904203     
   3790584664.3385277        888992229.53610337        974069471.63840568     
   3802672613.7134595        771282623.14279485        1068217170.4037733     
   3815366188.0723329        655591766.69596124        1167293336.0451455     
   6496241236.8822680        701471593.13052988        1237321296.7097974     
   6239241058.0418558        375959612.80833769        1053163142.5175264     
   6013151755.8800831        153483888.08160806        907978066.96987987     
   5817973330.3969488        34044418.950335264        801766070.06686139     
   5653705781.5924520        17641205.414523363        734527151.80846918     
   5668898493.1589727        642864442.06564450        1194326850.9517369     
   5518768746.0932522        383332991.20764446        1073465730.1234635     
   5392785794.5451803        204290858.74179864        980613279.06243563     
   5290949638.5147533        105738044.66810513        915769497.76865387     
   5213260278.0019712        87674548.986565351        878934386.24211836     
   4946305070.4495525        615682087.30492127        1168324042.2549427     
   4871718872.6517229        412733101.15907264        1102868526.7695088     
   4814515389.2105484        267726496.20207071        1054457272.1739408     
   4774694620.1260300        180662272.43391657        1023090278.4682400     
   4752256565.3981628        151540429.85460806        1008767545.6524030     
   4328460968.7540045        619924528.84835982        1159312870.6194108     
   4298091437.7172680        464159942.66262352        1141371532.4556615     
   4278340539.8761921        343790800.46242630        1129510046.3043964     
   4269208275.2307758        258817102.24776959        1123728412.1656177     
   4270694643.7810230        209238848.01865268        1124026630.0393245     
   3815366188.0723329        655591766.69596124        1167293336.0451455     
   3797886441.2898831        537613515.71829486        1188974747.1819212     
   3784261246.5421023        432483771.52286041        1205771601.4538031     
   3774490603.8289924        340202534.10966241        1217683898.8607903     
   3768574513.1505532        260769803.47869682        1224711639.4028814     
   5653705781.5924520        17641205.414523363        734527151.80846918     
   5520137147.8130121        49210355.745924950        721267374.10931706     
   5381215454.5151758        62935974.349334002        709832853.78029871     
   5236940701.6989412        58818061.224744797        700223590.82141912     
   5087312889.3643093        36856616.372168541        692439585.23267901     
   5213260278.0019712        87674548.986565351        878934386.24211836     
   5077122447.8132477        85509000.266447544        855208691.23574364     
   4938881220.6986647        76332128.460123062        835466364.47936428     
   4798536596.6582165        60143933.567586899        819707405.97297788     
   4656088575.6919031        36944415.588844061        807931815.71658754     
   4752256565.3981628        151540429.85460806        1008767545.6524030     
   4619715569.8854628        117489991.40856314        978367206.36343205     
   4488320840.0394373        87260438.518097639        954108346.20431316     
   4358072375.8600845        60851771.183208227        935990965.17504668     
   4228970177.3474050        38263989.403896093        924015063.27563381     
   4270694643.7810230        209238848.01865268        1124026630.0393245     
   4147916514.0296569        145153329.17227483        1090742919.4923809     
   4029534312.5374975        95720904.523258924        1065758798.9551489     
   3915548039.3045483        60941574.071604013        1049074268.4276259     
   3805957694.3308101        40815337.817315578        1040689327.9098178     
   3768574513.1505532        260769803.47869682        1224711639.4028814     
   3661725280.2458277        168499013.55757642        1192335830.6225903     
   3562521638.1928463        101713526.47560489        1170417722.7318697     
   3470963586.9916120        60413342.232784510        1158957315.7307179     
   3387051126.6421194        44598460.829110265        1157954609.6191342     
   5087312889.3643093        36856616.372168541        692439585.23267901     
   4934188608.2053995        10130799.359959126        674928050.96524394     
   4783967651.5018034       -6917269.4678688049        663695651.36780715     
   4636650019.2535238       -14287590.111311436        658742386.44037080     
   4492235711.4605579       -11980162.570376158        660068256.18294001     
   4656088575.6919031        36944415.588844061        807931815.71658754     
   4520290653.9665461        15787752.033489466        794538588.48073220     
   4386627661.9040375        1747520.6876358986        786909006.11064065     
   4255099599.5043802       -5176278.4487109184        785043068.60631371     
   4125706466.7675767       -4983645.3755495548        788940775.96775043     
   4228970177.3474050        38263989.403896093        924015063.27563381     
   4109025787.0434947        22234630.901758671        913843682.48015070     
   3990447931.6099691        10760388.634246826        908920456.74619472     
   3873236611.0468359        3841262.6013705730        909245386.07376873     
   3757391825.3540916        1477252.8031227589        914818470.46287072     
   3805957694.3308101        40815337.817315578        1040689327.9098178     
   3700394007.4362431        29471435.964768648        1032843332.9634985     
   3595428460.6196027        20121334.371971130        1029730003.2744724     
   3491061053.8808885        12765033.038932085        1031349338.8427411     
   3387291787.2201018        7402531.9656450748        1037701339.6683021     
   3387051126.6421194        44598460.829110265        1157954609.6191342     
   3294395315.1447968        37498167.222519636        1151537539.9307759     
   3201569248.9329357        29830357.900803208        1149337645.6954761     
   3108572928.0065398        21595032.863967776        1151354926.9132280     
   3015406352.3656087        12792192.112014890        1157589383.5840433     
   4492235711.4605579       -11980162.570376158        660068256.18294001     
   4360825868.9266014       -2640448.5693867207        653522439.18006027     
   4228577062.5191050        3902719.1864686012        650437851.73301756     
   4095489292.2380633        7649340.6971759796        650814493.84180605     
   3961562558.0834832        8599415.9627499580        654652365.50642347     
   4125706466.7675767       -4983645.3755495548        788940775.96775043     
   4002349606.7067542       -320486.48942780495        781233912.79567337     
   3878611428.4183555        3071611.6381134987        777339626.99668252     
   3754491931.9023876        5192649.0070791245        777257918.57077444     
   3629991117.1588402        6042625.6174576283        780988787.51795721     
   3757391825.3540916        1477252.8031227589        914818470.46287072     
   3643091798.6728458        1765011.8463115692        906484481.04188919     
   3528868099.4099898        2307195.6174788475        902314416.81124735     
   3414720727.5655279        3103804.1166226864        902308277.77094829     
   3300649683.1394634        4154837.3437485695        906466063.92098749     
   3387291787.2201018        7402531.9656450748        1037701339.6683021     
   3283052444.8248687        3616046.4378285408        1029274143.9187121     
   3179347075.4939971        1609471.1245502234        1025362221.1767162     
   3076175679.2274914        1382806.0258152485        1025965571.4423165     
   2973538256.0253406        2936051.1416150331        1031084194.7155087     
   3015406352.3656087        12792192.112014890        1157589383.5840433     
   2922231545.1628318        5232617.2851268053        1149602901.4261422     
   2830048356.6703868        978438.15934169292        1146483040.0930884     
   2738856786.8882713        29654.734652519226        1148229799.5848837     
   2648656835.8164835        2386267.0110619068        1154843179.9015286     
   3961562558.0834832        8599415.9627499580        654652365.50642347     
   3806261688.2669005        2504369.8512444496        646556216.28596056     
   3651382498.3600321       -2185076.5612154007        643538924.61902785     
   3496924988.3628855       -5468923.2746016979        645600490.50563037     
   3342889158.2754498       -7347170.2889504433        652740913.94577074     
   3629991117.1588402        6042625.6174576283        780988787.51795721     
   3488099646.6301317        1554520.2708041668        773988249.44739759     
   3346509789.7873583       -1928206.1227376461        771852943.86824739     
   3205221546.6305203       -4405553.5631555319        774582870.78049433     
   3064234917.1596146       -5877522.0504699945        782178030.18414938     
   3300649683.1394634        4154837.3437485695        906466063.92098749     
   3171557254.5782561        1090565.5658286810        900421059.73925591     
   3042646373.4792013       -1368548.0049118996        899027662.98680091     
   2913917039.8423009       -3222503.3684693575        902285873.66362047     
   2785369253.6675553       -4471300.5248506069        910195691.76971602     
   2973538256.0253406        2936051.1416150331        1031084194.7155087     
   2856634512.1112652        1112505.7363200188        1025854647.1615316     
   2739792249.4355669       -506102.20772421360        1025063081.9746995     
   2623011467.9982371       -1919772.6905306578        1028709499.1550089     
   2506292167.7992849       -3128505.7120909691        1036793898.7024640     
   2648656835.8164835        2386267.0110619068        1154843179.9015286     
   2543331419.2291679        1620340.7822777033        1150289011.7142236     
   2437947417.6564493        659131.26881277561        1149959200.8319299     
   2332504831.0983210       -497361.52935338020        1153853747.2546573     
   2227003659.5547853       -1849137.6122102737        1161972650.9823949     
   3342889158.2754498       -7347170.2889504433        652740913.94577074     
   3219275743.9073124        12216.665843844414        644265828.14293826     
   3095313776.6096935        6209760.5223678350        637827680.05477381     
   2971003256.3825970        11245461.280630827        633426469.68128288     
   2846344183.2260160        15119318.940603971        631062197.02245915     
   3064234917.1596146       -5877522.0504699945        782178030.18414938     
   2946530945.5541291       -176556.50220751762        773749324.15311003     
   2828649406.4226694        4932517.2927911282        768212118.24171984     
   2710590299.7652297        9449699.3345290422        765566412.44997585     
   2592353625.5818176        13374989.623020291        765812206.77787888     
   2785369253.6675553       -4471300.5248506069        910195691.76971602     
   2676016331.6960907        303725.67827689648        902012848.48122561     
   2566656827.6021461        5056811.4731587172        897576067.71735907     
   2457290741.3857312        9787956.8597980738        896885349.47812068     
   2347918073.0468502        14497161.838212609        899940693.76350784     
   2506292167.7992849       -3128505.7120909691        1036793898.7024640     
   2407731902.3331861        1453063.2072988749        1029056401.1272808     
   2309336040.1481314        6582643.0634802580        1025919528.4816962     
   2211104581.2441068        12260233.856434107        1027383280.7657162     
   2113037525.6211133        18485835.586170912        1033447657.9793358     
   2227003659.5547853       -1849137.6122102737        1161972650.9823949     
   2141677657.4654336        3271456.0848780870        1154879982.0912755     
   2056687044.0606217        9510012.0637632608        1153242500.5347316     
   1972031819.3403430        16866530.324420094        1157060206.3127673     
   1887711983.3046103        25341010.866902351        1166333099.4253836     
   2846344183.2260160        15119318.940603971        631062197.02245915     
   2686689254.4247551        9210156.4641494751        615669691.37650383     
   2527854792.7663631        6035884.4639258385        604402563.77038515     
   2369840798.2508430        5596502.9399176836        597260814.20411980     
   2212647270.8781853        7892011.8921526670        594244442.67768610     
   2592353625.5818176        13374989.623020291        765812206.77787888     
   2443833207.9548082        8906198.3883122206        754602854.58262336     
   2295945989.6185293        6548071.4560496807        747500739.57961643     
   2148691970.5729823        6300608.8262209892        744505861.76887107     
   2002071150.8181696        8163810.4988399744        745618221.15037501     
   2347918073.0468502        14497161.838212609        899940693.76350784     
   2210480335.6009722        11453192.547313094        892696015.85812664     
   2073488529.5936933        9895661.3850737810        889540434.29741275     
   1936942655.0250080        9824568.3514786959        890473949.08135736     
   1800842711.8949256        11239913.446552038        895496560.20997357     
   2113037525.6211133        18485835.586170912        1033447657.9793358     
   1986630637.3632560        16851138.941147447        1029949175.2030146     
   1860482412.6918585        16078654.250994444        1030521647.9237578     
   1734592851.6069152        16168381.515713096        1035165076.1415775     
   1608961954.1084445        17120320.735299587        1043879459.8564702     
   1887711983.3046103        25341010.866902351        1166333099.4253836     
   1772284113.2416525        25100037.569818974        1166362332.6172853     
   1656927638.9130211        25097050.053825259        1170444380.4586704     
   1541642560.3187101        25332048.318894923        1178579242.9495375     
   1426428877.4587307        25805032.365070820        1190766920.0898774     
   3768225640.5404940        1130467692.1621482        800559474.73568249     
   3779102339.9475398        1008720585.8758879        884850239.74904203     
   3790584664.3385277        888992229.53610337        974069471.63840568     
   3802672613.7134595        771282623.14279485        1068217170.4037733     
   3815366188.0723329        655591766.69596124        1167293336.0451455     
   3207799685.7836232        962339905.73508692        756703550.90554535     
   3235865605.6552162        868216998.82060194        853067718.61907530     
   3263654255.4433351        773169858.29453528        951351081.49738193     
   3291165635.1479793        677198484.15688753        1051553639.5404652     
   3318399744.7691493        580302876.40765715        1153675392.7483256     
   2685620868.7329736        805686260.61989212        722003969.67207229     
   2722278089.8941793        736608177.32470191        829411495.84045291     
   2757775145.9044933        663662876.85987294        935728945.46238256     
   2792112036.7639151        586850359.22540498        1040956318.5378619     
   2825288762.4724460        506170624.42129809        1145093615.0668900     
   2201689189.3885469        660506756.81656408        696460731.03526366     
   2238339792.6644292        613894121.38818812        813881571.41317439     
   2272947335.7220025        560471285.23211575        927203063.53340721     
   2305511818.5612669        500238248.34834695        1036425207.3959622     
   2336033241.1822228        433195010.73688263        1141548003.0008390     
   1756004647.7503419        526801394.32510263        680073834.99511921     
   1784050713.9659657        500074831.01106000        806477945.33724046     
   1809170824.8958633        463595083.41126388        925773435.71045625     
   1831364980.5400350        417362151.52571440        1037960306.1147665     
   1850633180.8984809        361376035.35441124        1143038556.5501714     
   3815366188.0723329        655591766.69596124        1167293336.0451455     
   3797886441.2898831        537613515.71829486        1188974747.1819212     
   3784261246.5421023        432483771.52286041        1205771601.4538031     
   3774490603.8289924        340202534.10966241        1217683898.8607903     
   3768574513.1505532        260769803.47869682        1224711639.4028814     
   3318399744.7691493        580302876.40765715        1153675392.7483256     
   3293777047.6679978        473094777.13202381        1182028138.0792525     
   3272889566.0285358        378337396.06201911        1207285443.4832969     
   3255737299.8507624        296030733.19764531        1229447308.9604578     
   3242320249.1346774        226174788.53889978        1248513734.5107365     
   2825288762.4724460        506170624.42129809        1145093615.0668900     
   2798634877.7326283        411266205.65170807        1179978468.5901558     
   2775596871.8815179        328414716.51114261        1213556999.1245513     
   2756174744.9191160        257616156.99960339        1245829206.6700752     
   2740368496.8454213        198870527.11708891        1276795091.2267294     
   2336033241.1822228        433195010.73688263        1141548003.0008390     
   2312459931.4837732        352127801.27734613        1182825738.7146318     
   2292383164.1010513        282715732.87023139        1224586268.3775663     
   2275802939.0340552        224958805.51553684        1266829591.9896426     
   2262719256.2827845        178857019.21326351        1309555709.5508606     
   1850633180.8984809        361376035.35441124        1143038556.5501714     
   1835252208.9214346        295679564.00893974        1190569948.4526806     
   1823248442.6871336        241240445.13928443        1240373251.2423429     
   1814621882.1955771        198058678.74544567        1292448464.9191587     
   1809372527.4467657        166134264.82742304        1346795589.4831283     
   3768574513.1505532        260769803.47869682        1224711639.4028814     
   3661725280.2458277        168499013.55757642        1192335830.6225903     
   3562521638.1928463        101713526.47560489        1170417722.7318697     
   3470963586.9916120        60413342.232784510        1158957315.7307179     
   3387051126.6421194        44598460.829110265        1157954609.6191342     
   3242320249.1346774        226174788.53889978        1248513734.5107365     
   3164937020.4712400        151972977.10160184        1231424578.2952104     
   3093605820.2619276        97944593.844718814        1222374114.0333018     
   3028326648.5067391        64089638.768248200        1221362341.7250113     
   2969099505.2056742        50408111.872192621        1228389261.3703341     
   2740368496.8454213        198870527.11708891        1276795091.2267294     
   2685539818.3205519        140664257.93279457        1273133431.4454112     
   2635169605.8521857        97319542.270180702        1275091454.6817579     
   2589257859.4403234        68836380.129248619        1282669160.9357688     
   2547804579.0849676        55214771.509999394        1295866550.2074444     
   2262719256.2827845        178857019.21326351        1309555709.5508606     
   2223533673.7937613        134572856.05115712        1317462390.0731924     
   2187212994.9636216        99838371.751996756        1328569744.6772389     
   2153757219.7923684        74653566.315789580        1342877773.3629954     
   2123166348.2799983        59018439.742526770        1360386476.1304667     
   1809372527.4467657        166134264.82742304        1346795589.4831283     
   1778918586.8908701        133698771.45669073        1364411454.1785555     
   1749735987.5962381        105501082.29017127        1382808984.0197432     
   1721824729.5628698        81541197.327864289        1401988179.0066905     
   1695184812.7907670        61819116.569775462        1421949039.1393988     
   3387051126.6421194        44598460.829110265        1157954609.6191342     
   3294395315.1447968        37498167.222519636        1151537539.9307759     
   3201569248.9329357        29830357.900803208        1149337645.6954761     
   3108572928.0065398        21595032.863967776        1151354926.9132280     
   3015406352.3656087        12792192.112014890        1157589383.5840433     
   2969099505.2056742        50408111.872192621        1228389261.3703341     
   2886422474.9419136        39360539.134362459        1220967457.9538479     
   2804068528.4748197        29389912.385417581        1217915375.2173328     
   2722037665.8043880        20496231.625353456        1219233013.1607847     
   2640329886.9306264        12679496.854182363        1224920371.7842045     
   2547804579.0849676        55214771.509999394        1295866550.2074444     
   2475542173.5602322        40350672.692568183        1288015574.6592350     
   2404096190.3433623        28207981.568024755        1284686865.0179036     
   2333466629.4343605        18786698.136375546        1285880421.2834532     
   2263653490.8332257        12086822.397618532        1291596243.4558854     
   2123166348.2799983        59018439.742526770        1360386476.1304667     
   2061754410.9997480        40468567.897130966        1352681890.0469337     
   2001652234.5385675        26284565.448635697        1349652115.0971904     
   1942859818.8964558        16466432.397035003        1351297151.2812417     
   1885377164.0734141        11014168.742334127        1357616998.5990865     
   1695184812.7907670        61819116.569775462        1421949039.1393988     
   1645059187.2604651        39714224.748057127        1414966404.1169455     
   1596736661.0604336        23619664.027241051        1412811125.4551950     
   1550217234.1906731        13535434.407327950        1415483203.1541486     
   1505500906.6511848        9461535.8883245587        1422982637.2138069     
   3015406352.3656087        12792192.112014890        1157589383.5840433     
   2922231545.1628318        5232617.2851268053        1149602901.4261422     
   2830048356.6703868        978438.15934169292        1146483040.0930884     
   2738856786.8882713        29654.734652519226        1148229799.5848837     
   2648656835.8164835        2386267.0110619068        1154843179.9015286     
   2640329886.9306264        12679496.854182363        1224920371.7842045     
   2560109327.0621738        6951486.8865227699        1217300093.6840434     
   2480648689.3983264        3756550.9342162609        1214355331.5871549     
   2401947973.9390821        3094688.9972538948        1216086085.4935367     
   2324007180.6844463        4965901.0756505728        1222492355.4031858     
   2263653490.8332257        12086822.397618532        1291596243.4558854     
   2195841164.5231600        8026573.1564165354        1284071856.8234563     
   2128557063.9119697        5727076.2448052168        1281031881.3727186     
   2061801188.9996600        5188331.6627951860        1282476317.1036701     
   1995573539.7862294        6410339.4103804827        1288405164.0163131     
   1885377164.0734141        11014168.742334127        1357616998.5990865     
   1829427057.5457883        8457876.0947971344        1349918190.8443756     
   1773773480.2113168        6890014.0911071301        1346512689.4497752     
   1718416432.0699975        6310582.7312594652        1347400494.4152858     
   1663355913.1218319        6719582.0152536631        1352581605.7409046     
   1505500906.6511848        9461535.8883245587        1422982637.2138069     
   1460867006.1300611        8245395.7016754150        1414839095.7468002     
   1416297938.2963638        7245364.4731131196        1410797755.8183236     
   1371793703.1500952        6461442.2026477456        1410858617.4283803     
   1327354300.6912568        5893628.8902801275        1415021680.5769701     
   2648656835.8164835        2386267.0110619068        1154843179.9015286     
   2543331419.2291679        1620340.7822777033        1150289011.7142236     
   2437947417.6564493        659131.26881277561        1149959200.8319299     
   2332504831.0983210       -497361.52935338020        1153853747.2546573     
   2227003659.5547853       -1849137.6122102737        1161972650.9823949     
   2324007180.6844463        4965901.0756505728        1222492355.4031858     
   2229828361.8006530        3197216.2452415228        1216788486.2359469     
   2135701605.8418856        1602074.4982644320        1215665971.5206180     
   2041626912.8081522        180475.83472704887        1219124811.2572036     
   1947604282.6994498       -1067579.7453713417        1227165005.4457011     
   1995573539.7862294        6410339.4103804827        1288405164.0163131     
   1913561310.4542305        3944893.5328273773        1281680683.0979850     
   1831711791.9577005        2021817.1068359613        1279894553.7784643     
   1750024984.2966404        641110.13241064548        1283046776.0577574     
   1668500887.4710481       -197227.39045417309        1291137349.9358585     
   1663355913.1218319        6719582.0152536631        1352581605.7409046     
   1594530265.1899083        3863372.6450377107        1344965602.3003352     
   1525977976.0038922        1918359.0945189595        1342644947.6054676     
   1457699045.5637808        884541.36367362738        1345619641.6563091     
   1389693473.8695798        761919.45254236460        1353889684.4528594     
   1327354300.6912568        5893628.8902801275        1415021680.5769701     
   1272735226.0076876        2952653.5818919539        1406643243.8429966     
   1218500157.9804602        1291700.4613099098        1403917153.0016296     
   1164649096.6095810        910769.52855402231        1406843408.0528696     
   1111182041.8950474        1809860.7836196423        1415422008.9967110     
   2227003659.5547853       -1849137.6122102737        1161972650.9823949     
   2141677657.4654336        3271456.0848780870        1154879982.0912755     
   2056687044.0606217        9510012.0637632608        1153242500.5347316     
   1972031819.3403430        16866530.324420094        1157060206.3127673     
   1887711983.3046103        25341010.866902351        1166333099.4253836     
   1947604282.6994498       -1067579.7453713417        1227165005.4457011     
   1875741220.1707978        4780803.4911079407        1220152620.4727740     
   1804121854.1957211        11441508.572849870        1217873204.0874801     
   1732746184.7742257        18914535.499854922        1220326756.2898288     
   1661614211.9063153        27199884.272147834        1227513277.0798106     
   1668500887.4710481       -197227.39045417309        1291137349.9358585     
   1608037282.3689706        5759900.7451779842        1284098274.7283359     
   1547725681.6895170        12223710.289552033        1281069949.3615103     
   1487566085.4326849        19194201.242665887        1282052373.8353786     
   1427558493.5984740        26671373.604520977        1287045548.1499414     
   1389693473.8695798        761919.45254236460        1353889684.4528594     
   1338565844.0599623        6208747.8470999599        1346716944.8579628     
   1287498526.5420067        11856617.213865876        1342832736.3568156     
   1236491521.3157160        17705527.552850246        1342237058.9494243     
   1185544828.3810833        23755478.864026666        1344929912.6357834     
   1111182041.8950474        1809860.7836196423        1415422008.9967110     
   1067326905.2437652        6127344.7968568802        1408008630.8616505     
   1023440388.7531892        10340229.345781565        1403161565.0734012     
   979522492.42331922        14448514.430392981        1400880811.6319633     
   935573216.25415313        18452200.050683975        1401166370.5373349     
   1887711983.3046103        25341010.866902351        1166333099.4253836     
   1772284113.2416525        25100037.569818974        1166362332.6172853     
   1656927638.9130211        25097050.053825259        1170444380.4586704     
   1541642560.3187101        25332048.318894923        1178579242.9495375     
   1426428877.4587307        25805032.365070820        1190766920.0898774     
   1661614211.9063153        27199884.272147834        1227513277.0798106     
   1557260750.5195541        26109463.803512871        1225188490.0628140     
   1453053050.1493878        25504913.390188277        1227525690.5714669     
   1348991110.7958040        25386233.032134593        1234524878.6057508     
   1245074932.4588006        25753422.729368746        1246186054.1656868     
   1427558493.5984740        26671373.604520977        1287045548.1499414     
   1336019934.8198068        25253654.143923759        1282453500.4200222     
   1244701502.3399901        24569689.012828231        1283132613.0919094     
   1153603196.1590176        24619478.211206734        1289082886.1655989     
   1062725016.2768825        25403021.739070356        1300304319.6410923     
   1185544828.3810833        23755478.864026666        1344929912.6357834     
   1108561666.1423998        22532608.591037631        1338157363.6889095     
   1031872995.4848223        22291376.921734035        1337265148.0199943     
   955478816.40835094        23031783.856113255        1342253265.6290529     
   879379128.91298127        24753829.394180298        1353121716.5160747     
   935573216.25415313        18452200.050683975        1401166370.5373349     
   874885944.48733294        17946327.144836783        1392300079.8694694     
   814567529.58389044        18669977.116915643        1389923295.3557401     
   754617971.54380488        20623149.966850400        1394036016.9961374     
   695037270.36709142        23805845.694686979        1404638244.7906492     
   1756004647.7503419        526801394.32510263        680073834.99511921     
   1784050713.9659657        500074831.01106000        806477945.33724046     
   1809170824.8958633        463595083.41126388        925773435.71045625     
   1831364980.5400350        417362151.52571440        1037960306.1147665     
   1850633180.8984809        361376035.35441124        1143038556.5501714     
   1326333627.6810141        397900088.30430418        669741200.84516883     
   1339566196.7512901        375514571.63716698        791891596.47006738     
   1350604299.3574858        345814166.75642693        908753834.26431835     
   1359447935.4995997        308798873.66208315        1020327914.2279218     
   1366097105.1776330        264468692.35413709        1126613836.3608773     
   890442513.04321671        267132753.91296500        662360747.87894189     
   894062905.36316800        250648680.01124012        781110832.41187048     
   896220320.04068303        229288013.96806246        896393221.25240958     
   896914757.07576251        203050755.78343159        1008207914.4005584     
   896146216.46840620        171936905.45734835        1116554911.8563175     
   448331303.83695120        134499391.15108538        657932476.09643865     
   447540839.80159932        125477156.13327929        774135653.16264999     
   446018886.94545668        114016625.04617059        888691596.67472947     
   443765445.26852328        100117797.88975948        1001600306.6326766     
   440780514.77079910        83780674.664045632        1112861783.0364914     
   6.2216772484884525E-002   1.8665031745465358E-002   656456385.49765885     
   6.6584289592930404E-002   3.2845235231249541E-003   770966058.72240543     
   7.1806028385206541E-002  -9.2481454042455807E-003   885648960.53127778     
   7.7881957407935631E-002  -1.8933556931526513E-002   1000505090.9242759     
   8.4812496997959924E-002  -2.5770440040171021E-002   1115534449.9013996     
   1850633180.8984809        361376035.35441124        1143038556.5501714     
   1835252208.9214346        295679564.00893974        1190569948.4526806     
   1823248442.6871336        241240445.13928443        1240373251.2423429     
   1814621882.1955771        198058678.74544567        1292448464.9191587     
   1809372527.4467657        166134264.82742304        1346795589.4831283     
   1366097105.1776330        264468692.35413709        1126613836.3608773     
   1360321508.6097267        216924378.56776455        1182025592.4650888     
   1357078816.3489933        177823079.13863689        1238365228.5601544     
   1356369028.3954329        147164794.06675291        1295632744.6460736     
   1358192144.7490461        124949523.35211319        1353828140.7228460     
   896146216.46840620        171936905.45734835        1116554911.8563175     
   896135907.03449643        141392722.74753353        1178862013.8207316     
   897814200.47218835        116477216.27638999        1240752964.8796988     
   901181096.78148174        97190386.043918282        1302227765.0332208     
   906236595.96237636        83532232.050117821        1363286414.2812960     
   440780514.77079910        83780674.664045632        1112861783.0364914     
   442695404.19574410        69084596.548245430        1181079212.5196080     
   445454595.05671871        57202856.552544072        1247536460.2009773     
   449058087.35372293        48135454.676941723        1312233526.0806010     
   453505881.08675694        41882390.921438172        1375170410.1584797     
   8.4812496997959924E-002  -2.5770440040171021E-002   1115534449.9013996     
   9.3469508689712932E-002  -3.0098994496430637E-002   1188677188.5617170     
  0.10258389118707205       -3.2902372447453324E-002   1258715714.5239890     
  0.11215661205111888       -3.4178172683284741E-002   1325650027.7882149     
  0.12218724200927902       -3.3927782744419481E-002   1389480128.3543944     
   1809372527.4467657        166134264.82742304        1346795589.4831283     
   1778918586.8908701        133698771.45669073        1364411454.1785555     
   1749735987.5962381        105501082.29017127        1382808984.0197432     
   1721824729.5628698        81541197.327864289        1401988179.0066905     
   1695184812.7907670        61819116.569775462        1421949039.1393988     
   1358192144.7490461        124949523.35211319        1353828140.7228460     
   1332756776.8952537        99844429.592851698        1372773264.6093156     
   1308274914.9876494        77917688.987549305        1393105533.2105334     
   1284746559.0262327        59169301.536207616        1414824946.5265012     
   1262171709.0110052        43599267.238828778        1437931504.5572162     
   906236595.96237636        83532232.050117821        1363286414.2812960     
   887549742.43636823        66276520.390030444        1383189989.4912200     
   869498559.54147196        51139710.833649009        1405086188.9848802     
   852083047.27768826        38121803.380976915        1428975012.7622781     
   835303205.64501739        27222798.032013446        1454856460.8234129     
   453505881.08675694        41882390.921438172        1375170410.1584797     
   443297483.51421404        32995043.848229364        1395661628.8242676     
   433406921.25770658        25167147.828472421        1418750951.3427815     
   423834194.31723666        18398702.862174183        1444438377.7140210     
   414579302.69280291        12689708.949328855        1472723907.9379864     
  0.12218724200927902       -3.3927782744419481E-002   1389480128.3543944     
  0.12879086533509734       -3.2552669351302209E-002   1410188182.6084602     
  0.13635481251432111       -2.7976476446833522E-002   1434099820.2842391     
  0.14487848592518135       -2.0201282839750312E-002   1461215041.3817310     
  0.15436402156510098       -9.2197083301215343E-003   1491533845.9009397     
   1695184812.7907670        61819116.569775462        1421949039.1393988     
   1645059187.2604651        39714224.748057127        1414966404.1169455     
   1596736661.0604336        23619664.027241051        1412811125.4551950     
   1550217234.1906731        13535434.407327950        1415483203.1541486     
   1505500906.6511848        9461535.8883245587        1422982637.2138069     
   1262171709.0110052        43599267.238828778        1437931504.5572162     
   1225960116.5484812        27435386.379638970        1434778837.1332097     
   1191100848.5830941        15779253.844239712        1436130913.1785133     
   1157593905.1148472        8630869.6326409578        1441987732.6931272     
   1125439286.1437380        5990233.7448334694        1452349295.6770539     
   835303205.64501739        27222798.032013446        1454856460.8234129     
   812083895.13200641        16723402.799875468        1455007857.0258634     
   789766134.28300035        9229173.1144189537        1459341383.8062320     
   768349923.09799969        4740108.9756459594        1467857041.1645193     
   747835261.57700181        3256210.3835539222        1480554829.1007245     
   414579302.69280291        12689708.949328855        1472723907.9379864     
   403430523.01104099        7578274.0087638050        1475653463.7949054     
   392732518.16014993        3969421.8377694339        1482442537.3383498     
   382485288.14012909        1863152.4363422990        1493091128.5683222     
   372688832.95098066        1259465.8044897020        1507599237.4848158     
  0.15436402156510098       -9.2197083301215343E-003   1491533845.9009397     
  0.18558437753590418        6.3064709132521074E-003   1496715657.4403379     
  0.21454049617428109        1.4285539326566649E-002   1505434373.7748694     
  0.24123786759408977        1.4735797289348859E-002   1517689994.9045339     
  0.26567145919096030        7.6390816749184187E-003   1533482520.8293307     
   1505500906.6511848        9461535.8883245587        1422982637.2138069     
   1460867006.1300611        8245395.7016754150        1414839095.7468002     
   1416297938.2963638        7245364.4731131196        1410797755.8183236     
   1371793703.1500952        6461442.2026477456        1410858617.4283803     
   1327354300.6912568        5893628.8902801275        1415021680.5769701     
   1125439286.1437380        5990233.7448334694        1452349295.6770539     
   1091632920.6848521        4978846.5803488493        1445170705.8330178     
   1057875179.7417914        4129541.1352817416        1442171536.8778236     
   1024166063.3145542        3442317.4096256495        1443351788.8114755     
   990505571.40313983        2917175.4033823013        1448711461.6339726     
   747835261.57700181        3256210.3835539222        1480554829.1007245     
   725077057.89553452        2515764.2557942271        1474322281.3461192     
   702351270.55828762        1883372.6087689102        1472346373.8306692     
   679657899.56525934        1359035.4424721599        1474627106.5543752     
   656996944.91645145        942752.75691124797        1481164479.5172381     
   372688832.95098066        1259465.8044897020        1507599237.4848158     
   361199417.76210856        856148.72800400853        1502293822.2861037     
   349726210.74585301        506858.89357453585        1501322266.6768606     
   338269211.90221298        211596.30119578540        1504684570.6570842     
   326828421.23118871       -29639.049127906561        1512380734.2267797     
  0.26567145919096030        7.6390816749184187E-003   1533482520.8293307     
  0.28457520223074678       -3.0117392096723761E-003   1529085328.6529720     
  0.30448978960916984       -1.0293425910169809E-002   1529099215.4163959     
  0.32541556445834557       -1.4203793818767921E-002   1533524181.1196001     
  0.34735213789520908       -1.4745873935825785E-002   1542360225.7625854     
   1327354300.6912568        5893628.8902801275        1415021680.5769701     
   1272735226.0076876        2952653.5818919539        1406643243.8429966     
   1218500157.9804602        1291700.4613099098        1403917153.0016296     
   1164649096.6095810        910769.52855402231        1406843408.0528696     
   1111182041.8950474        1809860.7836196423        1415422008.9967110     
   990505571.40313983        2917175.4033823013        1448711461.6339726     
   950581295.99162221        1023453.1113725901        1441772730.7742460     
   910945025.57917213        89747.482921898365        1440243671.9966376     
   871596760.16579521        116058.51804941893        1444124285.3011475     
   832536499.75149059        1102386.2167514563        1453414570.6877689     
   656996944.91645145        942752.75691124797        1481164479.5172381     
   631074115.03272879       -111722.64199525118        1475553452.5982754     
   605343288.49080110       -526186.90158778429        1475109423.9509392     
   579804465.29067111       -300640.02185329795        1479832393.5752299     
   554457645.43233657        564917.99719905853        1489722361.4711490     
   326828421.23118871       -29639.049127906561        1512380734.2267797     
   314213683.13100660       -452873.67821000516        1507985409.3150883     
   301694946.71534544       -556102.69222284853        1508514408.8645365     
   289272211.98420352       -339326.09117072821        1513967732.8751197     
   276945478.93758762        197456.12496739626        1524345381.3468421     
  0.34735213789520908       -1.4745873935825785E-002   1542360225.7625854     
  0.28645620674040767        2.7267565494914492E-003   1539068600.9246831     
  0.25280530873822854       0.11101512337613045        1540458626.7374260     
  0.24640054191144317       0.31012496828816777        1546530303.2008171     
  0.26724382779990191       0.60006061475026651        1557283630.3148558     
   1111182041.8950474        1809860.7836196423        1415422008.9967110     
   1067326905.2437652        6127344.7968568802        1408008630.8616505     
   1023440388.7531892        10340229.345781565        1403161565.0734012     
   979522492.42331922        14448514.430392981        1400880811.6319633     
   935573216.25415313        18452200.050683975        1401166370.5373349     
   832536499.75149059        1102386.2167514563        1453414570.6877689     
   795841424.69684851        3199382.5369173884        1446611267.3213425     
   759122814.76196885        5217929.2562908828        1443261811.5346849     
   722380669.94685769        7158026.3748929799        1443366203.3278112     
   685614990.25150645        9019673.8926946819        1446924442.7007072     
   554457645.43233657        564917.99719905853        1489722361.4711490     
   527458446.92566299        1202171.1096898317        1483538285.3255880     
   500443558.49781096        1787124.4849185646        1481695591.9927647     
   473412980.14878446        2319778.1228993833        1484194281.4726799     
   446366711.87858272        2800132.0236289501        1491034353.7653434     
   276945478.93758762        197456.12496739626        1524345381.3468421     
   262177971.93021002        135710.51517908275        1518789684.8743825     
   247402619.96071842        47815.031674340367        1518462906.4476278     
   232619423.02910554       -66230.325567498803        1523365046.0665824     
   217828381.13538131       -206425.55651339889        1533496103.7312376     
  0.26724382779990191       0.60006061475026651        1557283630.3148558     
 -0.28950445520723600       0.75340153072244798        1552365465.9677362     
 -0.84931690801139048       0.89653062903941194        1553563754.8992863     
  -1.4121849294341842        1.0294738047381888        1560878497.1095057     
  -1.9781052254073017        1.1522420380464946        1574309692.5983973     
   935573216.25415313        18452200.050683975        1401166370.5373349     
   874885944.48733294        17946327.144836783        1392300079.8694694     
   814567529.58389044        18669977.116915643        1389923295.3557401     
   754617971.54380488        20623149.966850400        1394036016.9961374     
   695037270.36709142        23805845.694686979        1404638244.7906492     
   685614990.25150645        9019673.8926946819        1446924442.7007072     
   641532645.01438153        9070201.4035844207        1442015978.9099252     
   597726942.12274027        10042870.066084534        1443262629.2763033     
   554197881.57657576        11937679.880178839        1450664393.7998457     
   510945463.37589222        14754630.845871061        1464221272.4805446     
   446366711.87858272        2800132.0236289501        1491034353.7653434     
   417933887.46553010        3120438.2395637035        1489976133.2474403     
   389685490.88007164        4055503.8808121234        1494738634.8897271     
   361621522.12220621        5605328.9473686814        1505321858.6922100     
   333741981.19193292        7769913.4392337352        1521725804.6548820     
   217828381.13538131       -206425.55651339889        1533496103.7312376     
   204089671.84077576        97037.652764603496        1536180542.8820100     
   190443175.85588115        707878.56107605249        1544351312.1960092     
   176888893.18069452        1626097.1684174389        1558008411.6732311     
   163426823.81521016        2851693.4747640491        1577151841.3136866     
  -1.9781052254073017        1.1522420380464946        1574309692.5983973     
  -1.8598781397766713      -0.35680435254721843        1580629207.8136468     
  -2.9498273329481357       -5.8931029241464108        1592100661.1951523     
  -5.2479603538282502       -15.456681962275191        1608724052.7429211     
  -8.7542749606205224       -29.047534341223276        1630499382.4569402     
   6.2216772484884525E-002   1.8665031745465358E-002   656456385.49765885     
   6.6584289592930404E-002   3.2845235231249541E-003   770966058.72240543     
   7.1806028385206541E-002  -9.2481454042455807E-003   885648960.53127778     
   7.7881957407935631E-002  -1.8933556931526513E-002   1000505090.9242759     
   8.4812496997959924E-002  -2.5770440040171021E-002   1115534449.9013996     
  -448331303.71472317       -134499391.11441696        657932476.08300817     
  -447540839.67026883       -125477156.12531281        774135653.14951158     
  -446018886.80342042       -114016625.06156141        888691596.66169035     
  -443765445.11417800       -100117797.92316282        1001600306.6195445     
  -440780514.60254103       -83780674.710116774        1112861783.0230739     
  -890442512.92760539       -267132753.87828162        662360747.85289228     
  -894062905.23863661       -250648680.00336444        781110832.38628197     
  -896220319.90573382       -229288013.98200056        896393221.22689700     
  -896914756.92889690       -203050755.81419003        1008207914.3747370     
  -896146216.30812609       -171936905.49993259        1116554911.8298020     
  -1326333627.5764301       -397900088.27292901        669741200.80731082     
  -1339566196.6385188       -375514571.63087046        791891596.43271697     
  -1350604299.2351336       -345814166.77056575        908753834.22689784     
  -1359447935.3662751       -308798873.69201463        1020327914.1898535     
  -1366097105.0319421       -264468692.39521781        1126613836.3215842     
  -1756004647.6611969       -526801394.29835910        680073834.94626403     
  -1784050713.8699155       -500074831.00783080        806477945.28881621     
  -1809170824.7916207       -463595083.42725706        925773435.66169286     
  -1831364980.4263120       -417362151.55663747        1037960306.0648942     
  -1850633180.7739894       -361376035.39597219        1143038556.4984200     
   8.4812496997959924E-002  -2.5770440040171021E-002   1115534449.9013996     
   9.3469508689712932E-002  -3.0098994496430637E-002   1188677188.5617170     
  0.10258389118707205       -3.2902372447453324E-002   1258715714.5239890     
  0.11215661205111888       -3.4178172683284741E-002   1325650027.7882149     
  0.12218724200927902       -3.3927782744419481E-002   1389480128.3543944     
  -440780514.60254103       -83780674.710116774        1112861783.0230739     
  -442695404.01023698       -69084596.602246344        1181079212.5048034     
  -445454594.85310239       -57202856.611607239        1247536460.1845691     
  -449058087.13113683       -48135454.738199338        1312233526.0623715     
  -453505880.84434116       -41882390.982022867        1375170410.1382096     
  -896146216.30812609       -171936905.49993259        1116554911.8298020     
  -896135906.85765421       -141392722.79750651        1178862013.7913783     
  -897814200.27797866       -116477216.33106956        1240752964.8470733     
  -901181096.56910002       -97190386.100621402        1302227764.9968855     
  -906236595.73101819       -83532232.106162280        1363286414.2408183     
  -1366097105.0319421       -264468692.39521781        1126613836.3215842     
  -1360321508.4487820       -216924378.61588046        1182025592.4214418     
  -1357078816.1720448       -177823079.19128838        1238365228.5115006     
  -1356369028.2017324       -147164794.12144423        1295632744.5917594     
  -1358192144.5378435       -124949523.40634632        1353828140.6622198     
  -1850633180.7739894       -361376035.39597219        1143038556.4984200     
  -1835252208.7836196       -295679564.05736619        1190569948.3949940     
  -1823248442.5353010       -241240445.19226450        1240373251.1778507     
  -1814621882.0290337       -198058678.80066746        1292448464.8469906     
  -1809372527.2648182       -166134264.88257563        1346795589.4024136     
  0.12218724200927902       -3.3927782744419481E-002   1389480128.3543944     
  0.12879086533509734       -3.2552669351302209E-002   1410188182.6084602     
  0.13635481251432111       -2.7976476446833522E-002   1434099820.2842391     
  0.14487848592518135       -2.0201282839750312E-002   1461215041.3817310     
  0.15436402156510098       -9.2197083301215343E-003   1491533845.9009397     
  -453505880.84434116       -41882390.982022867        1375170410.1382096     
  -443297483.25871247       -32995043.905232444        1395661628.8031867     
  -433406920.98672825       -25167147.873922899        1418750951.3206034     
  -423834194.02839059       -18398702.888101846        1444438377.6904602     
  -414579302.38369793       -12689708.947764039        1472723907.9127574     
  -906236595.73101819       -83532232.106162280        1363286414.2408183     
  -887549742.19286001       -66276520.441902488        1383189989.4496663     
  -869498559.28295362       -51139710.871812761        1405086188.9416807     
  -852083047.00129819       -38121803.395894825        1428975012.7168608     
  -835303205.34789383       -27222798.014146864        1454856460.7752087     
  -1358192144.5378435       -124949523.40634632        1353828140.6622198     
  -1332756776.6736541       -99844429.642567515        1372773264.5478990     
  -1308274914.7523201       -77917689.021643281        1393105533.1474712     
  -1284746558.7738442       -59169301.543579817        1414824946.4609344     
  -1262171708.7382259       -43599267.208370566        1437931504.4882922     
  -1809372527.2648182       -166134264.88257563        1346795589.4024136     
  -1778918586.7010927       -133698771.50722635        1364411454.0978839     
  -1749735987.3948293       -105501082.32341874        1382808983.9379737     
  -1721824729.3460293       -81541197.331155360        1401988178.9226813     
  -1695184812.5546927       -61819116.530435443        1421949039.0520082     
  0.15436402156510098       -9.2197083301215343E-003   1491533845.9009397     
  0.18558437753590418        6.3064709132521074E-003   1496715657.4403379     
  0.21454049617428109        1.4285539326566649E-002   1505434373.7748694     
  0.24123786759408977        1.4735797289348859E-002   1517689994.9045339     
  0.26567145919096030        7.6390816749184187E-003   1533482520.8293307     
  -414579302.38369793       -12689708.947764039        1472723907.9127574     
  -403430522.64095908       -7578273.9699324369        1475653463.7590964     
  -392732517.73309743       -3969421.7750244141        1482442537.2893994     
  -382485287.66010880       -1863152.3630270958        1493091128.5036678     
  -372688832.42199582       -1259465.7339479029        1507599237.4019010     
  -835303205.34789383       -27222798.014146864        1454856460.7752087     
  -812083894.78268778       -16723402.740728557        1455007856.9571044     
  -789766133.88496900       -9229173.0256028175        1459341383.7117975     
  -768349922.65473878       -4740108.8687716424        1467857041.0392885     
  -747835261.09199619       -3256210.2702314854        1480554828.9395766     
  -1262171708.7382259       -43599267.208370566        1437931504.4882922     
  -1225960116.2396019       -27435386.306080282        1434778837.0343640     
  -1191100848.2410760       -15779253.737454355        1436130913.0420654     
  -1157593904.7426534       -8630869.5025041103        1441987732.5113971     
  -1125439285.7443309       -5990233.6012178063        1452349295.4423604     
  -1695184812.5546927       -61819116.530435443        1421949039.0520082     
  -1645059187.0116994       -39714224.665985823        1414966403.9908741     
  -1596736660.8014190       -23619663.910580158        1412811125.2802024     
  -1550217233.9238510       -13535434.264216423        1415483202.9199948     
  -1505500906.3789985       -9461535.7269007564        1422982636.9102485     
  0.26567145919096030        7.6390816749184187E-003   1533482520.8293307     
  0.28457520223074678       -3.0117392096723761E-003   1529085328.6529720     
  0.30448978960916984       -1.0293425910169809E-002   1529099215.4163959     
  0.32541556445834557       -1.4203793818767921E-002   1533524181.1196001     
  0.34735213789520908       -1.4745873935825785E-002   1542360225.7625854     
  -372688832.42199582       -1259465.7339479029        1507599237.4019010     
  -361199417.19248295       -856148.67162452638        1502293822.1889839     
  -349726210.13744336       -506858.85754799843        1501322266.5660665     
  -338269211.25687587       -211596.29170931876        1504684570.5331521     
  -326828420.55078173        29639.025882706046        1512380734.0902388     
  -747835261.09199619       -3256210.2702314854        1480554828.9395766     
  -725077057.36553097       -2515764.1490300894        1474322281.1520348     
  -702351269.98902488       -1883372.5276920795        1472346373.6047144     
  -679657898.96247423       -1359035.4062052667        1474627106.2976136     
  -656996944.28588283       -942752.78458219767        1481164479.2307332     
  -1125439285.7443309       -5990233.6012178063        1452349295.4423604     
  -1091632920.2345717       -4978846.4352355599        1445170705.5421290     
  -1057875179.2502567       -4129541.0207338333        1442171536.5323379     
  -1024166062.7913802       -3442317.3576943278        1443351788.4129870     
  -990505570.85794914       -2917175.4461367130        1448711461.1840775     
  -1505500906.3789985       -9461535.7269007564        1422982636.9102485     
  -1460867005.7996044       -8245395.5302386284        1414839095.3592622     
  -1416297937.9211383       -7245364.3366683125        1410797755.3489366     
  -1371793702.7435958       -6461442.1461774707        1410858616.8792694     
  -1327354300.2669818       -5893628.9587810636        1415021679.9502649     
  0.34735213789520908       -1.4745873935825785E-002   1542360225.7625854     
  0.28645620674040767        2.7267565494914492E-003   1539068600.9246831     
  0.25280530873822854       0.11101512337613045        1540458626.7374260     
  0.24640054191144317       0.31012496828816777        1546530303.2008171     
  0.26724382779990191       0.60006061475026651        1557283630.3148558     
  -326828420.55078173        29639.025882706046        1512380734.0902388     
  -314213682.57093376        452873.63719905913        1507985409.2293098     
  -301694946.23314410        556102.77498689294        1508514408.8428028     
  -289272211.53741306        339326.43924519420        1513967732.9307170     
  -276945478.48374170       -197455.37002609670        1524345381.4930544     
  -656996944.28588283       -942752.78458219767        1481164479.2307332     
  -631074114.48307896        111722.55523815751        1475553452.3992596     
  -605343287.99163699        526186.85718563199        1475109423.8659799     
  -579804464.81155825        300640.12125593424        1479832393.6308999     
  -554457644.94284189       -564917.65254887938        1489722361.6940141     
  -990505570.85794914       -2917175.4461367130        1448711461.1840775     
  -950581295.44997859       -1023453.2431523800        1441772730.4345343     
  -910945025.02266717       -89747.642368435860        1440243671.8069601     
  -871596759.57603049       -116058.64383310080        1444124285.3013601     
  -832536499.11005592       -1102386.2475049496        1453414570.9177308     
  -1327354300.2669818       -5893628.9587810636        1415021679.9502649     
  -1272735225.4716263       -2952653.7579524517        1406643243.3351309     
  -1218500157.3262403       -1291700.7236937881        1403917152.6657443     
  -1164649095.8308270       -910769.85600823164        1406843407.9421036     
  -1111182040.9853842       -1809861.1548920870        1415422009.1642091     
  0.26724382779990191       0.60006061475026651        1557283630.3148558     
 -0.28950445520723600       0.75340153072244798        1552365465.9677362     
 -0.84931690801139048       0.89653062903941194        1553563754.8992863     
  -1.4121849294341842        1.0294738047381888        1560878497.1095057     
  -1.9781052254073017        1.1522420380464946        1574309692.5983973     
  -276945478.48374170       -197455.37002609670        1524345381.4930544     
  -262177972.55600572       -135709.61870798469        1518789685.0883763     
  -247402621.66860136       -47814.001829311252        1518462906.7935600     
  -232619425.82153517        66231.480590045452        1523365046.6086030     
  -217828385.01479828        206426.82857646048        1533496104.5335126     
  -554457644.94284189       -564917.65254887938        1489722361.6940141     
  -527458447.29864520       -1202170.7336481214        1483538285.6882915     
  -500443559.73206002       -1787124.0734515190        1481695592.6236186     
  -473412982.24308515       -2319777.6719569862        1484194282.4999979     
  -446366714.83171749       -2800131.5291519463        1491034355.3174264     
  -832536499.11005592       -1102386.2475049496        1453414570.9177308     
  -795841424.51743090       -3199382.5914409161        1446611267.7674735     
  -759122815.03969014       -5217929.3183284700        1443261812.3894553     
  -722380670.67683518       -7158026.4281656444        1443366204.7836826     
  -685614991.42886627       -9019673.9209583998        1446924444.9501486     
  -1111182040.9853842       -1809861.1548920870        1415422009.1642091     
  -1067326904.2123542       -6127345.1920649409        1408008631.3259289     
  -1023440387.5914871       -10340229.736441314        1403161566.0910771     
  -979522491.12278306       -14448514.788032711        1400880813.4596610     
  -935573214.80623806       -18452200.346818447        1401166373.4316759     
  -1.9781052254073017        1.1522420380464946        1574309692.5983973     
  -1.8598781397766713      -0.35680435254721843        1580629207.8136468     
  -2.9498273329481357       -5.8931029241464108        1592100661.1951523     
  -5.2479603538282502       -15.456681962275191        1608724052.7429211     
  -8.7542749606205224       -29.047534341223276        1630499382.4569402     
  -217828385.01479828        206426.82857646048        1533496104.5335126     
  -204089675.26753554       -97038.452462688088        1536180541.5279651     
  -190443180.57522607       -707887.25001620501        1544351308.6335750     
  -176888900.93786129       -1626119.5640496612        1558008405.8503282     
  -163426836.35545400       -2851735.3946108073        1577151833.1782465     
  -446366714.83171749       -2800131.5291519463        1491034355.3174264     
  -417933889.89858174       -3120438.9151443243        1489976131.2698572     
  -389685493.86716419       -4055509.3068609089        1494738629.2783365     
  -361621526.73747349       -5605342.7043372840        1505321849.3428631     
  -333741988.50950110       -7769939.1075343788        1521725791.4634314     
  -685614991.42886627       -9019673.9209583998        1446924444.9501486     
  -641532645.75301516       -9070201.7448387742        1442015977.0393226     
  -597726942.82565594       -10042872.063693583        1443262623.1294372     
  -554197882.64679205       -11937684.877526879        1450664383.2204897     
  -510945465.21641445       -14754640.186321110        1464221257.3124840     
  -935573214.80623806       -18452200.346818447        1401166373.4316759     
  -874885942.83083546       -17946326.941549301        1392300078.8363612     
  -814567527.45068991       -18669975.520468920        1389923290.1868823     
  -754617968.66581750       -20623146.083635241        1394036007.4832361     
  -695037266.47619867       -23805838.630975842        1404638230.7254233     
  -1756004647.6611969       -526801394.29835910        680073834.94626403     
  -1784050713.8699155       -500074831.00783080        806477945.28881621     
  -1809170824.7916207       -463595083.42725706        925773435.66169286     
  -1831364980.4263120       -417362151.55663747        1037960306.0648942     
  -1850633180.7739894       -361376035.39597219        1143038556.4984200     
  -2201689189.3182712       -660506756.79548144        696460730.97671854     
  -2238339792.5880685       -613894121.38646448        813881571.35556901     
  -2272947335.6384597       -560471285.24609399        927203063.47592187     
  -2305511818.4694452       -500238248.37437069        1036425207.3377769     
  -2336033241.0810246       -433195010.77129447        1141548002.9411340     
  -2685620868.6840177       -805686260.60520530        722003969.60564137     
  -2722278089.8401003       -736608177.32526171        829411495.77524793     
  -2757775145.8443842       -663662876.87265718        935728945.39753449     
  -2792112036.6968703       -586850359.24739170        1040956318.4725007     
  -2825288762.3975582       -506170624.44946551        1145093615.0001471     
  -3207799685.7584362       -962339905.72753084        756703550.83303225     
  -3235865605.6260104       -868216998.82422245        853067718.54785228     
  -3263654255.4093947       -773169858.30694580        951351081.42653036     
  -3291165635.1085868       -677198484.17569995        1051553639.4690658     
  -3318399744.7235909       -580302876.43048644        1153675392.6754589     
  -3768225640.5415268       -1130467692.1624579        800559474.65889120     
  -3779102339.9457998       -1008720585.8833473        884850239.67338300     
  -3790584664.3334894       -888992229.54895997        974069471.56290984     
  -3802672613.7045965       -771282623.15929651        1068217170.3274721     
  -3815366188.0591211       -655591766.71435690        1167293335.9670696     
  -1850633180.7739894       -361376035.39597219        1143038556.4984200     
  -1835252208.7836196       -295679564.05736619        1190569948.3949940     
  -1823248442.5353010       -241240445.19226450        1240373251.1778507     
  -1814621882.0290337       -198058678.80066746        1292448464.8469906     
  -1809372527.2648182       -166134264.88257563        1346795589.4024136     
  -2336033241.0810246       -433195010.77129447        1141548002.9411340     
  -2312459931.3714552       -352127801.31714600        1182825738.6485057     
  -2292383163.9770756       -282715732.91363323        1224586268.3038535     
  -2275802938.8978877       -224958805.56075644        1266829591.9071779     
  -2262719256.1338902       -178857019.25851679        1309555709.4584782     
  -2825288762.3975582       -506170624.44946551        1145093615.0001471     
  -2798634877.6496654       -411266205.68403822        1179978468.5163202     
  -2775596871.7901020       -328414716.54637790        1213556999.0421631     
  -2756174744.8188691       -257616157.03648424        1245829206.5776758     
  -2740368496.7359657       -198870527.15435815        1276795091.1228576     
  -3318399744.7235909       -580302876.43048644        1153675392.6754589     
  -3293777047.6182489       -473094777.15804255        1182028137.9984381     
  -3272889565.9743795       -378337396.09049809        1207285443.3927796     
  -3255737299.7919774       -296030733.22785056        1229447308.8584845     
  -3242320249.0710459       -226174788.57010126        1248513734.3955517     
  -3815366188.0591211       -655591766.71435690        1167293335.9670696     
  -3797886441.2772102       -537613515.73916006        1188974747.0948584     
  -3784261246.5299082       -432483771.54599297        1205771601.3557029     
  -3774490603.8172135       -340202534.13485408        1217683898.7496045     
  -3768574513.1391296       -260769803.50574625        1224711639.2765617     
  -1809372527.2648182       -166134264.88257563        1346795589.4024136     
  -1778918586.7010927       -133698771.50722635        1364411454.0978839     
  -1749735987.3948293       -105501082.32341874        1382808983.9379737     
  -1721824729.3460293       -81541197.331155360        1401988178.9226813     
  -1695184812.5546927       -61819116.530435443        1421949039.0520082     
  -2262719256.1338902       -178857019.25851679        1309555709.4584782     
  -2223533673.6391544       -134572856.09236717        1317462389.9832952     
  -2187212994.7997642       -99838371.777369380        1328569744.5894706     
  -2153757219.6157212       -74653566.313529611        1342877773.2770045     
  -2123166348.0870228       -59018439.700838566        1360386476.0458968     
  -2740368496.7359657       -198870527.15435815        1276795091.1228576     
  -2685539818.2052507       -140664257.96591961        1273133431.3461580     
  -2635169605.7277641       -97319542.288243055        1275091454.5875556     
  -2589257859.3035073       -68836380.121331334        1282669160.8470516     
  -2547804578.9324780       -55214771.465180993        1295866550.1246459     
  -3242320249.0710459       -226174788.57010126        1248513734.3955517     
  -3164937020.3993807       -151972977.12788129        1231424578.1864719     
  -3093605820.1788278       -97944593.856035709        1222374113.9322290     
  -3028326648.4093857       -64089638.754561901        1221362341.6328247     
  -2969099505.0910549       -50408111.823459864        1228389261.2882559     
  -3768574513.1391296       -260769803.50574625        1224711639.2765617     
  -3661725280.2215438       -168499013.57825291        1192335830.5042379     
  -3562521638.1529527       -101713526.48074269        1170417722.6234899     
  -3470963586.9333582       -60413342.213218212        1158957315.6343203     
  -3387051126.5627565       -44598460.775674462        1157954609.5367262     
  -1695184812.5546927       -61819116.530435443        1421949039.0520082     
  -1645059187.0116994       -39714224.665985823        1414966403.9908741     
  -1596736660.8014190       -23619663.910580158        1412811125.2802024     
  -1550217233.9238510       -13535434.264216423        1415483202.9199948     
  -1505500906.3789985       -9461535.7269007564        1422982636.9102485     
  -2123166348.0870228       -59018439.700838566        1360386476.0458968     
  -2061754410.8207295       -40468567.819306612        1352681889.9240913     
  -2001652234.3732226       -26284565.333730340        1349652114.9273429     
  -1942859818.7445014       -16466432.244109273        1351297151.0556514     
  -1885377163.9345689       -11014168.550444484        1357616998.3090165     
  -2547804578.9324780       -55214771.465180993        1295866550.1246459     
  -2475542173.4440422       -40350672.616914392        1288015574.5417497     
  -2404096190.2604685       -28207981.451512933        1284686864.8585038     
  -2333466629.3817549       -18786697.968983889        1285880421.0749099     
  -2263653490.8079004       -12086822.169320822        1291596243.1909680     
  -2969099505.0910549       -50408111.823459864        1228389261.2882559     
  -2886422474.8816385       -39360539.058804512        1220967457.8438497     
  -2804068528.4631572       -29389912.263930202        1217915375.0736883     
  -2722037665.8356075       -20496231.438834310        1219233012.9777734     
  -2640329886.9989972       -12679496.583526015        1224920371.5561030     
  -3387051126.5627565       -44598460.775674462        1157954609.5367262     
  -3294395315.1335187       -37498167.144982100        1151537539.8303912     
  -3201569248.9812894       -29830357.770979762        1149337645.5728946     
  -3108572928.1060667       -21595032.653674126        1151354926.7642372     
  -3015406352.5078521       -12792191.793055654        1157589383.4044197     
  -1505500906.3789985       -9461535.7269007564        1422982636.9102485     
  -1460867005.7996044       -8245395.5302386284        1414839095.3592622     
  -1416297937.9211383       -7245364.3366683125        1410797755.3489366     
  -1371793702.7435958       -6461442.1461774707        1410858616.8792694     
  -1327354300.2669818       -5893628.9587810636        1415021679.9502649     
  -1885377163.9345689       -11014168.550444484        1357616998.3090165     
  -1829427057.3428721       -8457875.8621220589        1349918190.4575737     
  -1773773479.9586766       -6890013.8654702902        1346512688.9614730     
  -1718416431.7819817       -6310582.5604872704        1347400493.8207145     
  -1663355912.8127871       -6719581.9471714497        1352581605.0353026     
  -2263653490.8079004       -12086822.169320822        1291596243.1909680     
  -2195841164.4476633       -8026572.8624657393        1284071856.4480624     
  -2128557063.8015008       -5727075.9358581305        1281031880.8751838     
  -2061801188.8694167       -5188331.3895069361        1282476316.4723325     
  -1995573539.6514046       -6410339.2234036922        1288405163.2395053     
  -2640329886.9989972       -12679496.583526015        1224920371.5561030     
  -2560109327.1139798       -6951486.5312604904        1217300093.3307321     
  -2480648689.4496126       -3756550.5478339195        1214355331.0900717     
  -2401947974.0058970       -3094688.6332408190        1216086084.8341203     
  -2324007180.7828307       -4965900.7874808311        1222492354.5628800     
  -3015406352.5078521       -12792191.793055654        1157589383.4044197     
  -2922231545.3418198       -5232616.8685203791        1149602901.1055813     
  -2830048356.9030118       -978437.70139420033        1146483039.6061354     
  -2738856787.1914306       -29654.291692972183        1148229798.9060805     
  -2648656836.2070713       -2386266.6393992901        1154843179.0054209     
  -1327354300.2669818       -5893628.9587810636        1415021679.9502649     
  -1272735225.4716263       -2952653.7579524517        1406643243.3351309     
  -1218500157.3262403       -1291700.7236937881        1403917152.6657443     
  -1164649095.8308270       -910769.85600823164        1406843407.9421036     
  -1111182040.9853842       -1809861.1548920870        1415422009.1642091     
  -1663355912.8127871       -6719581.9471714497        1352581605.0353026     
  -1594530264.6489000       -3863372.6530253291        1344965601.6803529     
  -1525977975.2407494       -1918359.2113380432        1342644947.1031480     
  -1457699044.5883400       -884541.62211811543        1345619641.3036866     
  -1389693472.6916647       -761919.88534313440        1353889684.2819695     
  -1995573539.6514046       -6410339.2234036922        1288405163.2395053     
  -1913561310.0275650       -3944893.4085180759        1281680682.3546832     
  -1831711791.2652278       -2021817.1319699287        1279894553.0795994     
  -1750024983.3643975       -641110.39378142357        1283046775.4142559     
  -1668500886.3250694        197226.80606675148        1291137349.3586557     
  -2324007180.7828307       -4965900.7874808311        1222492354.5628800     
  -2229828361.6076179       -3197216.0244175196        1216788485.3581190     
  -2135701605.3996730       -1602074.4855998755        1215665970.5950961     
  -2041626912.1589987       -180476.17100775242        1219124810.2738101     
  -1947604281.8855965        1067578.9193443060        1227165004.3942652     
  -2648656836.2070713       -2386266.6393992901        1154843179.0054209     
  -2543331419.3890624       -1620340.5007480383        1150289010.6906617     
  -2437947417.6440830       -659131.27220296860        1149959199.6496372     
  -2332504830.9721498        497361.04619324207        1153853745.8823514     
  -2227003659.3732524        1849136.4544763565        1161972649.3888004     
  -1111182040.9853842       -1809861.1548920870        1415422009.1642091     
  -1067326904.2123542       -6127345.1920649409        1408008631.3259289     
  -1023440387.5914871       -10340229.736441314        1403161566.0910771     
  -979522491.12278306       -14448514.788032711        1400880813.4596610     
  -935573214.80623806       -18452200.346818447        1401166373.4316759     
  -1389693472.6916647       -761919.88534313440        1353889684.2819695     
  -1338565842.2049074       -6208748.3113040328        1346716944.8475716     
  -1287498523.9996190       -11856617.675491810        1342832736.6792517     
  -1236491518.0757914       -17705527.977879882        1342237059.7770112     
  -1185544824.4334292       -23755479.218492091        1344929914.1408534     
  -1668500886.3250694        197226.80606675148        1291137349.3586557     
  -1608037280.2313044       -5759901.4406979084        1284098274.1772854     
  -1547725678.5483096       -12223711.056696951        1281069948.9246418     
  -1487566081.2760792       -19194202.041911006        1282052373.6007283     
  -1427558488.4146209       -26671374.396365941        1287045548.2055383     
  -1947604281.8855965        1067578.9193443060        1227165004.3942652     
  -1875741218.2915440       -4780804.5802454948        1220152619.3150721     
  -1804121851.2375658       -11441509.880074978        1217873202.8272495     
  -1732746180.7236550       -18914536.980135202        1220326754.9308040     
  -1661614206.7498200       -27199885.880441964        1227513275.6257353     
  -2227003659.3732524        1849136.4544763565        1161972649.3888004     
  -2141677656.3856268       -3271457.7299425602        1154879980.2609267     
  -2056687042.0673833       -9510014.1456196308        1153242498.3870740     
  -1972031816.4185076       -16866532.792531967        1157060203.7672470     
  -1887711979.4390130       -25341013.670709491        1166333096.4014447     
  -935573214.80623806       -18452200.346818447        1401166373.4316759     
  -874885942.83083546       -17946326.941549301        1392300078.8363612     
  -814567527.45068991       -18669975.520468920        1389923290.1868823     
  -754617968.66581750       -20623146.083635241        1394036007.4832361     
  -695037266.47619867       -23805838.630975842        1404638230.7254233     
  -1185544824.4334292       -23755479.218492091        1344929914.1408534     
  -1108561662.3269894       -22532608.116068006        1338157361.4026437     
  -1031872991.1453636       -22291373.429690719        1337265141.8123562     
  -955478810.88855278       -23031775.159353912        1342253255.3699977     
  -879379121.55654442       -24753813.305050552        1353121702.0755727     
  -1427558488.4146209       -26671374.396365941        1287045548.2055383     
  -1336019929.8854494       -25253653.709285140        1282453497.2732892     
  -1244701496.6106365       -24569683.870075643        1283132606.6910625     
  -1153603188.5901906       -24619464.878746748        1289082876.4588540     
  -1062725005.8241074       -25402996.735296965        1300304306.5766747     
  -1661614206.7498200       -27199885.880441964        1227513275.6257353     
  -1557260745.5062156       -26109463.721190751        1225188486.4483049     
  -1453053043.8465216       -25504906.841642559        1227525684.8229873     
  -1348991101.7707448       -25386215.241815984        1234524870.7497892     
  -1245074919.2788806       -25753388.921699941        1246186044.2286978     
  -1887711979.4390130       -25341013.670709491        1166333096.4014447     
  -1772284109.1892834       -25100038.151786804        1166362328.9276829     
  -1656927632.8530126       -25097042.344397843        1170444376.2081378     
  -1541642550.4302075       -25332026.248559535        1178579238.2428017     
  -1426428861.9208684       -25804989.864273787        1190766915.0316722     
  -3768225640.5415268       -1130467692.1624579        800559474.65889120     
  -3779102339.9457998       -1008720585.8833473        884850239.67338300     
  -3790584664.3334894       -888992229.54895997        974069471.56290984     
  -3802672613.7045965       -771282623.15929651        1068217170.3274721     
  -3815366188.0591211       -655591766.71435690        1167293335.9670696     
  -4339746310.2146902       -1301923893.0644069        858728104.33676326     
  -4335220219.9364824       -1125741535.6205771        942337518.12385428     
  -4331830632.9369507       -953347522.43899941        1020304783.7536521     
  -4329577549.2160959       -784741853.51967382        1092629901.2261560     
  -4328460968.7739162       -619924528.86260116        1159312870.5413668     
  -4895209271.9593258       -1468562781.5877979        936365803.12019312     
  -4905482149.2338638       -1247005700.1498165        1018674507.6687487     
  -4917422408.0823364       -1031006557.2916156        1084770449.0276821     
  -4931030048.5047417       -820565353.01319563        1134653627.1969929     
  -4946305070.5010824       -615682087.31455612        1168324042.1766820     
  -5434614525.7754335       -1630384357.7326303        1033472571.0091808     
  -5489888127.8379421       -1372513079.4710648        1113861208.3080659     
  -5547359989.7696419       -1121969334.1068087        1167466467.3850002     
  -5607030111.5705366       -878753121.63986206        1194288348.2399828     
  -5668898493.2406216       -642864442.07022405        1194326850.8730152     
  -5957962071.6630154       -1787388621.4989045        1150048408.0037265     
  -6088438155.7487183       -1502263673.5843227        1227897620.0418060     
  -6221643377.9988718       -1226235852.8845787        1268392838.8256059     
  -6357577738.4134779       -959305159.39967215        1271534064.3551261     
  -6496241236.9925346       -701471593.12960267        1237321296.6303663     
  -3815366188.0591211       -655591766.71435690        1167293335.9670696     
  -3797886441.2772102       -537613515.73916006        1188974747.0948584     
  -3784261246.5299082       -432483771.54599297        1205771601.3557029     
  -3774490603.8172135       -340202534.13485408        1217683898.7496045     
  -3768574513.1391296       -260769803.50574625        1224711639.2765617     
  -4328460968.7739162       -619924528.86260116        1159312870.5413668     
  -4298091437.7433758       -464159942.68079984        1141371532.3696032     
  -4278340539.9078612       -343790800.48241258        1129510046.2083573     
  -4269208275.2673721       -258817102.26744485        1123728412.0576301     
  -4270694643.8219066       -209238848.03589153        1124026629.9174211     
  -4946305070.5010824       -615682087.31455612        1168324042.1766820     
  -4871718872.7148829       -412733101.17404079        1102868526.6848803     
  -4814515389.2841196       -267726496.21832609        1054457272.0810591     
  -4774694620.2088003       -180662272.44741631        1023090278.3652179     
  -4752256565.4889212       -151540429.86130762        1008767545.5373570     
  -5668898493.2406216       -642864442.07022405        1194326850.8730152     
  -5518768746.1917219       -383332991.21888185        1073465730.0406904     
  -5392785794.6586819       -204290858.75373030        980613278.97380817     
  -5290949638.6414976       -105738044.67476845        915769497.67236769     
  -5213260278.1401682       -87674548.981991529        878934386.13636959     
  -6496241236.9925346       -701471593.12960267        1237321296.6303663     
  -6239241058.1739054       -375959612.81532717        1053163142.4370338     
  -6013151756.0315475       -153483888.08862495        907978066.88660431     
  -5817973330.5654650       -34044418.949501753        801766069.97908044     
  -5653705781.7756538       -17641205.397951126        734527151.71445978     
  -3768574513.1391296       -260769803.50574625        1224711639.2765617     
  -3661725280.2215438       -168499013.57825291        1192335830.5042379     
  -3562521638.1529527       -101713526.48074269        1170417722.6234899     
  -3470963586.9333582       -60413342.213218212        1158957315.6343203     
  -3387051126.5627565       -44598460.775674462        1157954609.5367262     
  -4270694643.8219066       -209238848.03589153        1124026629.9174211     
  -4147916514.0528922       -145153329.17939568        1090742919.3803513     
  -4029534312.5430017       -95720904.519975424        1065758798.8538038     
  -3915548039.2922292       -60941574.057626963        1049074268.3377776     
  -3805957694.3005838       -40815337.792356730        1040689327.8322719     
  -4752256565.4889212       -151540429.86130762        1008767545.5373570     
  -4619715569.9572077       -117489991.40242910        978367206.25706053     
  -4488320840.0947437       -87260438.507714510        954108346.10623062     
  -4358072375.9015274       -60851771.177164793        935990965.08486712     
  -4228970177.3775654       -38263989.410781622        924015063.19296932     
  -5213260278.1401682       -87674548.981991529        878934386.13636959     
  -5077122447.9344883       -85509000.247351646        855208691.13436496     
  -4938881220.8081808       -76332128.443962574        835466364.38077188     
  -4798536596.7612514       -60143933.571830988        819707405.87558734     
  -4656088575.7936993       -36944415.630952835        807931815.61881542     
  -5653705781.7756538       -17641205.397951126        734527151.71445978     
  -5520137147.9847307       -49210355.714163303        721267374.01226544     
  -5381215454.6833143       -62935974.328719616        709832853.67742598     
  -5236940701.8713989       -58818061.241622210        700223590.70994043     
  -5087312889.5489893       -36856616.452873230        692439585.10981226     
  -3387051126.5627565       -44598460.775674462        1157954609.5367262     
  -3294395315.1335187       -37498167.144982100        1151537539.8303912     
  -3201569248.9812894       -29830357.770979762        1149337645.5728946     
  -3108572928.1060667       -21595032.653674126        1151354926.7642372     
  -3015406352.5078521       -12792191.793055654        1157589383.4044197     
  -3805957694.3005838       -40815337.792356730        1040689327.8322719     
  -3700394007.4866037       -29471435.940059185        1032843332.8781853     
  -3595428460.7385597       -20121334.307551146        1029730003.1816152     
  -3491061054.0564551       -12765032.894841671        1031349338.7425615     
  -3387291787.4402881       -7402531.7019233704        1037701339.5610225     
  -4228970177.3775654       -38263989.410781622        924015063.19296932     
  -4109025787.1540504       -22234630.929443598        913843682.40404642     
  -3990447931.7854023       -10760388.630995750        908920456.68131697     
  -3873236611.2716227       -3841262.5154442787        909245386.02478075     
  -3757391825.6127133       -1477252.5827858448        914818470.43443739     
  -4656088575.7936993       -36944415.630952835        807931815.61881542     
  -4520290654.1358576       -15787752.113134861        794538588.40797246     
  -4386627662.1218176       -1747520.7413108349        786909006.07199931     
  -4255099599.7515764        5176278.4845170975        785043068.61089587     
  -4125706467.0251293        4983645.5643541813        788940776.02466226     
  -5087312889.5489893       -36856616.452873230        692439585.10981226     
  -4934188608.4320335       -10130799.491140604        674928050.88996243     
  -4783967651.7478065        6917269.3615012169        663695651.35366189     
  -4636650019.4963064        14287590.105046034        658742386.50090563     
  -4492235711.6775351        11980162.739497185        660068256.33169663     
  -3015406352.5078521       -12792191.793055654        1157589383.4044197     
  -2922231545.3418198       -5232616.8685203791        1149602901.1055813     
  -2830048356.9030118       -978437.70139420033        1146483039.6061354     
  -2738856787.1914306       -29654.291692972183        1148229798.9060805     
  -2648656836.2070713       -2386266.6393992901        1154843179.0054209     
  -3387291787.4402881       -7402531.7019233704        1037701339.5610225     
  -3283052445.1413989       -3616046.0701630116        1029274143.6692178     
  -3179347075.9189639       -1609470.6932578087        1025362220.7631673     
  -3076175679.7729955       -1382805.5712352991        1025965570.8428692     
  -2973538256.7034798       -2936050.7040613890        1031084193.9083240     
  -3757391825.6127133       -1477252.5827858448        914818470.43443739     
  -3643091799.0770779       -1765011.5126311779        906484480.87555933     
  -3528868099.9671354       -2307195.1947908401        902314416.48879504     
  -3414720728.2828875       -3103803.6292724609        902308277.27414596     
  -3300649684.0243387       -4154836.8160655499        906466063.23160946     
  -4125706467.0251293        4983645.5643541813        788940776.02466226     
  -4002349607.1488581        320486.80406999588        781233912.72460270     
  -3878611429.0475187       -3071611.2059872150        777339626.78301752     
  -3754491932.7211084       -5192648.4658050537        777257918.19990778     
  -3629991118.1696315       -6042624.9753978252        780988786.97527242     
  -4492235711.6775351        11980162.739497185        660068256.33169663     
  -4360825869.3567467        2640448.8799307346        653522439.21634912     
  -4228577063.1601186       -3902718.7268414497        650437851.64583564     
  -4095489293.0876613       -7649340.0808489323        650814493.62016141     
  -3961562559.1393633       -8599415.1820588112        654652365.13931704     
  -2648656836.2070713       -2386266.6393992901        1154843179.0054209     
  -2543331419.3890624       -1620340.5007480383        1150289010.6906617     
  -2437947417.6440830       -659131.27220296860        1149959199.6496372     
  -2332504830.9721498        497361.04619324207        1153853745.8823514     
  -2227003659.3732524        1849136.4544763565        1161972649.3888004     
  -2973538256.7034798       -2936050.7040613890        1031084193.9083240     
  -2856634512.6202130       -1112505.3308224678        1025854646.1884655     
  -2739792249.8328199        506102.38950049877        1025063080.8063173     
  -2623011468.3413057        1919772.4569016695        1028709497.7618831     
  -2506292168.1456623        3128504.8713836670        1036793897.0551574     
  -3300649684.0243387       -4154836.8160655499        906466063.23160946     
  -3171557255.3501630       -1090565.0105316639        900421058.84666967     
  -3042646374.1947050        1368548.3992793560        899027661.86341751     
  -2913917040.5579643        3222503.4133623838        902285872.28185189     
  -2785369254.4399414        4471300.0317205191        910195690.10197318     
  -3629991118.1696315       -6042624.9753978252        780988786.97527242     
  -3488099647.5789051       -1554519.5398795605        773988248.66527355     
  -3346509790.7297449        1928206.7570970058        771852942.82093799     
  -3205221547.6221342        4405553.9155683517        774582869.44226027     
  -3064234918.2560863        5877521.9354990721        782178028.52925169     
  -3961562559.1393633       -8599415.1820588112        654652365.13931704     
  -3806261689.3064508       -2504368.9188730717        646556215.64427829     
  -3651382499.4379339        2185077.4629812241        643538923.67887664     
  -3496924989.5338120        5468923.9635241032        645600489.24311304     
  -3342889159.5940943        7347170.5827219486        652740912.33698320     
  -2227003659.3732524        1849136.4544763565        1161972649.3888004     
  -2141677656.3856268       -3271457.7299425602        1154879980.2609267     
  -2056687042.0673833       -9510014.1456196308        1153242498.3870740     
  -1972031816.4185076       -16866532.792531967        1157060203.7672470     
  -1887711979.4390130       -25341013.670709491        1166333096.4014447     
  -2506292168.1456623        3128504.8713836670        1036793897.0551574     
  -2407731902.0106134       -1453064.4971257448        1029056399.2924149     
  -2309336039.1279135       -6582644.7067975998        1025919526.3546185     
  -2211104579.4975595       -12260235.757621050        1027383278.2417556     
  -2113037523.1195526       -18485837.649608374        1033447654.9538375     
  -2785369254.4399414        4471300.0317205191        910195690.10197318     
  -2676016332.0977073       -303726.60295116901        902012846.69089806     
  -2566656827.5907841       -5056812.6886817217        897576065.67568135     
  -2457290740.9191914       -9787958.2254908085        896885347.05631912     
  -2347918072.0829115       -14497163.213356495        899940690.83281696     
  -3064234918.2560863        5877521.9354990721        782178028.52925169     
  -2946530946.6468983        176555.95260250568        773749322.45637238     
  -2828649407.4559989       -4932518.0912622213        768212116.35026979     
  -2710590300.6834006       -9449700.1961238384        765566410.21093929     
  -2592353626.3290873       -13374990.361941218        765812204.03838336     
  -3342889159.5940943        7347170.5827219486        652740912.33698320     
  -3219275745.6581955       -12216.830480575562        644265826.58883655     
  -3095313778.7235603       -6209760.9145630598        637827678.37837887     
  -2971003258.7901945       -11245461.669544101        633426467.70561218     
  -2846344185.8580890       -15119319.095390201        631062194.57053721     
  -1887711979.4390130       -25341013.670709491        1166333096.4014447     
  -1772284109.1892834       -25100038.151786804        1166362328.9276829     
  -1656927632.8530126       -25097042.344397843        1170444376.2081378     
  -1541642550.4302075       -25332026.248559535        1178579238.2428017     
  -1426428861.9208684       -25804989.864273787        1190766915.0316722     
  -2113037523.1195526       -18485837.649608374        1033447654.9538375     
  -1986630634.7064996       -16851139.608373404        1029949173.1435366     
  -1860482408.7624011       -16078649.796972513        1030521646.8918136     
  -1734592845.2872488       -16168368.215397954        1035165076.1986694     
  -1608961944.2810538       -17120294.863672554        1043879461.0641071     
  -2347918072.0829115       -14497163.213356495        899940690.83281696     
  -2210480334.6369181       -11453193.388930678        892696014.70457506     
  -2073488528.2153585       -9895660.3126212358        889540434.93928003     
  -1936942652.8182337       -9824563.9844361544        890473951.53693402     
  -1800842708.4455454       -11239904.404356599        895496564.49753368     
  -2592353626.3290873       -13374990.361941218        765812204.03838336     
  -2443833208.9805269       -8906199.4934465885        754602853.61079776     
  -2295945991.2118835       -6548073.8913418055        747500740.35053170     
  -2148691973.0231547       -6300613.5556501150        744505864.25757909     
  -2002071154.4143538       -8163818.4863387346        745618225.33194709     
  -2846344185.8580890       -15119319.095390201        631062194.57053721     
  -2686689257.7373238       -9210157.9219056368        615669689.86220872     
  -2527854797.7519679       -6035890.5331211090        604402563.12557340     
  -2369840805.9020295       -5596516.9290428162        597260814.36062253     
  -2212647282.1874795       -7892037.1096162796        594244443.56735396     
  -5957962071.6630154       -1787388621.4989045        1150048408.0037265     
  -6088438155.7487183       -1502263673.5843227        1227897620.0418060     
  -6221643377.9988718       -1226235852.8845787        1268392838.8256059     
  -6357577738.4134779       -959305159.39967215        1271534064.3551261     
  -6496241236.9925346       -701471593.12960267        1237321296.6303663     
  -6810608920.7862062       -2043182676.2358618        1353777296.6895301     
  -6828547577.2161226       -1395487916.7513041        1202743250.6236858     
  -6897853419.6216011       -919017110.51862097        1091960493.3388853     
  -7018526448.0026417       -613770257.53781176        1021429024.8351289     
  -7190566662.3592463       -479747357.80887842        991148845.11241639     
  -8337912084.3091421       -2501373625.2927427        1712343219.6522923     
  -8021583935.8394909       -1424590241.0650742        1275681526.3695607     
  -7805261021.1565123       -681157636.12631726        956876403.90319705     
  -7688943340.2602053       -271075810.47647047        755927852.25320148     
  -7672630893.1505747       -194344764.11553669        672835871.41957307     
  -10539871562.231825       -3161961468.6695476        2225746176.8920126     
  -9667547231.6188240       -1589570646.5256343        1446712447.2794318     
  -8943866182.6036072       -512657429.70766973        863140570.51854205     
  -8368828415.1861715        68778181.784349442        475030546.60934365     
  -7942433929.3665218        154736187.95041704        282382375.55183697     
  -13416487354.554256       -4024946206.3662767        2893986168.4086919     
  -11766437464.554119       -1890429133.1329830        1715836013.3532979     
  -10313668903.962881       -413516491.26267433        810752993.18491912     
  -9058181672.7805386        405791719.24464893        178737107.90355560     
  -7999975771.0070877        567495498.38898659       -180211642.49079287     
  -6496241236.9925346       -701471593.12960267        1237321296.6303663     
  -6239241058.1739054       -375959612.81532717        1053163142.4370338     
  -6013151756.0315475       -153483888.08862495        907978066.88660431     
  -5817973330.5654650       -34044418.949501753        801766069.97908044     
  -5653705781.7756538       -17641205.397951126        734527151.71445978     
  -7190566662.3592463       -479747357.80887842        991148845.11241639     
  -6900560599.2211828       -304450243.22907925        846830598.86967623     
  -6623367351.2487936       -171862512.53485370        723593384.78386021     
  -6358986918.4420729       -81984165.726193905        621437202.85496771     
  -6107419300.8010216       -34815202.803105116        540362053.08299887     
  -7672630893.1505747       -194344764.11553669        672835871.41957307     
  -7400739078.5101681       -184598555.11534500        589471938.22312915     
  -7123562017.5248299       -157234858.29871988        509296990.69762814     
  -6841099710.1945601       -112253673.66564918        432311028.84306908     
  -6553352156.5193596       -49655001.216148853        358514052.65945578     
  -7942433929.3665218        154736187.95041704        282382375.55183697     
  -7739776496.0408554       -16404548.474122047        281087160.49738997     
  -7513735754.8596573       -109600925.38021851        265088884.62790558     
  -7264311705.8229256       -124852942.76787090        234387547.94338566     
  -6991504348.9306593       -62160600.637077808        188983150.44382763     
  -7999975771.0070877        567495498.38898659       -180211642.49079287     
  -7917672851.8132496        200131776.69459057       -78323734.307541683     
  -7793888563.2532778       -28960713.779360771       -9030933.4253028128     
  -7628622905.3271694       -119781973.03285313        27666760.155914854     
  -7421875878.0349274       -72332001.065904140        31769346.436115131     
  -5653705781.7756538       -17641205.397951126        734527151.71445978     
  -5520137147.9847307       -49210355.714163303        721267374.01226544     
  -5381215454.6833143       -62935974.328719616        709832853.67742598     
  -5236940701.8713989       -58818061.241622210        700223590.70994043     
  -5087312889.5489893       -36856616.452873230        692439585.10981226     
  -6107419300.8010216       -34815202.803105116        540362053.08299887     
  -5959357857.9542885       -36638857.876362562        533838700.75439620     
  -5810312676.1340036       -35183383.037795305        529774060.66069221     
  -5660283755.3401718       -30448778.287399054        528168132.80188406     
  -5509271095.5727959       -22435043.625177860        529020917.17797214     
  -6553352156.5193596       -49655001.216148853        358514052.65945578     
  -6388988033.5666904       -21190199.731415510        353629585.07800615     
  -6228009492.1774197       -4010670.1246857643        351837284.59899449     
  -6070416532.3515530        1883587.6040451527        353137151.22241962     
  -5916209154.0890827       -3507426.5452272892        357529184.94828683     
  -6991504348.9306593       -62160600.637077808        188983150.44382763     
  -6809027674.8219366       -2864381.2793211937        180640026.98309043     
  -6634305902.8135643        30582164.410604954        176022525.49233425     
  -6467339032.9055424        38179036.432703972        175130645.97155476     
  -6308127065.0978651        19926234.786971807        177964388.42075908     
  -7421875878.0349274       -72332001.065904140        31769346.436115131     
  -7219476781.7200346        18338597.479917526        14870026.469651952     
  -7029201908.0424376        68595120.568074226        2329783.3407051819     
  -6851051257.0021391        78437568.198578358       -5851382.9507123670     
  -6685024828.5991364        47865940.371427536       -9673472.4046135042     
  -5087312889.5489893       -36856616.452873230        692439585.10981226     
  -4934188608.4320335       -10130799.491140604        674928050.88996243     
  -4783967651.7478065        6917269.3615012169        663695651.35366189     
  -4636650019.4963064        14287590.105046034        658742386.50090563     
  -4492235711.6775351        11980162.739497185        660068256.33169663     
  -5509271095.5727959       -22435043.625177860        529020917.17797214     
  -5345712978.7402010       -10597788.010696650        513973803.15335339     
  -5183099117.0354300       -1908049.4889314175        504109403.76811850     
  -5021429510.4584723        3634171.9401080608        499427719.02226651     
  -4860704159.0093279        6028876.2764375210        499928748.91579777     
  -5916209154.0890827       -3507426.5452272892        357529184.94828683     
  -5745349830.2384710       -7498520.8872833252        347232071.97463089     
  -5573475692.2107630       -8106901.3056817055        341021253.59619319     
  -5400586740.0059547       -5332567.8004179001        338896729.81297809     
  -5226682973.6240501        824479.62850117683        340858500.62498230     
  -6308127065.0978651        19926234.786971807        177964388.42075908     
  -6133099162.9268398       -832998.12090229988        174702857.35379523     
  -5955097377.2737999       -11679286.088734627        174431200.83789107     
  -5774121708.1387529       -12612629.116543531        177149418.87304020     
  -5590172155.5216961       -3633027.2043187618        182857511.45924616     
  -6685024828.5991364        47865940.371427536       -9673472.4046135042     
  -6508960976.8053017        9398780.2884576321       -3613840.7091503330     
  -6327964172.2245455       -12625203.838104010        4339245.4932025811     
  -6142034414.8568687       -18206012.008260250        14185786.202451885     
  -5951171704.7022657       -7343644.2220084667        25925781.418594934     
  -4492235711.6775351        11980162.739497185        660068256.33169663     
  -4360825869.3567467        2640448.8799307346        653522439.21634912     
  -4228577063.1601186       -3902718.7268414497        650437851.64583564     
  -4095489293.0876613       -7649340.0808489323        650814493.62016141     
  -3961562559.1393633       -8599415.1820588112        654652365.13931704     
  -4860704159.0093279        6028876.2764375210        499928748.91579777     
  -4718759959.6907291        1591524.2910261154        494858645.46628237     
  -4576661204.5954523       -2330641.7721283436        493299349.73005545     
  -4434407893.7235107       -5737621.9130661488        495250861.70712191     
  -4292000027.0748973       -8629416.1317594051        500713181.39747465     
  -5226682973.6240501        824479.62850117683        340858500.62498230     
  -5074062765.3977680        1331985.0902116299        336465634.72560716     
  -4921972409.4939709        73316.143627405167        335633154.70797354     
  -4770411905.9126720       -2951527.2112736702        338361060.57209170     
  -4619381254.6538658       -7742544.9744839668        344649352.31795341     
  -5590172155.5216961       -3633027.2043187618        182857511.45924616     
  -5426734286.4778538        1861831.2774825096        178343406.99432135     
  -5264510677.8556786        3309155.0204136372        177439266.57959571     
  -5103501329.6551495        708944.02451610565        180145090.21507156     
  -4943706241.8762779       -5938801.7102487087        186460877.90074626     
  -5951171704.7022657       -7343644.2220084667        25925781.418594934     
  -5776774522.9310112        3181062.8528072834        20491962.272423968     
  -5604276009.6805582        7376874.8582818508        18717685.344915688     
  -5433676164.9509411        5243791.7943060398        20602950.636060402     
  -5264974988.7421370       -3218186.3390471935        26147758.145857073     
  -3961562559.1393633       -8599415.1820588112        654652365.13931704     
  -3806261689.3064508       -2504368.9188730717        646556215.64427829     
  -3651382499.4379339        2185077.4629812241        643538923.67887664     
  -3496924989.5338120        5468923.9635241032        645600489.24311304     
  -3342889159.5940943        7347170.5827219486        652740912.33698320     
  -4292000027.0748973       -8629416.1317594051        500713181.39747465     
  -4124150755.0583644       -3782095.3717956543        493283033.75230116     
  -3956385691.5427160        784530.38522982597        490714582.29639989     
  -3788704836.5279479        5070461.1393086910        493007827.02977282     
  -3621108190.0140667        9075696.8904480934        500162767.95241636     
  -4619381254.6538658       -7742544.9744839668        344649352.31795341     
  -4439604041.4261923       -4329088.0094902515        338278923.23007882     
  -4259573565.2358851       -71421.169051170349        336553028.99111253     
  -4079289826.0829406        5030455.5468389988        339471669.60105491     
  -3898752823.9673634        10976542.138178349        347034845.05990422     
  -4943706241.8762779       -5938801.7102487087        186460877.90074626     
  -4752621548.4099350       -4145346.8319597244        181543884.07760453     
  -4560946120.5174341       -382777.19982790947        181054263.76301560     
  -4368679958.1987944        5348907.1861097813        184992016.95696098     
  -4175823061.4539933        13049706.325911045        193357143.65945077     
  -5264974988.7421370       -3218186.3390471935        26147758.145857073     
  -5063203276.0095882       -3230871.8392031193        23077916.294893786     
  -4860503357.3873749       -149537.70713329315        24218286.612101890     
  -4656875232.8754988        6025816.0571370125        29568869.097495075     
  -4452318902.4739513        15295189.453645706        39129663.751058526     
  -3342889159.5940943        7347170.5827219486        652740912.33698320     
  -3219275745.6581955       -12216.830480575562        644265826.58883655     
  -3095313778.7235603       -6209760.9145630598        637827678.37837887     
  -2971003258.7901945       -11245461.669544101        633426467.70561218     
  -2846344185.8580890       -15119319.095390201        631062194.57053721     
  -3621108190.0140667        9075696.8904480934        500162767.95241636     
  -3491070750.4897242        1834532.0152034760        492569581.59860939     
  -3360935017.9784732       -5078989.5703592300        487853733.72792751     
  -3230700992.4803152       -11664867.866232634        486015224.34036726     
  -3100368673.9952641       -17923102.872444510        487054053.43593305     
  -3898752823.9673634        10976542.138178349        347034845.05990422     
  -3759890213.2961979        4573943.4683897495        340031588.08663839     
  -3621179569.6499586       -2335211.9511470795        336746070.54193372     
  -3482620893.0286369       -9750924.1204016209        337178292.42578411     
  -3344214183.4322443       -17673193.039438486        341328253.73819244     
  -4175823061.4539933        13049706.325911045        193357143.65945077     
  -4025734134.0776238        8206017.5291028023        186651846.05292881     
  -3876047433.7380095        2021571.9431121349        184504688.82039809     
  -3726762960.4351439       -5503630.4320459366        186915671.96185571     
  -3577880714.1690292       -14369589.596368313        193884795.47730130     
  -4452318902.4739513        15295189.453645706        39129663.751058526     
  -4288602512.8339915        12730754.197332621        32430355.497476287     
  -4125538610.2426305        7991362.1123855114        31129588.563326959     
  -3963127194.6998315        1077013.1988947392        35227362.948590055     
  -3801368266.2056279       -8012292.5432686806        44723678.653280936     
  -2846344185.8580890       -15119319.095390201        631062194.57053721     
  -2686689257.7373238       -9210157.9219056368        615669689.86220872     
  -2527854797.7519679       -6035890.5331211090        604402563.12557340     
  -2369840805.9020295       -5596516.9290428162        597260814.36062253     
  -2212647282.1874795       -7892037.1096162796        594244443.56735396     
  -3100368673.9952641       -17923102.872444510        487054053.43593305     
  -2929443422.8668704       -12369921.735356569        474797735.99329460     
  -2758858089.1098051       -7949798.5027046204        467167669.05477971     
  -2588612672.7240820       -4662733.1745128632        464163852.62037259     
  -2418707173.7096839       -2508725.7507700920        465786286.69010121     
  -3344214183.4322443       -17673193.039438486        341328253.73819244     
  -3160587544.9178267       -12046672.625187039        332768766.11931837     
  -2976820273.0106897       -5951374.2351888418        329336401.53700089     
  -2792912367.7108035        612702.13060319424        331031159.99123651     
  -2608863829.0181990        7645556.4721760750        337853041.48202032     
  -3577880714.1690292       -14369589.596368313        193884795.47730130     
  -3380121623.8902235       -8240410.5914914608        189582780.24028397     
  -3181741349.4546103       -40617.730577230453        190908760.57224321     
  -2982739890.8621869        10229788.986337423        197862736.47319457     
  -2783117248.1129756        22570809.559253931        210444707.94312561     
  -3801368266.2056279       -8012292.5432686806        44723678.653280936     
  -3588045659.7840362       -951135.63418054581        45239778.356190950     
  -3373621318.4415751        9782471.0111176968        51884746.160511062     
  -3158095242.1782413        24188527.392659426        64658582.066248000     
  -2941467430.9940448        42267033.510430455        83561286.073409781     
 </DataArray>
 <DataArray  type="Float64" Name="VM" NumberOfComponents="1" format="ascii">
   12935499713.841101     
   11340698232.945864     
   10210281642.390032     
   9272912061.9371643     
   8304158140.2907038     
   10130254845.951283     
   9322010819.8880100     
   8826406710.2498569     
   8443611451.3242216     
   8035819894.3444519     
   7982341289.7358122     
   7734978091.1404886     
   7669178544.1654510     
   7669636626.8782959     
   7666421811.7714663     
   6491672362.7268400     
   6586885977.9729424     
   6757430139.1356144     
   6961222335.3169308     
   7171602275.2020626     
   5657800857.1442041     
   5890894121.1349878     
   6116351828.9949894     
   6331713874.8388100     
   6536755761.6770058     
   8304158140.2907038     
   8020759182.8666487     
   7779464361.5493059     
   7569594440.5420046     
   7386180488.1307755     
   8035819894.3444519     
   7746900783.6144943     
   7473656488.7342167     
   7214128823.8547907     
   6968324388.3482294     
   7666421811.7714663     
   7381143630.1744995     
   7101263030.2702856     
   6826857698.2051868     
   6558130859.6061544     
   7171602275.2020626     
   6910927243.7905436     
   6658151800.2938499     
   6409419036.3767109     
   6161584618.8459816     
   6536755761.6770058     
   6328604093.5336704     
   6142629888.1116247     
   5964929980.1004620     
   5786497429.5445452     
   7386180488.1307755     
   7228709409.8826952     
   7063750419.1873188     
   6890612330.3753233     
   6709106783.1400919     
   6968324388.3482294     
   6814782086.2756767     
   6656635283.5630884     
   6493601527.8272018     
   6325628451.8083601     
   6558130859.6061544     
   6407760516.1180229     
   6255758007.5793781     
   6102090799.4324522     
   5946786841.5240059     
   6161584618.8459816     
   6012644650.4139147     
   5865025700.8790064     
   5718765191.9902296     
   5573917831.1672678     
   5786497429.5445452     
   5635899906.1224718     
   5489476906.5808363     
   5347141293.2559462     
   5208937266.1345968     
   6709106783.1400919     
   6513668459.5295782     
   6321665492.7988520     
   6133000893.7052708     
   5947672799.6549702     
   6325628451.8083601     
   6140143356.2969980     
   5956932819.7449503     
   5775981255.8723354     
   5597324296.8058720     
   5946786841.5240059     
   5773017374.4598551     
   5600660664.5034208     
   5429743967.6921930     
   5260330638.7636833     
   5573917831.1672678     
   5414112488.6761932     
   5255188803.3225355     
   5097185538.2022648     
   4940199602.4129457     
   5208937266.1345968     
   5065857893.9390821     
   4923511154.2005453     
   4781924161.4980736     
   4641251257.3879976     
   5947672799.6549702     
   5778474716.5270195     
   5608061796.1936226     
   5436417080.9838390     
   5263561478.8150415     
   5597324296.8058720     
   5436448404.5016823     
   5275126423.7551270     
   5113384513.1277189     
   4951283667.7722139     
   5260330638.7636833     
   5108081896.6526031     
   4956220546.2629614     
   4804812491.4562778     
   4653958194.4427328     
   4940199602.4129457     
   4796755501.7124119     
   4654589068.2393923     
   4513799239.1765165     
   4374521951.5300341     
   4641251257.3879976     
   4506617190.6465073     
   4374195292.0448790     
   4244106711.4901190     
   4116514774.2057118     
   5263561478.8150415     
   5061746444.1309900     
   4860609597.0164928     
   4660172493.1142988     
   4460501092.2398863     
   4951283667.7722139     
   4760945498.7086811     
   4571523352.8553982     
   4383084185.8345785     
   4195750557.7174773     
   4653958194.4427328     
   4475955901.1615810     
   4299240229.6760254     
   4123939198.0326667     
   3950251692.1426668     
   4374521951.5300341     
   4209871763.6984329     
   4047035291.9373245     
   3886218042.2252498     
   3727715030.3583856     
   4116514774.2057118     
   3966384606.5242786     
   3818770026.6842690     
   3673967702.3403831     
   3532383725.4106488     
   4460501092.2398863     
   4295349334.4461994     
   4129892069.6681886     
   3964135411.2754922     
   3798158479.7879610     
   4195750557.7174773     
   4042790449.9073143     
   3890206861.7550154     
   3738060207.1689606     
   3586474331.6219831     
   3950251692.1426668     
   3807999118.8475671     
   3666699392.4868979     
   3526450364.1792827     
   3387402073.1275949     
   3727715030.3583856     
   3594698484.9204636     
   3463068526.3180628     
   3332943390.9565930     
   3204481838.9344797     
   3532383725.4106488     
   3407188336.2358065     
   3283634758.5919690     
   3161844997.0278130     
   3041970990.5259314     
   3798158479.7879610     
   3588425809.8487730     
   3379718184.5706463     
   3172236219.1318617     
   2966360037.6426005     
   3586474331.6219831     
   3391940653.5579143     
   3198857181.6091027     
   3007458019.4932199     
   2818142875.0347767     
   3387402073.1275949     
   3206803599.1323023     
   3028063006.8409529     
   2851458571.4484792     
   2677425853.6015964     
   3204481838.9344797     
   3036750474.7627168     
   2871265516.3540540     
   2708359565.5707498     
   2548519846.0663366     
   3041970990.5259314     
   2886310214.6267405     
   2733264682.2104621     
   2583229635.4478645     
   2436757551.2474399     
   5657800857.1442041     
   5890894121.1349878     
   6116351828.9949894     
   6331713874.8388100     
   6536755761.6770058     
   5151395378.8662853     
   5311288066.2867327     
   5467813466.6569204     
   5618075514.1896114     
   5760607730.9945259     
   4643400808.3108091     
   4755492339.2157421     
   4868706573.0331278     
   4980408516.0326099     
   5088672720.4148817     
   4134081073.3452158     
   4224345024.6367774     
   4320527014.7307234     
   4420970608.8073978     
   4524221551.6874094     
   3624956655.6592646     
   3719671118.5374651     
   3825633669.9208536     
   3942781296.6009831     
   4071021769.8927841     
   6536755761.6770058     
   6328604093.5336704     
   6142629888.1116247     
   5964929980.1004620     
   5786497429.5445452     
   5760607730.9945259     
   5652009602.3475761     
   5559404981.5655899     
   5473735037.5503225     
   5389459738.6998091     
   5088672720.4148817     
   5053932202.8174133     
   5029702077.6752844     
   5010776541.1740465     
   4993954730.0746889     
   4524221551.6874094     
   4538966788.7485209     
   4558389474.9004822     
   4580008527.0610819     
   4602100173.1327629     
   4071021769.8927841     
   4112439358.7656417     
   4151228647.4002008     
   4186488749.1604109     
   4217485046.2629776     
   5786497429.5445452     
   5635899906.1224718     
   5489476906.5808363     
   5347141293.2559462     
   5208937266.1345968     
   5389459738.6998091     
   5248284499.8311939     
   5110322018.1067476     
   4975613388.3314323     
   4844251304.3518229     
   4993954730.0746889     
   4866663402.5346012     
   4742568261.1261501     
   4621638087.1876087     
   4503914645.6393080     
   4602100173.1327629     
   4493701965.4687786     
   4389547135.0615616     
   4289321755.7924809     
   4192939451.6854973     
   4217485046.2629776     
   4133354696.4760218     
   4055759159.7811460     
   3983853870.5806227     
   3917349068.4406509     
   5208937266.1345968     
   5065857893.9390821     
   4923511154.2005453     
   4781924161.4980736     
   4641251257.3879976     
   4844251304.3518229     
   4717603875.6176128     
   4592659025.7841063     
   4469541680.5994101     
   4348485068.2228174     
   4503914645.6393080     
   4393012116.2689362     
   4284770810.7155657     
   4179387514.6725731     
   4077146477.0850754     
   4192939451.6854973     
   4096953075.4104028     
   4004522131.8148136     
   3915884458.7771974     
   3831344166.8120279     
   3917349068.4406509     
   3835235186.5535078     
   3757440967.0497918     
   3684211823.8262715     
   3615840842.1375656     
   4641251257.3879976     
   4506617190.6465073     
   4374195292.0448790     
   4244106711.4901190     
   4116514774.2057118     
   4348485068.2228174     
   4225052006.2477727     
   4104204325.6336913     
   3986117219.4837012     
   3871016378.8528533     
   4077146477.0850754     
   3966211443.1471829     
   3858404789.2267261     
   3753959155.4805484     
   3653167681.0736566     
   3831344166.8120279     
   3734272425.9463005     
   3641048805.4111485     
   3551960167.1066637     
   3467363806.9616632     
   3615840842.1375656     
   3533968612.9670501     
   3456830298.8131061     
   3384752619.8906040     
   3318140538.9542990     
   4116514774.2057118     
   3966384606.5242786     
   3818770026.6842690     
   3673967702.3403831     
   3532383725.4106488     
   3871016378.8528533     
   3736120002.1673808     
   3604560327.2330165     
   3476711264.7172556     
   3353056470.4173021     
   3653167681.0736566     
   3533778724.2179179     
   3418569152.5900683     
   3307971039.8560591     
   3202518491.2439179     
   3467363806.9616632     
   3363676147.0869365     
   3264982604.4245934     
   3171743705.5216031     
   3084505784.1481061     
   3318140538.9542990     
   3230156451.5256119     
   3147888118.8935409     
   3071786864.8062744     
   3002367079.5062504     
   3532383725.4106488     
   3407188336.2358065     
   3283634758.5919690     
   3161844997.0278130     
   3041970990.5259314     
   3353056470.4173021     
   3237071040.8268590     
   3123744389.0161738     
   3013312231.1273317     
   2906064093.5332565     
   3202518491.2439179     
   3098569389.4689059     
   2998616703.4721828     
   2903021137.7729120     
   2812218173.2625589     
   3084505784.1481061     
   2995087255.5517378     
   2911255292.7235951     
   2833473899.6639066     
   2762290758.0237088     
   3002367079.5062504     
   2929339653.5077004     
   2863633655.6994629     
   2805761501.7944727     
   2756312911.3558102     
   3041970990.5259314     
   2886310214.6267405     
   2733264682.2104621     
   2583229635.4478645     
   2436757551.2474399     
   2906064093.5332565     
   2767473795.6712728     
   2632992387.5891037     
   2503247041.1660118     
   2379044053.0587335     
   2812218173.2625589     
   2692908457.9649830     
   2579298474.1681719     
   2472174206.5374508     
   2372480086.4223261     
   2762290758.0237088     
   2663811962.5459890     
   2572482046.2197604     
   2489122018.5031171     
   2414654987.8970332     
   2756312911.3558102     
   2679242405.0379057     
   2610416673.6112757     
   2550568099.1426430     
   2500466710.9832196     
   3624956655.6592646     
   3719671118.5374651     
   3825633669.9208536     
   3942781296.6009831     
   4071021769.8927841     
   3137974515.9750514     
   3255513330.9241009     
   3382466300.1194582     
   3518364935.0492811     
   3662751986.2788954     
   2694771077.9619470     
   2830531326.7915778     
   2973601378.8931541     
   3122899484.3741193     
   3277515107.0757637     
   2298835906.7345662     
   2449517710.9325013     
   2604920824.3429728     
   2763123140.3160610     
   2922695127.0540709     
   1955379144.3713262     
   2119427506.7238445     
   2284833941.0876403     
   2448638646.3047419     
   2608883430.2519889     
   4071021769.8927841     
   4112439358.7656417     
   4151228647.4002008     
   4186488749.1604109     
   4217485046.2629776     
   3662751986.2788954     
   3702173516.6302457     
   3740227694.5137501     
   3776014210.4067430     
   3808782505.2084265     
   3277515107.0757637     
   3320777120.2855749     
   3364284341.6934810     
   3407213142.6795626     
   3448884975.2547512     
   2922695127.0540709     
   2975636684.2127175     
   3030790417.7796211     
   3087473921.5357113     
   3145153972.9926348     
   2608883430.2519889     
   2676807970.0305443     
   2749212246.7010813     
   2825587957.6779857     
   2905581842.2367940     
   4217485046.2629776     
   4133354696.4760218     
   4055759159.7811460     
   3983853870.5806227     
   3917349068.4406509     
   3808782505.2084265     
   3756082627.4280787     
   3709391267.1780486     
   3668237086.1533008     
   3632526212.1403728     
   3448884975.2547512     
   3422974917.5744534     
   3402162708.9950209     
   3386219145.4311862     
   3375128255.9856234     
   3145153972.9926348     
   3141672488.1572723     
   3141781867.2108798     
   3145380708.5808558     
   3152454067.3616400     
   2905581842.2367940     
   2920521069.8721175     
   2936765146.0573859     
   2954258329.6628137     
   2972960735.5074654     
   3917349068.4406509     
   3835235186.5535078     
   3757440967.0497918     
   3684211823.8262715     
   3615840842.1375656     
   3632526212.1403728     
   3562535250.5279632     
   3497314160.1135449     
   3437107076.6301064     
   3382205549.4307394     
   3375128255.9856234     
   3317679882.0221276     
   3265565878.2317090     
   3219013310.1701312     
   3178297564.4913635     
   3152454067.3616400     
   3107776953.8495913     
   3069099620.8348932     
   3036609198.2004991     
   3010543845.4123406     
   2972960735.5074654     
   2940893482.1393313     
   2915564662.0267024     
   2897093701.0580907     
   2885657101.4530821     
   3615840842.1375656     
   3533968612.9670501     
   3456830298.8131061     
   3384752619.8906040     
   3318140538.9542990     
   3382205549.4307394     
   3313890474.5804553     
   3250890641.4703312     
   3193513185.6054869     
   3142126019.6474724     
   3178297564.4913635     
   3122607782.9920082     
   3072739105.1658444     
   3028958610.6696739     
   2991575862.5563221     
   3010543845.4123406     
   2966182596.0464978     
   2928034797.5510559     
   2896310571.3049707     
   2871245721.0393848     
   2885657101.4530821     
   2850870738.9458208     
   2822541704.5686779     
   2800814535.7425027     
   2785846426.1835213     
   3318140538.9542990     
   3230156451.5256119     
   3147888118.8935409     
   3071786864.8062744     
   3002367079.5062504     
   3142126019.6474724     
   3067040619.6411800     
   2998555256.4025211     
   2937118985.6084347     
   2883235102.5144658     
   2991575862.5563221     
   2929556242.1113491     
   2875040694.7869196     
   2828443562.5608420     
   2790220653.2216229     
   2871245721.0393848     
   2821910494.9944611     
   2780965921.3326788     
   2748758729.8239098     
   2725663502.7731743     
   2785846426.1835213     
   2748097773.6986704     
   2719580938.9957347     
   2700550452.2543983     
   2691277784.1913443     
   3002367079.5062504     
   2929339653.5077004     
   2863633655.6994629     
   2805761501.7944727     
   2756312911.3558102     
   2883235102.5144658     
   2824141937.4202456     
   2772001104.0666447     
   2727193646.8885422     
   2690143573.2812300     
   2790220653.2216229     
   2742859836.0625453     
   2701870814.8216782     
   2667516354.3746262     
   2640079240.8425498     
   2725663502.7731743     
   2687829205.5735192     
   2655584103.6430326     
   2629093570.1385102     
   2608529679.2391911     
   2691277784.1913443     
   2660854994.3194575     
   2635060089.3396091     
   2613985763.7450223     
   2597725146.4088292     
   2756312911.3558102     
   2679242405.0379057     
   2610416673.6112757     
   2550568099.1426430     
   2500466710.9832196     
   2690143573.2812300     
   2624565490.6208196     
   2568153351.7293983     
   2521573061.1716075     
   2485507781.1073828     
   2640079240.8425498     
   2585712391.2258534     
   2541375902.7462931     
   2507630237.1678662     
   2485036683.4465222     
   2608529679.2391911     
   2564455749.2677999     
   2531223250.2774200     
   2509261910.8753190     
   2498993305.8393216     
   2597725146.4088292     
   2562331952.4134426     
   2538566755.4898205     
   2526721244.5665584     
   2527078030.3868399     
   1955379144.3713262     
   2119427506.7238445     
   2284833941.0876403     
   2448638646.3047419     
   2608883430.2519889     
   1653903544.0264933     
   1820356850.7624013     
   1988507456.5720670     
   2155659203.1401157     
   2320054155.3624210     
   1393752739.0214097     
   1571139697.7974331     
   1749529565.1874843     
   1926918801.4980602     
   2102057170.2557013     
   1207234934.1065655     
   1399192337.2655027     
   1590722267.4318268     
   1781048019.4112756     
   1969711100.4337633     
   1137015812.6349661     
   1335352384.6183369     
   1533988997.3107364     
   1732925650.7121651     
   1932162344.8226225     
   2608883430.2519889     
   2676807970.0305443     
   2749212246.7010813     
   2825587957.6779857     
   2905581842.2367940     
   2320054155.3624210     
   2407072370.8736010     
   2496519446.2333088     
   2588006428.9058671     
   2681258049.5312629     
   2102057170.2557013     
   2205785871.9656982     
   2309429830.3368921     
   2412753335.4477448     
   2515589787.3298764     
   1969711100.4337633     
   2086866739.3299108     
   2201195662.8945026     
   2312622981.2732968     
   2421096606.7422938     
   1932162344.8226225     
   2058849284.3870246     
   2180159569.8409114     
   2296093201.1842823     
   2406650178.4171362     
   2905581842.2367940     
   2920521069.8721175     
   2936765146.0573859     
   2954258329.6628137     
   2972960735.5074654     
   2681258049.5312629     
   2703083517.8336959     
   2727259749.5457406     
   2753769427.2699285     
   2782604821.5446620     
   2515589787.3298764     
   2544200671.1221280     
   2576233433.8316050     
   2611689991.2231779     
   2650576390.2271609     
   2421096606.7422938     
   2454911171.1871457     
   2493216820.5903935     
   2536017077.6583543     
   2583316330.4719934     
   2406650178.4171362     
   2442517580.5110707     
   2483933751.8576980     
   2530898692.4570174     
   2583412402.3090358     
   2972960735.5074654     
   2940893482.1393313     
   2915564662.0267024     
   2897093701.0580907     
   2885657101.4530821     
   2782604821.5446620     
   2765116119.2191925     
   2754558319.0530233     
   2751016714.3620682     
   2754607640.8932233     
   2650576390.2271609     
   2645245302.5890398     
   2646801590.5224085     
   2655288099.3368049     
   2670760355.8426008     
   2583316330.4719934     
   2586970379.7524905     
   2597229927.3700519     
   2614105811.4032903     
   2637611712.5562763     
   2583412402.3090358     
   2592387563.1705203     
   2607488822.8387098     
   2628716181.3136034     
   2656069638.5952001     
   2885657101.4530821     
   2850870738.9458208     
   2822541704.5686779     
   2800814535.7425027     
   2785846426.1835213     
   2754607640.8932233     
   2729799856.5088563     
   2711885807.9378285     
   2700961982.1315780     
   2697130885.8882079     
   2670760355.8426008     
   2654203743.8433700     
   2644879883.6241093     
   2642837175.9151783     
   2648125966.5812578     
   2637611712.5562763     
   2626940558.4057727     
   2623744854.7462835     
   2628037575.7398095     
   2639831994.7427673     
   2656069638.5952001     
   2648453478.3351021     
   2648477530.9149051     
   2656141796.3346043     
   2671446274.5942020     
   2785846426.1835213     
   2748097773.6986704     
   2719580938.9957347     
   2700550452.2543983     
   2691277784.1913443     
   2697130885.8882079     
   2671845578.2423253     
   2655681569.1716504     
   2648785499.7644520     
   2651309526.3990026     
   2648125966.5812578     
   2632508125.5027094     
   2625757554.5715365     
   2627938233.6741328     
   2639115101.5841761     
   2639831994.7427673     
   2630766566.4192495     
   2630215787.4880996     
   2638194756.6353960     
   2654718568.4384966     
   2671446274.5942020     
   2665745013.1354995     
   2668152608.4670029     
   2678669060.5887160     
   2697294369.5006390     
   2691277784.1913443     
   2660854994.3194575     
   2635060089.3396091     
   2613985763.7450223     
   2597725146.4088292     
   2651309526.3990026     
   2628474858.9969392     
   2611770969.1771855     
   2601275118.1859031     
   2597063009.3243690     
   2639115101.5841761     
   2623020643.3084950     
   2614539744.6035380     
   2613718617.8963604     
   2620601367.7806358     
   2654718568.4384966     
   2643646732.7760758     
   2641663306.3011131     
   2648782814.3412008     
   2665018782.6844735     
   2697294369.5006390     
   2688775858.9714537     
   2690851356.2830462     
   2703520861.4354143     
   2726784374.4285650     
   2597725146.4088292     
   2562331952.4134426     
   2538566755.4898205     
   2526721244.5665584     
   2527078030.3868399     
   2597063009.3243690     
   2577606995.4843864     
   2569123685.9599566     
   2571758836.5864267     
   2585648073.1791315     
   2620601367.7806358     
   2614088936.4143262     
   2617827652.4228296     
   2631873141.3497791     
   2656275439.2038326     
   2665018782.6844735     
   2668554811.1615529     
   2681640770.1490231     
   2704288320.1922088     
   2736507666.2359967     
   2726784374.4285650     
   2737730095.8605814     
   2757599235.9540067     
   2786391794.7088537     
   2824107772.1250992     
   1137015812.6349661     
   1335352384.6183369     
   1533988997.3107364     
   1732925650.7121651     
   1932162344.8226225     
   1207234934.0487475     
   1399192337.2081368     
   1590722267.3741837     
   1781048019.3527184     
   1969711100.3737519     
   1393752738.9259198     
   1571139697.6993208     
   1749529565.0862391     
   1926918801.3929892     
   2102057170.1460793     
   1653903543.9142447     
   1820356850.6433198     
   1988507456.4459569     
   2155659203.0063787     
   2320054155.2202854     
   1955379144.2571075     
   2119427506.5996430     
   2284833940.9533138     
   2448638646.1596642     
   2608883430.0952959     
   1932162344.8226225     
   2058849284.3870246     
   2180159569.8409114     
   2296093201.1842823     
   2406650178.4171362     
   1969711100.3737519     
   2086866739.2645526     
   2201195662.8236032     
   2312622981.1966887     
   2421096606.6598167     
   2102057170.1460793     
   2205785871.8455100     
   2309429830.2058334     
   2412753335.3055577     
   2515589787.1763282     
   2320054155.2202854     
   2407072370.7163372     
   2496519446.0604610     
   2588006428.7170606     
   2681258049.3261561     
   2608883430.0952959     
   2676807969.8554444     
   2749212246.5068388     
   2825587957.4639745     
   2905581842.0024352     
   2406650178.4171362     
   2442517580.5110707     
   2483933751.8576980     
   2530898692.4570174     
   2583412402.3090358     
   2421096606.6598167     
   2454911171.1023903     
   2493216820.5033031     
   2536017077.5688910     
   2583316330.3801160     
   2515589787.1763282     
   2544200670.9648814     
   2576233433.6705527     
   2611689991.0582557     
   2650576390.0583076     
   2681258049.3261561     
   2703083517.6245365     
   2727259749.3323727     
   2753769427.0522690     
   2782604821.3226480     
   2905581842.0024352     
   2920521069.6347241     
   2936765145.8167872     
   2954258329.4189539     
   2972960735.2603126     
   2583412402.3090358     
   2592387563.1705203     
   2607488822.8387098     
   2628716181.3136034     
   2656069638.5952001     
   2583316330.3801160     
   2586970379.6369548     
   2597229927.2266312     
   2614105811.2277527     
   2637611712.3444319     
   2650576390.0583076     
   2645245302.3781471     
   2646801590.2610745     
   2655288099.0165234     
   2670760355.4548178     
   2782604821.3226480     
   2765116118.9454861     
   2754558318.7151690     
   2751016713.9472394     
   2754607640.3882771     
   2972960735.2603126     
   2940893481.8417315     
   2915564661.6625085     
   2897093700.6103458     
   2885657100.9040289     
   2656069638.5952001     
   2648453478.3351021     
   2648477530.9149051     
   2656141796.3346043     
   2671446274.5942020     
   2637611712.3444319     
   2626940558.1647782     
   2623744854.4774489     
   2628037575.4445076     
   2639831994.4224091     
   2670760355.4548178     
   2654203743.3898935     
   2644879883.1064987     
   2642837175.3351631     
   2648125965.9407554     
   2754607640.3882771     
   2729799855.8959584     
   2711885807.2174439     
   2700961981.3044729     
   2697130884.9555225     
   2885657100.9040289     
   2850870738.2434063     
   2822541703.7109165     
   2800814534.7277603     
   2785846425.0106730     
   2671446274.5942020     
   2665745013.1354995     
   2668152608.4670029     
   2678669060.5887160     
   2697294369.5006390     
   2639831994.4224091     
   2630766566.2023435     
   2630215787.4001074     
   2638194756.7012210     
   2654718568.6823559     
   2648125965.9407554     
   2632508125.0258789     
   2625757554.3080955     
   2627938233.6734214     
   2639115101.8949270     
   2697130884.9555225     
   2671845577.4763908     
   2655681568.6448269     
   2648785499.5500584     
   2651309526.5710897     
   2785846425.0106730     
   2748097772.6302400     
   2719580938.1239357     
   2700550451.6750727     
   2691277784.0039463     
   2697294369.5006390     
   2688775858.9714537     
   2690851356.2830462     
   2703520861.4354143     
   2726784374.4285650     
   2654718568.6823559     
   2643646733.2513504     
   2641663307.1057930     
   2648782815.5723963     
   2665018784.4387245     
   2639115101.8949270     
   2623020644.0364661     
   2614539745.9509997     
   2613718620.0652828     
   2620601370.9728985     
   2651309526.5710897     
   2628474859.6711369     
   2611770970.6657729     
   2601275120.8038173     
   2597063013.3892636     
   2691277784.0039463     
   2660854994.5655985     
   2635060090.4420872     
   2613985766.1347299     
   2597725150.5247469     
   2726784374.4285650     
   2737730095.8605814     
   2757599235.9540067     
   2786391794.7088537     
   2824107772.1250992     
   2665018784.4387245     
   2668554809.0546074     
   2681640764.0225215     
   2704288309.9141269     
   2736507651.7040401     
   2620601370.9728985     
   2614088933.3671222     
   2617827642.8576703     
   2631873125.0208845     
   2656275415.9037580     
   2597063013.3892636     
   2577606992.4861879     
   2569123675.5381327     
   2571758818.3966718     
   2585648046.8995390     
   2597725150.5247469     
   2562331950.2028418     
   2538566746.5673571     
   2526721228.5216556     
   2527078006.7860441     
   1955379144.2571075     
   2119427506.5996430     
   2284833940.9533138     
   2448638646.1596642     
   2608883430.0952959     
   2298835906.6281834     
   2449517710.8152280     
   2604920824.2145886     
   2763123140.1761384     
   2922695126.9020748     
   2694771077.8700066     
   2830531326.6891608     
   2973601378.7798219     
   3122899484.2494178     
   3277515106.9392452     
   3137974515.9022527     
   3255513330.8421426     
   3382466300.0276556     
   3518364934.9470272     
   3662751986.1656508     
   3624956655.6092358     
   3719671118.4801722     
   3825633669.8553977     
   3942781296.5265560     
   4071021769.8086472     
   2608883430.0952959     
   2676807969.8554444     
   2749212246.5068388     
   2825587957.4639745     
   2905581842.0024352     
   2922695126.9020748     
   2975636684.0424662     
   3030790417.5899167     
   3087473921.3254218     
   3145153972.7606478     
   3277515106.9392452     
   3320777120.1324658     
   3364284341.5222707     
   3407213142.4887757     
   3448884975.0429182     
   3662751986.1656508     
   3702173516.5035067     
   3740227694.3718672     
   3776014210.2481027     
   3808782505.0314484     
   4071021769.8086472     
   4112439358.6723456     
   4151228647.2961030     
   4186488749.0439420     
   4217485046.1326652     
   2905581842.0024352     
   2920521069.6347241     
   2936765145.8167872     
   2954258329.4189539     
   2972960735.2603126     
   3145153972.7606478     
   3141672487.9252458     
   3141781866.9800406     
   3145380708.3525777     
   3152454067.1372519     
   3448884975.0429182     
   3422974917.3639803     
   3402162708.7880321     
   3386219145.2300115     
   3375128255.7925720     
   3808782505.0314484     
   3756082627.2520247     
   3709391267.0054998     
   3668237085.9871082     
   3632526211.9834552     
   4217485046.1326652     
   4133354696.3442659     
   4055759159.6506476     
   3983853870.4544072     
   3917349068.3218980     
   2972960735.2603126     
   2940893481.8417315     
   2915564661.6625085     
   2897093700.6103458     
   2885657100.9040289     
   3152454067.1372519     
   3107776953.5963907     
   3069099620.5401764     
   3036609197.8506169     
   3010543844.9926009     
   3375128255.7925720     
   3317679881.8266096     
   3265565878.0247970     
   3219013309.9419289     
   3178297564.2308345     
   3632526211.9834552     
   3562535250.3961377     
   3497314160.0018559     
   3437107076.5327263     
   3382205549.3407831     
   3917349068.3218980     
   3835235186.4859967     
   3757440967.0325913     
   3684211823.8577576     
   3615840842.2152896     
   2885657100.9040289     
   2850870738.2434063     
   2822541703.7109165     
   2800814534.7277603     
   2785846425.0106730     
   3010543844.9926009     
   2966182595.4646211     
   2928034796.7924547     
   2896310570.3548832     
   2871245719.8830914     
   3178297564.2308345     
   3122607782.5785074     
   3072739104.5735850     
   3028958609.8717399     
   2991575861.5248303     
   3382205549.3407831     
   3313890474.3675566     
   3250890641.0993586     
   3193513185.0389342     
   3142126018.8454752     
   3615840842.2152896     
   3533968612.9737148     
   3456830298.7063427     
   3384752619.6243005     
   3318140538.4783673     
   2785846425.0106730     
   2748097772.6302400     
   2719580938.1239357     
   2700550451.6750727     
   2691277784.0039463     
   2871245719.8830914     
   2821910493.8004084     
   2780965920.1546617     
   2748758728.7204690     
   2725663501.8079081     
   2991575861.5248303     
   2929556240.8977900     
   2875040693.4046440     
   2828443561.0276270     
   2790220651.5602612     
   3142126018.8454752     
   3067040618.5361981     
   2998555254.9665117     
   2937118983.8158183     
   2883235100.3427305     
   3318140538.4783673     
   3230156450.6686611     
   3147888117.5869374     
   3071786862.9805050     
   3002367077.0912018     
   2691277784.0039463     
   2660854994.5655985     
   2635060090.4420872     
   2613985766.1347299     
   2597725150.5247469     
   2725663501.8079081     
   2687829204.5216894     
   2655584102.7953796     
   2629093569.7960911     
   2608529679.7136779     
   2790220651.5602612     
   2742859833.8351970     
   2701870812.1917253     
   2667516351.5161762     
   2640079237.9409175     
   2883235100.3427305     
   2824141934.3132896     
   2772001100.0664325     
   2727193642.0446825     
   2690143567.6513796     
   3002367077.0912018     
   2929339649.9544940     
   2863633650.9358072     
   2805761495.7478995     
   2756312903.9530754     
   2597725150.5247469     
   2562331950.2028418     
   2538566746.5673571     
   2526721228.5216556     
   2527078006.7860441     
   2608529679.7136779     
   2564455744.1547389     
   2531223239.3699083     
   2509261893.9114647     
   2498993282.5013785     
   2640079237.9409175     
   2585712384.1263223     
   2541375891.4822698     
   2507630221.6892271     
   2485036663.6126428     
   2690143567.6513796     
   2624565482.6328144     
   2568153341.7391186     
   2521573049.4299502     
   2485507767.7441545     
   2756312903.9530754     
   2679242397.3706522     
   2610416666.4490132     
   2550568093.1408920     
   2500466706.6571636     
   3624956655.6092358     
   3719671118.4801722     
   3825633669.8553977     
   3942781296.5265560     
   4071021769.8086472     
   4134081073.3197803     
   4224345024.6060991     
   4320527014.6947899     
   4420970608.7660189     
   4524221551.6402388     
   4643400808.3103542     
   4755492339.2118855     
   4868706573.0267763     
   4980408516.0241890     
   5088672720.4044304     
   5151395378.8913116     
   5311288066.3098240     
   5467813466.6798716     
   5618075514.2134352     
   5760607731.0196142     
   5657800857.1954889     
   5890894121.1852455     
   6116351829.0468607     
   6331713874.8938513     
   6536755761.7359285     
   4071021769.8086472     
   4112439358.6723456     
   4151228647.2961030     
   4186488749.0439420     
   4217485046.1326652     
   4524221551.6402388     
   4538966788.7002401     
   4558389474.8497486     
   4580008527.0066166     
   4602100173.0732355     
   5088672720.4044304     
   5053932202.8143225     
   5029702077.6784191     
   5010776541.1823750     
   4993954730.0869761     
   5760607731.0196142     
   5652009602.3884983     
   5559404981.6213570     
   5473735037.6201916     
   5389459738.7827635     
   6536755761.7359285     
   6328604093.6167173     
   6142629888.2178164     
   5964929980.2293501     
   5786497429.6955099     
   4217485046.1326652     
   4133354696.3442659     
   4055759159.6506476     
   3983853870.4544072     
   3917349068.3218980     
   4602100173.0732355     
   4493701965.4052162     
   4389547134.9941711     
   4289321755.7215786     
   4192939451.6115522     
   4993954730.0869761     
   4866663402.5404501     
   4742568261.1235085     
   4621638087.1743956     
   4503914645.6134462     
   5389459738.7827635     
   5248284499.9068594     
   5110322018.1709843     
   4975613388.3800488     
   4844251304.3804407     
   5786497429.6955099     
   5635899906.2679300     
   5489476906.7146559     
   5347141293.3720274     
   5208937266.2264738     
   3917349068.3218980     
   3835235186.4859967     
   3757440967.0325913     
   3684211823.8577576     
   3615840842.2152896     
   4192939451.6115522     
   4096953075.4021664     
   4004522131.8782830     
   3915884458.9180360     
   3831344167.0353827     
   4503914645.6134462     
   4393012116.3117628     
   4284770810.8389463     
   4179387514.8885546     
   4077146477.4056764     
   4844251304.3804407     
   4717603875.7049055     
   4592659025.9465990     
   4469541680.8543892     
   4348485068.5880814     
   5208937266.2264738     
   5065857894.0658865     
   4923511154.3822031     
   4781924161.7558050     
   4641251257.7440376     
   3615840842.2152896     
   3533968612.9737148     
   3456830298.7063427     
   3384752619.6243005     
   3318140538.4783673     
   3831344167.0353827     
   3734272426.1793904     
   3641048805.6208630     
   3551960167.2562170     
   3467363807.0100884     
   4077146477.4056764     
   3966211443.5574474     
   3858404789.7029386     
   3753959155.9957995     
   3653167681.5972533     
   4348485068.5880814     
   4225052006.7762189     
   4104204326.3104954     
   3986117220.2915730     
   3871016379.7714939     
   4641251257.7440376     
   4506617191.2290812     
   4374195292.8471289     
   4244106712.5034971     
   4116514775.4196219     
   3318140538.4783673     
   3230156450.6686611     
   3147888117.5869374     
   3071786862.9805050     
   3002367077.0912018     
   3467363807.0100884     
   3363676146.8008356     
   3264982603.7338090     
   3171743704.3531551     
   3084505782.4261947     
   3653167681.5972533     
   3533778724.4772968     
   3418569152.5163994     
   3307971039.3759575     
   3202518490.2791181     
   3871016379.7714939     
   3736120002.9077878     
   3604560327.7302136     
   3476711264.9005151     
   3353056470.2094235     
   4116514775.4196219     
   3966384607.6545119     
   3818770027.6715641     
   3673967703.1190844     
   3532383725.9076910     
   3002367077.0912018     
   2929339649.9544940     
   2863633650.9358072     
   2805761495.7478995     
   2756312903.9530754     
   3084505782.4261947     
   2995087252.8834081     
   2911255289.0186749     
   2833473894.8257222     
   2762290751.9473147     
   3202518490.2791181     
   3098569387.8530107     
   2998616701.1108990     
   2903021134.5607548     
   2812218169.0797286     
   3353056470.2094235     
   3237071040.3547082     
   3123744388.1953373     
   3013312229.8604465     
   2906064091.7062092     
   3532383725.9076910     
   3407188336.9307480     
   3283634759.4216037     
   3161844997.9170904     
   3041970991.3845835     
   2756312903.9530754     
   2679242397.3706522     
   2610416666.4490132     
   2550568093.1408920     
   2500466706.6571636     
   2762290751.9473147     
   2663811957.9395809     
   2572482043.7327776     
   2489122018.7387872     
   2414654991.3858995     
   2812218169.0797286     
   2692908455.6866417     
   2579298474.1538291     
   2472174209.1597490     
   2372480092.0561910     
   2906064091.7062092     
   2767473795.2960396     
   2632992388.5773768     
   2503247043.4687309     
   2379044056.6770544     
   3041970991.3845835     
   2886310216.0620775     
   2733264683.5949864     
   2583229636.1808200     
   2436757550.7817526     
   5657800857.1954889     
   5890894121.1852455     
   6116351829.0468607     
   6331713874.8938513     
   6536755761.7359285     
   6491672362.7961416     
   6586885978.0551138     
   6757430139.2295933     
   6961222335.4200525     
   7171602275.3108931     
   7982341289.8062429     
   7734978091.2382965     
   7669178544.2874317     
   7669636627.0198851     
   7666421811.9276209     
   10130254846.006556     
   9322010819.9859428     
   8826406710.3865776     
   8443611451.4948320     
   8035819894.5446177     
   12935499713.865126     
   11340698233.029596     
   10210281642.529766     
   9272912062.1279449     
   8304158140.5298023     
   6536755761.7359285     
   6328604093.6167173     
   6142629888.2178164     
   5964929980.2293501     
   5786497429.6955099     
   7171602275.3108931     
   6910927243.9248047     
   6658151800.4537268     
   6409419036.5626431     
   6161584619.0585012     
   7666421811.9276209     
   7381143630.3541174     
   7101263030.4742241     
   6826857698.4342690     
   6558130859.8612013     
   8035819894.5446177     
   7746900783.8333902     
   7473656488.9728079     
   7214128824.1139297     
   6968324388.6286335     
   8304158140.5298023     
   8020759183.1179571     
   7779464361.8130827     
   7569594440.8187990     
   7386180488.4211178     
   5786497429.6955099     
   5635899906.2679300     
   5489476906.7146559     
   5347141293.3720274     
   5208937266.2264738     
   6161584619.0585012     
   6012644650.6296597     
   5865025701.0927458     
   5718765192.1965809     
   5573917831.3606043     
   6558130859.8612013     
   6407760516.3924046     
   6255758007.8694181     
   6102090799.7342596     
   5946786841.8334637     
   6968324388.6286335     
   6814782086.5978069     
   6656635283.9252901     
   6493601528.2277470     
   6325628452.2453671     
   7386180488.4211178     
   7228709410.2425632     
   7063750419.6173258     
   6890612330.8763990     
   6709106783.7132301     
   5208937266.2264738     
   5065857894.0658865     
   4923511154.3822031     
   4781924161.7558050     
   4641251257.7440376     
   5573917831.3606043     
   5414112488.8804445     
   5255188803.5490513     
   5097185538.4632015     
   4940199602.7213621     
   5946786841.8334637     
   5773017374.7662764     
   5600660664.8108587     
   5429743968.0051365     
   5260330639.0871964     
   6325628452.2453671     
   6140143356.7307281     
   5956932820.1733675     
   5775981256.2936049     
   5597324297.2182808     
   6709106783.7132301     
   6513668460.1157207     
   6321665493.3909016     
   6133000894.2961931     
   5947672800.2372828     
   4641251257.7440376     
   4506617191.2290812     
   4374195292.8471289     
   4244106712.5034971     
   4116514775.4196219     
   4940199602.7213621     
   4796755502.2335215     
   4654589068.9825830     
   4513799240.1507006     
   4374521952.7438745     
   5260330639.0871964     
   5108081897.0905857     
   4956220546.8329315     
   4804812492.1760874     
   4653958195.3312941     
   5597324297.2182808     
   5436448404.8443041     
   5275126424.0467224     
   5113384513.3874950     
   4951283668.0209055     
   5947672800.2372828     
   5778474716.7693777     
   5608061796.1103477     
   5436417080.5889950     
   5263561478.1236811     
   4116514775.4196219     
   3966384607.6545119     
   3818770027.6715641     
   3673967703.1190844     
   3532383725.9076910     
   4374521952.7438745     
   4209871764.9560542     
   4047035293.1939645     
   3886218043.4306836     
   3727715031.4554024     
   4653958195.3312941     
   4475955902.2328691     
   4299240230.9016094     
   4123939199.3802195     
   3950251693.5743065     
   4951283668.0209055     
   4760945499.2857828     
   4571523353.7495070     
   4383084187.0321798     
   4195750559.2014832     
   5263561478.1236811     
   5061746443.9171581     
   4860609597.2858353     
   4660172493.8720722     
   4460501093.4898863     
   3532383725.9076910     
   3407188336.9307480     
   3283634759.4216037     
   3161844997.9170904     
   3041970991.3845835     
   3727715031.4554024     
   3594698486.6105809     
   3463068528.6091127     
   3332943393.8539810     
   3204481842.4397917     
   3950251693.5743065     
   3807999120.9259114     
   3666699395.2508726     
   3526450367.6731701     
   3387402077.4027505     
   4195750559.2014832     
   4042790451.7521129     
   3890206863.9948292     
   3738060209.8484225     
   3586474334.8018403     
   4460501093.4898863     
   4295349335.4443817     
   4129892070.4137716     
   3964135411.7796369     
   3798158480.0835114     
   3041970991.3845835     
   2886310216.0620775     
   2733264683.5949864     
   2583229636.1808200     
   2436757550.7817526     
   3204481842.4397917     
   3036750478.2556238     
   2871265519.2905946     
   2708359567.4358783     
   2548519846.4000592     
   3387402077.4027505     
   3206803602.1976595     
   3028063008.1488004     
   2851458570.4739919     
   2677425849.8681526     
   3586474334.8018403     
   3391940653.7140164     
   3198857178.1115575     
   3007458011.7205143     
   2818142862.3971739     
   3798158480.0835114     
   3588425804.7097917     
   3379718173.2187552     
   3172236200.7745862     
   2966360011.4933567     
 </DataArray>
 <DataArray  type="Float64" Name="strain" NumberOfComponents="3" format="ascii">
  0.20348339154330991        0.0000000000000000       0.12540606729882009     
  0.18665514540867367       -2.7325035103420207E-002   7.4352893912526863E-002
  0.16982689927403749       -4.4676402997945890E-002   3.5132629705030533E-002
  0.15299865313940128       -5.2054103683577019E-002   7.7452746763310570E-003
  0.13617040700476504       -4.9458137160313609E-002  -7.8091711735714664E-003
  0.15985471869237661        0.0000000000000000        9.6449001000267154E-002
  0.15317793395906282       -2.1844892048905534E-002   6.2690872716663432E-002
  0.14650114922574903       -3.6175040417145282E-002   3.7402758056907633E-002
  0.13982436449243524       -4.2990445104719270E-002   2.0584657020999774E-002
  0.13314757975912145       -4.2291106111627494E-002   1.2236569608939901E-002
  0.12645833327682718        0.0000000000000000        7.4201539520343252E-002
  0.12657011438988683       -1.6364748994390849E-002   5.5279532811200308E-002
  0.12668189550294648       -2.7673677836344699E-002   4.1464644170956334E-002
  0.12679367661600613       -3.3926786525861549E-002   3.2756873599611283E-002
  0.12690545772906578       -3.5124075062941393E-002   2.9156221097165230E-002
  0.10329423529666158        0.0000000000000000        5.8663682859048445E-002
  0.10683168670114573       -1.0884605939876169E-002   5.2118874196137470E-002
  0.11036913810562986       -1.9172315255544102E-002   4.7318288047176520E-002
  0.11390658951011400       -2.4863127947003814E-002   4.4261924412165525E-002
  0.11744404091459815       -2.7957044014255281E-002   4.2949783291104590E-002
   9.0362424751879875E-002   0.0000000000000000        4.9835431016382693E-002
   9.3962650892839533E-002  -5.4044628853614860E-003   5.3208896871474953E-002
   9.7562877033799178E-002  -1.0670952674743512E-002   5.4963689685568230E-002
  0.10116310317475882       -1.5799469368146073E-002   5.5099809458662538E-002
  0.10476332931571848       -2.0790012965569177E-002   5.3617256190757884E-002
  0.13617040700476504       -4.9458137160313609E-002  -7.8091711735714664E-003
  0.13296187307618895       -4.2923893869350541E-002  -3.3940284858824457E-003
  0.12975333914761289       -3.8486764251882674E-002  -3.9134044803729867E-004
  0.12654480521903683       -3.6146748307909940E-002   1.1988929399642870E-003
  0.12333627129046076       -3.5903846037432435E-002   1.3766716781221378E-003
  0.13314757975912145       -4.2291106111627494E-002   1.2236569608939901E-002
  0.12891425218792385       -3.8425473337863815E-002   1.2180443623030404E-002
  0.12468092461672625       -3.5741996683422039E-002   1.1487185001721752E-002
  0.12044759704552865       -3.4240676148302257E-002   1.0156793745013583E-002
  0.11621426947433103       -3.3921511732504406E-002   8.1892698529061753E-003
  0.12690545772906578       -3.5124075062941393E-002   2.9156221097165230E-002
  0.12242265852969104       -3.3927052806377096E-002   2.5543783991830698E-002
  0.11793985933031630       -3.2997229114961467E-002   2.2069536265541135E-002
  0.11345706013094156       -3.2334603988694567E-002   1.8733477918296718E-002
  0.10897426093156680       -3.1939177427576335E-002   1.5535608950097306E-002
  0.11744404091459815       -2.7957044014255281E-002   4.2949783291104590E-002
  0.11348709210149062       -2.9428632274890374E-002   3.6695992620518134E-002
  0.10953014328838313       -3.0252461546500877E-002   3.1355713343421035E-002
  0.10557319447527562       -3.0428531829086867E-002   2.6928945459813523E-002
  0.10161624566216812       -2.9956843122648256E-002   2.3415688969695279E-002
  0.10476332931571848       -2.0790012965569177E-002   5.3617256190757884E-002
  0.10210755290332257       -2.4930211743403648E-002   4.5637069509092812E-002
   9.9451776490926680E-002  -2.7507693978040284E-002   3.9345716235361462E-002
   9.6796000078530800E-002  -2.8522459669479156E-002   3.4743196369563994E-002
   9.4140223666134920E-002  -2.7974508817720206E-002   3.1829509911700332E-002
  0.12333627129046076       -3.5903846037432435E-002   1.3766716781221378E-003
  0.12041630601007308       -3.6403027198120844E-002   6.4436781318180647E-004
  0.11749634072968543       -3.6289261547646202E-002   1.0095727840556123E-004
  0.11457637544929779       -3.5562549086007915E-002  -2.5355992620657714E-004
  0.11165641016891009       -3.4222889813206592E-002  -4.1918380065464333E-004
  0.11621426947433103       -3.3921511732504406E-002   8.1892698529061753E-003
  0.11346947266859184       -3.3997398684415481E-002   7.8277345033493650E-003
  0.11072467586285266       -3.3681232252422963E-002   7.6276427729253596E-003
  0.10797987905711348       -3.2973012436526491E-002   7.5889946616342144E-003
  0.10523508225137429       -3.1872739236726289E-002   7.7117901694760682E-003
  0.10897426093156680       -3.1939177427576335E-002   1.5535608950097306E-002
  0.10637718288944494       -3.1591770170710277E-002   1.5323948688664296E-002
  0.10378010484732300       -3.1073202957199886E-002   1.5246282335333265E-002
  0.10118302680520108       -3.0383475787045113E-002   1.5302609890103706E-002
   9.8585948763079176E-002  -2.9522588660245958E-002   1.5492931352975761E-002
  0.10161624566216812       -2.9956843122648256E-002   2.3415688969695279E-002
   9.9139436672632281E-002  -2.9186141657004967E-002   2.3133010369126971E-002
   9.6662627683096428E-002  -2.8465173661976727E-002   2.2956875965629064E-002
   9.4185818693560588E-002  -2.7793939137563686E-002   2.2887285759201619E-002
   9.1709009704024763E-002  -2.7172438083765724E-002   2.2924239749844779E-002
   9.4140223666134920E-002  -2.7974508817720206E-002   3.1829509911700332E-002
   9.1756234018153915E-002  -2.6780513143299649E-002   3.1254919544737074E-002
   8.9372244370172924E-002  -2.5857144366753647E-002   3.0759423663812943E-002
   8.6988254722191960E-002  -2.5204402488082291E-002   3.0343022268928162E-002
   8.4604265074210983E-002  -2.4822287507285407E-002   3.0005715360082758E-002
  0.11165641016891009       -3.4222889813206592E-002  -4.1918380065464333E-004
  0.10852967683838216       -3.2701451219436656E-002  -1.5659976231136019E-004
  0.10540294350785426       -3.1429400794892939E-002   1.8803397180197634E-004
  0.10227621017732631       -3.0406738539575918E-002   6.1471740168590749E-004
   9.9149476846798423E-002  -2.9633464453485026E-002   1.1234505273397533E-003
  0.10523508225137429       -3.1872739236726289E-002   7.7117901694760682E-003
  0.10221415438410777       -3.0651612510834370E-002   7.5704571540778087E-003
   9.9193226516841315E-002  -2.9580832116663153E-002   7.5586853694321610E-003
   9.6172298649574828E-002  -2.8660398054212673E-002   7.6764748155390208E-003
   9.3151370782308340E-002  -2.7890310323482659E-002   7.9238254923988116E-003
   9.8585948763079176E-002  -2.9522588660245958E-002   1.5492931352975761E-002
   9.5718337894056579E-002  -2.8601773802232208E-002   1.5046723121341726E-002
   9.2850727025033997E-002  -2.7732263438433248E-002   1.4777587655442487E-002
   8.9983116156011414E-002  -2.6914057568849424E-002   1.4685524955278539E-002
   8.7115505286988776E-002  -2.6147156193480348E-002   1.4770535020849768E-002
   9.1709009704024763E-002  -2.7172438083765724E-002   2.2924239749844779E-002
   8.9042227368228477E-002  -2.6551935093629901E-002   2.2272198139480316E-002
   8.6375445032432246E-002  -2.5883694760203375E-002   2.1844740829833516E-002
   8.3708662696636002E-002  -2.5167717083486012E-002   2.1641867820904350E-002
   8.1041880360839730E-002  -2.4404002063478009E-002   2.1663579112692573E-002
   8.4604265074210983E-002  -2.4822287507285407E-002   3.0005715360082758E-002
   8.2185822806623524E-002  -2.4502096385027677E-002   2.9246882208493905E-002
   7.9767380539036065E-002  -2.4035126081973494E-002   2.8760144892604977E-002
   7.7348938271448620E-002  -2.3421376598122809E-002   2.8545503412416066E-002
   7.4930496003861174E-002  -2.2660847933475725E-002   2.8602957767927401E-002
   9.9149476846798423E-002  -2.9633464453485026E-002   1.1234505273397533E-003
   9.6295480691699464E-002  -2.8936890330585746E-002   8.8798503591275280E-004
   9.3441484536600505E-002  -2.8144327964843868E-002   8.1109970183027014E-004
   9.0587488381501574E-002  -2.7255777356259080E-002   8.9279452509230528E-004
   8.7733492226402587E-002  -2.6271238504831373E-002   1.1330695056993578E-003
   9.3151370782308340E-002  -2.7890310323482659E-002   7.9238254923988116E-003
   9.0454880591646747E-002  -2.7164701953136888E-002   7.7282143041326468E-003
   8.7758390400985098E-002  -2.6377705971838250E-002   7.6890348873965703E-003
   8.5061900210323435E-002  -2.5529322379587008E-002   7.8062872421905197E-003
   8.2365410019661800E-002  -2.4619551176382926E-002   8.0799713685139052E-003
   8.7115505286988776E-002  -2.6147156193480348E-002   1.4770535020849768E-002
   8.4574372674949799E-002  -2.5392513575687656E-002   1.4580177503854236E-002
   8.2033240062910892E-002  -2.4611083978832479E-002   1.4544103372574113E-002
   7.9492107450871957E-002  -2.3802867402914884E-002   1.4662312627009212E-002
   7.6950974838833008E-002  -2.2967863847934700E-002   1.4934805267159956E-002
   8.1041880360839730E-002  -2.4404002063478009E-002   2.1663579112692573E-002
   7.8653956941608788E-002  -2.3620325198238444E-002   2.1443874635077562E-002
   7.6266033522377874E-002  -2.2844461985826840E-002   2.1376305157363478E-002
   7.3878110103146918E-002  -2.2076412426242732E-002   2.1460870679549916E-002
   7.1490186683915963E-002  -2.1316176519486585E-002   2.1697571201636956E-002
   7.4930496003861174E-002  -2.2660847933475725E-002   2.8602957767927401E-002
   7.2693633391623630E-002  -2.1848136820789454E-002   2.8319305697802610E-002
   7.0456770779386071E-002  -2.1077839992821049E-002   2.8185640241764093E-002
   6.8219908167148513E-002  -2.0349957449570719E-002   2.8201961399811598E-002
   6.5983045554910968E-002  -1.9664489191038248E-002   2.8368269171945015E-002
   8.7733492226402587E-002  -2.6271238504831373E-002   1.1330695056993578E-003
   8.4370566912018941E-002  -2.5262168513980665E-002   1.0000430243009006E-003
   8.1007641597635238E-002  -2.4300024487127092E-002   1.0494590729147601E-003
   7.7644716283251508E-002  -2.3384806424270294E-002   1.2813176515417413E-003
   7.4281790968867889E-002  -2.2516514325410797E-002   1.6956187601809836E-003
   8.2365410019661800E-002  -2.4619551176382926E-002   8.0799713685139052E-003
   7.9189632397454163E-002  -2.3694018621438911E-002   7.8669016394562752E-003
   7.6013854775246553E-002  -2.2798350973967124E-002   7.8456847647382366E-003
   7.2838077153038944E-002  -2.1932548233967432E-002   8.0163207443589291E-003
   6.9662299530831306E-002  -2.1096610401439730E-002   8.3788095783196015E-003
   7.6950974838833008E-002  -2.2967863847934700E-002   1.4934805267159956E-002
   7.3971755233128156E-002  -2.2125868728897213E-002   1.4658753346967618E-002
   7.0992535627423317E-002  -2.1296677460807045E-002   1.4583964605441660E-002
   6.8013316021718506E-002  -2.0480290043664126E-002   1.4710439042582055E-002
   6.5034096416013681E-002  -1.9676706477468608E-002   1.5038176658388080E-002
   7.1490186683915963E-002  -2.1316176519486585E-002   2.1697571201636956E-002
   6.8716935419040781E-002  -2.0557718836355487E-002   2.1375598146835061E-002
   6.5943684154165558E-002  -1.9795003947647022E-002   2.1264298595026092E-002
   6.3170432889290334E-002  -1.9028031853361042E-002   2.1363672546210272E-002
   6.0397181624415076E-002  -1.8256802553497514E-002   2.1673720000387225E-002
   6.5983045554910968E-002  -1.9664489191038248E-002   2.8368269171945015E-002
   6.3425172955192122E-002  -1.8989568943813762E-002   2.8017436039058291E-002
   6.0867300355473275E-002  -1.8293330434487082E-002   2.7886686733491206E-002
   5.8309427755754428E-002  -1.7575773663057785E-002   2.7976021255243982E-002
   5.5751555156035582E-002  -1.6836898629526420E-002   2.8285439604316731E-002
   7.4281790968867889E-002  -2.2516514325410797E-002   1.6956187601809836E-003
   7.1540362304175820E-002  -2.1655191786194350E-002   1.4053153720524625E-003
   6.8798933639483861E-002  -2.0760882402268144E-002   1.3489487615128137E-003
   6.6057504974791875E-002  -1.9833586173631484E-002   1.5265189285617597E-003
   6.3316076310099834E-002  -1.8873303100284455E-002   1.9380258731996891E-003
   6.9662299530831306E-002  -2.1096610401439730E-002   8.3788095783196015E-003
   6.7136598959150640E-002  -2.0265437616755699E-002   8.0882466570803002E-003
   6.4610898387469945E-002  -1.9413930020286491E-002   7.9952031442748484E-003
   6.2085197815789209E-002  -1.8542087612032528E-002   8.0996790399031626E-003
   5.9559497244108583E-002  -1.7649910391993595E-002   8.4016743439653263E-003
   6.5034096416013681E-002  -1.9676706477468608E-002   1.5038176658388080E-002
   6.2687706568189366E-002  -1.8875683447316771E-002   1.4734702171112668E-002
   6.0341316720365176E-002  -1.8066977638305171E-002   1.4592329723116568E-002
   5.7994926872540896E-002  -1.7250589050433460E-002   1.4611059314399114E-002
   5.5648537024716643E-002  -1.6426517683702346E-002   1.4790890944960527E-002
   6.0397181624415076E-002  -1.8256802553497514E-002   2.1673720000387225E-002
   5.8193685131292326E-002  -1.7485929277877760E-002   2.1344681914150933E-002
   5.5990188638169500E-002  -1.6720025256323795E-002   2.1140328498038326E-002
   5.3786692145046777E-002  -1.5959090488834780E-002   2.1060659752050008E-002
   5.1583195651923916E-002  -1.5203124975411181E-002   2.1105675676185452E-002
   5.5751555156035582E-002  -1.6836898629526420E-002   2.8285439604316731E-002
   5.3654534648459318E-002  -1.6096175108439165E-002   2.7918185886193991E-002
   5.1557514140883054E-002  -1.5373072874342336E-002   2.7639199469040199E-002
   4.9460493633306790E-002  -1.4667591927235803E-002   2.7448480352855589E-002
   4.7363473125730582E-002  -1.3979732267120015E-002   2.7346028537639899E-002
   6.3316076310099834E-002  -1.8873303100284455E-002   1.9380258731996891E-003
   5.9796005410180153E-002  -1.7924376046432156E-002   1.9603902581089017E-003
   5.6275934510260417E-002  -1.7031147876280267E-002   2.2483388774320323E-003
   5.2755863610340736E-002  -1.6193618589827631E-002   2.8018717311686092E-003
   4.9235792710421000E-002  -1.5411788187075004E-002   3.6209888193194928E-003
   5.9559497244108583E-002  -1.7649910391993595E-002   8.4016743439653263E-003
   5.6294158347016843E-002  -1.6763267950921423E-002   8.2152537171780171E-003
   5.3028819449925213E-002  -1.5908029879568519E-002   8.2727128616330026E-003
   4.9763480552833417E-002  -1.5084196177934689E-002   8.5740517773304770E-003
   4.6498141655741732E-002  -1.4291766846020071E-002   9.1192704642695244E-003
   5.5648537024716643E-002  -1.6426517683702346E-002   1.4790890944960527E-002
   5.2616225667281108E-002  -1.5602159855410191E-002   1.4419979820457840E-002
   4.9583914309845517E-002  -1.4784911882856647E-002   1.4271244004025893E-002
   4.6551602952410134E-002  -1.3974773766041577E-002   1.4344683495663500E-002
   4.3519291594974419E-002  -1.3171745504965138E-002   1.4640298295371612E-002
   5.1583195651923916E-002  -1.5203124975411181E-002   2.1105675676185452E-002
   4.8762207370972754E-002  -1.4441051759898876E-002   2.0574568567947926E-002
   4.5941219090021572E-002  -1.3661793886144726E-002   2.0243932304608966E-002
   4.3120230809070292E-002  -1.2865351354148661E-002   2.0113766886168512E-002
   4.0299242528119214E-002  -1.2051724163909983E-002   2.0184072312626450E-002
   4.7363473125730582E-002  -1.3979732267120015E-002   2.7346028537639899E-002
   4.4732103458091838E-002  -1.3279943664387950E-002   2.6679019959648498E-002
   4.2100733790453093E-002  -1.2538675889433054E-002   2.6190777763383355E-002
   3.9469364122814460E-002  -1.1755928942255585E-002   2.5881301948845192E-002
   3.6837994455175660E-002  -1.0931702822855049E-002   2.5750592516033066E-002
   9.0362424751879875E-002   0.0000000000000000        4.9835431016382693E-002
   9.3962650892839533E-002  -5.4044628853614860E-003   5.3208896871474953E-002
   9.7562877033799178E-002  -1.0670952674743512E-002   5.4963689685568230E-002
  0.10116310317475882       -1.5799469368146073E-002   5.5099809458662538E-002
  0.10476332931571848       -2.0790012965569177E-002   5.3617256190757884E-002
   8.2424986972999048E-002   0.0000000000000000        4.4783811413587837E-002
   8.4635570065329624E-002  -4.5742226478060078E-003   4.8267319029890135E-002
   8.6846153157660186E-002  -9.0373110467470274E-003   5.0590213589933257E-002
   8.9056736249990762E-002  -1.3389265196823066E-002   5.1752495093717189E-002
   9.1267319342321324E-002  -1.7630085098034123E-002   5.1754163541241932E-002
   7.4244007290536151E-002   0.0000000000000000        4.0575851471905698E-002
   7.5523007318977431E-002  -3.7439824102505270E-003   4.4142562002303577E-002
   7.6802007347418724E-002  -7.4036694187505480E-003   4.7006719461182067E-002
   7.8081007375859990E-002  -1.0979061025500062E-002   4.9168323848541140E-002
   7.9360007404301269E-002  -1.4470157230499076E-002   5.0627375164380845E-002
   6.5819485704491199E-002   0.0000000000000000        3.7211551191336283E-002
   6.6624962653782968E-002  -2.9137421726950466E-003   4.0834625788715245E-002
   6.7430439603074752E-002  -5.7700277907540677E-003   4.4213207299314598E-002
   6.8235916552366521E-002  -8.5688568541770586E-003   4.7347295723134356E-002
   6.9041393501658291E-002  -1.1310229362964030E-002   5.0236891060174468E-002
   5.7151422214864162E-002   0.0000000000000000        3.4690910571879577E-002
   5.7941436069746222E-002  -2.0835019351395671E-003   3.8343510389125153E-002
   5.8731449924628282E-002  -4.1363861627575840E-003   4.2209677104330913E-002
   5.9521463779510349E-002  -6.1586526828540482E-003   4.6289410717496843E-002
   6.0311477634392409E-002  -8.1503014954289778E-003   5.0582711228622970E-002
  0.10476332931571848       -2.0790012965569177E-002   5.3617256190757884E-002
  0.10210755290332257       -2.4930211743403648E-002   4.5637069509092812E-002
   9.9451776490926680E-002  -2.7507693978040284E-002   3.9345716235361462E-002
   9.6796000078530800E-002  -2.8522459669479156E-002   3.4743196369563994E-002
   9.4140223666134920E-002  -2.7974508817720206E-002   3.1829509911700332E-002
   9.1267319342321324E-002  -1.7630085098034123E-002   5.1754163541241932E-002
   9.0062814145515993E-002  -2.1204960543672192E-002   4.6516848305350085E-002
   8.8858308948710690E-002  -2.3559081327029260E-002   4.2493242092705545E-002
   8.7653803751905374E-002  -2.4692447448105351E-002   3.9683344903308333E-002
   8.6449298555100029E-002  -2.4605058906900436E-002   3.8087156737158463E-002
   7.9360007404301269E-002  -1.4470157230499076E-002   5.0627375164380845E-002
   7.9131649038400032E-002  -1.7479709343940740E-002   4.7790969493345388E-002
   7.8903290672498794E-002  -1.9610468676018233E-002   4.5693148460870768E-002
   7.8674932306597584E-002  -2.0862435226731542E-002   4.4333912066957068E-002
   7.8446573940696346E-002  -2.1235608996080679E-002   4.3713260311604128E-002
   6.9041393501658291E-002  -1.1310229362964030E-002   5.0236891060174468E-002
   6.9314057581974689E-002  -1.3754458144209284E-002   4.9459433073078665E-002
   6.9586721662291059E-002  -1.5661856025007186E-002   4.8945435339857173E-002
   6.9859385742607416E-002  -1.7032423005357719E-002   4.8694897860510102E-002
   7.0132049822923787E-002  -1.7866159085260902E-002   4.8707820635037397E-002
   6.0311477634392409E-002  -8.1503014954289778E-003   5.0582711228622970E-002
   6.0610039776239910E-002  -1.0029206944477835E-002   5.1522239044549917E-002
   6.0908601918087404E-002  -1.1713243373996172E-002   5.2250102729664800E-002
   6.1207164059934892E-002  -1.3202410783983922E-002   5.2766302283967580E-002
   6.1505726201782400E-002  -1.4496709174441152E-002   5.3070837707458199E-002
   9.4140223666134920E-002  -2.7974508817720206E-002   3.1829509911700332E-002
   9.1756234018153915E-002  -2.6780513143299649E-002   3.1254919544737074E-002
   8.9372244370172924E-002  -2.5857144366753647E-002   3.0759423663812943E-002
   8.6988254722191960E-002  -2.5204402488082291E-002   3.0343022268928162E-002
   8.4604265074210983E-002  -2.4822287507285407E-002   3.0005715360082758E-002
   8.6449298555100029E-002  -2.4605058906900436E-002   3.8087156737158463E-002
   8.4191162462221900E-002  -2.3960462234625446E-002   3.7059043286882226E-002
   8.1933026369343784E-002  -2.3422203962491270E-002   3.6203542460772453E-002
   7.9674890276465668E-002  -2.2990284090497966E-002   3.5520654258829040E-002
   7.7416754183587497E-002  -2.2664702618645449E-002   3.5010378681052126E-002
   7.8446573940696346E-002  -2.1235608996080679E-002   4.3713260311604128E-002
   7.6407809541048227E-002  -2.1140411325951260E-002   4.2395912275748723E-002
   7.4369045141400136E-002  -2.0987263558228896E-002   4.1344695002186904E-002
   7.2330280741752032E-002  -2.0776165692913618E-002   4.0559608490918692E-002
   7.0291516342103941E-002  -2.0507117730005422E-002   4.0040652741944134E-002
   7.0132049822923787E-002  -1.7866159085260902E-002   4.8707820635037397E-002
   6.8406175254632912E-002  -1.8320360417277040E-002   4.7265526511336503E-002
   6.6680300686342009E-002  -1.8552323153966509E-002   4.6182881288056456E-002
   6.4954426118051120E-002  -1.8562047295329343E-002   4.5459884965197123E-002
   6.3228551549760259E-002  -1.8349532841365458E-002   4.5096537542758774E-002
   6.1505726201782400E-002  -1.4496709174441152E-002   5.3070837707458199E-002
   6.0186259602975918E-002  -1.5500309508602865E-002   5.1667885993645579E-002
   5.8866793004169415E-002  -1.6117382749704149E-002   5.0718101318381024E-002
   5.7547326405362947E-002  -1.6347928897744987E-002   5.0221483681664444E-002
   5.6227859806556438E-002  -1.6191947952725425E-002   5.0178033083495818E-002
   8.4604265074210983E-002  -2.4822287507285407E-002   3.0005715360082758E-002
   8.2185822806623524E-002  -2.4502096385027677E-002   2.9246882208493905E-002
   7.9767380539036065E-002  -2.4035126081973494E-002   2.8760144892604977E-002
   7.7348938271448620E-002  -2.3421376598122809E-002   2.8545503412416066E-002
   7.4930496003861174E-002  -2.2660847933475725E-002   2.8602957767927401E-002
   7.7416754183587497E-002  -2.2664702618645449E-002   3.5010378681052126E-002
   7.5259238805941653E-002  -2.2338324069274572E-002   3.4430005500831730E-002
   7.3101723428295767E-002  -2.1904012964726251E-002   3.4099390264794430E-002
   7.0944208050649896E-002  -2.1361769305000416E-002   3.4018532972940260E-002
   6.8786692673004024E-002  -2.0711593090097041E-002   3.4187433625269187E-002
   7.0291516342103941E-002  -2.0507117730005422E-002   4.0040652741944134E-002
   6.8372589962882785E-002  -2.0174551753521494E-002   3.9599892907473198E-002
   6.6453663583661587E-002  -1.9772899847479066E-002   3.9386553125668439E-002
   6.4534737204440418E-002  -1.9302162011878003E-002   3.9400633396529980E-002
   6.2615810825219248E-002  -1.8762338246718413E-002   3.9642133720057732E-002
   6.3228551549760259E-002  -1.8349532841365458E-002   4.5096537542758774E-002
   6.1525876277446871E-002  -1.8010779437768402E-002   4.4756544428418268E-002
   5.9823201005133518E-002  -1.7641786730231826E-002   4.4621633475227136E-002
   5.8120525732820151E-002  -1.7242554718755573E-002   4.4691804683185447E-002
   5.6417850460506805E-002  -1.6813083403339757E-002   4.4967058052293091E-002
   5.6227859806556438E-002  -1.6191947952725425E-002   5.0178033083495818E-002
   5.4719097749634016E-002  -1.5847007122015325E-002   4.9899960063666954E-002
   5.3210335692711587E-002  -1.5510673612984627E-002   4.9804631313470633E-002
   5.1701573635789158E-002  -1.5182947425633236E-002   4.9892046832906545E-002
   5.0192811578866736E-002  -1.4863828559961129E-002   5.0162206621975208E-002
   7.4930496003861174E-002  -2.2660847933475725E-002   2.8602957767927401E-002
   7.2693633391623630E-002  -2.1848136820789454E-002   2.8319305697802610E-002
   7.0456770779386071E-002  -2.1077839992821049E-002   2.8185640241764093E-002
   6.8219908167148513E-002  -2.0349957449570719E-002   2.8201961399811598E-002
   6.5983045554910968E-002  -1.9664489191038248E-002   2.8368269171945015E-002
   6.8786692673004024E-002  -2.0711593090097041E-002   3.4187433625269187E-002
   6.6707429210893038E-002  -2.0017089475024230E-002   3.3853469554479182E-002
   6.4628165748782024E-002  -1.9341863614789886E-002   3.3684717169856243E-002
   6.2548902286671065E-002  -1.8685915509393951E-002   3.3681176471400225E-002
   6.0469638824560051E-002  -1.8049245158836574E-002   3.3842847459111480E-002
   6.2615810825219248E-002  -1.8762338246718413E-002   3.9642133720057732E-002
   6.0709371585315870E-002  -1.8186042129259034E-002   3.9280994178481868E-002
   5.8802932345412437E-002  -1.7605887236758634E-002   3.9100291395154051E-002
   5.6896493105509025E-002  -1.7021873569217263E-002   3.9100025370074426E-002
   5.4990053865605654E-002  -1.6434001126634845E-002   3.9280196103242793E-002
   5.6417850460506805E-002  -1.6813083403339757E-002   4.4967058052293091E-002
   5.4699460514892002E-002  -1.6354994783493865E-002   4.4601879569810862E-002
   5.2981070569277200E-002  -1.5869910858727482E-002   4.4432362917657703E-002
   5.1262680623662446E-002  -1.5357831629040537E-002   4.4458508095833717E-002
   4.9544290678047595E-002  -1.4818757094433116E-002   4.4680315104338710E-002
   5.0192811578866736E-002  -1.4863828559961129E-002   5.0162206621975208E-002
   4.8677695999621559E-002  -1.4523947437728710E-002   4.9816125728466165E-002
   4.7162580420376410E-002  -1.4133934480696241E-002   4.9680931737367165E-002
   4.5647464841131261E-002  -1.3693789688863816E-002   4.9756624648678298E-002
   4.4132349261886084E-002  -1.3203513062231387E-002   5.0043204462399571E-002
   6.5983045554910968E-002  -1.9664489191038248E-002   2.8368269171945015E-002
   6.3425172955192122E-002  -1.8989568943813762E-002   2.8017436039058291E-002
   6.0867300355473275E-002  -1.8293330434487082E-002   2.7886686733491206E-002
   5.8309427755754428E-002  -1.7575773663057785E-002   2.7976021255243982E-002
   5.5751555156035582E-002  -1.6836898629526420E-002   2.8285439604316731E-002
   6.0469638824560051E-002  -1.8049245158836574E-002   3.3842847459111480E-002
   5.8127221509148175E-002  -1.7414589561970589E-002   3.3539490809387229E-002
   5.5784804193736326E-002  -1.6764685717649087E-002   3.3446960900957390E-002
   5.3442386878324449E-002  -1.6099533625871860E-002   3.3565257733821421E-002
   5.1099969562912601E-002  -1.5419133286639242E-002   3.3894381307979810E-002
   5.4990053865605654E-002  -1.6434001126634845E-002   3.9280196103242793E-002
   5.2853834748475131E-002  -1.5839610180127472E-002   3.9018245922034421E-002
   5.0717615631344581E-002  -1.5236041000811204E-002   3.8957865396094707E-002
   4.8581396514214031E-002  -1.4623293588685995E-002   3.9099054525423553E-002
   4.6445177397083509E-002  -1.4001367943751952E-002   3.9441813310021029E-002
   4.9544290678047595E-002  -1.4818757094433116E-002   4.4680315104338710E-002
   4.7605012673172825E-002  -1.4264630798284328E-002   4.4453701376999701E-002
   4.5665734668298069E-002  -1.3707396283973237E-002   4.4419400218903643E-002
   4.3726456663423272E-002  -1.3147053551500030E-002   4.4577411630050384E-002
   4.1787178658548536E-002  -1.2583602600864607E-002   4.4927735610440105E-002
   4.4132349261886084E-002  -1.3203513062231387E-002   5.0043204462399571E-002
   4.2380755283241409E-002  -1.2689651416441211E-002   4.9845857174283026E-002
   4.0629161304596761E-002  -1.2178751567135368E-002   4.9831565369383629E-002
   3.8877567325952114E-002  -1.1670813514314159E-002   5.0000329047701811E-002
   3.7125973347307467E-002  -1.1165837257977429E-002   5.0352148209237113E-002
   5.5751555156035582E-002  -1.6836898629526420E-002   2.8285439604316731E-002
   5.3654534648459318E-002  -1.6096175108439165E-002   2.7918185886193991E-002
   5.1557514140883054E-002  -1.5373072874342336E-002   2.7639199469040199E-002
   4.9460493633306790E-002  -1.4667591927235803E-002   2.7448480352855589E-002
   4.7363473125730582E-002  -1.3979732267120015E-002   2.7346028537639899E-002
   5.1099969562912601E-002  -1.5419133286639242E-002   3.3894381307979810E-002
   4.9109731875079859E-002  -1.4735597336140771E-002   3.3529137379968099E-002
   4.7119494187247202E-002  -1.4061038410566828E-002   3.3289191790474529E-002
   4.5129256499414516E-002  -1.3395456509917331E-002   3.3174544539498953E-002
   4.3139018811581858E-002  -1.2738851634192083E-002   3.3185195627041419E-002
   4.6445177397083509E-002  -1.4001367943751952E-002   3.9441813310021029E-002
   4.4598753566543456E-002  -1.3375019563842502E-002   3.9087223434186441E-002
   4.2752329736003306E-002  -1.2749003946791418E-002   3.8894962934418895E-002
   4.0905905905463197E-002  -1.2123321092598689E-002   3.8865031810718563E-002
   3.9059482074923102E-002  -1.1497971001264040E-002   3.8997430063085342E-002
   4.1787178658548536E-002  -1.2583602600864607E-002   4.4927735610440105E-002
   4.0121599722849940E-002  -1.2014441791544282E-002   4.4592444048848837E-002
   3.8456020787151456E-002  -1.1436969483015987E-002   4.4456512900873504E-002
   3.6790441851452943E-002  -1.0851185675279965E-002   4.4519942166514372E-002
   3.5124862915754368E-002  -1.0257090368336053E-002   4.4782731845771216E-002
   3.7125973347307467E-002  -1.1165837257977429E-002   5.0352148209237113E-002
   3.5678270343999507E-002  -1.0653864019245868E-002   5.0044799223955272E-002
   3.4230567340691548E-002  -1.0124935019240389E-002   4.9973841689838372E-002
   3.2782864337383616E-002  -9.5790502579613801E-003   5.0139275606886580E-002
   3.1335161334075656E-002  -9.0162097354080095E-003   5.0541100975099951E-002
   4.7363473125730582E-002  -1.3979732267120015E-002   2.7346028537639899E-002
   4.4732103458091838E-002  -1.3279943664387950E-002   2.6679019959648498E-002
   4.2100733790453093E-002  -1.2538675889433054E-002   2.6190777763383355E-002
   3.9469364122814460E-002  -1.1755928942255585E-002   2.5881301948845192E-002
   3.6837994455175660E-002  -1.0931702822855049E-002   2.5750592516033066E-002
   4.3139018811581858E-002  -1.2738851634192083E-002   3.3185195627041419E-002
   4.0686022473971906E-002  -1.2070729399968838E-002   3.2699457031913681E-002
   3.8233026136361911E-002  -1.1370595423825153E-002   3.2391698715116712E-002
   3.5780029798751938E-002  -1.0638449705761228E-002   3.2261920676651082E-002
   3.3327033461141964E-002  -9.8742922457768501E-003   3.2310122916516248E-002
   3.9059482074923102E-002  -1.1497971001264040E-002   3.8997430063085342E-002
   3.6784072963946306E-002  -1.0861515135549643E-002   3.8683494020518822E-002
   3.4508663852969523E-002  -1.0202514958217238E-002   3.8546752152887886E-002
   3.2233254741992741E-002  -9.5209704692670628E-003   3.8587204460192155E-002
   2.9957845631016000E-002  -8.8168816686987617E-003   3.8804850942432190E-002
   3.5124862915754368E-002  -1.0257090368336053E-002   4.4782731845771216E-002
   3.3026254928015197E-002  -9.6523008711304897E-003   4.4631130925463967E-002
   3.0927646940276003E-002  -9.0344344926093847E-003   4.4655938076696169E-002
   2.8829038952536690E-002  -8.4034912327726908E-003   4.4857153299468357E-002
   2.6730430964797575E-002  -7.7594710916205623E-003   4.5234776593780376E-002
   3.1335161334075656E-002  -9.0162097354080095E-003   5.0541100975099951E-002
   2.9412568366178449E-002  -8.4430866067112809E-003   5.0542367746749028E-002
   2.7489975398281227E-002  -7.8663540270013516E-003   5.0719256486542380E-002
   2.5567382430384027E-002  -7.2860119962786345E-003   5.1071767194479964E-002
   2.3644789462486826E-002  -6.7020605145424739E-003   5.1599899870561350E-002
   5.7151422214864162E-002   0.0000000000000000        3.4690910571879577E-002
   5.7941436069746222E-002  -2.0835019351395671E-003   3.8343510389125153E-002
   5.8731449924628282E-002  -4.1363861627575840E-003   4.2209677104330913E-002
   5.9521463779510349E-002  -6.1586526828540482E-003   4.6289410717496843E-002
   6.0311477634392409E-002  -8.1503014954289778E-003   5.0582711228622970E-002
   4.8651628567718284E-002   0.0000000000000000        3.2790487205906965E-002
   4.9590008433483927E-002  -1.7090447145993821E-003   3.6966267806826596E-002
   5.0528388299249577E-002  -3.4321069723077541E-003   4.1225213531553215E-002
   5.1466768165015220E-002  -5.1691867731251066E-003   4.5567324380086829E-002
   5.2405148030780870E-002  -6.9202841170514602E-003   4.9992600352427440E-002
   4.0731916509116770E-002   0.0000000000000000        3.1286838685789797E-002
   4.1688260611612814E-002  -1.3345874940591976E-003   3.5941164819752958E-002
   4.2644604714108858E-002  -2.7278277818579173E-003   4.0548254303369911E-002
   4.3600948816604895E-002  -4.1797208633961597E-003   4.5108107136640686E-002
   4.4557292919100940E-002  -5.6902667386739287E-003   4.9620723319565234E-002
   3.3392286039059631E-002   0.0000000000000000        3.0179965011528091E-002
   3.4236192604132881E-002  -9.6013027351901236E-004   3.5268201427904225E-002
   3.5080099169206132E-002  -2.0235485914080840E-003   4.0178799419780982E-002
   3.5924005734279382E-002  -3.1902549536672190E-003   4.4911758987158365E-002
   3.6767912299352633E-002  -4.4602493602964024E-003   4.9467080130036353E-002
   2.6632737157546854E-002   0.0000000000000000        2.9469866183121834E-002
   2.7233804411044130E-002  -5.8567305297882802E-004   3.4947377631280419E-002
   2.7834871664541402E-002  -1.3192694009582506E-003   4.0116848880786440E-002
   2.8435938918038677E-002  -2.2007890439382678E-003   4.4978279931639879E-002
   2.9037006171535956E-002  -3.2302319819188831E-003   4.9531670783840756E-002
   6.0311477634392409E-002  -8.1503014954289778E-003   5.0582711228622970E-002
   6.0610039776239910E-002  -1.0029206944477835E-002   5.1522239044549917E-002
   6.0908601918087404E-002  -1.1713243373996172E-002   5.2250102729664800E-002
   6.1207164059934892E-002  -1.3202410783983922E-002   5.2766302283967580E-002
   6.1505726201782400E-002  -1.4496709174441152E-002   5.3070837707458199E-002
   5.2405148030780870E-002  -6.9202841170514602E-003   4.9992600352427440E-002
   5.2530810242139847E-002  -8.5839722861395917E-003   5.1221219316767611E-002
   5.2656472453498832E-002  -1.0058824562442359E-002   5.2315702550942866E-002
   5.2782134664857809E-002  -1.1344840945959722E-002   5.3276050054953172E-002
   5.2907796876216787E-002  -1.2442021436691722E-002   5.4102261828798577E-002
   4.4557292919100940E-002  -5.6902667386739287E-003   4.9620723319565234E-002
   4.4587583600618604E-002  -7.1387376278013413E-003   5.1132400305573422E-002
   4.4617874282136254E-002  -8.4044057508885460E-003   5.2587469962063892E-002
   4.4648164963653918E-002  -9.4872711079355236E-003   5.3985932289036594E-002
   4.4678455645171575E-002  -1.0387333698942292E-002   5.5327787286491611E-002
   3.6767912299352633E-002  -4.4602493602964024E-003   4.9467080130036353E-002
   3.6780359851676159E-002  -5.6935029694630979E-003   5.1255782010967380E-002
   3.6792807403999699E-002  -6.7499869393347327E-003   5.3065404963027876E-002
   3.6805254956323231E-002  -7.6297012699113268E-003   5.4895948986217850E-002
   3.6817702508646750E-002  -8.3326459611928611E-003   5.6747414080537295E-002
   2.9037006171535956E-002  -3.2302319819188831E-003   4.9531670783840756E-002
   2.9109138995312547E-002  -4.2482683111248441E-003   5.1591364432949489E-002
   2.9181271819089135E-002  -5.0955681277809273E-003   5.3749507553834862E-002
   2.9253404642865726E-002  -5.7721314318871248E-003   5.6006100146496880E-002
   2.9325537466642314E-002  -6.2779582234434445E-003   5.8361142210935565E-002
   6.1505726201782400E-002  -1.4496709174441152E-002   5.3070837707458199E-002
   6.0186259602975918E-002  -1.5500309508602865E-002   5.1667885993645579E-002
   5.8866793004169415E-002  -1.6117382749704149E-002   5.0718101318381024E-002
   5.7547326405362947E-002  -1.6347928897744987E-002   5.0221483681664444E-002
   5.6227859806556438E-002  -1.6191947952725425E-002   5.0178033083495818E-002
   5.2907796876216787E-002  -1.2442021436691722E-002   5.4102261828798577E-002
   5.1989085455679332E-002  -1.3291802150662838E-002   5.3361731726125780E-002
   5.1070374035141870E-002  -1.3835619203897660E-002   5.2969544941443084E-002
   5.0151662614604409E-002  -1.4073472596396224E-002   5.2925701474750488E-002
   4.9232951194066940E-002  -1.4005362328158494E-002   5.3230201326047819E-002
   4.4678455645171575E-002  -1.0387333698942292E-002   5.5327787286491611E-002
   4.4055675682345224E-002  -1.1083294792722850E-002   5.5169115362634483E-002
   4.3432895719518860E-002  -1.1553855658091252E-002   5.5253963036209511E-002
   4.2810115756692482E-002  -1.1799016295047475E-002   5.5582330307216654E-002
   4.2187335793866132E-002  -1.1818776703591514E-002   5.6154217175655927E-002
   3.6817702508646750E-002  -8.3326459611928611E-003   5.6747414080537295E-002
   3.6386030282973575E-002  -8.8747874347828559E-003   5.7090036903171673E-002
   3.5954358057300378E-002  -9.2720921122848299E-003   5.7571355602680355E-002
   3.5522685831627189E-002  -9.5245599936986808E-003   5.8191370179063139E-002
   3.5091013605954006E-002  -9.6321910790245456E-003   5.8950080632320226E-002
   2.9325537466642314E-002  -6.2779582234434445E-003   5.8361142210935565E-002
   2.8980149257564383E-002  -6.6662800768428378E-003   5.9124496347737407E-002
   2.8634761048486446E-002  -6.9903285664783370E-003   5.9921722640855539E-002
   2.8289372839408508E-002  -7.2501036923499447E-003   6.0752821090289927E-002
   2.7943984630330571E-002  -7.4456054544575767E-003   6.1617791696040619E-002
   5.6227859806556438E-002  -1.6191947952725425E-002   5.0178033083495818E-002
   5.4719097749634016E-002  -1.5847007122015325E-002   4.9899960063666954E-002
   5.3210335692711587E-002  -1.5510673612984627E-002   4.9804631313470633E-002
   5.1701573635789158E-002  -1.5182947425633236E-002   4.9892046832906545E-002
   5.0192811578866736E-002  -1.4863828559961129E-002   5.0162206621975208E-002
   4.9232951194066940E-002  -1.4005362328158494E-002   5.3230201326047819E-002
   4.7910238553360081E-002  -1.3776103389136860E-002   5.2908589844666745E-002
   4.6587525912653242E-002  -1.3530510769283806E-002   5.2776332926084420E-002
   4.5264813271946369E-002  -1.3268584468599383E-002   5.2833430570300668E-002
   4.3942100631239531E-002  -1.2990324487083427E-002   5.3079882777315526E-002
   4.2187335793866132E-002  -1.1818776703591514E-002   5.6154217175655927E-002
   4.1057282862541032E-002  -1.1705199656258360E-002   5.5814008235233518E-002
   3.9927229931215918E-002  -1.1550347925583066E-002   5.5669764150775826E-002
   3.8797176999890798E-002  -1.1354221511565543E-002   5.5721484922282974E-002
   3.7667124068565677E-002  -1.1116820414205822E-002   5.5969170549755039E-002
   3.5091013605954006E-002  -9.6321910790245456E-003   5.8950080632320226E-002
   3.4160230677176814E-002  -9.6342959233798910E-003   5.8616215235367128E-002
   3.3229447748399615E-002  -9.5701850818822425E-003   5.8484924987544915E-002
   3.2298664819622423E-002  -9.4398585545316972E-003   5.8556209888853808E-002
   3.1367881890845231E-002  -9.2433163413281685E-003   5.8830069939293746E-002
   2.7943984630330571E-002  -7.4456054544575767E-003   6.1617791696040619E-002
   2.7219081997267469E-002  -7.5633921905013737E-003   6.1315210845067636E-002
   2.6494179364204354E-002  -7.5900222381814833E-003   6.1221815436391783E-002
   2.5769276731141245E-002  -7.5254955974979002E-003   6.1337605470013108E-002
   2.5044374098078123E-002  -7.3698122684505152E-003   6.1662580945931633E-002
   5.0192811578866736E-002  -1.4863828559961129E-002   5.0162206621975208E-002
   4.8677695999621559E-002  -1.4523947437728710E-002   4.9816125728466165E-002
   4.7162580420376410E-002  -1.4133934480696241E-002   4.9680931737367165E-002
   4.5647464841131261E-002  -1.3693789688863816E-002   4.9756624648678298E-002
   4.4132349261886084E-002  -1.3203513062231387E-002   5.0043204462399571E-002
   4.3942100631239531E-002  -1.2990324487083427E-002   5.3079882777315526E-002
   4.2633731349936949E-002  -1.2684688520535489E-002   5.2749670726308553E-002
   4.1325362068634360E-002  -1.2340634264754693E-002   5.2622064368776707E-002
   4.0016992787331770E-002  -1.1958161719741182E-002   5.2697063704719924E-002
   3.8708623506029188E-002  -1.1537270885494721E-002   5.2974668734138058E-002
   3.7667124068565677E-002  -1.1116820414205822E-002   5.5969170549755039E-002
   3.6557219876270586E-002  -1.0845429603342192E-002   5.5643113795683111E-002
   3.5447315683975467E-002  -1.0547334048813094E-002   5.5511381526151135E-002
   3.4337411491680361E-002  -1.0222533750618382E-002   5.5573973741159043E-002
   3.3227507299385256E-002  -9.8710287087581394E-003   5.5830890440706896E-002
   3.1367881890845231E-002  -9.2433163413281685E-003   5.8830069939293746E-002
   3.0448161578622485E-002  -9.0061706861489892E-003   5.8496454936589615E-002
   2.9528441266399745E-002  -8.7540338328714658E-003   5.8348883209490263E-002
   2.8608720954176995E-002  -8.4869057814956645E-003   5.8387354757995724E-002
   2.7689000641954262E-002  -8.2047865320215990E-003   5.8611869582105861E-002
   2.5044374098078123E-002  -7.3698122684505152E-003   6.1662580945931633E-002
   2.4306556456992645E-002  -7.1669117689557166E-003   6.1309694149028010E-002
   2.3568738815907167E-002  -6.9607336169299344E-003   6.1134569418794027E-002
   2.2830921174821679E-002  -6.7512778123730126E-003   6.1137206755229809E-002
   2.2093103533736211E-002  -6.5385443552849476E-003   6.1317606158335369E-002
   4.4132349261886084E-002  -1.3203513062231387E-002   5.0043204462399571E-002
   4.2380755283241409E-002  -1.2689651416441211E-002   4.9845857174283026E-002
   4.0629161304596761E-002  -1.2178751567135368E-002   4.9831565369383629E-002
   3.8877567325952114E-002  -1.1670813514314159E-002   5.0000329047701811E-002
   3.7125973347307467E-002  -1.1165837257977429E-002   5.0352148209237113E-002
   3.8708623506029188E-002  -1.1537270885494721E-002   5.2974668734138058E-002
   3.7147819948784674E-002  -1.1095854871582572E-002   5.2727501070224364E-002
   3.5587016391540105E-002  -1.0651806787571688E-002   5.2678858765893441E-002
   3.4026212834295570E-002  -1.0205126633461979E-002   5.2828741821145490E-002
   3.2465409277051022E-002  -9.7558144092534382E-003   5.3177150235980380E-002
   3.3227507299385256E-002  -9.8710287087581394E-003   5.5830890440706896E-002
   3.1872964039906374E-002  -9.5020583267240305E-003   5.5539496267579355E-002
   3.0518420780427498E-002  -9.1248620080079043E-003   5.5462097330400119E-002
   2.9163877520948619E-002  -8.7394397526096897E-003   5.5598693629169485E-002
   2.7809334261469740E-002  -8.3457915605294752E-003   5.5949285163887197E-002
   2.7689000641954262E-002  -8.2047865320215990E-003   5.8611869582105861E-002
   2.6556187556606613E-002  -7.9082617818655790E-003   5.8281842766347854E-002
   2.5423374471258940E-002  -7.5979172284441447E-003   5.8181281062903593E-002
   2.4290561385911312E-002  -7.2737528717576770E-003   5.8310184471773399E-002
   2.3157748300563618E-002  -6.9357687118055261E-003   5.8668552992957243E-002
   2.2093103533736211E-002  -6.5385443552849476E-003   6.1317606158335369E-002
   2.1197490498885335E-002  -6.3144652370069054E-003   6.0954540566529852E-002
   2.0301877464034453E-002  -6.0709724488804684E-003   6.0836409963403948E-002
   1.9406264429183580E-002  -5.8080659909053381E-003   6.0963214348957684E-002
   1.8510651394332694E-002  -5.5257458630815770E-003   6.1334953723190810E-002
   3.7125973347307467E-002  -1.1165837257977429E-002   5.0352148209237113E-002
   3.5678270343999507E-002  -1.0653864019245868E-002   5.0044799223955272E-002
   3.4230567340691548E-002  -1.0124935019240389E-002   4.9973841689838372E-002
   3.2782864337383616E-002  -9.5790502579613801E-003   5.0139275606886580E-002
   3.1335161334075656E-002  -9.0162097354080095E-003   5.0541100975099951E-002
   3.2465409277051022E-002  -9.7558144092534382E-003   5.3177150235980380E-002
   3.1238449652057756E-002  -9.2990260426688565E-003   5.2873280220486873E-002
   3.0011490027064436E-002  -8.8299174614311082E-003   5.2774505510457467E-002
   2.8784530402071157E-002  -8.3484886655402143E-003   5.2880826105892585E-002
   2.7557570777077850E-002  -7.8547396549957793E-003   5.3192242006791790E-002
   2.7809334261469740E-002  -8.3457915605294752E-003   5.5949285163887197E-002
   2.6771821869090287E-002  -7.9441880660918868E-003   5.5644258571561217E-002
   2.5734309476710855E-002  -7.5348999036217168E-003   5.5513031138998775E-002
   2.4696797084331420E-002  -7.1179270731189931E-003   5.5555602866199746E-002
   2.3659284691951964E-002  -6.6932695745836879E-003   5.5771973753164131E-002
   2.3157748300563618E-002  -6.9357687118055261E-003   5.8668552992957243E-002
   2.2278386995097207E-002  -6.5893500895148130E-003   5.8357734277178393E-002
   2.1399025689630785E-002  -6.2398823458122699E-003   5.8189418575462004E-002
   2.0519664384164353E-002  -5.8873654806977441E-003   5.8163605887808383E-002
   1.9640303078697921E-002  -5.5317994941716381E-003   5.8280296214217278E-002
   1.8510651394332694E-002  -5.5257458630815770E-003   6.1334953723190810E-002
   1.7758145030078470E-002  -5.2345121129378780E-003   6.1013707337338186E-002
   1.7005638665824246E-002  -4.9448647880029201E-003   6.0803667819847390E-002
   1.6253132301570022E-002  -4.6568038882767136E-003   6.0704835170718410E-002
   1.5500625937315798E-002  -4.3703294137593662E-003   6.0717209389951177E-002
   3.1335161334075656E-002  -9.0162097354080095E-003   5.0541100975099951E-002
   2.9412568366178449E-002  -8.4430866067112809E-003   5.0542367746749028E-002
   2.7489975398281227E-002  -7.8663540270013516E-003   5.0719256486542380E-002
   2.5567382430384027E-002  -7.2860119962786345E-003   5.1071767194479964E-002
   2.3644789462486826E-002  -6.7020605145424739E-003   5.1599899870561350E-002
   2.7557570777077850E-002  -7.8547396549957793E-003   5.3192242006791790E-002
   2.5823798522975006E-002  -7.3511460225392233E-003   5.3091501236055272E-002
   2.4090026268872189E-002  -6.8401833609104679E-003   5.3192779924763567E-002
   2.2356254014769393E-002  -6.3218516701101096E-003   5.3496078072915870E-002
   2.0622481760666500E-002  -5.7961509501378572E-003   5.4001395680513098E-002
   2.3659284691951964E-002  -6.6932695745836879E-003   5.5771973753164131E-002
   2.2140730642943827E-002  -6.2592054383669715E-003   5.5572985018200960E-002
   2.0622176593935695E-002  -5.8140126948194801E-003   5.5602413233982746E-002
   1.9103622544927590E-002  -5.3576913439416420E-003   5.5860258400509288E-002
   1.7585068495919357E-002  -4.8902413857332405E-003   5.6346520517780663E-002
   1.9640303078697921E-002  -5.5317994941716381E-003   5.8280296214217278E-002
   1.8363364726084810E-002  -5.1672648541947058E-003   5.7986819093186079E-002
   1.7086426373471700E-002  -4.7878420287285443E-003   5.7948156414199752E-002
   1.5809488020858617E-002  -4.3935310177732013E-003   5.8164308177258962E-002
   1.4532549668245454E-002  -3.9843318213285683E-003   5.8635274382363239E-002
   1.5500625937315798E-002  -4.3703294137593662E-003   6.0717209389951177E-002
   1.4491700772398031E-002  -4.0753242700227177E-003   6.0333003461010337E-002
   1.3482775607480263E-002  -3.7616713626375253E-003   6.0230009465415402E-002
   1.2473850442562495E-002  -3.4293706916048508E-003   6.0408227403165954E-002
   1.1464925277644755E-002  -3.0784222569240072E-003   6.0867657274261466E-002
   2.6632737157546854E-002   0.0000000000000000        2.9469866183121834E-002
   2.7233804411044130E-002  -5.8567305297882802E-004   3.4947377631280419E-002
   2.7834871664541402E-002  -1.3192694009582506E-003   4.0116848880786440E-002
   2.8435938918038677E-002  -2.2007890439382678E-003   4.4978279931639879E-002
   2.9037006171535956E-002  -3.2302319819188831E-003   4.9531670783840756E-002
   2.0116060019828713E-002   0.0000000000000000        2.9022118703290647E-002
   2.0448530421002333E-002  -4.3925478980366695E-004   3.4315302513702919E-002
   2.0781000822175960E-002  -9.8945205084697944E-004   3.9379332818120463E-002
   2.1113471223349580E-002  -1.6505917831299470E-003   4.4214209616543279E-002
   2.1445941624523200E-002  -2.4226739866525472E-003   4.8819932908971353E-002
   1.3505044781155454E-002   0.0000000000000000        2.8702299074754148E-002
   1.3647805022663266E-002  -2.9283652662850414E-004   3.3848136071181055E-002
   1.3790565264171073E-002  -6.5963470073570826E-004   3.8843706254271082E-002
   1.3933325505678884E-002  -1.1003945223216193E-003   4.3689009624024194E-002
   1.4076085747186695E-002  -1.6151159913862251E-003   4.8384046180440426E-002
   6.7996914415270936E-003   0.0000000000000000        2.8510407297512339E-002
   6.8316282160269257E-003  -1.4641826345334176E-004   3.3545878303714832E-002
   6.8635649905267578E-003  -3.2981735062443968E-004   3.8509969189238276E-002
   6.8955017650265907E-003  -5.5019726151329159E-004   4.3402679954082653E-002
   6.9274385395264237E-003  -8.0755799611990139E-004   4.8224010598247963E-002
   9.4362104935408198E-013   0.0000000000000000        2.8446443371565218E-002
   1.0933155422665486E-012  -2.7817938924590280E-013   3.3408529211304237E-002
   1.2430078667746702E-012  -5.1316589866345907E-013   3.8378121623022038E-002
   1.3927004081232264E-012  -7.0496906923178670E-013   4.3355220606718620E-002
   1.5423938168335205E-012  -8.5356981899264994E-013   4.8339826162393983E-002
   2.9037006171535956E-002  -3.2302319819188831E-003   4.9531670783840756E-002
   2.9109138995312547E-002  -4.2482683111248441E-003   5.1591364432949489E-002
   2.9181271819089135E-002  -5.0955681277809273E-003   5.3749507553834862E-002
   2.9253404642865726E-002  -5.7721314318871248E-003   5.6006100146496880E-002
   2.9325537466642314E-002  -6.2779582234434445E-003   5.8361142210935565E-002
   2.1445941624523200E-002  -2.4226739866525472E-003   4.8819932908971353E-002
   2.1587403250656622E-002  -3.1862012335858907E-003   5.1221109006820517E-002
   2.1728864876790037E-002  -3.8216760961010182E-003   5.3662493237606697E-002
   2.1870326502923452E-002  -4.3290985741979496E-003   5.6144085601329857E-002
   2.2011788129056870E-002  -4.7084686678766779E-003   5.8665886097989992E-002
   1.4076085747186695E-002  -1.6151159913862251E-003   4.8384046180440426E-002
   1.4228634836837274E-002  -2.1241341560469234E-003   5.1084020598898369E-002
   1.4381183926487856E-002  -2.5477840644211086E-003   5.3765961811453614E-002
   1.4533733016138436E-002  -2.8860657165087700E-003   5.6429869818106229E-002
   1.4686282105789018E-002  -3.1389791123099184E-003   5.9075744618856160E-002
   6.9274385395264237E-003  -8.0755799611990139E-004   4.8224010598247963E-002
   7.0328337538545080E-003  -1.0620670785079630E-003   5.1180099209183011E-002
   7.1382289681825913E-003  -1.2738920327411923E-003   5.4059913275375689E-002
   7.2436241825106730E-003  -1.4430328588195857E-003   5.6863452796826044E-002
   7.3490193968387581E-003  -1.5694895567431484E-003   5.9590717773534120E-002
   1.5423938168335205E-012  -8.5356981899264994E-013   4.8339826162393983E-002
   1.7083201173107021E-012  -9.6899745172240870E-013   5.1509344837674408E-002
   1.8742433820218007E-012  -1.0612923300595822E-012   5.4544347629372859E-002
   2.0401677309350719E-012  -1.1304192716436734E-012   5.7444834537489310E-002
   2.2060929472100810E-012  -1.1763992557867198E-012   6.0210805562023760E-002
   2.9325537466642314E-002  -6.2779582234434445E-003   5.8361142210935565E-002
   2.8980149257564383E-002  -6.6662800768428378E-003   5.9124496347737407E-002
   2.8634761048486446E-002  -6.9903285664783370E-003   5.9921722640855539E-002
   2.8289372839408508E-002  -7.2501036923499447E-003   6.0752821090289927E-002
   2.7943984630330571E-002  -7.4456054544575767E-003   6.1617791696040619E-002
   2.2011788129056870E-002  -4.7084686678766779E-003   5.8665886097989992E-002
   2.1713390800289969E-002  -4.9997100579287392E-003   5.9486841466403678E-002
   2.1414993471523078E-002  -5.2427464251457584E-003   6.0367906439123112E-002
   2.1116596142756176E-002  -5.4375777695277044E-003   6.1309081016148390E-002
   2.0818198813989275E-002  -5.5842040910745461E-003   6.2310365197479366E-002
   1.4686282105789018E-002  -3.1389791123099184E-003   5.9075744618856160E-002
   1.4461113105322651E-002  -3.3331400390146666E-003   5.9938232877952871E-002
   1.4235944104856287E-002  -3.4951642838132093E-003   6.0887068189344813E-002
   1.4010775104389920E-002  -3.6250518467054924E-003   6.1922250553032056E-002
   1.3785606103923556E-002  -3.7228027276915293E-003   6.3043779969014557E-002
   7.3490193968387581E-003  -1.5694895567431484E-003   5.9590717773534120E-002
   7.2233161726624204E-003  -1.6665700201005810E-003   6.0478670582384930E-002
   7.0976129484860810E-003  -1.7475821424806593E-003   6.1479207891520539E-002
   6.9719097243097399E-003  -1.8125259238832802E-003   6.2592329700940905E-002
   6.8462065001334040E-003  -1.8614013643085334E-003   6.3818036010646076E-002
   2.2060929472100810E-012  -1.1763992557867198E-012   6.0210805562023760E-002
   2.3092777690081334E-012  -1.1864988158638567E-012   6.1108154579699939E-002
   2.4124625908061859E-012  -1.1480486700188308E-012   6.2144325545650358E-002
   2.5156478462851073E-012  -1.0610804769550786E-012   6.3319318459875013E-002
   2.6188322344022907E-012  -9.2548191332753049E-013   6.4633133322374053E-002
   2.7943984630330571E-002  -7.4456054544575767E-003   6.1617791696040619E-002
   2.7219081997267469E-002  -7.5633921905013737E-003   6.1315210845067636E-002
   2.6494179364204354E-002  -7.5900222381814833E-003   6.1221815436391783E-002
   2.5769276731141245E-002  -7.5254955974979002E-003   6.1337605470013108E-002
   2.5044374098078123E-002  -7.3698122684505152E-003   6.1662580945931633E-002
   2.0818198813989275E-002  -5.5842040910745461E-003   6.2310365197479366E-002
   2.0295491677243160E-002  -5.6725441430817564E-003   6.2173749609105752E-002
   1.9772784540497038E-002  -5.6925166788448084E-003   6.2232339571068912E-002
   1.9250077403750916E-002  -5.6441216983635530E-003   6.2486135083368845E-002
   1.8727370267004800E-002  -5.5273592016381323E-003   6.2935136146005669E-002
   1.3785606103923556E-002  -3.7228027276915293E-003   6.3043779969014557E-002
   1.3451114571534063E-002  -3.7816960956621078E-003   6.3050340471120750E-002
   1.3116623039144577E-002  -3.7950111195080190E-003   6.3238126631603386E-002
   1.2782131506755098E-002  -3.7627477992292326E-003   6.3607138450462508E-002
   1.2447639974365595E-002  -3.6849061348257772E-003   6.4157375927698060E-002
   6.8462065001334040E-003  -1.8614013643085334E-003   6.3818036010646076E-002
   6.6859506801401972E-003  -1.8908480482424748E-003   6.3944983431112573E-002
   6.5256948601469852E-003  -1.8975055601712591E-003   6.4239176617995164E-002
   6.3654390401537732E-003  -1.8813739000949404E-003   6.4700615571293960E-002
   6.2051832201605621E-003  -1.8424530680134082E-003   6.5329300291008682E-002
   2.6188322344022907E-012  -9.2548191332753049E-013   6.4633133322374053E-002
   3.0615406043654758E-012  -8.2281403912531914E-013   6.4857678489081305E-002
   3.5042472396051849E-012  -8.3461015876196143E-013   6.5235489530244342E-002
   3.9469521401214180E-012  -9.6059271648130107E-013   6.5766566445863137E-002
   4.3896622448080791E-012  -1.2010392680394943E-012   6.6450909235937661E-002
   2.5044374098078123E-002  -7.3698122684505152E-003   6.1662580945931633E-002
   2.4306556456992645E-002  -7.1669117689557166E-003   6.1309694149028010E-002
   2.3568738815907167E-002  -6.9607336169299344E-003   6.1134569418794027E-002
   2.2830921174821679E-002  -6.7512778123730126E-003   6.1137206755229809E-002
   2.2093103533736211E-002  -6.5385443552849476E-003   6.1317606158335369E-002
   1.8727370267004800E-002  -5.5273592016381323E-003   6.2935136146005669E-002
   1.8168987778512460E-002  -5.3751838270851143E-003   6.2624063919430775E-002
   1.7610605290020113E-002  -5.2205502131209280E-003   6.2494099931372359E-002
   1.7052222801527777E-002  -5.0634583597456775E-003   6.2545244181830606E-002
   1.6493840313035420E-002  -4.9039082669593281E-003   6.2777496670805483E-002
   1.2447639974365595E-002  -3.6849061348257772E-003   6.4157375927698060E-002
   1.2072038810313272E-002  -3.5834558852144358E-003   6.3887298858331831E-002
   1.1696437646260950E-002  -3.4803668093119564E-003   6.3801676199328999E-002
   1.1320836482208628E-002  -3.3756389071184275E-003   6.3900507950689592E-002
   1.0945235318156301E-002  -3.2692721786337364E-003   6.4183794112413650E-002
   6.2051832201605621E-003  -1.8424530680134082E-003   6.5329300291008682E-002
   6.0157095523951229E-003  -1.7917279433438092E-003   6.5099398965731164E-002
   5.8262358846296776E-003  -1.7401834055030228E-003   6.5057298222663956E-002
   5.6367622168642367E-003  -1.6878194544911350E-003   6.5202998061806988E-002
   5.4472885490987845E-003  -1.6346360903080753E-003   6.5536498483160455E-002
   4.3896622448080791E-012  -1.2010392680394943E-012   6.6450909235937661E-002
   4.7579787332274748E-012  -1.4730716646482733E-012   6.6260364241628789E-002
   5.1262969563703464E-012  -1.6940060465486795E-012   6.6260966001377153E-002
   5.4946117100662661E-012  -1.8638077192711933E-012   6.6452714515182670E-002
   5.8629316679326138E-012  -1.9825252550731420E-012   6.6835609783045369E-002
   2.2093103533736211E-002  -6.5385443552849476E-003   6.1317606158335369E-002
   2.1197490498885335E-002  -6.3144652370069054E-003   6.0954540566529852E-002
   2.0301877464034453E-002  -6.0709724488804684E-003   6.0836409963403948E-002
   1.9406264429183580E-002  -5.8080659909053381E-003   6.0963214348957684E-002
   1.8510651394332694E-002  -5.5257458630815770E-003   6.1334953723190810E-002
   1.6493840313035420E-002  -4.9039082669593281E-003   6.2777496670805483E-002
   1.5837904334303508E-002  -4.7358489281019017E-003   6.2476818333550663E-002
   1.5181968355571594E-002  -4.5532293365138296E-003   6.2410559119854297E-002
   1.4526032376839674E-002  -4.3560494921948186E-003   6.2578719029716387E-002
   1.3870096398107754E-002  -4.1443093951449295E-003   6.2981298063136654E-002
   1.0945235318156301E-002  -3.2692721786337364E-003   6.4183794112413650E-002
   1.0518460530422123E-002  -3.1572326191968980E-003   6.3940649612591938E-002
   1.0091685742687958E-002  -3.0354862241471353E-003   6.3921408371207369E-002
   9.6649109549537850E-003  -2.9040329934842436E-003   6.4126070388259959E-002
   9.2381361672196141E-003  -2.7628729272083652E-003   6.4554635663749790E-002
   5.4472885490987845E-003  -1.6346360903080753E-003   6.5536498483160455E-002
   5.2391590872411607E-003  -1.5786163102918666E-003   6.5346034403653830E-002
   5.0310296253835377E-003  -1.5177431117804410E-003   6.5368957717463247E-002
   4.8229001635259122E-003  -1.4520164947738629E-003   6.5605268424588525E-002
   4.6147707016682901E-003  -1.3814364592718148E-003   6.6054966525029818E-002
   5.8629316679326138E-012  -1.9825252550731420E-012   6.6835609783045369E-002
   4.7606363295926712E-012  -1.3868350912105143E-012   6.6692972706736270E-002
   3.6583461954231566E-012   5.8622551257769828E-013   6.6753207158621791E-002
   2.5560508570832141E-012   3.9367467619122465E-012   6.7016313138702072E-002
   1.4537607229136995E-012   8.6647911068382655E-012   6.7482290646977083E-002
   1.8510651394332694E-002  -5.5257458630815770E-003   6.1334953723190810E-002
   1.7758145030078470E-002  -5.2345121129378780E-003   6.1013707337338186E-002
   1.7005638665824246E-002  -4.9448647880029201E-003   6.0803667819847390E-002
   1.6253132301570022E-002  -4.6568038882767136E-003   6.0704835170718410E-002
   1.5500625937315798E-002  -4.3703294137593662E-003   6.0717209389951177E-002
   1.3870096398107754E-002  -4.1443093951449295E-003   6.2981298063136654E-002
   1.3248026832262887E-002  -3.9258840812022855E-003   6.2686488250591504E-002
   1.2625957266418027E-002  -3.7086485862049962E-003   6.2541345166503018E-002
   1.2003887700573163E-002  -3.4926029101527388E-003   6.2545868810871819E-002
   1.1381818134728300E-002  -3.2777470530459540E-003   6.2700059183697310E-002
   9.2381361672196141E-003  -2.7628729272083652E-003   6.4554635663749790E-002
   8.7849632598792672E-003  -2.6172560494668179E-003   6.4286659030775475E-002
   8.3317903525389238E-003  -2.4724323844070792E-003   6.4206808986353142E-002
   7.8786174451985769E-003  -2.3284019320289322E-003   6.4315085530482791E-002
   7.4254445378582334E-003  -2.1851646923324308E-003   6.4611488663164879E-002
   4.6147707016682901E-003  -1.3814364592718148E-003   6.6054966525029818E-002
   4.3689543129276052E-003  -1.3086280177313989E-003   6.5814219677889904E-002
   4.1231379241869360E-003  -1.2362161826090200E-003   6.5800059279397208E-002
   3.8773215354462633E-003  -1.1642009539049860E-003   6.6012485329551909E-002
   3.6315051467055888E-003  -1.0925823316187966E-003   6.6451497828353634E-002
   1.4537607229136995E-012   8.6647911068382655E-012   6.7482290646977083E-002
  -8.5920819070661736E-012   1.4004214454743646E-011   6.7269170191935235E-002
  -1.8637934945386903E-011   1.9188761690713818E-011   6.7321096045635742E-002
  -2.8683784514260680E-011   2.4218821392807399E-011   6.7638068208078578E-002
  -3.8729630613687505E-011   2.9094560094478084E-011   6.8220086679263880E-002
   1.5500625937315798E-002  -4.3703294137593662E-003   6.0717209389951177E-002
   1.4491700772398031E-002  -4.0753242700227177E-003   6.0333003461010337E-002
   1.3482775607480263E-002  -3.7616713626375253E-003   6.0230009465415402E-002
   1.2473850442562495E-002  -3.4293706916048508E-003   6.0408227403165954E-002
   1.1464925277644755E-002  -3.0784222569240072E-003   6.0867657274261466E-002
   1.1381818134728300E-002  -3.2777470530459540E-003   6.2700059183697310E-002
   1.0646859743221770E-002  -3.0564932016788338E-003   6.2487359086096761E-002
   9.9119013517152479E-003  -2.8212535428456254E-003   6.2541380601973146E-002
   9.1769429602087012E-003  -2.5720280765465647E-003   6.2862123731326644E-002
   8.4419845687021822E-003  -2.3088168027816103E-003   6.3449588474156937E-002
   7.4254445378582334E-003  -2.1851646923324308E-003   6.4611488663164879E-002
   6.9499625998943500E-003  -2.0376621333349221E-003   6.4565632440722415E-002
   6.4744806619304665E-003  -1.8808357230534894E-003   6.4772007511888177E-002
   5.9989987239665934E-003  -1.7146854614882197E-003   6.5230613876662430E-002
   5.5235167860027135E-003  -1.5392113486391024E-003   6.5941451535044882E-002
   3.6315051467055888E-003  -1.0925823316187966E-003   6.6451497828353634E-002
   3.4010093424157728E-003  -1.0188310649911353E-003   6.6567823524887104E-002
   3.1705135381259724E-003  -9.4041790326147151E-004   6.6921890195160399E-002
   2.9400177338361547E-003  -8.5734284642984861E-004   6.7513697839173353E-002
   2.7095219295463491E-003  -7.6960589449664996E-004   6.8343246456926424E-002
  -3.8729630613687505E-011   2.9094560094478084E-011   6.8220086679263880E-002
  -2.9213947233541759E-011   3.3526514897630477E-012   6.8493932338591357E-002
  -1.9698274261736870E-011  -8.3469245404366177E-011   6.8991028651789937E-002
  -1.0182596085761553E-011  -2.3137156426877858E-010   6.9711375618859914E-002
  -6.6691097089233153E-013  -4.4035419755061866E-010   7.0654973239800745E-002
   9.4362104935408198E-013   0.0000000000000000        2.8446443371565218E-002
   1.0933155422665486E-012  -2.7817938924590280E-013   3.3408529211304237E-002
   1.2430078667746702E-012  -5.1316589866345907E-013   3.8378121623022038E-002
   1.3927004081232264E-012  -7.0496906923178670E-013   4.3355220606718620E-002
   1.5423938168335205E-012  -8.5356981899264994E-013   4.8339826162393983E-002
  -6.7996914396733013E-003   0.0000000000000000        2.8510407296930357E-002
  -6.8316282138779173E-003   1.4641826292946438E-004   3.3545878303145503E-002
  -6.8635649880825333E-003   3.2981734965774508E-004   3.8509969188673249E-002
  -6.8955017622871527E-003   5.5019726018484295E-004   4.3402679953513594E-002
  -6.9274385364917670E-003   8.0755799451075888E-004   4.8224010597666539E-002
  -1.3505044779402016E-002   0.0000000000000000        2.8702299073625332E-002
  -1.3647805020627122E-002   2.9283652613710945E-004   3.3848136070072220E-002
  -1.3790565261852227E-002   6.5963469982865952E-004   3.8843706253165536E-002
  -1.3933325503077331E-002   1.1003945210746506E-003   4.3689009622905270E-002
  -1.4076085744302439E-002   1.6151159898750871E-003   4.8384046179291422E-002
  -2.0116060018242524E-002   0.0000000000000000        2.9022118701650133E-002
  -2.0448530419154298E-002   4.3925478934475474E-004   3.4315302512084402E-002
  -2.0781000820066068E-002   9.8945204999957397E-004   3.9379332816498906E-002
  -2.1113471220977842E-002   1.6505917819644640E-003   4.4214209614893654E-002
  -2.1445941621889612E-002   2.4226739852394137E-003   4.8819932907268646E-002
  -2.6632737156194821E-002   0.0000000000000000        2.9469866181004774E-002
  -2.7233804409459439E-002   5.8567305255239829E-004   3.4947377629182035E-002
  -2.7834871662724060E-002   1.3192694001704867E-003   4.0116848878673360E-002
  -2.8435938915988678E-002   2.2007890428542686E-003   4.4978279929478747E-002
  -2.9037006169253296E-002   3.2302319806037432E-003   4.9531670781598196E-002
   1.5423938168335205E-012  -8.5356981899264994E-013   4.8339826162393983E-002
   1.7083201173107021E-012  -9.6899745172240870E-013   5.1509344837674408E-002
   1.8742433820218007E-012  -1.0612923300595822E-012   5.4544347629372859E-002
   2.0401677309350719E-012  -1.1304192716436734E-012   5.7444834537489310E-002
   2.2060929472100810E-012  -1.1763992557867198E-012   6.0210805562023760E-002
  -6.9274385364917670E-003   8.0755799451075888E-004   4.8224010597666539E-002
  -7.0328337504927179E-003   1.0620670766804123E-003   5.1180099208541482E-002
  -7.1382289644936698E-003   1.2738920307387245E-003   5.4059913274664667E-002
  -7.2436241784946172E-003   1.4430328566856954E-003   5.6863452796036100E-002
  -7.3490193924955725E-003   1.5694895545213250E-003   5.9590717772655746E-002
  -1.4076085744302439E-002   1.6151159898750871E-003   4.8384046179291422E-002
  -1.4228634833640038E-002   2.1241341543298290E-003   5.1084020597626394E-002
  -1.4381183922977631E-002   2.5477840625387342E-003   5.3765961810039842E-002
  -1.4533733012315227E-002   2.8860657145018099E-003   5.6429869816531711E-002
  -1.4686282101652825E-002   3.1389791102190527E-003   5.9075744617102126E-002
  -2.1445941621889612E-002   2.4226739852394137E-003   4.8819932907268646E-002
  -2.1587403247733630E-002   3.1862012319792354E-003   5.1221109004929148E-002
  -2.1728864873577638E-002   3.8216760943387512E-003   5.3662493235498356E-002
  -2.1870326499421652E-002   4.3290985723179248E-003   5.6144085598976247E-002
  -2.2011788125265660E-002   4.7084686659167787E-003   5.8665886095362857E-002
  -2.9037006169253296E-002   3.2302319806037432E-003   4.9531670781598196E-002
  -2.9109138992773499E-002   4.2482683096286625E-003   5.1591364430449739E-002
  -2.9181271816293694E-002   5.0955681261387626E-003   5.3749507551040195E-002
  -2.9253404639813890E-002   5.7721314301340428E-003   5.6006100143369590E-002
  -2.9325537463334092E-002   6.2779582216144977E-003   5.8361142207437926E-002
   2.2060929472100810E-012  -1.1763992557867198E-012   6.0210805562023760E-002
   2.3092777690081334E-012  -1.1864988158638567E-012   6.1108154579699939E-002
   2.4124625908061859E-012  -1.1480486700188308E-012   6.2144325545650358E-002
   2.5156478462851073E-012  -1.0610804769550786E-012   6.3319318459875013E-002
   2.6188322344022907E-012  -9.2548191332753049E-013   6.4633133322374053E-002
  -7.3490193924955725E-003   1.5694895545213250E-003   5.9590717772655746E-002
  -7.2233161681190461E-003   1.6665700178730217E-003   6.0478670581471418E-002
  -7.0976129437425230E-003   1.7475821403682597E-003   6.1479207890559481E-002
  -6.9719097193660000E-003   1.8125259220069219E-003   6.2592329699919944E-002
  -6.8462064949894787E-003   1.8614013627890891E-003   6.3818036009552825E-002
  -1.4686282101652825E-002   3.1389791102190527E-003   5.9075744617102126E-002
  -1.4461113101004822E-002   3.3331400369325925E-003   5.9938232876152200E-002
  -1.4235944100356829E-002   3.4951642818845550E-003   6.0887068187472831E-002
  -1.4010775099708831E-002   3.6250518450749109E-003   6.1922250551063970E-002
  -1.3785606099060830E-002   3.7228027265036878E-003   6.3043779966925714E-002
  -2.2011788125265660E-002   4.7084686659167787E-003   5.8665886095362857E-002
  -2.1713390796348063E-002   4.9997100559921450E-003   5.9486841463742286E-002
  -2.1414993467430449E-002   5.2427464234008781E-003   6.0367906436390416E-002
  -2.1116596138512841E-002   5.4375777681428920E-003   6.1309081013307162E-002
  -2.0818198809595245E-002   5.5842040902182866E-003   6.2310365194492665E-002
  -2.9325537463334092E-002   6.2779582216144977E-003   5.8361142207437926E-002
  -2.8980149254148747E-002   6.6662800750516907E-003   5.9124496344241634E-002
  -2.8634761044963396E-002   6.9903285649171674E-003   5.9921722637312200E-002
  -2.8289372835778044E-002   7.2501036912108897E-003   6.0752821086649526E-002
  -2.7943984626592699E-002   7.4456054539328714E-003   6.1617791692253690E-002
   2.6188322344022907E-012  -9.2548191332753049E-013   6.4633133322374053E-002
   3.0615406043654758E-012  -8.2281403912531914E-013   6.4857678489081305E-002
   3.5042472396051849E-012  -8.3461015876196143E-013   6.5235489530244342E-002
   3.9469521401214180E-012  -9.6059271648130107E-013   6.5766566445863137E-002
   4.3896622448080791E-012  -1.2010392680394943E-012   6.6450909235937661E-002
  -6.8462064949894787E-003   1.8614013627890891E-003   6.3818036009552825E-002
  -6.6859506741663230E-003   1.8908480470392550E-003   6.3944983429560842E-002
  -6.5256948533431681E-003   1.8975055590817469E-003   6.4239176615873972E-002
  -6.3654390325200115E-003   1.8813738989167592E-003   6.4700615568492270E-002
  -6.2051832116968575E-003   1.8424530665441807E-003   6.5329300287415709E-002
  -1.3785606099060830E-002   3.7228027265036878E-003   6.3043779966925714E-002
  -1.3451114566007821E-002   3.7816960949012962E-003   6.3050340468141189E-002
  -1.3116623032954803E-002   3.7950111189981317E-003   6.3238126627511229E-002
  -1.2782131499901789E-002   3.7627477987941665E-003   6.3607138445035835E-002
  -1.2447639966848780E-002   3.6849061342894562E-003   6.4157375920714993E-002
  -2.0818198809595245E-002   5.5842040902182866E-003   6.2310365194492665E-002
  -2.0295491672462963E-002   5.6725441427633375E-003   6.2173749604822436E-002
  -1.9772784535330663E-002   5.6925166789144749E-003   6.2232339565156169E-002
  -1.9250077398198371E-002   5.6441216986715323E-003   6.2486135075493880E-002
  -1.8727370261066089E-002   5.5273592020346901E-003   6.2935136135835623E-002
  -2.7943984626592699E-002   7.4456054539328714E-003   6.1617791692253690E-002
  -2.7219081993531728E-002   7.5633921906253995E-003   6.1315210839604548E-002
  -2.6494179360470750E-002   7.5900222388307591E-003   6.1221815428808772E-002
  -2.5769276727409765E-002   7.5254955985489804E-003   6.1337605459866440E-002
  -2.5044374094348804E-002   7.3698122697799795E-003   6.1662580932777433E-002
   4.3896622448080791E-012  -1.2010392680394943E-012   6.6450909235937661E-002
   4.7579787332274748E-012  -1.4730716646482733E-012   6.6260364241628789E-002
   5.1262969563703464E-012  -1.6940060465486795E-012   6.6260966001377153E-002
   5.4946117100662661E-012  -1.8638077192711933E-012   6.6452714515182670E-002
   5.8629316679326138E-012  -1.9825252550731420E-012   6.6835609783045369E-002
  -6.2051832116968575E-003   1.8424530665441807E-003   6.5329300287415709E-002
  -6.0157095431832598E-003   1.7917279414353393E-003   6.5099398961522642E-002
  -5.8262358746696500E-003   1.7401834030614169E-003   6.5057298217862880E-002
  -5.6367622061560515E-003   1.6878194514225574E-003   6.5202998056436590E-002
  -5.4472885376424425E-003   1.6346360865186205E-003   6.5536498477243688E-002
  -1.2447639966848780E-002   3.6849061342894562E-003   6.4157375920714993E-002
  -1.2072038802013699E-002   3.5834558843438197E-003   6.3887298849921503E-002
  -1.1696437637178621E-002   3.4803668078169231E-003   6.3801676189537623E-002
  -1.1320836472343545E-002   3.3756389047089504E-003   6.3900507939563256E-002
  -1.0945235307508469E-002   3.2692721750197107E-003   6.4183794099998442E-002
  -1.8727370261066089E-002   5.5273592020346901E-003   6.2935136135835623E-002
  -1.8168987771733348E-002   5.3751838272522653E-003   6.2624063906825594E-002
  -1.7610605282400611E-002   5.2205502125723877E-003   6.2494099916401313E-002
  -1.7052222793067867E-002   5.0634583579953294E-003   6.2545244164562766E-002
  -1.6493840303735137E-002   4.9039082635208009E-003   6.2777496651310022E-002
  -2.5044374094348804E-002   7.3698122697799795E-003   6.1662580932777433E-002
  -2.4306556452342212E-002   7.1669117701607110E-003   6.1309694132234693E-002
  -2.3568738810335631E-002   6.9607336173278869E-003   6.1134569398453922E-002
  -2.2830921168329046E-002   6.7512778112816894E-003   6.1137206731435002E-002
  -2.2093103526322457E-002   6.5385443520218911E-003   6.1317606131178148E-002
   5.8629316679326138E-012  -1.9825252550731420E-012   6.6835609783045369E-002
   4.7606363295926712E-012  -1.3868350912105143E-012   6.6692972706736270E-002
   3.6583461954231566E-012   5.8622551257769828E-013   6.6753207158621791E-002
   2.5560508570832141E-012   3.9367467619122465E-012   6.7016313138702072E-002
   1.4537607229136995E-012   8.6647911068382655E-012   6.7482290646977083E-002
  -5.4472885376424425E-003   1.6346360865186205E-003   6.5536498477243688E-002
  -5.2391590777015589E-003   1.5786163068079867E-003   6.5346034399936762E-002
  -5.0310296177606701E-003   1.5177431107488357E-003   6.5368957716521459E-002
  -4.8229001578197770E-003   1.4520164983411517E-003   6.5605268426997737E-002
  -4.6147706978788977E-003   1.3814364695849402E-003   6.6054966531365694E-002
  -1.0945235307508469E-002   3.2692721750197107E-003   6.4183794099998442E-002
  -1.0518460520827508E-002   3.1572326150026975E-003   6.3940649603967920E-002
  -1.0091685734146545E-002   3.0354862209112793E-003   6.3921408367525800E-002
  -9.6649109474655839E-003   2.9040329927453902E-003   6.4126070390672335E-002
  -9.2381361607846210E-003   2.7628729305050614E-003   6.4554635673407273E-002
  -1.6493840303735137E-002   4.9039082635208009E-003   6.2777496651310022E-002
  -1.5837904324617215E-002   4.7358489231973527E-003   6.2476818318829820E-002
  -1.5181968345499277E-002   4.5532293310738617E-003   6.2410559111634942E-002
  -1.4526032366381343E-002   4.3560494871496009E-003   6.2578719029725602E-002
  -1.3870096387263407E-002   4.1443093914251966E-003   6.2981298073101669E-002
  -2.2093103526322457E-002   6.5385443520218911E-003   6.1317606131178148E-002
  -2.1197490489070676E-002   6.3144652313922578E-003   6.0954540544522345E-002
  -2.0301877451818870E-002   6.0709724412363053E-003   6.0836409948848924E-002
  -1.9406264414567078E-002   5.8080659815539989E-003   6.0963214344157829E-002
  -1.8510651377315279E-002   5.5257458523453873E-003   6.1334953730449060E-002
   1.4537607229136995E-012   8.6647911068382655E-012   6.7482290646977083E-002
  -8.5920819070661736E-012   1.4004214454743646E-011   6.7269170191935235E-002
  -1.8637934945386903E-011   1.9188761690713818E-011   6.7321096045635742E-002
  -2.8683784514260680E-011   2.4218821392807399E-011   6.7638068208078578E-002
  -3.8729630613687505E-011   2.9094560094478084E-011   6.8220086679263880E-002
  -4.6147706978788977E-003   1.3814364695849402E-003   6.6054966531365694E-002
  -4.3689543278398885E-003   1.3086280358015623E-003   6.5814219687162973E-002
  -4.1231379578008757E-003   1.2362162083125183E-003   6.5800059294387606E-002
  -3.8773215877618700E-003   1.1642009871175099E-003   6.6012485353039468E-002
  -3.6315052177228538E-003   1.0925823722169326E-003   6.6451497863118880E-002
  -9.2381361607846210E-003   2.7628729305050614E-003   6.4554635673407273E-002
  -8.7849632679758462E-003   2.6172560575990905E-003   6.4286659046492639E-002
  -8.3317903751670766E-003   2.4724323974361084E-003   6.4206809013690136E-002
  -7.8786174823583018E-003   2.3284019500161429E-003   6.4315085574999903E-002
  -7.4254445895495323E-003   2.1851647153393883E-003   6.4611488730421815E-002
  -1.3870096387263407E-002   4.1443093914251966E-003   6.2981298073101669E-002
  -1.3248026828999978E-002   3.9258840793964730E-003   6.2686488269923846E-002
  -1.2625957270736527E-002   3.7086485865596430E-003   6.2541345203543069E-002
  -1.2003887712473090E-002   3.4926029129147482E-003   6.2545868873959576E-002
  -1.1381818154209645E-002   3.2777470584616913E-003   6.2700059281173101E-002
  -1.8510651377315279E-002   5.5257458523453873E-003   6.1334953730449060E-002
  -1.7758145010912246E-002   5.2345121011940221E-003   6.1013707357456926E-002
  -1.7005638644509245E-002   4.9448647756834135E-003   6.0803667863946670E-002
  -1.6253132278106222E-002   4.6568038758133708E-003   6.0704835249918640E-002
  -1.5500625911703210E-002   4.3703294015842165E-003   6.0717209515372628E-002
  -3.8729630613687505E-011   2.9094560094478084E-011   6.8220086679263880E-002
  -2.9213947233541759E-011   3.3526514897630477E-012   6.8493932338591357E-002
  -1.9698274261736870E-011  -8.3469245404366177E-011   6.8991028651789937E-002
  -1.0182596085761553E-011  -2.3137156426877858E-010   6.9711375618859914E-002
  -6.6691097089233153E-013  -4.4035419755061866E-010   7.0654973239800745E-002
  -3.6315052177228538E-003   1.0925823722169326E-003   6.6451497863118880E-002
  -3.4010093955299456E-003   1.0188310687966329E-003   6.6567823466211817E-002
  -3.1705135733370200E-003   9.4041778204252691E-004   6.6921890040788246E-002
  -2.9400177511441066E-003   8.5734251195514546E-004   6.7513697586847554E-002
  -2.7095219289511793E-003   7.6960525853375650E-004   6.8343246104390687E-002
  -7.4254445895495323E-003   2.1851647153393883E-003   6.4611488730421815E-002
  -6.9499626370673083E-003   2.0376621342405032E-003   6.4565632355027144E-002
  -6.4744806845850990E-003   1.8808356475548058E-003   6.4772007268727921E-002
  -5.9989987321028716E-003   1.7146852552817459E-003   6.5230613471524063E-002
  -5.5235167796206797E-003   1.5392109574219326E-003   6.5941450963415360E-002
  -1.1381818154209645E-002   3.2777470584616913E-003   6.2700059281173101E-002
  -1.0646859753826059E-002   3.0564931996844291E-003   6.2487359005037310E-002
  -9.9119013534424653E-003   2.8212535130667203E-003   6.2541380335608951E-002
  -9.1769429530588996E-003   2.5720279986085120E-003   6.2862123272887885E-002
  -8.4419845526753010E-003   2.3088166563100532E-003   6.3449587816874306E-002
  -1.5500625911703210E-002   4.3703294015842165E-003   6.0717209515372628E-002
  -1.4491700745806177E-002   4.0753242651283550E-003   6.0333003416242315E-002
  -1.3482775579909154E-002   3.7616713785789679E-003   6.0230009241431570E-002
  -1.2473850414012116E-002   3.4293707419351671E-003   6.0408226990940228E-002
  -1.1464925248115099E-002   3.0784223551980627E-003   6.0867656664768344E-002
  -2.6632737156194821E-002   0.0000000000000000        2.9469866181004774E-002
  -2.7233804409459439E-002   5.8567305255239829E-004   3.4947377629182035E-002
  -2.7834871662724060E-002   1.3192694001704867E-003   4.0116848878673360E-002
  -2.8435938915988678E-002   2.2007890428542686E-003   4.4978279929478747E-002
  -2.9037006169253296E-002   3.2302319806037432E-003   4.9531670781598196E-002
  -3.3392286037993782E-002   0.0000000000000000        3.0179965008991137E-002
  -3.4236192602868823E-002   9.6013027316593520E-004   3.5268201425407993E-002
  -3.5080099167743857E-002   2.0235485907573970E-003   4.0178799417289947E-002
  -3.5924005732618898E-002   3.1902549527743802E-003   4.4911758984637000E-002
  -3.6767912297493939E-002   4.4602493592168823E-003   4.9467080127449138E-002
  -4.0731916508374266E-002   0.0000000000000000        3.1286838682911128E-002
  -4.1688260610708697E-002   1.3345874937794721E-003   3.5941164816927412E-002
  -4.2644604713043120E-002   2.7278277813443013E-003   4.0548254300559826E-002
  -4.3600948815377544E-002   4.1797208626944892E-003   4.5108107133808362E-002
  -4.4557292917711974E-002   5.6902667378300326E-003   4.9620723316673040E-002
  -4.8651628567336284E-002   0.0000000000000000        3.2790487202764729E-002
  -4.9590008432979060E-002   1.7090447143930107E-003   3.6966267803740266E-002
  -5.0528388298621850E-002   3.4321069719312099E-003   4.1225213528482983E-002
  -5.1466768164264619E-002   5.1691867726146035E-003   4.5567324376992853E-002
  -5.2405148029907415E-002   6.9202841164431803E-003   4.9992600349269882E-002
  -5.7151422214879823E-002   0.0000000000000000        3.4690910568551954E-002
  -5.7941436069679927E-002   2.0835019350065459E-003   3.8343510385846595E-002
  -5.8731449924480025E-002   4.1363861625181141E-003   4.2209677101059426E-002
  -5.9521463779280130E-002   6.1586526825347081E-003   4.6289410714190460E-002
  -6.0311477634080235E-002   8.1503014950563245E-003   5.0582711225239683E-002
  -2.9037006169253296E-002   3.2302319806037432E-003   4.9531670781598196E-002
  -2.9109138992773499E-002   4.2482683096286625E-003   5.1591364430449739E-002
  -2.9181271816293694E-002   5.0955681261387626E-003   5.3749507551040195E-002
  -2.9253404639813890E-002   5.7721314301340428E-003   5.6006100143369590E-002
  -2.9325537463334092E-002   6.2779582216144977E-003   5.8361142207437926E-002
  -3.6767912297493939E-002   4.4602493592168823E-003   4.9467080127449138E-002
  -3.6780359849605183E-002   5.6935029682381733E-003   5.1255782008101915E-002
  -3.6792807401716435E-002   6.7499869379914939E-003   5.3065404959833654E-002
  -3.6805254953827679E-002   7.6297012684768311E-003   5.4895948982644376E-002
  -3.6817702505938923E-002   8.3326459596941710E-003   5.6747414076534060E-002
  -4.4557292917711974E-002   5.6902667378300326E-003   4.9620723316673040E-002
  -4.4587583599074228E-002   7.1387376268476875E-003   5.1132400302373877E-002
  -4.4617874280436474E-002   8.4044057498442112E-003   5.2587469958493741E-002
  -4.4648164961798735E-002   9.4872711068196090E-003   5.3985932285032623E-002
  -4.4678455643160975E-002   1.0387333697773862E-002   5.5327787281990497E-002
  -5.2405148029907415E-002   6.9202841164431803E-003   4.9992600349269882E-002
  -5.2530810241180607E-002   8.5839722854572035E-003   5.1221219313265648E-002
  -5.2656472452453834E-002   1.0058824561696929E-002   5.2315702547020448E-002
  -5.2782134663727040E-002   1.1344840945162379E-002   5.3276050050534325E-002
  -5.2907796875000260E-002   1.2442021435853544E-002   5.4102261823807243E-002
  -6.0311477634080235E-002   8.1503014950563245E-003   5.0582711225239683E-002
  -6.0610039775924371E-002   1.0029206944066716E-002   5.1522239040777199E-002
  -6.0908601917768507E-002   1.1713243373549660E-002   5.2250102725413791E-002
  -6.1207164059612629E-002   1.3202410783505168E-002   5.2766302279149531E-002
  -6.1505726201456765E-002   1.4496709173933212E-002   5.3070837701984341E-002
  -2.9325537463334092E-002   6.2779582216144977E-003   5.8361142207437926E-002
  -2.8980149254148747E-002   6.6662800750516907E-003   5.9124496344241634E-002
  -2.8634761044963396E-002   6.9903285649171674E-003   5.9921722637312200E-002
  -2.8289372835778044E-002   7.2501036912108897E-003   6.0752821086649526E-002
  -2.7943984626592699E-002   7.4456054539328714E-003   6.1617791692253690E-002
  -3.6817702505938923E-002   8.3326459596941710E-003   5.6747414076534060E-002
  -3.6386030280190738E-002   8.8747874333229872E-003   5.7090036899276123E-002
  -3.5954358054442553E-002   9.2720921110426638E-003   5.7571355598877064E-002
  -3.5522685828694368E-002   9.5245599928531124E-003   5.8191370175336862E-002
  -3.5091013602946190E-002   9.6321910787544734E-003   5.8950080628655525E-002
  -4.4678455643160975E-002   1.0387333697773862E-002   5.5327787281990497E-002
  -4.4055675680257915E-002   1.1083294791594259E-002   5.5169115358333513E-002
  -4.3432895717354855E-002   1.1553855657168103E-002   5.5253963032127415E-002
  -4.2810115754451802E-002   1.1799016294495349E-002   5.5582330303372236E-002
  -4.2187335791548729E-002   1.1818776703576041E-002   5.6154217172067991E-002
  -5.2907796875000260E-002   1.2442021435853544E-002   5.4102261823807243E-002
  -5.1989085454350277E-002   1.3291802149865551E-002   5.3361731721413785E-002
  -5.1070374033700287E-002   1.3835619203293544E-002   5.2969544937063261E-002
  -5.0151662613050284E-002   1.4073472596137563E-002   5.2925701470755739E-002
  -4.9232951192400287E-002   1.4005362328397612E-002   5.3230201322491094E-002
  -6.1505726201456765E-002   1.4496709173933212E-002   5.3070837701984341E-002
  -6.0186259602467804E-002   1.5500309508136838E-002   5.1667885988516973E-002
  -5.8866793003478829E-002   1.6117382749419051E-002   5.0718101313684559E-002
  -5.7547326404489882E-002   1.6347928897779824E-002   5.0221483677487216E-002
  -5.6227859805500907E-002   1.6191947953219210E-002   5.0178033079924800E-002
  -2.7943984626592699E-002   7.4456054539328714E-003   6.1617791692253690E-002
  -2.7219081993531728E-002   7.5633921906253995E-003   6.1315210839604548E-002
  -2.6494179360470750E-002   7.5900222388307591E-003   6.1221815428808772E-002
  -2.5769276727409765E-002   7.5254955985489804E-003   6.1337605459866440E-002
  -2.5044374094348804E-002   7.3698122697799795E-003   6.1662580932777433E-002
  -3.5091013602946190E-002   9.6321910787544734E-003   5.8950080628655525E-002
  -3.4160230674582293E-002   9.6342959237818715E-003   5.8616215230043955E-002
  -3.3229447746218388E-002   9.5701850829706080E-003   5.8484924980184858E-002
  -3.2298664817854476E-002   9.4398585563206863E-003   5.8556209879078232E-002
  -3.1367881889490593E-002   9.2433163438321031E-003   5.8830069926724043E-002
  -4.2187335791548729E-002   1.1818776703576041E-002   5.6154217172067991E-002
  -4.1057282860982799E-002   1.1705199656938305E-002   5.5814008230142487E-002
  -3.9927229930416905E-002   1.1550347927110459E-002   5.5669764143868497E-002
  -3.8797176999850996E-002   1.1354221514092377E-002   5.5721484913246098E-002
  -3.7667124069285074E-002   1.1116820417884157E-002   5.5969170538275277E-002
  -4.9232951192400287E-002   1.4005362328397612E-002   5.3230201322491094E-002
  -4.7910238552733291E-002   1.3776103390094786E-002   5.2908589839900148E-002
  -4.6587525913066301E-002   1.3530510771250281E-002   5.2776332919859829E-002
  -4.5264813273399283E-002   1.3268584471864131E-002   5.2833430562370186E-002
  -4.3942100633732321E-002   1.2990324491936218E-002   5.3079882767431134E-002
  -5.6227859805500907E-002   1.6191947953219210E-002   5.0178033079924800E-002
  -5.4719097749833731E-002   1.5847007123251225E-002   4.9899960059316947E-002
  -5.3210335694166590E-002   1.5510673615390116E-002   4.9804631308158764E-002
  -5.1701573638499407E-002   1.5182947429635763E-002   4.9892046826450279E-002
  -5.0192811582832259E-002   1.4863828565988335E-002   5.0162206614191518E-002
  -2.5044374094348804E-002   7.3698122697799795E-003   6.1662580932777433E-002
  -2.4306556452342212E-002   7.1669117701607110E-003   6.1309694132234693E-002
  -2.3568738810335631E-002   6.9607336173278869E-003   6.1134569398453922E-002
  -2.2830921168329046E-002   6.7512778112816894E-003   6.1137206731435002E-002
  -2.2093103526322457E-002   6.5385443520218911E-003   6.1317606131178148E-002
  -3.1367881889490593E-002   9.2433163438321031E-003   5.8830069926724043E-002
  -3.0448161576403926E-002   9.0061706890123272E-003   5.8496454919828189E-002
  -2.9528441263317259E-002   8.7540338353688796E-003   5.8348883188330494E-002
  -2.8608720950230593E-002   8.4869057829017880E-003   5.8387354732230959E-002
  -2.7689000637143930E-002   8.2047865316110802E-003   5.8611869551529777E-002
  -3.7667124069285074E-002   1.1116820417884157E-002   5.5969170538275277E-002
  -3.6557219876482056E-002   1.0845429607863888E-002   5.5643113779416040E-002
  -3.5447315683679058E-002   1.0547334053409869E-002   5.5511381504591298E-002
  -3.4337411490876074E-002   1.0222533754521968E-002   5.5573973713801079E-002
  -3.3227507298073063E-002   9.8710287112002970E-003   5.5830890407045225E-002
  -4.3942100633732321E-002   1.2990324491936218E-002   5.3079882767431134E-002
  -4.2633731352576698E-002   1.2684688526715560E-002   5.2749670710998391E-002
  -4.1325362071421047E-002   1.2340634271450832E-002   5.2622064347236444E-002
  -4.0016992790265410E-002   1.1958161726142136E-002   5.2697063676145212E-002
  -3.8708623509109773E-002   1.1537270890789472E-002   5.2974668697724804E-002
  -5.0192811582832259E-002   1.4863828565988335E-002   5.0162206614191518E-002
  -4.8677696004687729E-002   1.4523947445567092E-002   4.9816125714575193E-002
  -4.7162580426543227E-002   1.4133934489491823E-002   4.9680931716265864E-002
  -4.5647464848398711E-002   1.3693789697762269E-002   4.9756624619263487E-002
  -4.4132349270254195E-002   1.3203513070378703E-002   5.0043204423568244E-002
  -2.2093103526322457E-002   6.5385443520218911E-003   6.1317606131178148E-002
  -2.1197490489070676E-002   6.3144652313922578E-003   6.0954540544522345E-002
  -2.0301877451818870E-002   6.0709724412363053E-003   6.0836409948848924E-002
  -1.9406264414567078E-002   5.8080659815539989E-003   6.0963214344157829E-002
  -1.8510651377315279E-002   5.5257458523453873E-003   6.1334953730449060E-002
  -2.7689000637143930E-002   8.2047865316110802E-003   5.8611869551529777E-002
  -2.6556187547549875E-002   7.9082617790274118E-003   5.8281842739481962E-002
  -2.5423374457955797E-002   7.5979172226814454E-003   5.8181281041136415E-002
  -2.4290561368361743E-002   7.2737528625730647E-003   5.8310184456493087E-002
  -2.3157748278767695E-002   6.9357686987026046E-003   5.8668552985552014E-002
  -3.3227507298073063E-002   9.8710287112002970E-003   5.5830890407045225E-002
  -3.1872964033416828E-002   9.5020583266625241E-003   5.5539496235369600E-002
  -3.0518420768760615E-002   9.1248620041266409E-003   5.5462097300115976E-002
  -2.9163877504104384E-002   8.7394397435922970E-003   5.5598693601284423E-002
  -2.7809334239448161E-002   8.3457915450597941E-003   5.5949285138875079E-002
  -3.8708623509109773E-002   1.1537270890789472E-002   5.2974668697724804E-002
  -3.7147819946671538E-002   1.1095854874297796E-002   5.2727501032185153E-002
  -3.5587016384233214E-002   1.0651806785571698E-002   5.2678858725787495E-002
  -3.4026212821794938E-002   1.0205126624611529E-002   5.2828741778531772E-002
  -3.2465409259356662E-002   9.7558143914170531E-003   5.3177150190418160E-002
  -4.4132349270254195E-002   1.3203513070378703E-002   5.0043204423568244E-002
  -4.2380755287313970E-002   1.2689651421932846E-002   4.9845857129928672E-002
  -4.0629161304373704E-002   1.2178751567017032E-002   4.9831565318150944E-002
  -3.8877567321433465E-002   1.1670813505630637E-002   5.0000328988235226E-002
  -3.7125973338493254E-002   1.1165837237774201E-002   5.0352148140181352E-002
  -1.8510651377315279E-002   5.5257458523453873E-003   6.1334953730449060E-002
  -1.7758145010912246E-002   5.2345121011940221E-003   6.1013707357456926E-002
  -1.7005638644509245E-002   4.9448647756834135E-003   6.0803667863946670E-002
  -1.6253132278106222E-002   4.6568038758133708E-003   6.0704835249918640E-002
  -1.5500625911703210E-002   4.3703294015842165E-003   6.0717209515372628E-002
  -2.3157748278767695E-002   6.9357686987026046E-003   5.8668552985552014E-002
  -2.2278386961858604E-002   6.5893500725028031E-003   5.8357734276728107E-002
  -2.1399025644949526E-002   6.2398823254065650E-003   5.8189418589434244E-002
  -2.0519664328040456E-002   5.8873654574142925E-003   5.8163605923670481E-002
  -1.9640303011131361E-002   5.5317994685256111E-003   5.8280296279436983E-002
  -2.7809334239448161E-002   8.3457915450597941E-003   5.5949285138875079E-002
  -2.6771821829984915E-002   7.9441880438115564E-003   5.5644258547682374E-002
  -2.5734309420521673E-002   7.5348998751299315E-003   5.5513031120067814E-002
  -2.4696797011058431E-002   7.1179270390152125E-003   5.5555602856031561E-002
  -2.3659284601595186E-002   6.6932695354670058E-003   5.5771973755573329E-002
  -3.2465409259356662E-002   9.7558143914170531E-003   5.3177150190418160E-002
  -3.1238449615291174E-002   9.2990260151202958E-003   5.2873280170319795E-002
  -3.0011489971225724E-002   8.8299174248532460E-003   5.2774505455847477E-002
  -2.8784530327160242E-002   8.3484886206160215E-003   5.2880826047001506E-002
  -2.7557570683094789E-002   7.8547396024084004E-003   5.3192241943781859E-002
  -3.7125973338493254E-002   1.1165837237774201E-002   5.0352148140181352E-002
  -3.5678270317777400E-002   1.0653863986429091E-002   5.0044799144640162E-002
  -3.4230567297061622E-002   1.0124934974576588E-002   4.9973841596773205E-002
  -3.2782864276345802E-002   9.5790502022170057E-003   5.0139275496580704E-002
  -3.1335161255630004E-002   9.0162096693499061E-003   5.0541100844062603E-002
  -1.5500625911703210E-002   4.3703294015842165E-003   6.0717209515372628E-002
  -1.4491700745806177E-002   4.0753242651283550E-003   6.0333003416242315E-002
  -1.3482775579909154E-002   3.7616713785789679E-003   6.0230009241431570E-002
  -1.2473850414012116E-002   3.4293707419351671E-003   6.0408226990940228E-002
  -1.1464925248115099E-002   3.0784223551980627E-003   6.0867656664768344E-002
  -1.9640303011131361E-002   5.5317994685256111E-003   5.8280296279436983E-002
  -1.8363364664869486E-002   5.1672648430338142E-003   5.7986818994114564E-002
  -1.7086426318607607E-002   4.7878420652319731E-003   5.7948156145202101E-002
  -1.5809487972345777E-002   4.3935311351201989E-003   5.8164307732699899E-002
  -1.4532549626083822E-002   3.9843320526985471E-003   5.8635273756608153E-002
  -2.3659284601595186E-002   6.6932695354670058E-003   5.5771973755573329E-002
  -2.2140730562877735E-002   6.2592054209391623E-003   5.5572984881842535E-002
  -2.0622176524160232E-002   5.8140127518852558E-003   5.5602412956612710E-002
  -1.9103622485442780E-002   5.3576915283051751E-003   5.5860257979883671E-002
  -1.7585068446725305E-002   4.8902417501989204E-003   5.6346519951655905E-002
  -2.7557570683094789E-002   7.8547396024084004E-003   5.3192241943781859E-002
  -2.5823798439830972E-002   7.3511459988445660E-003   5.3091501079426548E-002
  -2.4090026196567148E-002   6.8401834385385663E-003   5.3192779675662785E-002
  -2.2356253953303332E-002   6.3218519214901236E-003   5.3496077732490863E-002
  -2.0622481710039511E-002   5.7961514476994047E-003   5.4001395249910239E-002
  -3.1335161255630004E-002   9.0162096693499061E-003   5.0541100844062603E-002
  -2.9412568295729122E-002   8.4430865767499697E-003   5.0542367586866255E-002
  -2.7489975335828219E-002   7.8663541251917657E-003   5.0719256302352633E-002
  -2.5567382375927327E-002   7.2860123146750444E-003   5.1071766990521406E-002
  -2.3644789416026435E-002   6.7020611451997780E-003   5.1599899651372461E-002
  -5.7151422214879823E-002   0.0000000000000000        3.4690910568551954E-002
  -5.7941436069679927E-002   2.0835019350065459E-003   3.8343510385846595E-002
  -5.8731449924480025E-002   4.1363861625181141E-003   4.2209677101059426E-002
  -5.9521463779280130E-002   6.1586526825347081E-003   4.6289410714190460E-002
  -6.0311477634080235E-002   8.1503014950563245E-003   5.0582711225239683E-002
  -6.5819485704922798E-002   0.0000000000000000        3.7211551187926406E-002
  -6.6624962654171824E-002   2.9137421726727957E-003   4.0834625785367021E-002
  -6.7430439603420850E-002   5.7700277907014310E-003   4.4213207295991590E-002
  -6.8235916552669890E-002   8.5688568540859128E-003   4.7347295719800092E-002
  -6.9041393501918930E-002   1.1310229362826229E-002   5.0236891056792563E-002
  -7.4244007291383113E-002   0.0000000000000000        4.0575851468541702E-002
  -7.5523007319815316E-002   3.7439824103390456E-003   4.4142561998979112E-002
  -7.6802007348247520E-002   7.4036694188847505E-003   4.7006719457866220E-002
  -7.8081007376679723E-002   1.0979061025637116E-002   4.9168323845203026E-002
  -7.9360007405111926E-002   1.4470157230596142E-002   5.0627375160989557E-002
  -8.2424986974260747E-002   0.0000000000000000        4.4783811410397834E-002
  -8.4635570066610377E-002   4.5742226480052963E-003   4.8267319026682853E-002
  -8.6846153158959993E-002   9.0373110470680692E-003   5.0590213586683343E-002
  -8.9056736251309637E-002   1.3389265197188315E-002   5.1752495090399260E-002
  -9.1267319343659253E-002   1.7630085098366045E-002   5.1754163537830654E-002
  -9.0362424753555728E-002   0.0000000000000000        4.9835431013494816E-002
  -9.3962650894557020E-002   5.4044628856715453E-003   5.3208896868478260E-002
  -9.7562877035558312E-002   1.0670952675251385E-002   5.4963689682442918E-002
 -0.10116310317655960        1.5799469368739522E-002   5.5099809455388796E-002
 -0.10476332931756090        2.0790012966135960E-002   5.3617256187315873E-002
  -6.0311477634080235E-002   8.1503014950563245E-003   5.0582711225239683E-002
  -6.0610039775924371E-002   1.0029206944066716E-002   5.1522239040777199E-002
  -6.0908601917768507E-002   1.1713243373549660E-002   5.2250102725413791E-002
  -6.1207164059612629E-002   1.3202410783505168E-002   5.2766302279149531E-002
  -6.1505726201456765E-002   1.4496709173933212E-002   5.3070837701984341E-002
  -6.9041393501918930E-002   1.1310229362826229E-002   5.0236891056792563E-002
  -6.9314057582318928E-002   1.3754458144036880E-002   4.9459433069349468E-002
  -6.9586721662718953E-002   1.5661856024832430E-002   4.8945435335695488E-002
  -6.9859385743118979E-002   1.7032423005212783E-002   4.8694897855830636E-002
  -7.0132049823518991E-002   1.7866159085178010E-002   4.8707820629754914E-002
  -7.9360007405111926E-002   1.4470157230596142E-002   5.0627375160989557E-002
  -7.9131649039377833E-002   1.7479709344007065E-002   4.7790969489678148E-002
  -7.8903290673643697E-002   1.9610468676115163E-002   4.5693148456845897E-002
  -7.8674932307909590E-002   2.0862435226920394E-002   4.4333912062492778E-002
  -7.8446573942175482E-002   2.1235608996422815E-002   4.3713260306618804E-002
  -9.1267319343659253E-002   1.7630085098366045E-002   5.1754163537830654E-002
  -9.0062814147100961E-002   2.1204960543977247E-002   4.6516848301763253E-002
  -8.8858308950542711E-002   2.3559081327397903E-002   4.2493242088865020E-002
  -8.7653803753984461E-002   2.4692447448628016E-002   3.9683344899135935E-002
  -8.6449298557426169E-002   2.4605058907667645E-002   3.8087156732576018E-002
 -0.10476332931756090        2.0790012966135960E-002   5.3617256187315873E-002
 -0.10210755290548845        2.4930211743947408E-002   4.5637069505604796E-002
  -9.9451776493416008E-002   2.7507693978680657E-002   3.9345716231752856E-002
  -9.6796000081343578E-002   2.8522459670335631E-002   3.4743196365760155E-002
  -9.4140223669271147E-002   2.7974508818912419E-002   3.1829509907626591E-002
  -6.1505726201456765E-002   1.4496709173933212E-002   5.3070837701984341E-002
  -6.0186259602467804E-002   1.5500309508136838E-002   5.1667885988516973E-002
  -5.8866793003478829E-002   1.6117382749419051E-002   5.0718101313684559E-002
  -5.7547326404489882E-002   1.6347928897779824E-002   5.0221483677487216E-002
  -5.6227859805500907E-002   1.6191947953219210E-002   5.0178033079924800E-002
  -7.0132049823518991E-002   1.7866159085178010E-002   4.8707820629754914E-002
  -6.8406175254984561E-002   1.8320360417274535E-002   4.7265526506481893E-002
  -6.6680300686450145E-002   1.8552323154048748E-002   4.6182881283664830E-002
  -6.4954426117915687E-002   1.8562047295500698E-002   4.5459884961303695E-002
  -6.3228551549381284E-002   1.8349532841630309E-002   4.5096537539398449E-002
  -7.8446573942175482E-002   2.1235608996422815E-002   4.3713260306618804E-002
  -7.6407809542274649E-002   2.1140411326412221E-002   4.2395912271139292E-002
  -7.4369045142373830E-002   2.0987263558678478E-002   4.1344694997936658E-002
  -7.2330280742472969E-002   2.0776165693221556E-002   4.0559608487010908E-002
  -7.0291516342572177E-002   2.0507117730041463E-002   4.0040652738362006E-002
  -8.6449298557426169E-002   2.4605058907667645E-002   3.8087156732576018E-002
  -8.4191162464338054E-002   2.3960462235549918E-002   3.7059043282489150E-002
  -8.1933026371249870E-002   2.3422203963308196E-002   3.6203542456500114E-002
  -7.9674890278161714E-002   2.2990284090942410E-002   3.5520654254608784E-002
  -7.7416754185073558E-002   2.2664702618452617E-002   3.5010378676815335E-002
  -9.4140223669271147E-002   2.7974508818912419E-002   3.1829509907626591E-002
  -9.1756234021174693E-002   2.6780513144687598E-002   3.1254919540531501E-002
  -8.9372244373078308E-002   2.5857144367937911E-002   3.0759423659355127E-002
  -8.6988254724981881E-002   2.5204402488663295E-002   3.0343022264097418E-002
  -8.4604265076885468E-002   2.4822287506863730E-002   3.0005715354758530E-002
  -5.6227859805500907E-002   1.6191947953219210E-002   5.0178033079924800E-002
  -5.4719097749833731E-002   1.5847007123251225E-002   4.9899960059316947E-002
  -5.3210335694166590E-002   1.5510673615390116E-002   4.9804631308158764E-002
  -5.1701573638499407E-002   1.5182947429635763E-002   4.9892046826450279E-002
  -5.0192811582832259E-002   1.4863828565988335E-002   5.0162206614191518E-002
  -6.3228551549381284E-002   1.8349532841630309E-002   4.5096537539398449E-002
  -6.1525876278409768E-002   1.8010779438432031E-002   4.4756544424721365E-002
  -5.9823201007438237E-002   1.7641786731900280E-002   4.4621633471203327E-002
  -5.8120525736466713E-002   1.7242554722034918E-002   4.4691804678844330E-002
  -5.6417850465495190E-002   1.6813083408836055E-002   4.4967058047644309E-002
  -7.0291516342572177E-002   2.0507117730041463E-002   4.0040652738362006E-002
  -6.8372589964586949E-002   2.0174551753612859E-002   3.9599892904175343E-002
  -6.6453663586601722E-002   1.9772899848410415E-002   3.9386553122857069E-002
  -6.4534737208616494E-002   1.9302162014434042E-002   3.9400633394407164E-002
  -6.2615810830631294E-002   1.8762338251683802E-002   3.9642133718825620E-002
  -7.7416754185073558E-002   2.2664702618452617E-002   3.5010378676815335E-002
  -7.5259238808365284E-002   2.2338324068793703E-002   3.4430005497678808E-002
  -7.3101723431657079E-002   2.1904012964920578E-002   3.4099390263119971E-002
  -7.0944208054948860E-002   2.1361769306833169E-002   3.4018532973138824E-002
  -6.8786692678240599E-002   2.0711593094531550E-002   3.4187433627735367E-002
  -8.4604265076885468E-002   2.4822287506863730E-002   3.0005715354758530E-002
  -8.2185822809744860E-002   2.4502096383974492E-002   2.9246882205231708E-002
  -7.9767380542604294E-002   2.4035126081430724E-002   2.8760144891992016E-002
  -7.7348938275463672E-002   2.3421376599232300E-002   2.8545503415039242E-002
  -7.4930496008323078E-002   2.2660847937379297E-002   2.8602957774373522E-002
  -5.0192811582832259E-002   1.4863828565988335E-002   5.0162206614191518E-002
  -4.8677696004687729E-002   1.4523947445567092E-002   4.9816125714575193E-002
  -4.7162580426543227E-002   1.4133934489491823E-002   4.9680931716265864E-002
  -4.5647464848398711E-002   1.3693789697762269E-002   4.9756624619263487E-002
  -4.4132349270254195E-002   1.3203513070378703E-002   5.0043204423568244E-002
  -5.6417850465495190E-002   1.6813083408836055E-002   4.4967058047644309E-002
  -5.4699460522005840E-002   1.6354994791204280E-002   4.4601879558999441E-002
  -5.2981070578516441E-002   1.5869910868040522E-002   4.4432362899737246E-002
  -5.1262680635027078E-002   1.5357831639344387E-002   4.4458508069857662E-002
  -4.9544290691537693E-002   1.4818757105116376E-002   4.4680315069360710E-002
  -6.2615810830631294E-002   1.8762338251683802E-002   3.9642133718825620E-002
  -6.0709371593721473E-002   1.8186042136841538E-002   3.9280994171274237E-002
  -5.8802932356811645E-002   1.7605887246589166E-002   3.9100291381181117E-002
  -5.6896493119901762E-002   1.7021873580926560E-002   3.9100025348546327E-002
  -5.4990053882991989E-002   1.6434001139853938E-002   3.9280196073369744E-002
  -6.8786692678240599E-002   2.0711593094531550E-002   3.4187433627735367E-002
  -6.6707429219834649E-002   2.0017089482478788E-002   3.3853469551399451E-002
  -6.4628165761428713E-002   1.9341863625137810E-002   3.3684717160597427E-002
  -6.2548902303022777E-002   1.8685915522508791E-002   3.3681176455329337E-002
  -6.0469638844616869E-002   1.8049245174591527E-002   3.3842847435595139E-002
  -7.4930496008323078E-002   2.2660847937379297E-002   2.8602957774373522E-002
  -7.2693633400345431E-002   2.1848136828115913E-002   2.8319305699375130E-002
  -7.0456770792367771E-002   2.1077840003686572E-002   2.8185640237986212E-002
  -6.8219908184390110E-002   2.0349957464090823E-002   2.8201961390206996E-002
  -6.5983045576412436E-002   1.9664489209329172E-002   2.8368269156037074E-002
  -4.4132349270254195E-002   1.3203513070378703E-002   5.0043204423568244E-002
  -4.2380755287313970E-002   1.2689651421932846E-002   4.9845857129928672E-002
  -4.0629161304373704E-002   1.2178751567017032E-002   4.9831565318150944E-002
  -3.8877567321433465E-002   1.1670813505630637E-002   5.0000328988235226E-002
  -3.7125973338493254E-002   1.1165837237774201E-002   5.0352148140181352E-002
  -4.9544290691537693E-002   1.4818757105116376E-002   4.4680315069360710E-002
  -4.7605012683682772E-002   1.4264630807587358E-002   4.4453701334833506E-002
  -4.5665734675827831E-002   1.3707396288989107E-002   4.4419400168273754E-002
  -4.3726456667972938E-002   1.3147053549321556E-002   4.4577411569681605E-002
  -4.1787178660117962E-002   1.2583602588584708E-002   4.4927735539056823E-002
  -5.4990053882991989E-002   1.6434001139853938E-002   3.9280196073369744E-002
  -5.2853834764116724E-002   1.5839610193241954E-002   3.9018245883355687E-002
  -5.0717615645241479E-002   1.5236041010961515E-002   3.8957865347414758E-002
  -4.8581396526366220E-002   1.4623293593012530E-002   3.9099054465546915E-002
  -4.6445177407490962E-002   1.4001367939395049E-002   3.9441813237752171E-002
  -6.0469638844616869E-002   1.8049245174591527E-002   3.3842847435595139E-002
  -5.8127221528615693E-002   1.7414589578896536E-002   3.3539490775495187E-002
  -5.5784804212614565E-002   1.6764685732933673E-002   3.3446960855573978E-002
  -5.3442386896613417E-002   1.6099533636703477E-002   3.3565257675831281E-002
  -5.1099969580612269E-002   1.5419133290205417E-002   3.3894381236267576E-002
  -6.5983045576412436E-002   1.9664489209329172E-002   2.8368269156037074E-002
  -6.3425172977179811E-002   1.8989568964551035E-002   2.8017436011252062E-002
  -6.0867300377947145E-002   1.8293330454906026E-002   2.7886686692751322E-002
  -5.8309427778714486E-002   1.7575773680394459E-002   2.7976021200534898E-002
  -5.5751555179481854E-002   1.6836898641015841E-002   2.8285439534602608E-002
  -3.7125973338493254E-002   1.1165837237774201E-002   5.0352148140181352E-002
  -3.5678270317777400E-002   1.0653863986429091E-002   5.0044799144640162E-002
  -3.4230567297061622E-002   1.0124934974576588E-002   4.9973841596773205E-002
  -3.2782864276345802E-002   9.5790502022170057E-003   5.0139275496580704E-002
  -3.1335161255630004E-002   9.0162096693499061E-003   5.0541100844062603E-002
  -4.1787178660117962E-002   1.2583602588584708E-002   4.4927735539056823E-002
  -4.0121599711024594E-002   1.2014441768434303E-002   4.4592443969337980E-002
  -3.8456020761931234E-002   1.1436969450526274E-002   4.4456512808700138E-002
  -3.6790441812837887E-002   1.0851185634860781E-002   4.4519942057142742E-002
  -3.5124862863744499E-002   1.0257090321437623E-002   4.4782731714666291E-002
  -4.6445177407490962E-002   1.4001367939395049E-002   3.9441813237752171E-002
  -4.4598753568613696E-002   1.3375019550439349E-002   3.9087223356605583E-002
  -4.2752329729736326E-002   1.2749003926475891E-002   3.8894962845946193E-002
  -4.0905905890859066E-002   1.2123321067504442E-002   3.8865031705773830E-002
  -3.9059482051981745E-002   1.1497970973525284E-002   3.8997429936088734E-002
  -5.1099969580612269E-002   1.5419133290205417E-002   3.3894381236267576E-002
  -4.9109731890544649E-002   1.4735597332444533E-002   3.3529137306442802E-002
  -4.7119494200477008E-002   1.4061038402425625E-002   3.3289191708511690E-002
  -4.5129256510409388E-002   1.3395456500148272E-002   3.3174544442474037E-002
  -4.3139018820341754E-002   1.2738851625613085E-002   3.3185195508329948E-002
  -5.5751555179481854E-002   1.6836898641015841E-002   2.8285439534602608E-002
  -5.3654534676817522E-002   1.6096175114449635E-002   2.7918185818849584E-002
  -5.1557514174153191E-002   1.5373072878375083E-002   2.7639199396396419E-002
  -4.9460493671488859E-002   1.4667591932791907E-002   2.7448480267243197E-002
  -4.7363473168824527E-002   1.3979732277700607E-002   2.7346028431389946E-002
  -3.1335161255630004E-002   9.0162096693499061E-003   5.0541100844062603E-002
  -2.9412568295729122E-002   8.4430865767499697E-003   5.0542367586866255E-002
  -2.7489975335828219E-002   7.8663541251917657E-003   5.0719256302352633E-002
  -2.5567382375927327E-002   7.2860123146750444E-003   5.1071766990521406E-002
  -2.3644789416026435E-002   6.7020611451997780E-003   5.1599899651372461E-002
  -3.5124862863744499E-002   1.0257090321437623E-002   4.4782731714666291E-002
  -3.3026254880399793E-002   9.6523008467262750E-003   4.4631130836219918E-002
  -3.0927646897055155E-002   9.0344345471957965E-003   4.4655938031978593E-002
  -2.8829038913710490E-002   8.4034914228462779E-003   4.4857153301942343E-002
  -2.6730430930365867E-002   7.7594714736773929E-003   4.5234776646111308E-002
  -3.9059482051981745E-002   1.1497970973525284E-002   3.8997429936088734E-002
  -3.6784072943670650E-002   1.0861515116702414E-002   3.8683493970531585E-002
  -3.4508663835359533E-002   1.0202514969199772E-002   3.8546752180702137E-002
  -3.2233254727048383E-002   9.5209705310172338E-003   3.8587204566600475E-002
  -2.9957845618737308E-002   8.8168818021551187E-003   3.8804851128226459E-002
  -4.3139018820341754E-002   1.2738851625613085E-002   3.3185195508329948E-002
  -4.0686022485541547E-002   1.2070729386678525E-002   3.2699456989801236E-002
  -3.8233026150741346E-002   1.1370595391203719E-002   3.2391698748523039E-002
  -3.5780029815941000E-002   1.0638449639188273E-002   3.2261920784495093E-002
  -3.3327033481140869E-002   9.8742921306327891E-003   3.2310123097717705E-002
  -4.7363473168824527E-002   1.3979732277700607E-002   2.7346028431389946E-002
  -4.4732103506012533E-002   1.3279943656654858E-002   2.6679019894029044E-002
  -4.2100733843200525E-002   1.2538675813207820E-002   2.6190777735441512E-002
  -3.9469364180388607E-002   1.1755928747359434E-002   2.5881301955626976E-002
  -3.6837994517576578E-002   1.0931702459110459E-002   2.5750592554585339E-002
  -9.0362424753555728E-002   0.0000000000000000        4.9835431013494816E-002
  -9.3962650894557020E-002   5.4044628856715453E-003   5.3208896868478260E-002
  -9.7562877035558312E-002   1.0670952675251385E-002   5.4963689682442918E-002
 -0.10116310317655960        1.5799469368739522E-002   5.5099809455388796E-002
 -0.10476332931756090        2.0790012966135960E-002   5.3617256187315873E-002
 -0.10329423529859079        0.0000000000000000        5.8663682856546308E-002
 -0.10683168670317886        1.0884605940225545E-002   5.2118874193693050E-002
 -0.11036913810776693        1.9172315256130994E-002   4.7318288044685027E-002
 -0.11390658951235497        2.4863127947716349E-002   4.4261924409522251E-002
 -0.11744404091694305        2.7957044014981593E-002   4.2949783288204708E-002
 -0.12645833327868866        0.0000000000000000        7.4201539518265996E-002
 -0.12657011439199947        1.6364748994779549E-002   5.5279532809347637E-002
 -0.12668189550531028        2.7673677837010604E-002   4.1464644169138538E-002
 -0.12679367661862107        3.3926786526693183E-002   3.2756873597638729E-002
 -0.12690545773193190        3.5124075063827261E-002   2.9156221094848167E-002
 -0.15985471869384935        0.0000000000000000        9.6449000998653889E-002
 -0.15317793396101889        2.1844892049333549E-002   6.2690872715442048E-002
 -0.14650114922818844        3.6175040417890200E-002   3.7402758055803488E-002
 -0.13982436449535793        4.2990445105670010E-002   2.0584657019738224E-002
 -0.13314757976252747        4.2291106112672901E-002   1.2236569607246268E-002
 -0.20348339154407288        0.0000000000000000       0.12540606729770998     
 -0.18665514541023709        2.7325035103887552E-002   7.4352893911976248E-002
 -0.16982689927640132        4.4676402998769835E-002   3.5132629704679827E-002
 -0.15299865314256553        5.2054103684646830E-002   7.7452746758207430E-003
 -0.13617040700872973        4.9458137161518548E-002  -7.8091711746010248E-003
 -0.10476332931756090        2.0790012966135960E-002   5.3617256187315873E-002
 -0.10210755290548845        2.4930211743947408E-002   4.5637069505604796E-002
  -9.9451776493416008E-002   2.7507693978680657E-002   3.9345716231752856E-002
  -9.6796000081343578E-002   2.8522459670335631E-002   3.4743196365760155E-002
  -9.4140223669271147E-002   2.7974508818912419E-002   3.1829509907626591E-002
 -0.11744404091694305        2.7957044014981593E-002   4.2949783288204708E-002
 -0.11348709210420765        2.9428632275621262E-002   3.6695992617685969E-002
 -0.10953014329147229        3.0252461547329738E-002   3.1355713340633945E-002
 -0.10557319447873692        3.0428531830107138E-002   2.6928945457048603E-002
 -0.10161624566600151        2.9956843123953358E-002   2.3415688966929953E-002
 -0.12690545773193190        3.5124075063827261E-002   2.9156221094848167E-002
 -0.12242265853292608        3.3927052807295091E-002   2.5543783989668931E-002
 -0.11793985933392023        3.2997229115978820E-002   2.2069536263563887E-002
 -0.11345706013491443        3.2334603989878648E-002   1.8733477916532994E-002
 -0.10897426093590858        3.1939177428994311E-002   1.5535608948576418E-002
 -0.13314757976252747        4.2291106112672901E-002   1.2236569607246268E-002
 -0.12891425219164365        3.8425473338968910E-002   1.2180443621553565E-002
 -0.12468092462075986        3.5741996684627970E-002   1.1487185000542575E-002
 -0.12044759704987607        3.4240676149650109E-002   1.0156793744213379E-002
 -0.11621426947899227        3.3921511734035334E-002   8.1892698525658641E-003
 -0.13617040700872973        4.9458137161518548E-002  -7.8091711746010248E-003
 -0.13296187308036045        4.2923893870642757E-002  -3.3940284866601396E-003
 -0.12975333915199116        3.8486764253277045E-002  -3.9134044842978853E-004
 -0.12654480522362188        3.6146748309421627E-002   1.1988929400896437E-003
 -0.12333627129525260        3.5903846039076232E-002   1.3766716788983224E-003
  -9.4140223669271147E-002   2.7974508818912419E-002   3.1829509907626591E-002
  -9.1756234021174693E-002   2.6780513144687598E-002   3.1254919540531501E-002
  -8.9372244373078308E-002   2.5857144367937911E-002   3.0759423659355127E-002
  -8.6988254724981881E-002   2.5204402488663295E-002   3.0343022264097418E-002
  -8.4604265076885468E-002   2.4822287506863730E-002   3.0005715354758530E-002
 -0.10161624566600151        2.9956843123953358E-002   2.3415688966929953E-002
  -9.9139436676522988E-002   2.9186141658498730E-002   2.3133010366023835E-002
  -9.6662627687044422E-002   2.8465173663373429E-002   2.2956875961963330E-002
  -9.4185818697565871E-002   2.7793939138577542E-002   2.2887285754748309E-002
  -9.1709009708087375E-002   2.7172438084111017E-002   2.2924239744378794E-002
 -0.10897426093590858        3.1939177428994311E-002   1.5535608948576418E-002
 -0.10637718289412111        3.1591770172309866E-002   1.5323948686713600E-002
 -0.10378010485233358        3.1073202958809006E-002   1.5246282332623094E-002
 -0.10118302681054610        3.0383475788491848E-002   1.5302609886304851E-002
  -9.8585948768758591E-002   2.9522588661358297E-002   1.5492931347759097E-002
 -0.11621426947899227        3.3921511734035334E-002   8.1892698525658641E-003
 -0.11346947267396901        3.3997398686120998E-002   7.8277345026005855E-003
 -0.11072467586894577        3.3681232254244575E-002   7.6276427713344846E-003
 -0.10797987906392256        3.2973012438406113E-002   7.5889946587673731E-003
 -0.10523508225889927        3.1872739238605521E-002   7.7117901648995598E-003
 -0.12333627129525260        3.5903846039076232E-002   1.3766716788983224E-003
 -0.12041630601606684        3.6403027199932131E-002   6.4436781368491791E-004
 -0.11749634073688101        3.6289261549680089E-002   1.0095727809722455E-004
 -0.11457637545769521        3.5562549088320336E-002  -2.5355992786420256E-004
 -0.11165641017850941        3.4222889815852808E-002  -4.1918380419991852E-004
  -8.4604265076885468E-002   2.4822287506863730E-002   3.0005715354758530E-002
  -8.2185822809744860E-002   2.4502096383974492E-002   2.9246882205231708E-002
  -7.9767380542604294E-002   2.4035126081430724E-002   2.8760144891992016E-002
  -7.7348938275463672E-002   2.3421376599232300E-002   2.8545503415039242E-002
  -7.4930496008323078E-002   2.2660847937379297E-002   2.8602957774373522E-002
  -9.1709009708087375E-002   2.7172438084111017E-002   2.2924239744378794E-002
  -8.9042227372283206E-002   2.6551935093522730E-002   2.2272198136645313E-002
  -8.6375445036479176E-002   2.5883694760361627E-002   2.1844740829951803E-002
  -8.3708662700675091E-002   2.5167717084627499E-002   2.1641867824298215E-002
  -8.1041880364870977E-002   2.4404002066320596E-002   2.1663579119684570E-002
  -9.8585948768758591E-002   2.9522588661358297E-002   1.5492931347759097E-002
  -9.5718337899538097E-002   2.8601773803070968E-002   1.5046723118900672E-002
  -9.2850727030317631E-002   2.7732263439292450E-002   1.4777587655835039E-002
  -8.9983116161097165E-002   2.6914057570022812E-002   1.4685524958562384E-002
  -8.7115505291876671E-002   2.6147156195261936E-002   1.4770535027082567E-002
 -0.10523508225889927        3.1872739238605521E-002   7.7117901648995598E-003
 -0.10221415439150949        3.0651612512619164E-002   7.5704571519977937E-003
  -9.9193226524119660E-002   2.9580832118223422E-002   7.5586853696419463E-003
  -9.6172298656729840E-002   2.8660398055418042E-002   7.6764748178317415E-003
  -9.3151370789340021E-002   2.7890310324203173E-002   7.9238254965673331E-003
 -0.11165641017850941        3.4222889815852808E-002  -4.1918380419991852E-004
 -0.10852967684819731        3.2701451222167471E-002  -1.5659976406318110E-004
 -0.10540294351788523        3.1429400797154325E-002   1.8803397137211186E-004
 -0.10227621018757317        3.0406738540813338E-002   6.1471740210624834E-004
  -9.9149476857261054E-002   2.9633464453144520E-002   1.1234505281391138E-003
  -7.4930496008323078E-002   2.2660847937379297E-002   2.8602957774373522E-002
  -7.2693633400345431E-002   2.1848136828115913E-002   2.8319305699375130E-002
  -7.0456770792367771E-002   2.1077840003686572E-002   2.8185640237986212E-002
  -6.8219908184390110E-002   2.0349957464090823E-002   2.8201961390206996E-002
  -6.5983045576412436E-002   1.9664489209329172E-002   2.8368269156037074E-002
  -8.1041880364870977E-002   2.4404002066320596E-002   2.1663579119684570E-002
  -7.8653956949633952E-002   2.3620325203304079E-002   2.1443874636872237E-002
  -7.6266033534396899E-002   2.2844461993441791E-002   2.1376305154969071E-002
  -7.3878110119159845E-002   2.2076412436733119E-002   2.1460870673975282E-002
  -7.1490186703922820E-002   2.1316176533178494E-002   2.1697571193890569E-002
  -8.7115505291876671E-002   2.6147156195261936E-002   1.4770535027082567E-002
  -8.4574372682080512E-002   2.5392513578492364E-002   1.4580177504776311E-002
  -8.2033240072284325E-002   2.4611083983196978E-002   1.4544103370678855E-002
  -7.9492107462488179E-002   2.3802867409375469E-002   1.4662312624790641E-002
  -7.6950974852692006E-002   2.2967863857027926E-002   1.4934805267111315E-002
  -9.3151370789340021E-002   2.7890310324203173E-002   7.9238254965673331E-003
  -9.0454880597684972E-002   2.7164701953680644E-002   7.7282143030872590E-003
  -8.7758390406030048E-002   2.6377705972951956E-002   7.6890348851158139E-003
  -8.5061900214375069E-002   2.5529322382017682E-002   7.8062872426531010E-003
  -8.2365410022720062E-002   2.4619551180877247E-002   8.0799713756990049E-003
  -9.9149476857261054E-002   2.9633464453144520E-002   1.1234505281391138E-003
  -9.6295480696447555E-002   2.8936890328868509E-002   8.8798503180503863E-004
  -9.3441484535634056E-002   2.8144327962707494E-002   8.1109969827967976E-004
  -9.0587488374820557E-002   2.7255777354659810E-002   8.9279452756261743E-004
  -8.7733492214007058E-002   2.6271238504726568E-002   1.1330695196538065E-003
  -6.5983045576412436E-002   1.9664489209329172E-002   2.8368269156037074E-002
  -6.3425172977179811E-002   1.8989568964551035E-002   2.8017436011252062E-002
  -6.0867300377947145E-002   1.8293330454906026E-002   2.7886686692751322E-002
  -5.8309427778714486E-002   1.7575773680394459E-002   2.7976021200534898E-002
  -5.5751555179481854E-002   1.6836898641015841E-002   2.8285439534602608E-002
  -7.1490186703922820E-002   2.1316176533178494E-002   2.1697571193890569E-002
  -6.8716935440780433E-002   2.0557718852428561E-002   2.1375598129266385E-002
  -6.5943684177638087E-002   1.9795003964134077E-002   2.1264298566177328E-002
  -6.3170432914495672E-002   1.9028031868294881E-002   2.1363672504623489E-002
  -6.0397181651353354E-002   1.8256802564911134E-002   2.1673719944604708E-002
  -7.6950974852692006E-002   2.2967863857027926E-002   1.4934805267111315E-002
  -7.3971755250389098E-002   2.2125868740306129E-002   1.4658753339970083E-002
  -7.0992535648086164E-002   2.1296677473361905E-002   1.4583964589614876E-002
  -6.8013316045783215E-002   2.0480290056195356E-002   1.4710439016045712E-002
  -6.5034096443480280E-002   1.9676706488806456E-002   1.5038176619262517E-002
  -8.2365410022720062E-002   2.4619551180877247E-002   8.0799713756990049E-003
  -7.9189632406005780E-002   2.3694018628183676E-002   7.8669016433628638E-003
  -7.6013854789291430E-002   2.2798350982590039E-002   7.8456847630640099E-003
  -7.2838077172577120E-002   2.1932548244095802E-002   8.0163207348016418E-003
  -6.9662299555862783E-002   2.1096610412701819E-002   8.3788095585762001E-003
  -8.7733492214007058E-002   2.6271238504726568E-002   1.1330695196538065E-003
  -8.4370566907630451E-002   2.5262168516061223E-002   1.0000430394453974E-003
  -8.1007641601253899E-002   2.4300024491817979E-002   1.0494590865244152E-003
  -7.7644716294877320E-002   2.3384806431996440E-002   1.2813176608914532E-003
  -7.4281790988500740E-002   2.2516514336597182E-002   1.6956187625458696E-003
  -5.5751555179481854E-002   1.6836898641015841E-002   2.8285439534602608E-002
  -5.3654534676817522E-002   1.6096175114449635E-002   2.7918185818849584E-002
  -5.1557514174153191E-002   1.5373072878375083E-002   2.7639199396396419E-002
  -4.9460493671488859E-002   1.4667591932791907E-002   2.7448480267243197E-002
  -4.7363473168824527E-002   1.3979732277700607E-002   2.7346028431389946E-002
  -6.0397181651353354E-002   1.8256802564911134E-002   2.1673719944604708E-002
  -5.8193685168238085E-002   1.7485929286035345E-002   2.1344681869273074E-002
  -5.5990188685122760E-002   1.6720025263719712E-002   2.1140328461543526E-002
  -5.3786692202007429E-002   1.5959090497964366E-002   2.1060659721415916E-002
  -5.1583195718892180E-002   1.5203124988768912E-002   2.1105675648890432E-002
  -6.5034096443480280E-002   1.9676706488806456E-002   1.5038176619262517E-002
  -6.2687706605611918E-002   1.8875683457620820E-002   1.4734702150420997E-002
  -6.0341316767743576E-002   1.8066977649064009E-002   1.4592329723483795E-002
  -5.7994926929875276E-002   1.7250589063136493E-002   1.4611059338450645E-002
  -5.5648537092006879E-002   1.6426517699837245E-002   1.4790890995321673E-002
  -6.9662299555862783E-002   2.1096610412701819E-002   8.3788095585762001E-003
  -6.7136598988939242E-002   2.0265437629206497E-002   8.0882466622935814E-003
  -6.4610898422015714E-002   1.9413930034408583E-002   7.9952031822172510E-003
  -6.2085197855092172E-002   1.8542087628308286E-002   8.0996791183470807E-003
  -5.9559497288168645E-002   1.7649910410905675E-002   8.4016744706830564E-003
  -7.4281790988500740E-002   2.2516514336597182E-002   1.6956187625458696E-003
  -7.1540362318219863E-002   2.1655191800792173E-002   1.4053154048906391E-003
  -6.8798933647939098E-002   2.0760882419752907E-002   1.3489488377441683E-003
  -6.6057504977658332E-002   1.9833586193480739E-002   1.5265190611055690E-003
  -6.3316076307377456E-002   1.8873303121973661E-002   1.9380260749755074E-003
  -4.7363473168824527E-002   1.3979732277700607E-002   2.7346028431389946E-002
  -4.4732103506012533E-002   1.3279943656654858E-002   2.6679019894029044E-002
  -4.2100733843200525E-002   1.2538675813207820E-002   2.6190777735441512E-002
  -3.9469364180388607E-002   1.1755928747359434E-002   2.5881301955626976E-002
  -3.6837994517576578E-002   1.0931702459110459E-002   2.5750592554585339E-002
  -5.1583195718892180E-002   1.5203124988768912E-002   2.1105675648890432E-002
  -4.8762207439104394E-002   1.4441051752078410E-002   2.0574568559709433E-002
  -4.5941219159316558E-002   1.3661793803837280E-002   2.0243932325707120E-002
  -4.3120230879528806E-002   1.2865351144045196E-002   2.0113766946882813E-002
  -4.0299242599740881E-002   1.2051723772702250E-002   2.0184072423237720E-002
  -5.5648537092006879E-002   1.6426517699837245E-002   1.4790890995321673E-002
  -5.2616225718837846E-002   1.5602159847502683E-002   1.4419979865170462E-002
  -4.9583914345668889E-002   1.4784911794466969E-002   1.4271244066603371E-002
  -4.6551602972499745E-002   1.3974773540730739E-002   1.4344683599620250E-002
  -4.3519291599330864E-002   1.3171745086293929E-002   1.4640298464220880E-002
  -5.9559497288168645E-002   1.7649910410905675E-002   8.4016744706830564E-003
  -5.6294158345212938E-002   1.6763267942926263E-002   8.2152538104123055E-003
  -5.3028819402257288E-002   1.5908029785096766E-002   8.2727129581305400E-003
  -4.9763480459301471E-002   1.5084195937416559E-002   8.5740519138384312E-003
  -4.6498141516345862E-002   1.4291766399885775E-002   9.1192706775354432E-003
  -6.3316076307377456E-002   1.8873303121973661E-002   1.9380260749755074E-003
  -5.9796005318229706E-002   1.7924376038350509E-002   1.9603903954349411E-003
  -5.6275934329081845E-002   1.7031147775726507E-002   2.2483390002888126E-003
  -5.2755863339933984E-002   1.6193618334102197E-002   2.8018718895374134E-003
  -4.9235792350786234E-002   1.5411787713477398E-002   3.6209890631810904E-003
 </DataArray>
 </PointData>
 </Piece>
 <Piece  NumberOfPoints="          1600 "  NumberOfCells="         1024 ">
 <Points>
 <DataArray  type="Float64" NumberOfComponents="3"  format="ascii" >
  0.50000000000000000        0.0000000000000000        0.0000000000000000     
  0.53125000000000000        0.0000000000000000        0.0000000000000000     
  0.56250000000000000        0.0000000000000000        0.0000000000000000     
  0.59375000000000000        0.0000000000000000        0.0000000000000000     
  0.62500000000000000        0.0000000000000000        0.0000000000000000     
  0.50000000000000000        3.1250000000000000E-002   0.0000000000000000     
  0.53125000000000000        3.1250000000000000E-002   0.0000000000000000     
  0.56250000000000000        3.1250000000000000E-002   0.0000000000000000     
  0.59375000000000000        3.1250000000000000E-002   0.0000000000000000     
  0.62500000000000000        3.1250000000000000E-002   0.0000000000000000     
  0.50000000000000000        6.2500000000000000E-002   0.0000000000000000     
  0.53125000000000000        6.2500000000000000E-002   0.0000000000000000     
  0.56250000000000000        6.2500000000000000E-002   0.0000000000000000     
  0.59375000000000000        6.2500000000000000E-002   0.0000000000000000     
  0.62500000000000000        6.2500000000000000E-002   0.0000000000000000     
  0.50000000000000000        9.3750000000000000E-002   0.0000000000000000     
  0.53125000000000000        9.3750000000000000E-002   0.0000000000000000     
  0.56250000000000000        9.3750000000000000E-002   0.0000000000000000     
  0.59375000000000000        9.3750000000000000E-002   0.0000000000000000     
  0.62500000000000000        9.3750000000000000E-002   0.0000000000000000     
  0.50000000000000000       0.12500000000000000        0.0000000000000000     
  0.53125000000000000       0.12500000000000000        0.0000000000000000     
  0.56250000000000000       0.12500000000000000        0.0000000000000000     
  0.59375000000000000       0.12500000000000000        0.0000000000000000     
  0.62500000000000000       0.12500000000000000        0.0000000000000000     
  0.62500000000000000        0.0000000000000000        0.0000000000000000     
  0.65625000000000000        0.0000000000000000        0.0000000000000000     
  0.68750000000000000        0.0000000000000000        0.0000000000000000     
  0.71875000000000000        0.0000000000000000        0.0000000000000000     
  0.75000000000000000        0.0000000000000000        0.0000000000000000     
  0.62500000000000000        3.1250000000000000E-002   0.0000000000000000     
  0.65625000000000000        3.1250000000000000E-002   0.0000000000000000     
  0.68750000000000000        3.1250000000000000E-002   0.0000000000000000     
  0.71875000000000000        3.1250000000000000E-002   0.0000000000000000     
  0.75000000000000000        3.1250000000000000E-002   0.0000000000000000     
  0.62500000000000000        6.2500000000000000E-002   0.0000000000000000     
  0.65625000000000000        6.2500000000000000E-002   0.0000000000000000     
  0.68750000000000000        6.2500000000000000E-002   0.0000000000000000     
  0.71875000000000000        6.2500000000000000E-002   0.0000000000000000     
  0.75000000000000000        6.2500000000000000E-002   0.0000000000000000     
  0.62500000000000000        9.3750000000000000E-002   0.0000000000000000     
  0.65625000000000000        9.3750000000000000E-002   0.0000000000000000     
  0.68750000000000000        9.3750000000000000E-002   0.0000000000000000     
  0.71875000000000000        9.3750000000000000E-002   0.0000000000000000     
  0.75000000000000000        9.3750000000000000E-002   0.0000000000000000     
  0.62500000000000000       0.12500000000000000        0.0000000000000000     
  0.65625000000000000       0.12500000000000000        0.0000000000000000     
  0.68750000000000000       0.12500000000000000        0.0000000000000000     
  0.71875000000000000       0.12500000000000000        0.0000000000000000     
  0.75000000000000000       0.12500000000000000        0.0000000000000000     
  0.75000000000000000        0.0000000000000000        0.0000000000000000     
  0.78125000000000000        0.0000000000000000        0.0000000000000000     
  0.81250000000000000        0.0000000000000000        0.0000000000000000     
  0.84375000000000000        0.0000000000000000        0.0000000000000000     
  0.87500000000000000        0.0000000000000000        0.0000000000000000     
  0.75000000000000000        3.1250000000000000E-002   0.0000000000000000     
  0.78125000000000000        3.1250000000000000E-002   0.0000000000000000     
  0.81250000000000000        3.1250000000000000E-002   0.0000000000000000     
  0.84375000000000000        3.1250000000000000E-002   0.0000000000000000     
  0.87500000000000000        3.1250000000000000E-002   0.0000000000000000     
  0.75000000000000000        6.2500000000000000E-002   0.0000000000000000     
  0.78125000000000000        6.2500000000000000E-002   0.0000000000000000     
  0.81250000000000000        6.2500000000000000E-002   0.0000000000000000     
  0.84375000000000000        6.2500000000000000E-002   0.0000000000000000     
  0.87500000000000000        6.2500000000000000E-002   0.0000000000000000     
  0.75000000000000000        9.3750000000000000E-002   0.0000000000000000     
  0.78125000000000000        9.3750000000000000E-002   0.0000000000000000     
  0.81250000000000000        9.3750000000000000E-002   0.0000000000000000     
  0.84375000000000000        9.3750000000000000E-002   0.0000000000000000     
  0.87500000000000000        9.3750000000000000E-002   0.0000000000000000     
  0.75000000000000000       0.12500000000000000        0.0000000000000000     
  0.78125000000000000       0.12500000000000000        0.0000000000000000     
  0.81250000000000000       0.12500000000000000        0.0000000000000000     
  0.84375000000000000       0.12500000000000000        0.0000000000000000     
  0.87500000000000000       0.12500000000000000        0.0000000000000000     
  0.87500000000000000        0.0000000000000000        0.0000000000000000     
  0.90625000000000000        0.0000000000000000        0.0000000000000000     
  0.93750000000000000        0.0000000000000000        0.0000000000000000     
  0.96875000000000000        0.0000000000000000        0.0000000000000000     
   1.0000000000000000        0.0000000000000000        0.0000000000000000     
  0.87500000000000000        3.1250000000000000E-002   0.0000000000000000     
  0.90625000000000000        3.1250000000000000E-002   0.0000000000000000     
  0.93750000000000000        3.1250000000000000E-002   0.0000000000000000     
  0.96875000000000000        3.1250000000000000E-002   0.0000000000000000     
   1.0000000000000000        3.1250000000000000E-002   0.0000000000000000     
  0.87500000000000000        6.2500000000000000E-002   0.0000000000000000     
  0.90625000000000000        6.2500000000000000E-002   0.0000000000000000     
  0.93750000000000000        6.2500000000000000E-002   0.0000000000000000     
  0.96875000000000000        6.2500000000000000E-002   0.0000000000000000     
   1.0000000000000000        6.2500000000000000E-002   0.0000000000000000     
  0.87500000000000000        9.3750000000000000E-002   0.0000000000000000     
  0.90625000000000000        9.3750000000000000E-002   0.0000000000000000     
  0.93750000000000000        9.3750000000000000E-002   0.0000000000000000     
  0.96875000000000000        9.3750000000000000E-002   0.0000000000000000     
   1.0000000000000000        9.3750000000000000E-002   0.0000000000000000     
  0.87500000000000000       0.12500000000000000        0.0000000000000000     
  0.90625000000000000       0.12500000000000000        0.0000000000000000     
  0.93750000000000000       0.12500000000000000        0.0000000000000000     
  0.96875000000000000       0.12500000000000000        0.0000000000000000     
   1.0000000000000000       0.12500000000000000        0.0000000000000000     
   1.0000000000000000        0.0000000000000000        0.0000000000000000     
   1.0312500000000000        0.0000000000000000        0.0000000000000000     
   1.0625000000000000        0.0000000000000000        0.0000000000000000     
   1.0937500000000000        0.0000000000000000        0.0000000000000000     
   1.1250000000000000        0.0000000000000000        0.0000000000000000     
   1.0000000000000000        3.1250000000000000E-002   0.0000000000000000     
   1.0312500000000000        3.1250000000000000E-002   0.0000000000000000     
   1.0625000000000000        3.1250000000000000E-002   0.0000000000000000     
   1.0937500000000000        3.1250000000000000E-002   0.0000000000000000     
   1.1250000000000000        3.1250000000000000E-002   0.0000000000000000     
   1.0000000000000000        6.2500000000000000E-002   0.0000000000000000     
   1.0312500000000000        6.2500000000000000E-002   0.0000000000000000     
   1.0625000000000000        6.2500000000000000E-002   0.0000000000000000     
   1.0937500000000000        6.2500000000000000E-002   0.0000000000000000     
   1.1250000000000000        6.2500000000000000E-002   0.0000000000000000     
   1.0000000000000000        9.3750000000000000E-002   0.0000000000000000     
   1.0312500000000000        9.3750000000000000E-002   0.0000000000000000     
   1.0625000000000000        9.3750000000000000E-002   0.0000000000000000     
   1.0937500000000000        9.3750000000000000E-002   0.0000000000000000     
   1.1250000000000000        9.3750000000000000E-002   0.0000000000000000     
   1.0000000000000000       0.12500000000000000        0.0000000000000000     
   1.0312500000000000       0.12500000000000000        0.0000000000000000     
   1.0625000000000000       0.12500000000000000        0.0000000000000000     
   1.0937500000000000       0.12500000000000000        0.0000000000000000     
   1.1250000000000000       0.12500000000000000        0.0000000000000000     
   1.1250000000000000        0.0000000000000000        0.0000000000000000     
   1.1562500000000000        0.0000000000000000        0.0000000000000000     
   1.1875000000000000        0.0000000000000000        0.0000000000000000     
   1.2187500000000000        0.0000000000000000        0.0000000000000000     
   1.2500000000000000        0.0000000000000000        0.0000000000000000     
   1.1250000000000000        3.1250000000000000E-002   0.0000000000000000     
   1.1562500000000000        3.1250000000000000E-002   0.0000000000000000     
   1.1875000000000000        3.1250000000000000E-002   0.0000000000000000     
   1.2187500000000000        3.1250000000000000E-002   0.0000000000000000     
   1.2500000000000000        3.1250000000000000E-002   0.0000000000000000     
   1.1250000000000000        6.2500000000000000E-002   0.0000000000000000     
   1.1562500000000000        6.2500000000000000E-002   0.0000000000000000     
   1.1875000000000000        6.2500000000000000E-002   0.0000000000000000     
   1.2187500000000000        6.2500000000000000E-002   0.0000000000000000     
   1.2500000000000000        6.2500000000000000E-002   0.0000000000000000     
   1.1250000000000000        9.3750000000000000E-002   0.0000000000000000     
   1.1562500000000000        9.3750000000000000E-002   0.0000000000000000     
   1.1875000000000000        9.3750000000000000E-002   0.0000000000000000     
   1.2187500000000000        9.3750000000000000E-002   0.0000000000000000     
   1.2500000000000000        9.3750000000000000E-002   0.0000000000000000     
   1.1250000000000000       0.12500000000000000        0.0000000000000000     
   1.1562500000000000       0.12500000000000000        0.0000000000000000     
   1.1875000000000000       0.12500000000000000        0.0000000000000000     
   1.2187500000000000       0.12500000000000000        0.0000000000000000     
   1.2500000000000000       0.12500000000000000        0.0000000000000000     
   1.2500000000000000        0.0000000000000000        0.0000000000000000     
   1.2812500000000000        0.0000000000000000        0.0000000000000000     
   1.3125000000000000        0.0000000000000000        0.0000000000000000     
   1.3437500000000000        0.0000000000000000        0.0000000000000000     
   1.3750000000000000        0.0000000000000000        0.0000000000000000     
   1.2500000000000000        3.1250000000000000E-002   0.0000000000000000     
   1.2812500000000000        3.1250000000000000E-002   0.0000000000000000     
   1.3125000000000000        3.1250000000000000E-002   0.0000000000000000     
   1.3437500000000000        3.1250000000000000E-002   0.0000000000000000     
   1.3750000000000000        3.1250000000000000E-002   0.0000000000000000     
   1.2500000000000000        6.2500000000000000E-002   0.0000000000000000     
   1.2812500000000000        6.2500000000000000E-002   0.0000000000000000     
   1.3125000000000000        6.2500000000000000E-002   0.0000000000000000     
   1.3437500000000000        6.2500000000000000E-002   0.0000000000000000     
   1.3750000000000000        6.2500000000000000E-002   0.0000000000000000     
   1.2500000000000000        9.3750000000000000E-002   0.0000000000000000     
   1.2812500000000000        9.3750000000000000E-002   0.0000000000000000     
   1.3125000000000000        9.3750000000000000E-002   0.0000000000000000     
   1.3437500000000000        9.3750000000000000E-002   0.0000000000000000     
   1.3750000000000000        9.3750000000000000E-002   0.0000000000000000     
   1.2500000000000000       0.12500000000000000        0.0000000000000000     
   1.2812500000000000       0.12500000000000000        0.0000000000000000     
   1.3125000000000000       0.12500000000000000        0.0000000000000000     
   1.3437500000000000       0.12500000000000000        0.0000000000000000     
   1.3750000000000000       0.12500000000000000        0.0000000000000000     
   1.3750000000000000        0.0000000000000000        0.0000000000000000     
   1.4062500000000000        0.0000000000000000        0.0000000000000000     
   1.4375000000000000        0.0000000000000000        0.0000000000000000     
   1.4687500000000000        0.0000000000000000        0.0000000000000000     
   1.5000000000000000        0.0000000000000000        0.0000000000000000     
   1.3750000000000000        3.1250000000000000E-002   0.0000000000000000     
   1.4062500000000000        3.1250000000000000E-002   0.0000000000000000     
   1.4375000000000000        3.1250000000000000E-002   0.0000000000000000     
   1.4687500000000000        3.1250000000000000E-002   0.0000000000000000     
   1.5000000000000000        3.1250000000000000E-002   0.0000000000000000     
   1.3750000000000000        6.2500000000000000E-002   0.0000000000000000     
   1.4062500000000000        6.2500000000000000E-002   0.0000000000000000     
   1.4375000000000000        6.2500000000000000E-002   0.0000000000000000     
   1.4687500000000000        6.2500000000000000E-002   0.0000000000000000     
   1.5000000000000000        6.2500000000000000E-002   0.0000000000000000     
   1.3750000000000000        9.3750000000000000E-002   0.0000000000000000     
   1.4062500000000000        9.3750000000000000E-002   0.0000000000000000     
   1.4375000000000000        9.3750000000000000E-002   0.0000000000000000     
   1.4687500000000000        9.3750000000000000E-002   0.0000000000000000     
   1.5000000000000000        9.3750000000000000E-002   0.0000000000000000     
   1.3750000000000000       0.12500000000000000        0.0000000000000000     
   1.4062500000000000       0.12500000000000000        0.0000000000000000     
   1.4375000000000000       0.12500000000000000        0.0000000000000000     
   1.4687500000000000       0.12500000000000000        0.0000000000000000     
   1.5000000000000000       0.12500000000000000        0.0000000000000000     
  0.50000000000000000       0.12500000000000000        0.0000000000000000     
  0.53125000000000000       0.12500000000000000        0.0000000000000000     
  0.56250000000000000       0.12500000000000000        0.0000000000000000     
  0.59375000000000000       0.12500000000000000        0.0000000000000000     
  0.62500000000000000       0.12500000000000000        0.0000000000000000     
  0.50000000000000000       0.15625000000000000        0.0000000000000000     
  0.53125000000000000       0.15625000000000000        0.0000000000000000     
  0.56250000000000000       0.15625000000000000        0.0000000000000000     
  0.59375000000000000       0.15625000000000000        0.0000000000000000     
  0.62500000000000000       0.15625000000000000        0.0000000000000000     
  0.50000000000000000       0.18750000000000000        0.0000000000000000     
  0.53125000000000000       0.18750000000000000        0.0000000000000000     
  0.56250000000000000       0.18750000000000000        0.0000000000000000     
  0.59375000000000000       0.18750000000000000        0.0000000000000000     
  0.62500000000000000       0.18750000000000000        0.0000000000000000     
  0.50000000000000000       0.21875000000000000        0.0000000000000000     
  0.53125000000000000       0.21875000000000000        0.0000000000000000     
  0.56250000000000000       0.21875000000000000        0.0000000000000000     
  0.59375000000000000       0.21875000000000000        0.0000000000000000     
  0.62500000000000000       0.21875000000000000        0.0000000000000000     
  0.50000000000000000       0.25000000000000000        0.0000000000000000     
  0.53125000000000000       0.25000000000000000        0.0000000000000000     
  0.56250000000000000       0.25000000000000000        0.0000000000000000     
  0.59375000000000000       0.25000000000000000        0.0000000000000000     
  0.62500000000000000       0.25000000000000000        0.0000000000000000     
  0.62500000000000000       0.12500000000000000        0.0000000000000000     
  0.65625000000000000       0.12500000000000000        0.0000000000000000     
  0.68750000000000000       0.12500000000000000        0.0000000000000000     
  0.71875000000000000       0.12500000000000000        0.0000000000000000     
  0.75000000000000000       0.12500000000000000        0.0000000000000000     
  0.62500000000000000       0.15625000000000000        0.0000000000000000     
  0.65625000000000000       0.15625000000000000        0.0000000000000000     
  0.68750000000000000       0.15625000000000000        0.0000000000000000     
  0.71875000000000000       0.15625000000000000        0.0000000000000000     
  0.75000000000000000       0.15625000000000000        0.0000000000000000     
  0.62500000000000000       0.18750000000000000        0.0000000000000000     
  0.65625000000000000       0.18750000000000000        0.0000000000000000     
  0.68750000000000000       0.18750000000000000        0.0000000000000000     
  0.71875000000000000       0.18750000000000000        0.0000000000000000     
  0.75000000000000000       0.18750000000000000        0.0000000000000000     
  0.62500000000000000       0.21875000000000000        0.0000000000000000     
  0.65625000000000000       0.21875000000000000        0.0000000000000000     
  0.68750000000000000       0.21875000000000000        0.0000000000000000     
  0.71875000000000000       0.21875000000000000        0.0000000000000000     
  0.75000000000000000       0.21875000000000000        0.0000000000000000     
  0.62500000000000000       0.25000000000000000        0.0000000000000000     
  0.65625000000000000       0.25000000000000000        0.0000000000000000     
  0.68750000000000000       0.25000000000000000        0.0000000000000000     
  0.71875000000000000       0.25000000000000000        0.0000000000000000     
  0.75000000000000000       0.25000000000000000        0.0000000000000000     
  0.75000000000000000       0.12500000000000000        0.0000000000000000     
  0.78125000000000000       0.12500000000000000        0.0000000000000000     
  0.81250000000000000       0.12500000000000000        0.0000000000000000     
  0.84375000000000000       0.12500000000000000        0.0000000000000000     
  0.87500000000000000       0.12500000000000000        0.0000000000000000     
  0.75000000000000000       0.15625000000000000        0.0000000000000000     
  0.78125000000000000       0.15625000000000000        0.0000000000000000     
  0.81250000000000000       0.15625000000000000        0.0000000000000000     
  0.84375000000000000       0.15625000000000000        0.0000000000000000     
  0.87500000000000000       0.15625000000000000        0.0000000000000000     
  0.75000000000000000       0.18750000000000000        0.0000000000000000     
  0.78125000000000000       0.18750000000000000        0.0000000000000000     
  0.81250000000000000       0.18750000000000000        0.0000000000000000     
  0.84375000000000000       0.18750000000000000        0.0000000000000000     
  0.87500000000000000       0.18750000000000000        0.0000000000000000     
  0.75000000000000000       0.21875000000000000        0.0000000000000000     
  0.78125000000000000       0.21875000000000000        0.0000000000000000     
  0.81250000000000000       0.21875000000000000        0.0000000000000000     
  0.84375000000000000       0.21875000000000000        0.0000000000000000     
  0.87500000000000000       0.21875000000000000        0.0000000000000000     
  0.75000000000000000       0.25000000000000000        0.0000000000000000     
  0.78125000000000000       0.25000000000000000        0.0000000000000000     
  0.81250000000000000       0.25000000000000000        0.0000000000000000     
  0.84375000000000000       0.25000000000000000        0.0000000000000000     
  0.87500000000000000       0.25000000000000000        0.0000000000000000     
  0.87500000000000000       0.12500000000000000        0.0000000000000000     
  0.90625000000000000       0.12500000000000000        0.0000000000000000     
  0.93750000000000000       0.12500000000000000        0.0000000000000000     
  0.96875000000000000       0.12500000000000000        0.0000000000000000     
   1.0000000000000000       0.12500000000000000        0.0000000000000000     
  0.87500000000000000       0.15625000000000000        0.0000000000000000     
  0.90625000000000000       0.15625000000000000        0.0000000000000000     
  0.93750000000000000       0.15625000000000000        0.0000000000000000     
  0.96875000000000000       0.15625000000000000        0.0000000000000000     
   1.0000000000000000       0.15625000000000000        0.0000000000000000     
  0.87500000000000000       0.18750000000000000        0.0000000000000000     
  0.90625000000000000       0.18750000000000000        0.0000000000000000     
  0.93750000000000000       0.18750000000000000        0.0000000000000000     
  0.96875000000000000       0.18750000000000000        0.0000000000000000     
   1.0000000000000000       0.18750000000000000        0.0000000000000000     
  0.87500000000000000       0.21875000000000000        0.0000000000000000     
  0.90625000000000000       0.21875000000000000        0.0000000000000000     
  0.93750000000000000       0.21875000000000000        0.0000000000000000     
  0.96875000000000000       0.21875000000000000        0.0000000000000000     
   1.0000000000000000       0.21875000000000000        0.0000000000000000     
  0.87500000000000000       0.25000000000000000        0.0000000000000000     
  0.90625000000000000       0.25000000000000000        0.0000000000000000     
  0.93750000000000000       0.25000000000000000        0.0000000000000000     
  0.96875000000000000       0.25000000000000000        0.0000000000000000     
   1.0000000000000000       0.25000000000000000        0.0000000000000000     
   1.0000000000000000       0.12500000000000000        0.0000000000000000     
   1.0312500000000000       0.12500000000000000        0.0000000000000000     
   1.0625000000000000       0.12500000000000000        0.0000000000000000     
   1.0937500000000000       0.12500000000000000        0.0000000000000000     
   1.1250000000000000       0.12500000000000000        0.0000000000000000     
   1.0000000000000000       0.15625000000000000        0.0000000000000000     
   1.0312500000000000       0.15625000000000000        0.0000000000000000     
   1.0625000000000000       0.15625000000000000        0.0000000000000000     
   1.0937500000000000       0.15625000000000000        0.0000000000000000     
   1.1250000000000000       0.15625000000000000        0.0000000000000000     
   1.0000000000000000       0.18750000000000000        0.0000000000000000     
   1.0312500000000000       0.18750000000000000        0.0000000000000000     
   1.0625000000000000       0.18750000000000000        0.0000000000000000     
   1.0937500000000000       0.18750000000000000        0.0000000000000000     
   1.1250000000000000       0.18750000000000000        0.0000000000000000     
   1.0000000000000000       0.21875000000000000        0.0000000000000000     
   1.0312500000000000       0.21875000000000000        0.0000000000000000     
   1.0625000000000000       0.21875000000000000        0.0000000000000000     
   1.0937500000000000       0.21875000000000000        0.0000000000000000     
   1.1250000000000000       0.21875000000000000        0.0000000000000000     
   1.0000000000000000       0.25000000000000000        0.0000000000000000     
   1.0312500000000000       0.25000000000000000        0.0000000000000000     
   1.0625000000000000       0.25000000000000000        0.0000000000000000     
   1.0937500000000000       0.25000000000000000        0.0000000000000000     
   1.1250000000000000       0.25000000000000000        0.0000000000000000     
   1.1250000000000000       0.12500000000000000        0.0000000000000000     
   1.1562500000000000       0.12500000000000000        0.0000000000000000     
   1.1875000000000000       0.12500000000000000        0.0000000000000000     
   1.2187500000000000       0.12500000000000000        0.0000000000000000     
   1.2500000000000000       0.12500000000000000        0.0000000000000000     
   1.1250000000000000       0.15625000000000000        0.0000000000000000     
   1.1562500000000000       0.15625000000000000        0.0000000000000000     
   1.1875000000000000       0.15625000000000000        0.0000000000000000     
   1.2187500000000000       0.15625000000000000        0.0000000000000000     
   1.2500000000000000       0.15625000000000000        0.0000000000000000     
   1.1250000000000000       0.18750000000000000        0.0000000000000000     
   1.1562500000000000       0.18750000000000000        0.0000000000000000     
   1.1875000000000000       0.18750000000000000        0.0000000000000000     
   1.2187500000000000       0.18750000000000000        0.0000000000000000     
   1.2500000000000000       0.18750000000000000        0.0000000000000000     
   1.1250000000000000       0.21875000000000000        0.0000000000000000     
   1.1562500000000000       0.21875000000000000        0.0000000000000000     
   1.1875000000000000       0.21875000000000000        0.0000000000000000     
   1.2187500000000000       0.21875000000000000        0.0000000000000000     
   1.2500000000000000       0.21875000000000000        0.0000000000000000     
   1.1250000000000000       0.25000000000000000        0.0000000000000000     
   1.1562500000000000       0.25000000000000000        0.0000000000000000     
   1.1875000000000000       0.25000000000000000        0.0000000000000000     
   1.2187500000000000       0.25000000000000000        0.0000000000000000     
   1.2500000000000000       0.25000000000000000        0.0000000000000000     
   1.2500000000000000       0.12500000000000000        0.0000000000000000     
   1.2812500000000000       0.12500000000000000        0.0000000000000000     
   1.3125000000000000       0.12500000000000000        0.0000000000000000     
   1.3437500000000000       0.12500000000000000        0.0000000000000000     
   1.3750000000000000       0.12500000000000000        0.0000000000000000     
   1.2500000000000000       0.15625000000000000        0.0000000000000000     
   1.2812500000000000       0.15625000000000000        0.0000000000000000     
   1.3125000000000000       0.15625000000000000        0.0000000000000000     
   1.3437500000000000       0.15625000000000000        0.0000000000000000     
   1.3750000000000000       0.15625000000000000        0.0000000000000000     
   1.2500000000000000       0.18750000000000000        0.0000000000000000     
   1.2812500000000000       0.18750000000000000        0.0000000000000000     
   1.3125000000000000       0.18750000000000000        0.0000000000000000     
   1.3437500000000000       0.18750000000000000        0.0000000000000000     
   1.3750000000000000       0.18750000000000000        0.0000000000000000     
   1.2500000000000000       0.21875000000000000        0.0000000000000000     
   1.2812500000000000       0.21875000000000000        0.0000000000000000     
   1.3125000000000000       0.21875000000000000        0.0000000000000000     
   1.3437500000000000       0.21875000000000000        0.0000000000000000     
   1.3750000000000000       0.21875000000000000        0.0000000000000000     
   1.2500000000000000       0.25000000000000000        0.0000000000000000     
   1.2812500000000000       0.25000000000000000        0.0000000000000000     
   1.3125000000000000       0.25000000000000000        0.0000000000000000     
   1.3437500000000000       0.25000000000000000        0.0000000000000000     
   1.3750000000000000       0.25000000000000000        0.0000000000000000     
   1.3750000000000000       0.12500000000000000        0.0000000000000000     
   1.4062500000000000       0.12500000000000000        0.0000000000000000     
   1.4375000000000000       0.12500000000000000        0.0000000000000000     
   1.4687500000000000       0.12500000000000000        0.0000000000000000     
   1.5000000000000000       0.12500000000000000        0.0000000000000000     
   1.3750000000000000       0.15625000000000000        0.0000000000000000     
   1.4062500000000000       0.15625000000000000        0.0000000000000000     
   1.4375000000000000       0.15625000000000000        0.0000000000000000     
   1.4687500000000000       0.15625000000000000        0.0000000000000000     
   1.5000000000000000       0.15625000000000000        0.0000000000000000     
   1.3750000000000000       0.18750000000000000        0.0000000000000000     
   1.4062500000000000       0.18750000000000000        0.0000000000000000     
   1.4375000000000000       0.18750000000000000        0.0000000000000000     
   1.4687500000000000       0.18750000000000000        0.0000000000000000     
   1.5000000000000000       0.18750000000000000        0.0000000000000000     
   1.3750000000000000       0.21875000000000000        0.0000000000000000     
   1.4062500000000000       0.21875000000000000        0.0000000000000000     
   1.4375000000000000       0.21875000000000000        0.0000000000000000     
   1.4687500000000000       0.21875000000000000        0.0000000000000000     
   1.5000000000000000       0.21875000000000000        0.0000000000000000     
   1.3750000000000000       0.25000000000000000        0.0000000000000000     
   1.4062500000000000       0.25000000000000000        0.0000000000000000     
   1.4375000000000000       0.25000000000000000        0.0000000000000000     
   1.4687500000000000       0.25000000000000000        0.0000000000000000     
   1.5000000000000000       0.25000000000000000        0.0000000000000000     
  0.50000000000000000       0.25000000000000000        0.0000000000000000     
  0.53125000000000000       0.25000000000000000        0.0000000000000000     
  0.56250000000000000       0.25000000000000000        0.0000000000000000     
  0.59375000000000000       0.25000000000000000        0.0000000000000000     
  0.62500000000000000       0.25000000000000000        0.0000000000000000     
  0.50000000000000000       0.28125000000000000        0.0000000000000000     
  0.53125000000000000       0.28125000000000000        0.0000000000000000     
  0.56250000000000000       0.28125000000000000        0.0000000000000000     
  0.59375000000000000       0.28125000000000000        0.0000000000000000     
  0.62500000000000000       0.28125000000000000        0.0000000000000000     
  0.50000000000000000       0.31250000000000000        0.0000000000000000     
  0.53125000000000000       0.31250000000000000        0.0000000000000000     
  0.56250000000000000       0.31250000000000000        0.0000000000000000     
  0.59375000000000000       0.31250000000000000        0.0000000000000000     
  0.62500000000000000       0.31250000000000000        0.0000000000000000     
  0.50000000000000000       0.34375000000000000        0.0000000000000000     
  0.53125000000000000       0.34375000000000000        0.0000000000000000     
  0.56250000000000000       0.34375000000000000        0.0000000000000000     
  0.59375000000000000       0.34375000000000000        0.0000000000000000     
  0.62500000000000000       0.34375000000000000        0.0000000000000000     
  0.50000000000000000       0.37500000000000000        0.0000000000000000     
  0.53125000000000000       0.37500000000000000        0.0000000000000000     
  0.56250000000000000       0.37500000000000000        0.0000000000000000     
  0.59375000000000000       0.37500000000000000        0.0000000000000000     
  0.62500000000000000       0.37500000000000000        0.0000000000000000     
  0.62500000000000000       0.25000000000000000        0.0000000000000000     
  0.65625000000000000       0.25000000000000000        0.0000000000000000     
  0.68750000000000000       0.25000000000000000        0.0000000000000000     
  0.71875000000000000       0.25000000000000000        0.0000000000000000     
  0.75000000000000000       0.25000000000000000        0.0000000000000000     
  0.62500000000000000       0.28125000000000000        0.0000000000000000     
  0.65625000000000000       0.28125000000000000        0.0000000000000000     
  0.68750000000000000       0.28125000000000000        0.0000000000000000     
  0.71875000000000000       0.28125000000000000        0.0000000000000000     
  0.75000000000000000       0.28125000000000000        0.0000000000000000     
  0.62500000000000000       0.31250000000000000        0.0000000000000000     
  0.65625000000000000       0.31250000000000000        0.0000000000000000     
  0.68750000000000000       0.31250000000000000        0.0000000000000000     
  0.71875000000000000       0.31250000000000000        0.0000000000000000     
  0.75000000000000000       0.31250000000000000        0.0000000000000000     
  0.62500000000000000       0.34375000000000000        0.0000000000000000     
  0.65625000000000000       0.34375000000000000        0.0000000000000000     
  0.68750000000000000       0.34375000000000000        0.0000000000000000     
  0.71875000000000000       0.34375000000000000        0.0000000000000000     
  0.75000000000000000       0.34375000000000000        0.0000000000000000     
  0.62500000000000000       0.37500000000000000        0.0000000000000000     
  0.65625000000000000       0.37500000000000000        0.0000000000000000     
  0.68750000000000000       0.37500000000000000        0.0000000000000000     
  0.71875000000000000       0.37500000000000000        0.0000000000000000     
  0.75000000000000000       0.37500000000000000        0.0000000000000000     
  0.75000000000000000       0.25000000000000000        0.0000000000000000     
  0.78125000000000000       0.25000000000000000        0.0000000000000000     
  0.81250000000000000       0.25000000000000000        0.0000000000000000     
  0.84375000000000000       0.25000000000000000        0.0000000000000000     
  0.87500000000000000       0.25000000000000000        0.0000000000000000     
  0.75000000000000000       0.28125000000000000        0.0000000000000000     
  0.78125000000000000       0.28125000000000000        0.0000000000000000     
  0.81250000000000000       0.28125000000000000        0.0000000000000000     
  0.84375000000000000       0.28125000000000000        0.0000000000000000     
  0.87500000000000000       0.28125000000000000        0.0000000000000000     
  0.75000000000000000       0.31250000000000000        0.0000000000000000     
  0.78125000000000000       0.31250000000000000        0.0000000000000000     
  0.81250000000000000       0.31250000000000000        0.0000000000000000     
  0.84375000000000000       0.31250000000000000        0.0000000000000000     
  0.87500000000000000       0.31250000000000000        0.0000000000000000     
  0.75000000000000000       0.34375000000000000        0.0000000000000000     
  0.78125000000000000       0.34375000000000000        0.0000000000000000     
  0.81250000000000000       0.34375000000000000        0.0000000000000000     
  0.84375000000000000       0.34375000000000000        0.0000000000000000     
  0.87500000000000000       0.34375000000000000        0.0000000000000000     
  0.75000000000000000       0.37500000000000000        0.0000000000000000     
  0.78125000000000000       0.37500000000000000        0.0000000000000000     
  0.81250000000000000       0.37500000000000000        0.0000000000000000     
  0.84375000000000000       0.37500000000000000        0.0000000000000000     
  0.87500000000000000       0.37500000000000000        0.0000000000000000     
  0.87500000000000000       0.25000000000000000        0.0000000000000000     
  0.90625000000000000       0.25000000000000000        0.0000000000000000     
  0.93750000000000000       0.25000000000000000        0.0000000000000000     
  0.96875000000000000       0.25000000000000000        0.0000000000000000     
   1.0000000000000000       0.25000000000000000        0.0000000000000000     
  0.87500000000000000       0.28125000000000000        0.0000000000000000     
  0.90625000000000000       0.28125000000000000        0.0000000000000000     
  0.93750000000000000       0.28125000000000000        0.0000000000000000     
  0.96875000000000000       0.28125000000000000        0.0000000000000000     
   1.0000000000000000       0.28125000000000000        0.0000000000000000     
  0.87500000000000000       0.31250000000000000        0.0000000000000000     
  0.90625000000000000       0.31250000000000000        0.0000000000000000     
  0.93750000000000000       0.31250000000000000        0.0000000000000000     
  0.96875000000000000       0.31250000000000000        0.0000000000000000     
   1.0000000000000000       0.31250000000000000        0.0000000000000000     
  0.87500000000000000       0.34375000000000000        0.0000000000000000     
  0.90625000000000000       0.34375000000000000        0.0000000000000000     
  0.93750000000000000       0.34375000000000000        0.0000000000000000     
  0.96875000000000000       0.34375000000000000        0.0000000000000000     
   1.0000000000000000       0.34375000000000000        0.0000000000000000     
  0.87500000000000000       0.37500000000000000        0.0000000000000000     
  0.90625000000000000       0.37500000000000000        0.0000000000000000     
  0.93750000000000000       0.37500000000000000        0.0000000000000000     
  0.96875000000000000       0.37500000000000000        0.0000000000000000     
   1.0000000000000000       0.37500000000000000        0.0000000000000000     
   1.0000000000000000       0.25000000000000000        0.0000000000000000     
   1.0312500000000000       0.25000000000000000        0.0000000000000000     
   1.0625000000000000       0.25000000000000000        0.0000000000000000     
   1.0937500000000000       0.25000000000000000        0.0000000000000000     
   1.1250000000000000       0.25000000000000000        0.0000000000000000     
   1.0000000000000000       0.28125000000000000        0.0000000000000000     
   1.0312500000000000       0.28125000000000000        0.0000000000000000     
   1.0625000000000000       0.28125000000000000        0.0000000000000000     
   1.0937500000000000       0.28125000000000000        0.0000000000000000     
   1.1250000000000000       0.28125000000000000        0.0000000000000000     
   1.0000000000000000       0.31250000000000000        0.0000000000000000     
   1.0312500000000000       0.31250000000000000        0.0000000000000000     
   1.0625000000000000       0.31250000000000000        0.0000000000000000     
   1.0937500000000000       0.31250000000000000        0.0000000000000000     
   1.1250000000000000       0.31250000000000000        0.0000000000000000     
   1.0000000000000000       0.34375000000000000        0.0000000000000000     
   1.0312500000000000       0.34375000000000000        0.0000000000000000     
   1.0625000000000000       0.34375000000000000        0.0000000000000000     
   1.0937500000000000       0.34375000000000000        0.0000000000000000     
   1.1250000000000000       0.34375000000000000        0.0000000000000000     
   1.0000000000000000       0.37500000000000000        0.0000000000000000     
   1.0312500000000000       0.37500000000000000        0.0000000000000000     
   1.0625000000000000       0.37500000000000000        0.0000000000000000     
   1.0937500000000000       0.37500000000000000        0.0000000000000000     
   1.1250000000000000       0.37500000000000000        0.0000000000000000     
   1.1250000000000000       0.25000000000000000        0.0000000000000000     
   1.1562500000000000       0.25000000000000000        0.0000000000000000     
   1.1875000000000000       0.25000000000000000        0.0000000000000000     
   1.2187500000000000       0.25000000000000000        0.0000000000000000     
   1.2500000000000000       0.25000000000000000        0.0000000000000000     
   1.1250000000000000       0.28125000000000000        0.0000000000000000     
   1.1562500000000000       0.28125000000000000        0.0000000000000000     
   1.1875000000000000       0.28125000000000000        0.0000000000000000     
   1.2187500000000000       0.28125000000000000        0.0000000000000000     
   1.2500000000000000       0.28125000000000000        0.0000000000000000     
   1.1250000000000000       0.31250000000000000        0.0000000000000000     
   1.1562500000000000       0.31250000000000000        0.0000000000000000     
   1.1875000000000000       0.31250000000000000        0.0000000000000000     
   1.2187500000000000       0.31250000000000000        0.0000000000000000     
   1.2500000000000000       0.31250000000000000        0.0000000000000000     
   1.1250000000000000       0.34375000000000000        0.0000000000000000     
   1.1562500000000000       0.34375000000000000        0.0000000000000000     
   1.1875000000000000       0.34375000000000000        0.0000000000000000     
   1.2187500000000000       0.34375000000000000        0.0000000000000000     
   1.2500000000000000       0.34375000000000000        0.0000000000000000     
   1.1250000000000000       0.37500000000000000        0.0000000000000000     
   1.1562500000000000       0.37500000000000000        0.0000000000000000     
   1.1875000000000000       0.37500000000000000        0.0000000000000000     
   1.2187500000000000       0.37500000000000000        0.0000000000000000     
   1.2500000000000000       0.37500000000000000        0.0000000000000000     
   1.2500000000000000       0.25000000000000000        0.0000000000000000     
   1.2812500000000000       0.25000000000000000        0.0000000000000000     
   1.3125000000000000       0.25000000000000000        0.0000000000000000     
   1.3437500000000000       0.25000000000000000        0.0000000000000000     
   1.3750000000000000       0.25000000000000000        0.0000000000000000     
   1.2500000000000000       0.28125000000000000        0.0000000000000000     
   1.2812500000000000       0.28125000000000000        0.0000000000000000     
   1.3125000000000000       0.28125000000000000        0.0000000000000000     
   1.3437500000000000       0.28125000000000000        0.0000000000000000     
   1.3750000000000000       0.28125000000000000        0.0000000000000000     
   1.2500000000000000       0.31250000000000000        0.0000000000000000     
   1.2812500000000000       0.31250000000000000        0.0000000000000000     
   1.3125000000000000       0.31250000000000000        0.0000000000000000     
   1.3437500000000000       0.31250000000000000        0.0000000000000000     
   1.3750000000000000       0.31250000000000000        0.0000000000000000     
   1.2500000000000000       0.34375000000000000        0.0000000000000000     
   1.2812500000000000       0.34375000000000000        0.0000000000000000     
   1.3125000000000000       0.34375000000000000        0.0000000000000000     
   1.3437500000000000       0.34375000000000000        0.0000000000000000     
   1.3750000000000000       0.34375000000000000        0.0000000000000000     
   1.2500000000000000       0.37500000000000000        0.0000000000000000     
   1.2812500000000000       0.37500000000000000        0.0000000000000000     
   1.3125000000000000       0.37500000000000000        0.0000000000000000     
   1.3437500000000000       0.37500000000000000        0.0000000000000000     
   1.3750000000000000       0.37500000000000000        0.0000000000000000     
   1.3750000000000000       0.25000000000000000        0.0000000000000000     
   1.4062500000000000       0.25000000000000000        0.0000000000000000     
   1.4375000000000000       0.25000000000000000        0.0000000000000000     
   1.4687500000000000       0.25000000000000000        0.0000000000000000     
   1.5000000000000000       0.25000000000000000        0.0000000000000000     
   1.3750000000000000       0.28125000000000000        0.0000000000000000     
   1.4062500000000000       0.28125000000000000        0.0000000000000000     
   1.4375000000000000       0.28125000000000000        0.0000000000000000     
   1.4687500000000000       0.28125000000000000        0.0000000000000000     
   1.5000000000000000       0.28125000000000000        0.0000000000000000     
   1.3750000000000000       0.31250000000000000        0.0000000000000000     
   1.4062500000000000       0.31250000000000000        0.0000000000000000     
   1.4375000000000000       0.31250000000000000        0.0000000000000000     
   1.4687500000000000       0.31250000000000000        0.0000000000000000     
   1.5000000000000000       0.31250000000000000        0.0000000000000000     
   1.3750000000000000       0.34375000000000000        0.0000000000000000     
   1.4062500000000000       0.34375000000000000        0.0000000000000000     
   1.4375000000000000       0.34375000000000000        0.0000000000000000     
   1.4687500000000000       0.34375000000000000        0.0000000000000000     
   1.5000000000000000       0.34375000000000000        0.0000000000000000     
   1.3750000000000000       0.37500000000000000        0.0000000000000000     
   1.4062500000000000       0.37500000000000000        0.0000000000000000     
   1.4375000000000000       0.37500000000000000        0.0000000000000000     
   1.4687500000000000       0.37500000000000000        0.0000000000000000     
   1.5000000000000000       0.37500000000000000        0.0000000000000000     
  0.50000000000000000       0.37500000000000000        0.0000000000000000     
  0.53125000000000000       0.37500000000000000        0.0000000000000000     
  0.56250000000000000       0.37500000000000000        0.0000000000000000     
  0.59375000000000000       0.37500000000000000        0.0000000000000000     
  0.62500000000000000       0.37500000000000000        0.0000000000000000     
  0.50000000000000000       0.40625000000000000        0.0000000000000000     
  0.53125000000000000       0.40625000000000000        0.0000000000000000     
  0.56250000000000000       0.40625000000000000        0.0000000000000000     
  0.59375000000000000       0.40625000000000000        0.0000000000000000     
  0.62500000000000000       0.40625000000000000        0.0000000000000000     
  0.50000000000000000       0.43750000000000000        0.0000000000000000     
  0.53125000000000000       0.43750000000000000        0.0000000000000000     
  0.56250000000000000       0.43750000000000000        0.0000000000000000     
  0.59375000000000000       0.43750000000000000        0.0000000000000000     
  0.62500000000000000       0.43750000000000000        0.0000000000000000     
  0.50000000000000000       0.46875000000000000        0.0000000000000000     
  0.53125000000000000       0.46875000000000000        0.0000000000000000     
  0.56250000000000000       0.46875000000000000        0.0000000000000000     
  0.59375000000000000       0.46875000000000000        0.0000000000000000     
  0.62500000000000000       0.46875000000000000        0.0000000000000000     
  0.50000000000000000       0.50000000000000000        0.0000000000000000     
  0.53125000000000000       0.50000000000000000        0.0000000000000000     
  0.56250000000000000       0.50000000000000000        0.0000000000000000     
  0.59375000000000000       0.50000000000000000        0.0000000000000000     
  0.62500000000000000       0.50000000000000000        0.0000000000000000     
  0.62500000000000000       0.37500000000000000        0.0000000000000000     
  0.65625000000000000       0.37500000000000000        0.0000000000000000     
  0.68750000000000000       0.37500000000000000        0.0000000000000000     
  0.71875000000000000       0.37500000000000000        0.0000000000000000     
  0.75000000000000000       0.37500000000000000        0.0000000000000000     
  0.62500000000000000       0.40625000000000000        0.0000000000000000     
  0.65625000000000000       0.40625000000000000        0.0000000000000000     
  0.68750000000000000       0.40625000000000000        0.0000000000000000     
  0.71875000000000000       0.40625000000000000        0.0000000000000000     
  0.75000000000000000       0.40625000000000000        0.0000000000000000     
  0.62500000000000000       0.43750000000000000        0.0000000000000000     
  0.65625000000000000       0.43750000000000000        0.0000000000000000     
  0.68750000000000000       0.43750000000000000        0.0000000000000000     
  0.71875000000000000       0.43750000000000000        0.0000000000000000     
  0.75000000000000000       0.43750000000000000        0.0000000000000000     
  0.62500000000000000       0.46875000000000000        0.0000000000000000     
  0.65625000000000000       0.46875000000000000        0.0000000000000000     
  0.68750000000000000       0.46875000000000000        0.0000000000000000     
  0.71875000000000000       0.46875000000000000        0.0000000000000000     
  0.75000000000000000       0.46875000000000000        0.0000000000000000     
  0.62500000000000000       0.50000000000000000        0.0000000000000000     
  0.65625000000000000       0.50000000000000000        0.0000000000000000     
  0.68750000000000000       0.50000000000000000        0.0000000000000000     
  0.71875000000000000       0.50000000000000000        0.0000000000000000     
  0.75000000000000000       0.50000000000000000        0.0000000000000000     
  0.75000000000000000       0.37500000000000000        0.0000000000000000     
  0.78125000000000000       0.37500000000000000        0.0000000000000000     
  0.81250000000000000       0.37500000000000000        0.0000000000000000     
  0.84375000000000000       0.37500000000000000        0.0000000000000000     
  0.87500000000000000       0.37500000000000000        0.0000000000000000     
  0.75000000000000000       0.40625000000000000        0.0000000000000000     
  0.78125000000000000       0.40625000000000000        0.0000000000000000     
  0.81250000000000000       0.40625000000000000        0.0000000000000000     
  0.84375000000000000       0.40625000000000000        0.0000000000000000     
  0.87500000000000000       0.40625000000000000        0.0000000000000000     
  0.75000000000000000       0.43750000000000000        0.0000000000000000     
  0.78125000000000000       0.43750000000000000        0.0000000000000000     
  0.81250000000000000       0.43750000000000000        0.0000000000000000     
  0.84375000000000000       0.43750000000000000        0.0000000000000000     
  0.87500000000000000       0.43750000000000000        0.0000000000000000     
  0.75000000000000000       0.46875000000000000        0.0000000000000000     
  0.78125000000000000       0.46875000000000000        0.0000000000000000     
  0.81250000000000000       0.46875000000000000        0.0000000000000000     
  0.84375000000000000       0.46875000000000000        0.0000000000000000     
  0.87500000000000000       0.46875000000000000        0.0000000000000000     
  0.75000000000000000       0.50000000000000000        0.0000000000000000     
  0.78125000000000000       0.50000000000000000        0.0000000000000000     
  0.81250000000000000       0.50000000000000000        0.0000000000000000     
  0.84375000000000000       0.50000000000000000        0.0000000000000000     
  0.87500000000000000       0.50000000000000000        0.0000000000000000     
  0.87500000000000000       0.37500000000000000        0.0000000000000000     
  0.90625000000000000       0.37500000000000000        0.0000000000000000     
  0.93750000000000000       0.37500000000000000        0.0000000000000000     
  0.96875000000000000       0.37500000000000000        0.0000000000000000     
   1.0000000000000000       0.37500000000000000        0.0000000000000000     
  0.87500000000000000       0.40625000000000000        0.0000000000000000     
  0.90625000000000000       0.40625000000000000        0.0000000000000000     
  0.93750000000000000       0.40625000000000000        0.0000000000000000     
  0.96875000000000000       0.40625000000000000        0.0000000000000000     
   1.0000000000000000       0.40625000000000000        0.0000000000000000     
  0.87500000000000000       0.43750000000000000        0.0000000000000000     
  0.90625000000000000       0.43750000000000000        0.0000000000000000     
  0.93750000000000000       0.43750000000000000        0.0000000000000000     
  0.96875000000000000       0.43750000000000000        0.0000000000000000     
   1.0000000000000000       0.43750000000000000        0.0000000000000000     
  0.87500000000000000       0.46875000000000000        0.0000000000000000     
  0.90625000000000000       0.46875000000000000        0.0000000000000000     
  0.93750000000000000       0.46875000000000000        0.0000000000000000     
  0.96875000000000000       0.46875000000000000        0.0000000000000000     
   1.0000000000000000       0.46875000000000000        0.0000000000000000     
  0.87500000000000000       0.50000000000000000        0.0000000000000000     
  0.90625000000000000       0.50000000000000000        0.0000000000000000     
  0.93750000000000000       0.50000000000000000        0.0000000000000000     
  0.96875000000000000       0.50000000000000000        0.0000000000000000     
   1.0000000000000000       0.50000000000000000        0.0000000000000000     
   1.0000000000000000       0.37500000000000000        0.0000000000000000     
   1.0312500000000000       0.37500000000000000        0.0000000000000000     
   1.0625000000000000       0.37500000000000000        0.0000000000000000     
   1.0937500000000000       0.37500000000000000        0.0000000000000000     
   1.1250000000000000       0.37500000000000000        0.0000000000000000     
   1.0000000000000000       0.40625000000000000        0.0000000000000000     
   1.0312500000000000       0.40625000000000000        0.0000000000000000     
   1.0625000000000000       0.40625000000000000        0.0000000000000000     
   1.0937500000000000       0.40625000000000000        0.0000000000000000     
   1.1250000000000000       0.40625000000000000        0.0000000000000000     
   1.0000000000000000       0.43750000000000000        0.0000000000000000     
   1.0312500000000000       0.43750000000000000        0.0000000000000000     
   1.0625000000000000       0.43750000000000000        0.0000000000000000     
   1.0937500000000000       0.43750000000000000        0.0000000000000000     
   1.1250000000000000       0.43750000000000000        0.0000000000000000     
   1.0000000000000000       0.46875000000000000        0.0000000000000000     
   1.0312500000000000       0.46875000000000000        0.0000000000000000     
   1.0625000000000000       0.46875000000000000        0.0000000000000000     
   1.0937500000000000       0.46875000000000000        0.0000000000000000     
   1.1250000000000000       0.46875000000000000        0.0000000000000000     
   1.0000000000000000       0.50000000000000000        0.0000000000000000     
   1.0312500000000000       0.50000000000000000        0.0000000000000000     
   1.0625000000000000       0.50000000000000000        0.0000000000000000     
   1.0937500000000000       0.50000000000000000        0.0000000000000000     
   1.1250000000000000       0.50000000000000000        0.0000000000000000     
   1.1250000000000000       0.37500000000000000        0.0000000000000000     
   1.1562500000000000       0.37500000000000000        0.0000000000000000     
   1.1875000000000000       0.37500000000000000        0.0000000000000000     
   1.2187500000000000       0.37500000000000000        0.0000000000000000     
   1.2500000000000000       0.37500000000000000        0.0000000000000000     
   1.1250000000000000       0.40625000000000000        0.0000000000000000     
   1.1562500000000000       0.40625000000000000        0.0000000000000000     
   1.1875000000000000       0.40625000000000000        0.0000000000000000     
   1.2187500000000000       0.40625000000000000        0.0000000000000000     
   1.2500000000000000       0.40625000000000000        0.0000000000000000     
   1.1250000000000000       0.43750000000000000        0.0000000000000000     
   1.1562500000000000       0.43750000000000000        0.0000000000000000     
   1.1875000000000000       0.43750000000000000        0.0000000000000000     
   1.2187500000000000       0.43750000000000000        0.0000000000000000     
   1.2500000000000000       0.43750000000000000        0.0000000000000000     
   1.1250000000000000       0.46875000000000000        0.0000000000000000     
   1.1562500000000000       0.46875000000000000        0.0000000000000000     
   1.1875000000000000       0.46875000000000000        0.0000000000000000     
   1.2187500000000000       0.46875000000000000        0.0000000000000000     
   1.2500000000000000       0.46875000000000000        0.0000000000000000     
   1.1250000000000000       0.50000000000000000        0.0000000000000000     
   1.1562500000000000       0.50000000000000000        0.0000000000000000     
   1.1875000000000000       0.50000000000000000        0.0000000000000000     
   1.2187500000000000       0.50000000000000000        0.0000000000000000     
   1.2500000000000000       0.50000000000000000        0.0000000000000000     
   1.2500000000000000       0.37500000000000000        0.0000000000000000     
   1.2812500000000000       0.37500000000000000        0.0000000000000000     
   1.3125000000000000       0.37500000000000000        0.0000000000000000     
   1.3437500000000000       0.37500000000000000        0.0000000000000000     
   1.3750000000000000       0.37500000000000000        0.0000000000000000     
   1.2500000000000000       0.40625000000000000        0.0000000000000000     
   1.2812500000000000       0.40625000000000000        0.0000000000000000     
   1.3125000000000000       0.40625000000000000        0.0000000000000000     
   1.3437500000000000       0.40625000000000000        0.0000000000000000     
   1.3750000000000000       0.40625000000000000        0.0000000000000000     
   1.2500000000000000       0.43750000000000000        0.0000000000000000     
   1.2812500000000000       0.43750000000000000        0.0000000000000000     
   1.3125000000000000       0.43750000000000000        0.0000000000000000     
   1.3437500000000000       0.43750000000000000        0.0000000000000000     
   1.3750000000000000       0.43750000000000000        0.0000000000000000     
   1.2500000000000000       0.46875000000000000        0.0000000000000000     
   1.2812500000000000       0.46875000000000000        0.0000000000000000     
   1.3125000000000000       0.46875000000000000        0.0000000000000000     
   1.3437500000000000       0.46875000000000000        0.0000000000000000     
   1.3750000000000000       0.46875000000000000        0.0000000000000000     
   1.2500000000000000       0.50000000000000000        0.0000000000000000     
   1.2812500000000000       0.50000000000000000        0.0000000000000000     
   1.3125000000000000       0.50000000000000000        0.0000000000000000     
   1.3437500000000000       0.50000000000000000        0.0000000000000000     
   1.3750000000000000       0.50000000000000000        0.0000000000000000     
   1.3750000000000000       0.37500000000000000        0.0000000000000000     
   1.4062500000000000       0.37500000000000000        0.0000000000000000     
   1.4375000000000000       0.37500000000000000        0.0000000000000000     
   1.4687500000000000       0.37500000000000000        0.0000000000000000     
   1.5000000000000000       0.37500000000000000        0.0000000000000000     
   1.3750000000000000       0.40625000000000000        0.0000000000000000     
   1.4062500000000000       0.40625000000000000        0.0000000000000000     
   1.4375000000000000       0.40625000000000000        0.0000000000000000     
   1.4687500000000000       0.40625000000000000        0.0000000000000000     
   1.5000000000000000       0.40625000000000000        0.0000000000000000     
   1.3750000000000000       0.43750000000000000        0.0000000000000000     
   1.4062500000000000       0.43750000000000000        0.0000000000000000     
   1.4375000000000000       0.43750000000000000        0.0000000000000000     
   1.4687500000000000       0.43750000000000000        0.0000000000000000     
   1.5000000000000000       0.43750000000000000        0.0000000000000000     
   1.3750000000000000       0.46875000000000000        0.0000000000000000     
   1.4062500000000000       0.46875000000000000        0.0000000000000000     
   1.4375000000000000       0.46875000000000000        0.0000000000000000     
   1.4687500000000000       0.46875000000000000        0.0000000000000000     
   1.5000000000000000       0.46875000000000000        0.0000000000000000     
   1.3750000000000000       0.50000000000000000        0.0000000000000000     
   1.4062500000000000       0.50000000000000000        0.0000000000000000     
   1.4375000000000000       0.50000000000000000        0.0000000000000000     
   1.4687500000000000       0.50000000000000000        0.0000000000000000     
   1.5000000000000000       0.50000000000000000        0.0000000000000000     
  0.50000000000000000       0.50000000000000000        0.0000000000000000     
  0.53125000000000000       0.50000000000000000        0.0000000000000000     
  0.56250000000000000       0.50000000000000000        0.0000000000000000     
  0.59375000000000000       0.50000000000000000        0.0000000000000000     
  0.62500000000000000       0.50000000000000000        0.0000000000000000     
  0.50000000000000000       0.53125000000000000        0.0000000000000000     
  0.53125000000000000       0.53125000000000000        0.0000000000000000     
  0.56250000000000000       0.53125000000000000        0.0000000000000000     
  0.59375000000000000       0.53125000000000000        0.0000000000000000     
  0.62500000000000000       0.53125000000000000        0.0000000000000000     
  0.50000000000000000       0.56250000000000000        0.0000000000000000     
  0.53125000000000000       0.56250000000000000        0.0000000000000000     
  0.56250000000000000       0.56250000000000000        0.0000000000000000     
  0.59375000000000000       0.56250000000000000        0.0000000000000000     
  0.62500000000000000       0.56250000000000000        0.0000000000000000     
  0.50000000000000000       0.59375000000000000        0.0000000000000000     
  0.53125000000000000       0.59375000000000000        0.0000000000000000     
  0.56250000000000000       0.59375000000000000        0.0000000000000000     
  0.59375000000000000       0.59375000000000000        0.0000000000000000     
  0.62500000000000000       0.59375000000000000        0.0000000000000000     
  0.50000000000000000       0.62500000000000000        0.0000000000000000     
  0.53125000000000000       0.62500000000000000        0.0000000000000000     
  0.56250000000000000       0.62500000000000000        0.0000000000000000     
  0.59375000000000000       0.62500000000000000        0.0000000000000000     
  0.62500000000000000       0.62500000000000000        0.0000000000000000     
  0.62500000000000000       0.50000000000000000        0.0000000000000000     
  0.65625000000000000       0.50000000000000000        0.0000000000000000     
  0.68750000000000000       0.50000000000000000        0.0000000000000000     
  0.71875000000000000       0.50000000000000000        0.0000000000000000     
  0.75000000000000000       0.50000000000000000        0.0000000000000000     
  0.62500000000000000       0.53125000000000000        0.0000000000000000     
  0.65625000000000000       0.53125000000000000        0.0000000000000000     
  0.68750000000000000       0.53125000000000000        0.0000000000000000     
  0.71875000000000000       0.53125000000000000        0.0000000000000000     
  0.75000000000000000       0.53125000000000000        0.0000000000000000     
  0.62500000000000000       0.56250000000000000        0.0000000000000000     
  0.65625000000000000       0.56250000000000000        0.0000000000000000     
  0.68750000000000000       0.56250000000000000        0.0000000000000000     
  0.71875000000000000       0.56250000000000000        0.0000000000000000     
  0.75000000000000000       0.56250000000000000        0.0000000000000000     
  0.62500000000000000       0.59375000000000000        0.0000000000000000     
  0.65625000000000000       0.59375000000000000        0.0000000000000000     
  0.68750000000000000       0.59375000000000000        0.0000000000000000     
  0.71875000000000000       0.59375000000000000        0.0000000000000000     
  0.75000000000000000       0.59375000000000000        0.0000000000000000     
  0.62500000000000000       0.62500000000000000        0.0000000000000000     
  0.65625000000000000       0.62500000000000000        0.0000000000000000     
  0.68750000000000000       0.62500000000000000        0.0000000000000000     
  0.71875000000000000       0.62500000000000000        0.0000000000000000     
  0.75000000000000000       0.62500000000000000        0.0000000000000000     
  0.75000000000000000       0.50000000000000000        0.0000000000000000     
  0.78125000000000000       0.50000000000000000        0.0000000000000000     
  0.81250000000000000       0.50000000000000000        0.0000000000000000     
  0.84375000000000000       0.50000000000000000        0.0000000000000000     
  0.87500000000000000       0.50000000000000000        0.0000000000000000     
  0.75000000000000000       0.53125000000000000        0.0000000000000000     
  0.78125000000000000       0.53125000000000000        0.0000000000000000     
  0.81250000000000000       0.53125000000000000        0.0000000000000000     
  0.84375000000000000       0.53125000000000000        0.0000000000000000     
  0.87500000000000000       0.53125000000000000        0.0000000000000000     
  0.75000000000000000       0.56250000000000000        0.0000000000000000     
  0.78125000000000000       0.56250000000000000        0.0000000000000000     
  0.81250000000000000       0.56250000000000000        0.0000000000000000     
  0.84375000000000000       0.56250000000000000        0.0000000000000000     
  0.87500000000000000       0.56250000000000000        0.0000000000000000     
  0.75000000000000000       0.59375000000000000        0.0000000000000000     
  0.78125000000000000       0.59375000000000000        0.0000000000000000     
  0.81250000000000000       0.59375000000000000        0.0000000000000000     
  0.84375000000000000       0.59375000000000000        0.0000000000000000     
  0.87500000000000000       0.59375000000000000        0.0000000000000000     
  0.75000000000000000       0.62500000000000000        0.0000000000000000     
  0.78125000000000000       0.62500000000000000        0.0000000000000000     
  0.81250000000000000       0.62500000000000000        0.0000000000000000     
  0.84375000000000000       0.62500000000000000        0.0000000000000000     
  0.87500000000000000       0.62500000000000000        0.0000000000000000     
  0.87500000000000000       0.50000000000000000        0.0000000000000000     
  0.90625000000000000       0.50000000000000000        0.0000000000000000     
  0.93750000000000000       0.50000000000000000        0.0000000000000000     
  0.96875000000000000       0.50000000000000000        0.0000000000000000     
   1.0000000000000000       0.50000000000000000        0.0000000000000000     
  0.87500000000000000       0.53125000000000000        0.0000000000000000     
  0.90625000000000000       0.53125000000000000        0.0000000000000000     
  0.93750000000000000       0.53125000000000000        0.0000000000000000     
  0.96875000000000000       0.53125000000000000        0.0000000000000000     
   1.0000000000000000       0.53125000000000000        0.0000000000000000     
  0.87500000000000000       0.56250000000000000        0.0000000000000000     
  0.90625000000000000       0.56250000000000000        0.0000000000000000     
  0.93750000000000000       0.56250000000000000        0.0000000000000000     
  0.96875000000000000       0.56250000000000000        0.0000000000000000     
   1.0000000000000000       0.56250000000000000        0.0000000000000000     
  0.87500000000000000       0.59375000000000000        0.0000000000000000     
  0.90625000000000000       0.59375000000000000        0.0000000000000000     
  0.93750000000000000       0.59375000000000000        0.0000000000000000     
  0.96875000000000000       0.59375000000000000        0.0000000000000000     
   1.0000000000000000       0.59375000000000000        0.0000000000000000     
  0.87500000000000000       0.62500000000000000        0.0000000000000000     
  0.90625000000000000       0.62500000000000000        0.0000000000000000     
  0.93750000000000000       0.62500000000000000        0.0000000000000000     
  0.96875000000000000       0.62500000000000000        0.0000000000000000     
   1.0000000000000000       0.62500000000000000        0.0000000000000000     
   1.0000000000000000       0.50000000000000000        0.0000000000000000     
   1.0312500000000000       0.50000000000000000        0.0000000000000000     
   1.0625000000000000       0.50000000000000000        0.0000000000000000     
   1.0937500000000000       0.50000000000000000        0.0000000000000000     
   1.1250000000000000       0.50000000000000000        0.0000000000000000     
   1.0000000000000000       0.53125000000000000        0.0000000000000000     
   1.0312500000000000       0.53125000000000000        0.0000000000000000     
   1.0625000000000000       0.53125000000000000        0.0000000000000000     
   1.0937500000000000       0.53125000000000000        0.0000000000000000     
   1.1250000000000000       0.53125000000000000        0.0000000000000000     
   1.0000000000000000       0.56250000000000000        0.0000000000000000     
   1.0312500000000000       0.56250000000000000        0.0000000000000000     
   1.0625000000000000       0.56250000000000000        0.0000000000000000     
   1.0937500000000000       0.56250000000000000        0.0000000000000000     
   1.1250000000000000       0.56250000000000000        0.0000000000000000     
   1.0000000000000000       0.59375000000000000        0.0000000000000000     
   1.0312500000000000       0.59375000000000000        0.0000000000000000     
   1.0625000000000000       0.59375000000000000        0.0000000000000000     
   1.0937500000000000       0.59375000000000000        0.0000000000000000     
   1.1250000000000000       0.59375000000000000        0.0000000000000000     
   1.0000000000000000       0.62500000000000000        0.0000000000000000     
   1.0312500000000000       0.62500000000000000        0.0000000000000000     
   1.0625000000000000       0.62500000000000000        0.0000000000000000     
   1.0937500000000000       0.62500000000000000        0.0000000000000000     
   1.1250000000000000       0.62500000000000000        0.0000000000000000     
   1.1250000000000000       0.50000000000000000        0.0000000000000000     
   1.1562500000000000       0.50000000000000000        0.0000000000000000     
   1.1875000000000000       0.50000000000000000        0.0000000000000000     
   1.2187500000000000       0.50000000000000000        0.0000000000000000     
   1.2500000000000000       0.50000000000000000        0.0000000000000000     
   1.1250000000000000       0.53125000000000000        0.0000000000000000     
   1.1562500000000000       0.53125000000000000        0.0000000000000000     
   1.1875000000000000       0.53125000000000000        0.0000000000000000     
   1.2187500000000000       0.53125000000000000        0.0000000000000000     
   1.2500000000000000       0.53125000000000000        0.0000000000000000     
   1.1250000000000000       0.56250000000000000        0.0000000000000000     
   1.1562500000000000       0.56250000000000000        0.0000000000000000     
   1.1875000000000000       0.56250000000000000        0.0000000000000000     
   1.2187500000000000       0.56250000000000000        0.0000000000000000     
   1.2500000000000000       0.56250000000000000        0.0000000000000000     
   1.1250000000000000       0.59375000000000000        0.0000000000000000     
   1.1562500000000000       0.59375000000000000        0.0000000000000000     
   1.1875000000000000       0.59375000000000000        0.0000000000000000     
   1.2187500000000000       0.59375000000000000        0.0000000000000000     
   1.2500000000000000       0.59375000000000000        0.0000000000000000     
   1.1250000000000000       0.62500000000000000        0.0000000000000000     
   1.1562500000000000       0.62500000000000000        0.0000000000000000     
   1.1875000000000000       0.62500000000000000        0.0000000000000000     
   1.2187500000000000       0.62500000000000000        0.0000000000000000     
   1.2500000000000000       0.62500000000000000        0.0000000000000000     
   1.2500000000000000       0.50000000000000000        0.0000000000000000     
   1.2812500000000000       0.50000000000000000        0.0000000000000000     
   1.3125000000000000       0.50000000000000000        0.0000000000000000     
   1.3437500000000000       0.50000000000000000        0.0000000000000000     
   1.3750000000000000       0.50000000000000000        0.0000000000000000     
   1.2500000000000000       0.53125000000000000        0.0000000000000000     
   1.2812500000000000       0.53125000000000000        0.0000000000000000     
   1.3125000000000000       0.53125000000000000        0.0000000000000000     
   1.3437500000000000       0.53125000000000000        0.0000000000000000     
   1.3750000000000000       0.53125000000000000        0.0000000000000000     
   1.2500000000000000       0.56250000000000000        0.0000000000000000     
   1.2812500000000000       0.56250000000000000        0.0000000000000000     
   1.3125000000000000       0.56250000000000000        0.0000000000000000     
   1.3437500000000000       0.56250000000000000        0.0000000000000000     
   1.3750000000000000       0.56250000000000000        0.0000000000000000     
   1.2500000000000000       0.59375000000000000        0.0000000000000000     
   1.2812500000000000       0.59375000000000000        0.0000000000000000     
   1.3125000000000000       0.59375000000000000        0.0000000000000000     
   1.3437500000000000       0.59375000000000000        0.0000000000000000     
   1.3750000000000000       0.59375000000000000        0.0000000000000000     
   1.2500000000000000       0.62500000000000000        0.0000000000000000     
   1.2812500000000000       0.62500000000000000        0.0000000000000000     
   1.3125000000000000       0.62500000000000000        0.0000000000000000     
   1.3437500000000000       0.62500000000000000        0.0000000000000000     
   1.3750000000000000       0.62500000000000000        0.0000000000000000     
   1.3750000000000000       0.50000000000000000        0.0000000000000000     
   1.4062500000000000       0.50000000000000000        0.0000000000000000     
   1.4375000000000000       0.50000000000000000        0.0000000000000000     
   1.4687500000000000       0.50000000000000000        0.0000000000000000     
   1.5000000000000000       0.50000000000000000        0.0000000000000000     
   1.3750000000000000       0.53125000000000000        0.0000000000000000     
   1.4062500000000000       0.53125000000000000        0.0000000000000000     
   1.4375000000000000       0.53125000000000000        0.0000000000000000     
   1.4687500000000000       0.53125000000000000        0.0000000000000000     
   1.5000000000000000       0.53125000000000000        0.0000000000000000     
   1.3750000000000000       0.56250000000000000        0.0000000000000000     
   1.4062500000000000       0.56250000000000000        0.0000000000000000     
   1.4375000000000000       0.56250000000000000        0.0000000000000000     
   1.4687500000000000       0.56250000000000000        0.0000000000000000     
   1.5000000000000000       0.56250000000000000        0.0000000000000000     
   1.3750000000000000       0.59375000000000000        0.0000000000000000     
   1.4062500000000000       0.59375000000000000        0.0000000000000000     
   1.4375000000000000       0.59375000000000000        0.0000000000000000     
   1.4687500000000000       0.59375000000000000        0.0000000000000000     
   1.5000000000000000       0.59375000000000000        0.0000000000000000     
   1.3750000000000000       0.62500000000000000        0.0000000000000000     
   1.4062500000000000       0.62500000000000000        0.0000000000000000     
   1.4375000000000000       0.62500000000000000        0.0000000000000000     
   1.4687500000000000       0.62500000000000000        0.0000000000000000     
   1.5000000000000000       0.62500000000000000        0.0000000000000000     
  0.50000000000000000       0.62500000000000000        0.0000000000000000     
  0.53125000000000000       0.62500000000000000        0.0000000000000000     
  0.56250000000000000       0.62500000000000000        0.0000000000000000     
  0.59375000000000000       0.62500000000000000        0.0000000000000000     
  0.62500000000000000       0.62500000000000000        0.0000000000000000     
  0.50000000000000000       0.65625000000000000        0.0000000000000000     
  0.53125000000000000       0.65625000000000000        0.0000000000000000     
  0.56250000000000000       0.65625000000000000        0.0000000000000000     
  0.59375000000000000       0.65625000000000000        0.0000000000000000     
  0.62500000000000000       0.65625000000000000        0.0000000000000000     
  0.50000000000000000       0.68750000000000000        0.0000000000000000     
  0.53125000000000000       0.68750000000000000        0.0000000000000000     
  0.56250000000000000       0.68750000000000000        0.0000000000000000     
  0.59375000000000000       0.68750000000000000        0.0000000000000000     
  0.62500000000000000       0.68750000000000000        0.0000000000000000     
  0.50000000000000000       0.71875000000000000        0.0000000000000000     
  0.53125000000000000       0.71875000000000000        0.0000000000000000     
  0.56250000000000000       0.71875000000000000        0.0000000000000000     
  0.59375000000000000       0.71875000000000000        0.0000000000000000     
  0.62500000000000000       0.71875000000000000        0.0000000000000000     
  0.50000000000000000       0.75000000000000000        0.0000000000000000     
  0.53125000000000000       0.75000000000000000        0.0000000000000000     
  0.56250000000000000       0.75000000000000000        0.0000000000000000     
  0.59375000000000000       0.75000000000000000        0.0000000000000000     
  0.62500000000000000       0.75000000000000000        0.0000000000000000     
  0.62500000000000000       0.62500000000000000        0.0000000000000000     
  0.65625000000000000       0.62500000000000000        0.0000000000000000     
  0.68750000000000000       0.62500000000000000        0.0000000000000000     
  0.71875000000000000       0.62500000000000000        0.0000000000000000     
  0.75000000000000000       0.62500000000000000        0.0000000000000000     
  0.62500000000000000       0.65625000000000000        0.0000000000000000     
  0.65625000000000000       0.65625000000000000        0.0000000000000000     
  0.68750000000000000       0.65625000000000000        0.0000000000000000     
  0.71875000000000000       0.65625000000000000        0.0000000000000000     
  0.75000000000000000       0.65625000000000000        0.0000000000000000     
  0.62500000000000000       0.68750000000000000        0.0000000000000000     
  0.65625000000000000       0.68750000000000000        0.0000000000000000     
  0.68750000000000000       0.68750000000000000        0.0000000000000000     
  0.71875000000000000       0.68750000000000000        0.0000000000000000     
  0.75000000000000000       0.68750000000000000        0.0000000000000000     
  0.62500000000000000       0.71875000000000000        0.0000000000000000     
  0.65625000000000000       0.71875000000000000        0.0000000000000000     
  0.68750000000000000       0.71875000000000000        0.0000000000000000     
  0.71875000000000000       0.71875000000000000        0.0000000000000000     
  0.75000000000000000       0.71875000000000000        0.0000000000000000     
  0.62500000000000000       0.75000000000000000        0.0000000000000000     
  0.65625000000000000       0.75000000000000000        0.0000000000000000     
  0.68750000000000000       0.75000000000000000        0.0000000000000000     
  0.71875000000000000       0.75000000000000000        0.0000000000000000     
  0.75000000000000000       0.75000000000000000        0.0000000000000000     
  0.75000000000000000       0.62500000000000000        0.0000000000000000     
  0.78125000000000000       0.62500000000000000        0.0000000000000000     
  0.81250000000000000       0.62500000000000000        0.0000000000000000     
  0.84375000000000000       0.62500000000000000        0.0000000000000000     
  0.87500000000000000       0.62500000000000000        0.0000000000000000     
  0.75000000000000000       0.65625000000000000        0.0000000000000000     
  0.78125000000000000       0.65625000000000000        0.0000000000000000     
  0.81250000000000000       0.65625000000000000        0.0000000000000000     
  0.84375000000000000       0.65625000000000000        0.0000000000000000     
  0.87500000000000000       0.65625000000000000        0.0000000000000000     
  0.75000000000000000       0.68750000000000000        0.0000000000000000     
  0.78125000000000000       0.68750000000000000        0.0000000000000000     
  0.81250000000000000       0.68750000000000000        0.0000000000000000     
  0.84375000000000000       0.68750000000000000        0.0000000000000000     
  0.87500000000000000       0.68750000000000000        0.0000000000000000     
  0.75000000000000000       0.71875000000000000        0.0000000000000000     
  0.78125000000000000       0.71875000000000000        0.0000000000000000     
  0.81250000000000000       0.71875000000000000        0.0000000000000000     
  0.84375000000000000       0.71875000000000000        0.0000000000000000     
  0.87500000000000000       0.71875000000000000        0.0000000000000000     
  0.75000000000000000       0.75000000000000000        0.0000000000000000     
  0.78125000000000000       0.75000000000000000        0.0000000000000000     
  0.81250000000000000       0.75000000000000000        0.0000000000000000     
  0.84375000000000000       0.75000000000000000        0.0000000000000000     
  0.87500000000000000       0.75000000000000000        0.0000000000000000     
  0.87500000000000000       0.62500000000000000        0.0000000000000000     
  0.90625000000000000       0.62500000000000000        0.0000000000000000     
  0.93750000000000000       0.62500000000000000        0.0000000000000000     
  0.96875000000000000       0.62500000000000000        0.0000000000000000     
   1.0000000000000000       0.62500000000000000        0.0000000000000000     
  0.87500000000000000       0.65625000000000000        0.0000000000000000     
  0.90625000000000000       0.65625000000000000        0.0000000000000000     
  0.93750000000000000       0.65625000000000000        0.0000000000000000     
  0.96875000000000000       0.65625000000000000        0.0000000000000000     
   1.0000000000000000       0.65625000000000000        0.0000000000000000     
  0.87500000000000000       0.68750000000000000        0.0000000000000000     
  0.90625000000000000       0.68750000000000000        0.0000000000000000     
  0.93750000000000000       0.68750000000000000        0.0000000000000000     
  0.96875000000000000       0.68750000000000000        0.0000000000000000     
   1.0000000000000000       0.68750000000000000        0.0000000000000000     
  0.87500000000000000       0.71875000000000000        0.0000000000000000     
  0.90625000000000000       0.71875000000000000        0.0000000000000000     
  0.93750000000000000       0.71875000000000000        0.0000000000000000     
  0.96875000000000000       0.71875000000000000        0.0000000000000000     
   1.0000000000000000       0.71875000000000000        0.0000000000000000     
  0.87500000000000000       0.75000000000000000        0.0000000000000000     
  0.90625000000000000       0.75000000000000000        0.0000000000000000     
  0.93750000000000000       0.75000000000000000        0.0000000000000000     
  0.96875000000000000       0.75000000000000000        0.0000000000000000     
   1.0000000000000000       0.75000000000000000        0.0000000000000000     
   1.0000000000000000       0.62500000000000000        0.0000000000000000     
   1.0312500000000000       0.62500000000000000        0.0000000000000000     
   1.0625000000000000       0.62500000000000000        0.0000000000000000     
   1.0937500000000000       0.62500000000000000        0.0000000000000000     
   1.1250000000000000       0.62500000000000000        0.0000000000000000     
   1.0000000000000000       0.65625000000000000        0.0000000000000000     
   1.0312500000000000       0.65625000000000000        0.0000000000000000     
   1.0625000000000000       0.65625000000000000        0.0000000000000000     
   1.0937500000000000       0.65625000000000000        0.0000000000000000     
   1.1250000000000000       0.65625000000000000        0.0000000000000000     
   1.0000000000000000       0.68750000000000000        0.0000000000000000     
   1.0312500000000000       0.68750000000000000        0.0000000000000000     
   1.0625000000000000       0.68750000000000000        0.0000000000000000     
   1.0937500000000000       0.68750000000000000        0.0000000000000000     
   1.1250000000000000       0.68750000000000000        0.0000000000000000     
   1.0000000000000000       0.71875000000000000        0.0000000000000000     
   1.0312500000000000       0.71875000000000000        0.0000000000000000     
   1.0625000000000000       0.71875000000000000        0.0000000000000000     
   1.0937500000000000       0.71875000000000000        0.0000000000000000     
   1.1250000000000000       0.71875000000000000        0.0000000000000000     
   1.0000000000000000       0.75000000000000000        0.0000000000000000     
   1.0312500000000000       0.75000000000000000        0.0000000000000000     
   1.0625000000000000       0.75000000000000000        0.0000000000000000     
   1.0937500000000000       0.75000000000000000        0.0000000000000000     
   1.1250000000000000       0.75000000000000000        0.0000000000000000     
   1.1250000000000000       0.62500000000000000        0.0000000000000000     
   1.1562500000000000       0.62500000000000000        0.0000000000000000     
   1.1875000000000000       0.62500000000000000        0.0000000000000000     
   1.2187500000000000       0.62500000000000000        0.0000000000000000     
   1.2500000000000000       0.62500000000000000        0.0000000000000000     
   1.1250000000000000       0.65625000000000000        0.0000000000000000     
   1.1562500000000000       0.65625000000000000        0.0000000000000000     
   1.1875000000000000       0.65625000000000000        0.0000000000000000     
   1.2187500000000000       0.65625000000000000        0.0000000000000000     
   1.2500000000000000       0.65625000000000000        0.0000000000000000     
   1.1250000000000000       0.68750000000000000        0.0000000000000000     
   1.1562500000000000       0.68750000000000000        0.0000000000000000     
   1.1875000000000000       0.68750000000000000        0.0000000000000000     
   1.2187500000000000       0.68750000000000000        0.0000000000000000     
   1.2500000000000000       0.68750000000000000        0.0000000000000000     
   1.1250000000000000       0.71875000000000000        0.0000000000000000     
   1.1562500000000000       0.71875000000000000        0.0000000000000000     
   1.1875000000000000       0.71875000000000000        0.0000000000000000     
   1.2187500000000000       0.71875000000000000        0.0000000000000000     
   1.2500000000000000       0.71875000000000000        0.0000000000000000     
   1.1250000000000000       0.75000000000000000        0.0000000000000000     
   1.1562500000000000       0.75000000000000000        0.0000000000000000     
   1.1875000000000000       0.75000000000000000        0.0000000000000000     
   1.2187500000000000       0.75000000000000000        0.0000000000000000     
   1.2500000000000000       0.75000000000000000        0.0000000000000000     
   1.2500000000000000       0.62500000000000000        0.0000000000000000     
   1.2812500000000000       0.62500000000000000        0.0000000000000000     
   1.3125000000000000       0.62500000000000000        0.0000000000000000     
   1.3437500000000000       0.62500000000000000        0.0000000000000000     
   1.3750000000000000       0.62500000000000000        0.0000000000000000     
   1.2500000000000000       0.65625000000000000        0.0000000000000000     
   1.2812500000000000       0.65625000000000000        0.0000000000000000     
   1.3125000000000000       0.65625000000000000        0.0000000000000000     
   1.3437500000000000       0.65625000000000000        0.0000000000000000     
   1.3750000000000000       0.65625000000000000        0.0000000000000000     
   1.2500000000000000       0.68750000000000000        0.0000000000000000     
   1.2812500000000000       0.68750000000000000        0.0000000000000000     
   1.3125000000000000       0.68750000000000000        0.0000000000000000     
   1.3437500000000000       0.68750000000000000        0.0000000000000000     
   1.3750000000000000       0.68750000000000000        0.0000000000000000     
   1.2500000000000000       0.71875000000000000        0.0000000000000000     
   1.2812500000000000       0.71875000000000000        0.0000000000000000     
   1.3125000000000000       0.71875000000000000        0.0000000000000000     
   1.3437500000000000       0.71875000000000000        0.0000000000000000     
   1.3750000000000000       0.71875000000000000        0.0000000000000000     
   1.2500000000000000       0.75000000000000000        0.0000000000000000     
   1.2812500000000000       0.75000000000000000        0.0000000000000000     
   1.3125000000000000       0.75000000000000000        0.0000000000000000     
   1.3437500000000000       0.75000000000000000        0.0000000000000000     
   1.3750000000000000       0.75000000000000000        0.0000000000000000     
   1.3750000000000000       0.62500000000000000        0.0000000000000000     
   1.4062500000000000       0.62500000000000000        0.0000000000000000     
   1.4375000000000000       0.62500000000000000        0.0000000000000000     
   1.4687500000000000       0.62500000000000000        0.0000000000000000     
   1.5000000000000000       0.62500000000000000        0.0000000000000000     
   1.3750000000000000       0.65625000000000000        0.0000000000000000     
   1.4062500000000000       0.65625000000000000        0.0000000000000000     
   1.4375000000000000       0.65625000000000000        0.0000000000000000     
   1.4687500000000000       0.65625000000000000        0.0000000000000000     
   1.5000000000000000       0.65625000000000000        0.0000000000000000     
   1.3750000000000000       0.68750000000000000        0.0000000000000000     
   1.4062500000000000       0.68750000000000000        0.0000000000000000     
   1.4375000000000000       0.68750000000000000        0.0000000000000000     
   1.4687500000000000       0.68750000000000000        0.0000000000000000     
   1.5000000000000000       0.68750000000000000        0.0000000000000000     
   1.3750000000000000       0.71875000000000000        0.0000000000000000     
   1.4062500000000000       0.71875000000000000        0.0000000000000000     
   1.4375000000000000       0.71875000000000000        0.0000000000000000     
   1.4687500000000000       0.71875000000000000        0.0000000000000000     
   1.5000000000000000       0.71875000000000000        0.0000000000000000     
   1.3750000000000000       0.75000000000000000        0.0000000000000000     
   1.4062500000000000       0.75000000000000000        0.0000000000000000     
   1.4375000000000000       0.75000000000000000        0.0000000000000000     
   1.4687500000000000       0.75000000000000000        0.0000000000000000     
   1.5000000000000000       0.75000000000000000        0.0000000000000000     
  0.50000000000000000       0.75000000000000000        0.0000000000000000     
  0.53125000000000000       0.75000000000000000        0.0000000000000000     
  0.56250000000000000       0.75000000000000000        0.0000000000000000     
  0.59375000000000000       0.75000000000000000        0.0000000000000000     
  0.62500000000000000       0.75000000000000000        0.0000000000000000     
  0.50000000000000000       0.78125000000000000        0.0000000000000000     
  0.53125000000000000       0.78125000000000000        0.0000000000000000     
  0.56250000000000000       0.78125000000000000        0.0000000000000000     
  0.59375000000000000       0.78125000000000000        0.0000000000000000     
  0.62500000000000000       0.78125000000000000        0.0000000000000000     
  0.50000000000000000       0.81250000000000000        0.0000000000000000     
  0.53125000000000000       0.81250000000000000        0.0000000000000000     
  0.56250000000000000       0.81250000000000000        0.0000000000000000     
  0.59375000000000000       0.81250000000000000        0.0000000000000000     
  0.62500000000000000       0.81250000000000000        0.0000000000000000     
  0.50000000000000000       0.84375000000000000        0.0000000000000000     
  0.53125000000000000       0.84375000000000000        0.0000000000000000     
  0.56250000000000000       0.84375000000000000        0.0000000000000000     
  0.59375000000000000       0.84375000000000000        0.0000000000000000     
  0.62500000000000000       0.84375000000000000        0.0000000000000000     
  0.50000000000000000       0.87500000000000000        0.0000000000000000     
  0.53125000000000000       0.87500000000000000        0.0000000000000000     
  0.56250000000000000       0.87500000000000000        0.0000000000000000     
  0.59375000000000000       0.87500000000000000        0.0000000000000000     
  0.62500000000000000       0.87500000000000000        0.0000000000000000     
  0.62500000000000000       0.75000000000000000        0.0000000000000000     
  0.65625000000000000       0.75000000000000000        0.0000000000000000     
  0.68750000000000000       0.75000000000000000        0.0000000000000000     
  0.71875000000000000       0.75000000000000000        0.0000000000000000     
  0.75000000000000000       0.75000000000000000        0.0000000000000000     
  0.62500000000000000       0.78125000000000000        0.0000000000000000     
  0.65625000000000000       0.78125000000000000        0.0000000000000000     
  0.68750000000000000       0.78125000000000000        0.0000000000000000     
  0.71875000000000000       0.78125000000000000        0.0000000000000000     
  0.75000000000000000       0.78125000000000000        0.0000000000000000     
  0.62500000000000000       0.81250000000000000        0.0000000000000000     
  0.65625000000000000       0.81250000000000000        0.0000000000000000     
  0.68750000000000000       0.81250000000000000        0.0000000000000000     
  0.71875000000000000       0.81250000000000000        0.0000000000000000     
  0.75000000000000000       0.81250000000000000        0.0000000000000000     
  0.62500000000000000       0.84375000000000000        0.0000000000000000     
  0.65625000000000000       0.84375000000000000        0.0000000000000000     
  0.68750000000000000       0.84375000000000000        0.0000000000000000     
  0.71875000000000000       0.84375000000000000        0.0000000000000000     
  0.75000000000000000       0.84375000000000000        0.0000000000000000     
  0.62500000000000000       0.87500000000000000        0.0000000000000000     
  0.65625000000000000       0.87500000000000000        0.0000000000000000     
  0.68750000000000000       0.87500000000000000        0.0000000000000000     
  0.71875000000000000       0.87500000000000000        0.0000000000000000     
  0.75000000000000000       0.87500000000000000        0.0000000000000000     
  0.75000000000000000       0.75000000000000000        0.0000000000000000     
  0.78125000000000000       0.75000000000000000        0.0000000000000000     
  0.81250000000000000       0.75000000000000000        0.0000000000000000     
  0.84375000000000000       0.75000000000000000        0.0000000000000000     
  0.87500000000000000       0.75000000000000000        0.0000000000000000     
  0.75000000000000000       0.78125000000000000        0.0000000000000000     
  0.78125000000000000       0.78125000000000000        0.0000000000000000     
  0.81250000000000000       0.78125000000000000        0.0000000000000000     
  0.84375000000000000       0.78125000000000000        0.0000000000000000     
  0.87500000000000000       0.78125000000000000        0.0000000000000000     
  0.75000000000000000       0.81250000000000000        0.0000000000000000     
  0.78125000000000000       0.81250000000000000        0.0000000000000000     
  0.81250000000000000       0.81250000000000000        0.0000000000000000     
  0.84375000000000000       0.81250000000000000        0.0000000000000000     
  0.87500000000000000       0.81250000000000000        0.0000000000000000     
  0.75000000000000000       0.84375000000000000        0.0000000000000000     
  0.78125000000000000       0.84375000000000000        0.0000000000000000     
  0.81250000000000000       0.84375000000000000        0.0000000000000000     
  0.84375000000000000       0.84375000000000000        0.0000000000000000     
  0.87500000000000000       0.84375000000000000        0.0000000000000000     
  0.75000000000000000       0.87500000000000000        0.0000000000000000     
  0.78125000000000000       0.87500000000000000        0.0000000000000000     
  0.81250000000000000       0.87500000000000000        0.0000000000000000     
  0.84375000000000000       0.87500000000000000        0.0000000000000000     
  0.87500000000000000       0.87500000000000000        0.0000000000000000     
  0.87500000000000000       0.75000000000000000        0.0000000000000000     
  0.90625000000000000       0.75000000000000000        0.0000000000000000     
  0.93750000000000000       0.75000000000000000        0.0000000000000000     
  0.96875000000000000       0.75000000000000000        0.0000000000000000     
   1.0000000000000000       0.75000000000000000        0.0000000000000000     
  0.87500000000000000       0.78125000000000000        0.0000000000000000     
  0.90625000000000000       0.78125000000000000        0.0000000000000000     
  0.93750000000000000       0.78125000000000000        0.0000000000000000     
  0.96875000000000000       0.78125000000000000        0.0000000000000000     
   1.0000000000000000       0.78125000000000000        0.0000000000000000     
  0.87500000000000000       0.81250000000000000        0.0000000000000000     
  0.90625000000000000       0.81250000000000000        0.0000000000000000     
  0.93750000000000000       0.81250000000000000        0.0000000000000000     
  0.96875000000000000       0.81250000000000000        0.0000000000000000     
   1.0000000000000000       0.81250000000000000        0.0000000000000000     
  0.87500000000000000       0.84375000000000000        0.0000000000000000     
  0.90625000000000000       0.84375000000000000        0.0000000000000000     
  0.93750000000000000       0.84375000000000000        0.0000000000000000     
  0.96875000000000000       0.84375000000000000        0.0000000000000000     
   1.0000000000000000       0.84375000000000000        0.0000000000000000     
  0.87500000000000000       0.87500000000000000        0.0000000000000000     
  0.90625000000000000       0.87500000000000000        0.0000000000000000     
  0.93750000000000000       0.87500000000000000        0.0000000000000000     
  0.96875000000000000       0.87500000000000000        0.0000000000000000     
   1.0000000000000000       0.87500000000000000        0.0000000000000000     
   1.0000000000000000       0.75000000000000000        0.0000000000000000     
   1.0312500000000000       0.75000000000000000        0.0000000000000000     
   1.0625000000000000       0.75000000000000000        0.0000000000000000     
   1.0937500000000000       0.75000000000000000        0.0000000000000000     
   1.1250000000000000       0.75000000000000000        0.0000000000000000     
   1.0000000000000000       0.78125000000000000        0.0000000000000000     
   1.0312500000000000       0.78125000000000000        0.0000000000000000     
   1.0625000000000000       0.78125000000000000        0.0000000000000000     
   1.0937500000000000       0.78125000000000000        0.0000000000000000     
   1.1250000000000000       0.78125000000000000        0.0000000000000000     
   1.0000000000000000       0.81250000000000000        0.0000000000000000     
   1.0312500000000000       0.81250000000000000        0.0000000000000000     
   1.0625000000000000       0.81250000000000000        0.0000000000000000     
   1.0937500000000000       0.81250000000000000        0.0000000000000000     
   1.1250000000000000       0.81250000000000000        0.0000000000000000     
   1.0000000000000000       0.84375000000000000        0.0000000000000000     
   1.0312500000000000       0.84375000000000000        0.0000000000000000     
   1.0625000000000000       0.84375000000000000        0.0000000000000000     
   1.0937500000000000       0.84375000000000000        0.0000000000000000     
   1.1250000000000000       0.84375000000000000        0.0000000000000000     
   1.0000000000000000       0.87500000000000000        0.0000000000000000     
   1.0312500000000000       0.87500000000000000        0.0000000000000000     
   1.0625000000000000       0.87500000000000000        0.0000000000000000     
   1.0937500000000000       0.87500000000000000        0.0000000000000000     
   1.1250000000000000       0.87500000000000000        0.0000000000000000     
   1.1250000000000000       0.75000000000000000        0.0000000000000000     
   1.1562500000000000       0.75000000000000000        0.0000000000000000     
   1.1875000000000000       0.75000000000000000        0.0000000000000000     
   1.2187500000000000       0.75000000000000000        0.0000000000000000     
   1.2500000000000000       0.75000000000000000        0.0000000000000000     
   1.1250000000000000       0.78125000000000000        0.0000000000000000     
   1.1562500000000000       0.78125000000000000        0.0000000000000000     
   1.1875000000000000       0.78125000000000000        0.0000000000000000     
   1.2187500000000000       0.78125000000000000        0.0000000000000000     
   1.2500000000000000       0.78125000000000000        0.0000000000000000     
   1.1250000000000000       0.81250000000000000        0.0000000000000000     
   1.1562500000000000       0.81250000000000000        0.0000000000000000     
   1.1875000000000000       0.81250000000000000        0.0000000000000000     
   1.2187500000000000       0.81250000000000000        0.0000000000000000     
   1.2500000000000000       0.81250000000000000        0.0000000000000000     
   1.1250000000000000       0.84375000000000000        0.0000000000000000     
   1.1562500000000000       0.84375000000000000        0.0000000000000000     
   1.1875000000000000       0.84375000000000000        0.0000000000000000     
   1.2187500000000000       0.84375000000000000        0.0000000000000000     
   1.2500000000000000       0.84375000000000000        0.0000000000000000     
   1.1250000000000000       0.87500000000000000        0.0000000000000000     
   1.1562500000000000       0.87500000000000000        0.0000000000000000     
   1.1875000000000000       0.87500000000000000        0.0000000000000000     
   1.2187500000000000       0.87500000000000000        0.0000000000000000     
   1.2500000000000000       0.87500000000000000        0.0000000000000000     
   1.2500000000000000       0.75000000000000000        0.0000000000000000     
   1.2812500000000000       0.75000000000000000        0.0000000000000000     
   1.3125000000000000       0.75000000000000000        0.0000000000000000     
   1.3437500000000000       0.75000000000000000        0.0000000000000000     
   1.3750000000000000       0.75000000000000000        0.0000000000000000     
   1.2500000000000000       0.78125000000000000        0.0000000000000000     
   1.2812500000000000       0.78125000000000000        0.0000000000000000     
   1.3125000000000000       0.78125000000000000        0.0000000000000000     
   1.3437500000000000       0.78125000000000000        0.0000000000000000     
   1.3750000000000000       0.78125000000000000        0.0000000000000000     
   1.2500000000000000       0.81250000000000000        0.0000000000000000     
   1.2812500000000000       0.81250000000000000        0.0000000000000000     
   1.3125000000000000       0.81250000000000000        0.0000000000000000     
   1.3437500000000000       0.81250000000000000        0.0000000000000000     
   1.3750000000000000       0.81250000000000000        0.0000000000000000     
   1.2500000000000000       0.84375000000000000        0.0000000000000000     
   1.2812500000000000       0.84375000000000000        0.0000000000000000     
   1.3125000000000000       0.84375000000000000        0.0000000000000000     
   1.3437500000000000       0.84375000000000000        0.0000000000000000     
   1.3750000000000000       0.84375000000000000        0.0000000000000000     
   1.2500000000000000       0.87500000000000000        0.0000000000000000     
   1.2812500000000000       0.87500000000000000        0.0000000000000000     
   1.3125000000000000       0.87500000000000000        0.0000000000000000     
   1.3437500000000000       0.87500000000000000        0.0000000000000000     
   1.3750000000000000       0.87500000000000000        0.0000000000000000     
   1.3750000000000000       0.75000000000000000        0.0000000000000000     
   1.4062500000000000       0.75000000000000000        0.0000000000000000     
   1.4375000000000000       0.75000000000000000        0.0000000000000000     
   1.4687500000000000       0.75000000000000000        0.0000000000000000     
   1.5000000000000000       0.75000000000000000        0.0000000000000000     
   1.3750000000000000       0.78125000000000000        0.0000000000000000     
   1.4062500000000000       0.78125000000000000        0.0000000000000000     
   1.4375000000000000       0.78125000000000000        0.0000000000000000     
   1.4687500000000000       0.78125000000000000        0.0000000000000000     
   1.5000000000000000       0.78125000000000000        0.0000000000000000     
   1.3750000000000000       0.81250000000000000        0.0000000000000000     
   1.4062500000000000       0.81250000000000000        0.0000000000000000     
   1.4375000000000000       0.81250000000000000        0.0000000000000000     
   1.4687500000000000       0.81250000000000000        0.0000000000000000     
   1.5000000000000000       0.81250000000000000        0.0000000000000000     
   1.3750000000000000       0.84375000000000000        0.0000000000000000     
   1.4062500000000000       0.84375000000000000        0.0000000000000000     
   1.4375000000000000       0.84375000000000000        0.0000000000000000     
   1.4687500000000000       0.84375000000000000        0.0000000000000000     
   1.5000000000000000       0.84375000000000000        0.0000000000000000     
   1.3750000000000000       0.87500000000000000        0.0000000000000000     
   1.4062500000000000       0.87500000000000000        0.0000000000000000     
   1.4375000000000000       0.87500000000000000        0.0000000000000000     
   1.4687500000000000       0.87500000000000000        0.0000000000000000     
   1.5000000000000000       0.87500000000000000        0.0000000000000000     
  0.50000000000000000       0.87500000000000000        0.0000000000000000     
  0.53125000000000000       0.87500000000000000        0.0000000000000000     
  0.56250000000000000       0.87500000000000000        0.0000000000000000     
  0.59375000000000000       0.87500000000000000        0.0000000000000000     
  0.62500000000000000       0.87500000000000000        0.0000000000000000     
  0.50000000000000000       0.90625000000000000        0.0000000000000000     
  0.53125000000000000       0.90625000000000000        0.0000000000000000     
  0.56250000000000000       0.90625000000000000        0.0000000000000000     
  0.59375000000000000       0.90625000000000000        0.0000000000000000     
  0.62500000000000000       0.90625000000000000        0.0000000000000000     
  0.50000000000000000       0.93750000000000000        0.0000000000000000     
  0.53125000000000000       0.93750000000000000        0.0000000000000000     
  0.56250000000000000       0.93750000000000000        0.0000000000000000     
  0.59375000000000000       0.93750000000000000        0.0000000000000000     
  0.62500000000000000       0.93750000000000000        0.0000000000000000     
  0.50000000000000000       0.96875000000000000        0.0000000000000000     
  0.53125000000000000       0.96875000000000000        0.0000000000000000     
  0.56250000000000000       0.96875000000000000        0.0000000000000000     
  0.59375000000000000       0.96875000000000000        0.0000000000000000     
  0.62500000000000000       0.96875000000000000        0.0000000000000000     
  0.50000000000000000        1.0000000000000000        0.0000000000000000     
  0.53125000000000000        1.0000000000000000        0.0000000000000000     
  0.56250000000000000        1.0000000000000000        0.0000000000000000     
  0.59375000000000000        1.0000000000000000        0.0000000000000000     
  0.62500000000000000        1.0000000000000000        0.0000000000000000     
  0.62500000000000000       0.87500000000000000        0.0000000000000000     
  0.65625000000000000       0.87500000000000000        0.0000000000000000     
  0.68750000000000000       0.87500000000000000        0.0000000000000000     
  0.71875000000000000       0.87500000000000000        0.0000000000000000     
  0.75000000000000000       0.87500000000000000        0.0000000000000000     
  0.62500000000000000       0.90625000000000000        0.0000000000000000     
  0.65625000000000000       0.90625000000000000        0.0000000000000000     
  0.68750000000000000       0.90625000000000000        0.0000000000000000     
  0.71875000000000000       0.90625000000000000        0.0000000000000000     
  0.75000000000000000       0.90625000000000000        0.0000000000000000     
  0.62500000000000000       0.93750000000000000        0.0000000000000000     
  0.65625000000000000       0.93750000000000000        0.0000000000000000     
  0.68750000000000000       0.93750000000000000        0.0000000000000000     
  0.71875000000000000       0.93750000000000000        0.0000000000000000     
  0.75000000000000000       0.93750000000000000        0.0000000000000000     
  0.62500000000000000       0.96875000000000000        0.0000000000000000     
  0.65625000000000000       0.96875000000000000        0.0000000000000000     
  0.68750000000000000       0.96875000000000000        0.0000000000000000     
  0.71875000000000000       0.96875000000000000        0.0000000000000000     
  0.75000000000000000       0.96875000000000000        0.0000000000000000     
  0.62500000000000000        1.0000000000000000        0.0000000000000000     
  0.65625000000000000        1.0000000000000000        0.0000000000000000     
  0.68750000000000000        1.0000000000000000        0.0000000000000000     
  0.71875000000000000        1.0000000000000000        0.0000000000000000     
  0.75000000000000000        1.0000000000000000        0.0000000000000000     
  0.75000000000000000       0.87500000000000000        0.0000000000000000     
  0.78125000000000000       0.87500000000000000        0.0000000000000000     
  0.81250000000000000       0.87500000000000000        0.0000000000000000     
  0.84375000000000000       0.87500000000000000        0.0000000000000000     
  0.87500000000000000       0.87500000000000000        0.0000000000000000     
  0.75000000000000000       0.90625000000000000        0.0000000000000000     
  0.78125000000000000       0.90625000000000000        0.0000000000000000     
  0.81250000000000000       0.90625000000000000        0.0000000000000000     
  0.84375000000000000       0.90625000000000000        0.0000000000000000     
  0.87500000000000000       0.90625000000000000        0.0000000000000000     
  0.75000000000000000       0.93750000000000000        0.0000000000000000     
  0.78125000000000000       0.93750000000000000        0.0000000000000000     
  0.81250000000000000       0.93750000000000000        0.0000000000000000     
  0.84375000000000000       0.93750000000000000        0.0000000000000000     
  0.87500000000000000       0.93750000000000000        0.0000000000000000     
  0.75000000000000000       0.96875000000000000        0.0000000000000000     
  0.78125000000000000       0.96875000000000000        0.0000000000000000     
  0.81250000000000000       0.96875000000000000        0.0000000000000000     
  0.84375000000000000       0.96875000000000000        0.0000000000000000     
  0.87500000000000000       0.96875000000000000        0.0000000000000000     
  0.75000000000000000        1.0000000000000000        0.0000000000000000     
  0.78125000000000000        1.0000000000000000        0.0000000000000000     
  0.81250000000000000        1.0000000000000000        0.0000000000000000     
  0.84375000000000000        1.0000000000000000        0.0000000000000000     
  0.87500000000000000        1.0000000000000000        0.0000000000000000     
  0.87500000000000000       0.87500000000000000        0.0000000000000000     
  0.90625000000000000       0.87500000000000000        0.0000000000000000     
  0.93750000000000000       0.87500000000000000        0.0000000000000000     
  0.96875000000000000       0.87500000000000000        0.0000000000000000     
   1.0000000000000000       0.87500000000000000        0.0000000000000000     
  0.87500000000000000       0.90625000000000000        0.0000000000000000     
  0.90625000000000000       0.90625000000000000        0.0000000000000000     
  0.93750000000000000       0.90625000000000000        0.0000000000000000     
  0.96875000000000000       0.90625000000000000        0.0000000000000000     
   1.0000000000000000       0.90625000000000000        0.0000000000000000     
  0.87500000000000000       0.93750000000000000        0.0000000000000000     
  0.90625000000000000       0.93750000000000000        0.0000000000000000     
  0.93750000000000000       0.93750000000000000        0.0000000000000000     
  0.96875000000000000       0.93750000000000000        0.0000000000000000     
   1.0000000000000000       0.93750000000000000        0.0000000000000000     
  0.87500000000000000       0.96875000000000000        0.0000000000000000     
  0.90625000000000000       0.96875000000000000        0.0000000000000000     
  0.93750000000000000       0.96875000000000000        0.0000000000000000     
  0.96875000000000000       0.96875000000000000        0.0000000000000000     
   1.0000000000000000       0.96875000000000000        0.0000000000000000     
  0.87500000000000000        1.0000000000000000        0.0000000000000000     
  0.90625000000000000        1.0000000000000000        0.0000000000000000     
  0.93750000000000000        1.0000000000000000        0.0000000000000000     
  0.96875000000000000        1.0000000000000000        0.0000000000000000     
   1.0000000000000000        1.0000000000000000        0.0000000000000000     
   1.0000000000000000       0.87500000000000000        0.0000000000000000     
   1.0312500000000000       0.87500000000000000        0.0000000000000000     
   1.0625000000000000       0.87500000000000000        0.0000000000000000     
   1.0937500000000000       0.87500000000000000        0.0000000000000000     
   1.1250000000000000       0.87500000000000000        0.0000000000000000     
   1.0000000000000000       0.90625000000000000        0.0000000000000000     
   1.0312500000000000       0.90625000000000000        0.0000000000000000     
   1.0625000000000000       0.90625000000000000        0.0000000000000000     
   1.0937500000000000       0.90625000000000000        0.0000000000000000     
   1.1250000000000000       0.90625000000000000        0.0000000000000000     
   1.0000000000000000       0.93750000000000000        0.0000000000000000     
   1.0312500000000000       0.93750000000000000        0.0000000000000000     
   1.0625000000000000       0.93750000000000000        0.0000000000000000     
   1.0937500000000000       0.93750000000000000        0.0000000000000000     
   1.1250000000000000       0.93750000000000000        0.0000000000000000     
   1.0000000000000000       0.96875000000000000        0.0000000000000000     
   1.0312500000000000       0.96875000000000000        0.0000000000000000     
   1.0625000000000000       0.96875000000000000        0.0000000000000000     
   1.0937500000000000       0.96875000000000000        0.0000000000000000     
   1.1250000000000000       0.96875000000000000        0.0000000000000000     
   1.0000000000000000        1.0000000000000000        0.0000000000000000     
   1.0312500000000000        1.0000000000000000        0.0000000000000000     
   1.0625000000000000        1.0000000000000000        0.0000000000000000     
   1.0937500000000000        1.0000000000000000        0.0000000000000000     
   1.1250000000000000        1.0000000000000000        0.0000000000000000     
   1.1250000000000000       0.87500000000000000        0.0000000000000000     
   1.1562500000000000       0.87500000000000000        0.0000000000000000     
   1.1875000000000000       0.87500000000000000        0.0000000000000000     
   1.2187500000000000       0.87500000000000000        0.0000000000000000     
   1.2500000000000000       0.87500000000000000        0.0000000000000000     
   1.1250000000000000       0.90625000000000000        0.0000000000000000     
   1.1562500000000000       0.90625000000000000        0.0000000000000000     
   1.1875000000000000       0.90625000000000000        0.0000000000000000     
   1.2187500000000000       0.90625000000000000        0.0000000000000000     
   1.2500000000000000       0.90625000000000000        0.0000000000000000     
   1.1250000000000000       0.93750000000000000        0.0000000000000000     
   1.1562500000000000       0.93750000000000000        0.0000000000000000     
   1.1875000000000000       0.93750000000000000        0.0000000000000000     
   1.2187500000000000       0.93750000000000000        0.0000000000000000     
   1.2500000000000000       0.93750000000000000        0.0000000000000000     
   1.1250000000000000       0.96875000000000000        0.0000000000000000     
   1.1562500000000000       0.96875000000000000        0.0000000000000000     
   1.1875000000000000       0.96875000000000000        0.0000000000000000     
   1.2187500000000000       0.96875000000000000        0.0000000000000000     
   1.2500000000000000       0.96875000000000000        0.0000000000000000     
   1.1250000000000000        1.0000000000000000        0.0000000000000000     
   1.1562500000000000        1.0000000000000000        0.0000000000000000     
   1.1875000000000000        1.0000000000000000        0.0000000000000000     
   1.2187500000000000        1.0000000000000000        0.0000000000000000     
   1.2500000000000000        1.0000000000000000        0.0000000000000000     
   1.2500000000000000       0.87500000000000000        0.0000000000000000     
   1.2812500000000000       0.87500000000000000        0.0000000000000000     
   1.3125000000000000       0.87500000000000000        0.0000000000000000     
   1.3437500000000000       0.87500000000000000        0.0000000000000000     
   1.3750000000000000       0.87500000000000000        0.0000000000000000     
   1.2500000000000000       0.90625000000000000        0.0000000000000000     
   1.2812500000000000       0.90625000000000000        0.0000000000000000     
   1.3125000000000000       0.90625000000000000        0.0000000000000000     
   1.3437500000000000       0.90625000000000000        0.0000000000000000     
   1.3750000000000000       0.90625000000000000        0.0000000000000000     
   1.2500000000000000       0.93750000000000000        0.0000000000000000     
   1.2812500000000000       0.93750000000000000        0.0000000000000000     
   1.3125000000000000       0.93750000000000000        0.0000000000000000     
   1.3437500000000000       0.93750000000000000        0.0000000000000000     
   1.3750000000000000       0.93750000000000000        0.0000000000000000     
   1.2500000000000000       0.96875000000000000        0.0000000000000000     
   1.2812500000000000       0.96875000000000000        0.0000000000000000     
   1.3125000000000000       0.96875000000000000        0.0000000000000000     
   1.3437500000000000       0.96875000000000000        0.0000000000000000     
   1.3750000000000000       0.96875000000000000        0.0000000000000000     
   1.2500000000000000        1.0000000000000000        0.0000000000000000     
   1.2812500000000000        1.0000000000000000        0.0000000000000000     
   1.3125000000000000        1.0000000000000000        0.0000000000000000     
   1.3437500000000000        1.0000000000000000        0.0000000000000000     
   1.3750000000000000        1.0000000000000000        0.0000000000000000     
   1.3750000000000000       0.87500000000000000        0.0000000000000000     
   1.4062500000000000       0.87500000000000000        0.0000000000000000     
   1.4375000000000000       0.87500000000000000        0.0000000000000000     
   1.4687500000000000       0.87500000000000000        0.0000000000000000     
   1.5000000000000000       0.87500000000000000        0.0000000000000000     
   1.3750000000000000       0.90625000000000000        0.0000000000000000     
   1.4062500000000000       0.90625000000000000        0.0000000000000000     
   1.4375000000000000       0.90625000000000000        0.0000000000000000     
   1.4687500000000000       0.90625000000000000        0.0000000000000000     
   1.5000000000000000       0.90625000000000000        0.0000000000000000     
   1.3750000000000000       0.93750000000000000        0.0000000000000000     
   1.4062500000000000       0.93750000000000000        0.0000000000000000     
   1.4375000000000000       0.93750000000000000        0.0000000000000000     
   1.4687500000000000       0.93750000000000000        0.0000000000000000     
   1.5000000000000000       0.93750000000000000        0.0000000000000000     
   1.3750000000000000       0.96875000000000000        0.0000000000000000     
   1.4062500000000000       0.96875000000000000        0.0000000000000000     
   1.4375000000000000       0.96875000000000000        0.0000000000000000     
   1.4687500000000000       0.96875000000000000        0.0000000000000000     
   1.5000000000000000       0.96875000000000000        0.0000000000000000     
   1.3750000000000000        1.0000000000000000        0.0000000000000000     
   1.4062500000000000        1.0000000000000000        0.0000000000000000     
   1.4375000000000000        1.0000000000000000        0.0000000000000000     
   1.4687500000000000        1.0000000000000000        0.0000000000000000     
   1.5000000000000000        1.0000000000000000        0.0000000000000000     
 </DataArray>
 </Points>
 <Cells>
 <DataArray  type="Int32"  Name="connectivity"  format="ascii">
           0           1           6           5
           1           2           7           6
           2           3           8           7
           3           4           9           8
           5           6          11          10
           6           7          12          11
           7           8          13          12
           8           9          14          13
          10          11          16          15
          11          12          17          16
          12          13          18          17
          13          14          19          18
          15          16          21          20
          16          17          22          21
          17          18          23          22
          18          19          24          23
          25          26          31          30
          26          27          32          31
          27          28          33          32
          28          29          34          33
          30          31          36          35
          31          32          37          36
          32          33          38          37
          33          34          39          38
          35          36          41          40
          36          37          42          41
          37          38          43          42
          38          39          44          43
          40          41          46          45
          41          42          47          46
          42          43          48          47
          43          44          49          48
          50          51          56          55
          51          52          57          56
          52          53          58          57
          53          54          59          58
          55          56          61          60
          56          57          62          61
          57          58          63          62
          58          59          64          63
          60          61          66          65
          61          62          67          66
          62          63          68          67
          63          64          69          68
          65          66          71          70
          66          67          72          71
          67          68          73          72
          68          69          74          73
          75          76          81          80
          76          77          82          81
          77          78          83          82
          78          79          84          83
          80          81          86          85
          81          82          87          86
          82          83          88          87
          83          84          89          88
          85          86          91          90
          86          87          92          91
          87          88          93          92
          88          89          94          93
          90          91          96          95
          91          92          97          96
          92          93          98          97
          93          94          99          98
         100         101         106         105
         101         102         107         106
         102         103         108         107
         103         104         109         108
         105         106         111         110
         106         107         112         111
         107         108         113         112
         108         109         114         113
         110         111         116         115
         111         112         117         116
         112         113         118         117
         113         114         119         118
         115         116         121         120
         116         117         122         121
         117         118         123         122
         118         119         124         123
         125         126         131         130
         126         127         132         131
         127         128         133         132
         128         129         134         133
         130         131         136         135
         131         132         137         136
         132         133         138         137
         133         134         139         138
         135         136         141         140
         136         137         142         141
         137         138         143         142
         138         139         144         143
         140         141         146         145
         141         142         147         146
         142         143         148         147
         143         144         149         148
         150         151         156         155
         151         152         157         156
         152         153         158         157
         153         154         159         158
         155         156         161         160
         156         157         162         161
         157         158         163         162
         158         159         164         163
         160         161         166         165
         161         162         167         166
         162         163         168         167
         163         164         169         168
         165         166         171         170
         166         167         172         171
         167         168         173         172
         168         169         174         173
         175         176         181         180
         176         177         182         181
         177         178         183         182
         178         179         184         183
         180         181         186         185
         181         182         187         186
         182         183         188         187
         183         184         189         188
         185         186         191         190
         186         187         192         191
         187         188         193         192
         188         189         194         193
         190         191         196         195
         191         192         197         196
         192         193         198         197
         193         194         199         198
         200         201         206         205
         201         202         207         206
         202         203         208         207
         203         204         209         208
         205         206         211         210
         206         207         212         211
         207         208         213         212
         208         209         214         213
         210         211         216         215
         211         212         217         216
         212         213         218         217
         213         214         219         218
         215         216         221         220
         216         217         222         221
         217         218         223         222
         218         219         224         223
         225         226         231         230
         226         227         232         231
         227         228         233         232
         228         229         234         233
         230         231         236         235
         231         232         237         236
         232         233         238         237
         233         234         239         238
         235         236         241         240
         236         237         242         241
         237         238         243         242
         238         239         244         243
         240         241         246         245
         241         242         247         246
         242         243         248         247
         243         244         249         248
         250         251         256         255
         251         252         257         256
         252         253         258         257
         253         254         259         258
         255         256         261         260
         256         257         262         261
         257         258         263         262
         258         259         264         263
         260         261         266         265
         261         262         267         266
         262         263         268         267
         263         264         269         268
         265         266         271         270
         266         267         272         271
         267         268         273         272
         268         269         274         273
         275         276         281         280
         276         277         282         281
         277         278         283         282
         278         279         284         283
         280         281         286         285
         281         282         287         286
         282         283         288         287
         283         284         289         288
         285         286         291         290
         286         287         292         291
         287         288         293         292
         288         289         294         293
         290         291         296         295
         291         292         297         296
         292         293         298         297
         293         294         299         298
         300         301         306         305
         301         302         307         306
         302         303         308         307
         303         304         309         308
         305         306         311         310
         306         307         312         311
         307         308         313         312
         308         309         314         313
         310         311         316         315
         311         312         317         316
         312         313         318         317
         313         314         319         318
         315         316         321         320
         316         317         322         321
         317         318         323         322
         318         319         324         323
         325         326         331         330
         326         327         332         331
         327         328         333         332
         328         329         334         333
         330         331         336         335
         331         332         337         336
         332         333         338         337
         333         334         339         338
         335         336         341         340
         336         337         342         341
         337         338         343         342
         338         339         344         343
         340         341         346         345
         341         342         347         346
         342         343         348         347
         343         344         349         348
         350         351         356         355
         351         352         357         356
         352         353         358         357
         353         354         359         358
         355         356         361         360
         356         357         362         361
         357         358         363         362
         358         359         364         363
         360         361         366         365
         361         362         367         366
         362         363         368         367
         363         364         369         368
         365         366         371         370
         366         367         372         371
         367         368         373         372
         368         369         374         373
         375         376         381         380
         376         377         382         381
         377         378         383         382
         378         379         384         383
         380         381         386         385
         381         382         387         386
         382         383         388         387
         383         384         389         388
         385         386         391         390
         386         387         392         391
         387         388         393         392
         388         389         394         393
         390         391         396         395
         391         392         397         396
         392         393         398         397
         393         394         399         398
         400         401         406         405
         401         402         407         406
         402         403         408         407
         403         404         409         408
         405         406         411         410
         406         407         412         411
         407         408         413         412
         408         409         414         413
         410         411         416         415
         411         412         417         416
         412         413         418         417
         413         414         419         418
         415         416         421         420
         416         417         422         421
         417         418         423         422
         418         419         424         423
         425         426         431         430
         426         427         432         431
         427         428         433         432
         428         429         434         433
         430         431         436         435
         431         432         437         436
         432         433         438         437
         433         434         439         438
         435         436         441         440
         436         437         442         441
         437         438         443         442
         438         439         444         443
         440         441         446         445
         441         442         447         446
         442         443         448         447
         443         444         449         448
         450         451         456         455
         451         452         457         456
         452         453         458         457
         453         454         459         458
         455         456         461         460
         456         457         462         461
         457         458         463         462
         458         459         464         463
         460         461         466         465
         461         462         467         466
         462         463         468         467
         463         464         469         468
         465         466         471         470
         466         467         472         471
         467         468         473         472
         468         469         474         473
         475         476         481         480
         476         477         482         481
         477         478         483         482
         478         479         484         483
         480         481         486         485
         481         482         487         486
         482         483         488         487
         483         484         489         488
         485         486         491         490
         486         487         492         491
         487         488         493         492
         488         489         494         493
         490         491         496         495
         491         492         497         496
         492         493         498         497
         493         494         499         498
         500         501         506         505
         501         502         507         506
         502         503         508         507
         503         504         509         508
         505         506         511         510
         506         507         512         511
         507         508         513         512
         508         509         514         513
         510         511         516         515
         511         512         517         516
         512         513         518         517
         513         514         519         518
         515         516         521         520
         516         517         522         521
         517         518         523         522
         518         519         524         523
         525         526         531         530
         526         527         532         531
         527         528         533         532
         528         529         534         533
         530         531         536         535
         531         532         537         536
         532         533         538         537
         533         534         539         538
         535         536         541         540
         536         537         542         541
         537         538         543         542
         538         539         544         543
         540         541         546         545
         541         542         547         546
         542         543         548         547
         543         544         549         548
         550         551         556         555
         551         552         557         556
         552         553         558         557
         553         554         559         558
         555         556         561         560
         556         557         562         561
         557         558         563         562
         558         559         564         563
         560         561         566         565
         561         562         567         566
         562         563         568         567
         563         564         569         568
         565         566         571         570
         566         567         572         571
         567         568         573         572
         568         569         574         573
         575         576         581         580
         576         577         582         581
         577         578         583         582
         578         579         584         583
         580         581         586         585
         581         582         587         586
         582         583         588         587
         583         584         589         588
         585         586         591         590
         586         587         592         591
         587         588         593         592
         588         589         594         593
         590         591         596         595
         591         592         597         596
         592         593         598         597
         593         594         599         598
         600         601         606         605
         601         602         607         606
         602         603         608         607
         603         604         609         608
         605         606         611         610
         606         607         612         611
         607         608         613         612
         608         609         614         613
         610         611         616         615
         611         612         617         616
         612         613         618         617
         613         614         619         618
         615         616         621         620
         616         617         622         621
         617         618         623         622
         618         619         624         623
         625         626         631         630
         626         627         632         631
         627         628         633         632
         628         629         634         633
         630         631         636         635
         631         632         637         636
         632         633         638         637
         633         634         639         638
         635         636         641         640
         636         637         642         641
         637         638         643         642
         638         639         644         643
         640         641         646         645
         641         642         647         646
         642         643         648         647
         643         644         649         648
         650         651         656         655
         651         652         657         656
         652         653         658         657
         653         654         659         658
         655         656         661         660
         656         657         662         661
         657         658         663         662
         658         659         664         663
         660         661         666         665
         661         662         667         666
         662         663         668         667
         663         664         669         668
         665         666         671         670
         666         667         672         671
         667         668         673         672
         668         669         674         673
         675         676         681         680
         676         677         682         681
         677         678         683         682
         678         679         684         683
         680         681         686         685
         681         682         687         686
         682         683         688         687
         683         684         689         688
         685         686         691         690
         686         687         692         691
         687         688         693         692
         688         689         694         693
         690         691         696         695
         691         692         697         696
         692         693         698         697
         693         694         699         698
         700         701         706         705
         701         702         707         706
         702         703         708         707
         703         704         709         708
         705         706         711         710
         706         707         712         711
         707         708         713         712
         708         709         714         713
         710         711         716         715
         711         712         717         716
         712         713         718         717
         713         714         719         718
         715         716         721         720
         716         717         722         721
         717         718         723         722
         718         719         724         723
         725         726         731         730
         726         727         732         731
         727         728         733         732
         728         729         734         733
         730         731         736         735
         731         732         737         736
         732         733         738         737
         733         734         739         738
         735         736         741         740
         736         737         742         741
         737         738         743         742
         738         739         744         743
         740         741         746         745
         741         742         747         746
         742         743         748         747
         743         744         749         748
         750         751         756         755
         751         752         757         756
         752         753         758         757
         753         754         759         758
         755         756         761         760
         756         757         762         761
         757         758         763         762
         758         759         764         763
         760         761         766         765
         761         762         767         766
         762         763         768         767
         763         764         769         768
         765         766         771         770
         766         767         772         771
         767         768         773         772
         768         769         774         773
         775         776         781         780
         776         777         782         781
         777         778         783         782
         778         779         784         783
         780         781         786         785
         781         782         787         786
         782         783         788         787
         783         784         789         788
         785         786         791         790
         786         787         792         791
         787         788         793         792
         788         789         794         793
         790         791         796         795
         791         792         797         796
         792         793         798         797
         793         794         799         798
         800         801         806         805
         801         802         807         806
         802         803         808         807
         803         804         809         808
         805         806         811         810
         806         807         812         811
         807         808         813         812
         808         809         814         813
         810         811         816         815
         811         812         817         816
         812         813         818         817
         813         814         819         818
         815         816         821         820
         816         817         822         821
         817         818         823         822
         818         819         824         823
         825         826         831         830
         826         827         832         831
         827         828         833         832
         828         829         834         833
         830         831         836         835
         831         832         837         836
         832         833         838         837
         833         834         839         838
         835         836         841         840
         836         837         842         841
         837         838         843         842
         838         839         844         843
         840         841         846         845
         841         842         847         846
         842         843         848         847
         843         844         849         848
         850         851         856         855
         851         852         857         856
         852         853         858         857
         853         854         859         858
         855         856         861         860
         856         857         862         861
         857         858         863         862
         858         859         864         863
         860         861         866         865
         861         862         867         866
         862         863         868         867
         863         864         869         868
         865         866         871         870
         866         867         872         871
         867         868         873         872
         868         869         874         873
         875         876         881         880
         876         877         882         881
         877         878         883         882
         878         879         884         883
         880         881         886         885
         881         882         887         886
         882         883         888         887
         883         884         889         888
         885         886         891         890
         886         887         892         891
         887         888         893         892
         888         889         894         893
         890         891         896         895
         891         892         897         896
         892         893         898         897
         893         894         899         898
         900         901         906         905
         901         902         907         906
         902         903         908         907
         903         904         909         908
         905         906         911         910
         906         907         912         911
         907         908         913         912
         908         909         914         913
         910         911         916         915
         911         912         917         916
         912         913         918         917
         913         914         919         918
         915         916         921         920
         916         917         922         921
         917         918         923         922
         918         919         924         923
         925         926         931         930
         926         927         932         931
         927         928         933         932
         928         929         934         933
         930         931         936         935
         931         932         937         936
         932         933         938         937
         933         934         939         938
         935         936         941         940
         936         937         942         941
         937         938         943         942
         938         939         944         943
         940         941         946         945
         941         942         947         946
         942         943         948         947
         943         944         949         948
         950         951         956         955
         951         952         957         956
         952         953         958         957
         953         954         959         958
         955         956         961         960
         956         957         962         961
         957         958         963         962
         958         959         964         963
         960         961         966         965
         961         962         967         966
         962         963         968         967
         963         964         969         968
         965         966         971         970
         966         967         972         971
         967         968         973         972
         968         969         974         973
         975         976         981         980
         976         977         982         981
         977         978         983         982
         978         979         984         983
         980         981         986         985
         981         982         987         986
         982         983         988         987
         983         984         989         988
         985         986         991         990
         986         987         992         991
         987         988         993         992
         988         989         994         993
         990         991         996         995
         991         992         997         996
         992         993         998         997
         993         994         999         998
        1000        1001        1006        1005
        1001        1002        1007        1006
        1002        1003        1008        1007
        1003        1004        1009        1008
        1005        1006        1011        1010
        1006        1007        1012        1011
        1007        1008        1013        1012
        1008        1009        1014        1013
        1010        1011        1016        1015
        1011        1012        1017        1016
        1012        1013        1018        1017
        1013        1014        1019        1018
        1015        1016        1021        1020
        1016        1017        1022        1021
        1017        1018        1023        1022
        1018        1019        1024        1023
        1025        1026        1031        1030
        1026        1027        1032        1031
        1027        1028        1033        1032
        1028        1029        1034        1033
        1030        1031        1036        1035
        1031        1032        1037        1036
        1032        1033        1038        1037
        1033        1034        1039        1038
        1035        1036        1041        1040
        1036        1037        1042        1041
        1037        1038        1043        1042
        1038        1039        1044        1043
        1040        1041        1046        1045
        1041        1042        1047        1046
        1042        1043        1048        1047
        1043        1044        1049        1048
        1050        1051        1056        1055
        1051        1052        1057        1056
        1052        1053        1058        1057
        1053        1054        1059        1058
        1055        1056        1061        1060
        1056        1057        1062        1061
        1057        1058        1063        1062
        1058        1059        1064        1063
        1060        1061        1066        1065
        1061        1062        1067        1066
        1062        1063        1068        1067
        1063        1064        1069        1068
        1065        1066        1071        1070
        1066        1067        1072        1071
        1067        1068        1073        1072
        1068        1069        1074        1073
        1075        1076        1081        1080
        1076        1077        1082        1081
        1077        1078        1083        1082
        1078        1079        1084        1083
        1080        1081        1086        1085
        1081        1082        1087        1086
        1082        1083        1088        1087
        1083        1084        1089        1088
        1085        1086        1091        1090
        1086        1087        1092        1091
        1087        1088        1093        1092
        1088        1089        1094        1093
        1090        1091        1096        1095
        1091        1092        1097        1096
        1092        1093        1098        1097
        1093        1094        1099        1098
        1100        1101        1106        1105
        1101        1102        1107        1106
        1102        1103        1108        1107
        1103        1104        1109        1108
        1105        1106        1111        1110
        1106        1107        1112        1111
        1107        1108        1113        1112
        1108        1109        1114        1113
        1110        1111        1116        1115
        1111        1112        1117        1116
        1112        1113        1118        1117
        1113        1114        1119        1118
        1115        1116        1121        1120
        1116        1117        1122        1121
        1117        1118        1123        1122
        1118        1119        1124        1123
        1125        1126        1131        1130
        1126        1127        1132        1131
        1127        1128        1133        1132
        1128        1129        1134        1133
        1130        1131        1136        1135
        1131        1132        1137        1136
        1132        1133        1138        1137
        1133        1134        1139        1138
        1135        1136        1141        1140
        1136        1137        1142        1141
        1137        1138        1143        1142
        1138        1139        1144        1143
        1140        1141        1146        1145
        1141        1142        1147        1146
        1142        1143        1148        1147
        1143        1144        1149        1148
        1150        1151        1156        1155
        1151        1152        1157        1156
        1152        1153        1158        1157
        1153        1154        1159        1158
        1155        1156        1161        1160
        1156        1157        1162        1161
        1157        1158        1163        1162
        1158        1159        1164        1163
        1160        1161        1166        1165
        1161        1162        1167        1166
        1162        1163        1168        1167
        1163        1164        1169        1168
        1165        1166        1171        1170
        1166        1167        1172        1171
        1167        1168        1173        1172
        1168        1169        1174        1173
        1175        1176        1181        1180
        1176        1177        1182        1181
        1177        1178        1183        1182
        1178        1179        1184        1183
        1180        1181        1186        1185
        1181        1182        1187        1186
        1182        1183        1188        1187
        1183        1184        1189        1188
        1185        1186        1191        1190
        1186        1187        1192        1191
        1187        1188        1193        1192
        1188        1189        1194        1193
        1190        1191        1196        1195
        1191        1192        1197        1196
        1192        1193        1198        1197
        1193        1194        1199        1198
        1200        1201        1206        1205
        1201        1202        1207        1206
        1202        1203        1208        1207
        1203        1204        1209        1208
        1205        1206        1211        1210
        1206        1207        1212        1211
        1207        1208        1213        1212
        1208        1209        1214        1213
        1210        1211        1216        1215
        1211        1212        1217        1216
        1212        1213        1218        1217
        1213        1214        1219        1218
        1215        1216        1221        1220
        1216        1217        1222        1221
        1217        1218        1223        1222
        1218        1219        1224        1223
        1225        1226        1231        1230
        1226        1227        1232        1231
        1227        1228        1233        1232
        1228        1229        1234        1233
        1230        1231        1236        1235
        1231        1232        1237        1236
        1232        1233        1238        1237
        1233        1234        1239        1238
        1235        1236        1241        1240
        1236        1237        1242        1241
        1237        1238        1243        1242
        1238        1239        1244        1243
        1240        1241        1246        1245
        1241        1242        1247        1246
        1242        1243        1248        1247
        1243        1244        1249        1248
        1250        1251        1256        1255
        1251        1252        1257        1256
        1252        1253        1258        1257
        1253        1254        1259        1258
        1255        1256        1261        1260
        1256        1257        1262        1261
        1257        1258        1263        1262
        1258        1259        1264        1263
        1260        1261        1266        1265
        1261        1262        1267        1266
        1262        1263        1268        1267
        1263        1264        1269        1268
        1265        1266        1271        1270
        1266        1267        1272        1271
        1267        1268        1273        1272
        1268        1269        1274        1273
        1275        1276        1281        1280
        1276        1277        1282        1281
        1277        1278        1283        1282
        1278        1279        1284        1283
        1280        1281        1286        1285
        1281        1282        1287        1286
        1282        1283        1288        1287
        1283        1284        1289        1288
        1285        1286        1291        1290
        1286        1287        1292        1291
        1287        1288        1293        1292
        1288        1289        1294        1293
        1290        1291        1296        1295
        1291        1292        1297        1296
        1292        1293        1298        1297
        1293        1294        1299        1298
        1300        1301        1306        1305
        1301        1302        1307        1306
        1302        1303        1308        1307
        1303        1304        1309        1308
        1305        1306        1311        1310
        1306        1307        1312        1311
        1307        1308        1313        1312
        1308        1309        1314        1313
        1310        1311        1316        1315
        1311        1312        1317        1316
        1312        1313        1318        1317
        1313        1314        1319        1318
        1315        1316        1321        1320
        1316        1317        1322        1321
        1317        1318        1323        1322
        1318        1319        1324        1323
        1325        1326        1331        1330
        1326        1327        1332        1331
        1327        1328        1333        1332
        1328        1329        1334        1333
        1330        1331        1336        1335
        1331        1332        1337        1336
        1332        1333        1338        1337
        1333        1334        1339        1338
        1335        1336        1341        1340
        1336        1337        1342        1341
        1337        1338        1343        1342
        1338        1339        1344        1343
        1340        1341        1346        1345
        1341        1342        1347        1346
        1342        1343        1348        1347
        1343        1344        1349        1348
        1350        1351        1356        1355
        1351        1352        1357        1356
        1352        1353        1358        1357
        1353        1354        1359        1358
        1355        1356        1361        1360
        1356        1357        1362        1361
        1357        1358        1363        1362
        1358        1359        1364        1363
        1360        1361        1366        1365
        1361        1362        1367        1366
        1362        1363        1368        1367
        1363        1364        1369        1368
        1365        1366        1371        1370
        1366        1367        1372        1371
        1367        1368        1373        1372
        1368        1369        1374        1373
        1375        1376        1381        1380
        1376        1377        1382        1381
        1377        1378        1383        1382
        1378        1379        1384        1383
        1380        1381        1386        1385
        1381        1382        1387        1386
        1382        1383        1388        1387
        1383        1384        1389        1388
        1385        1386        1391        1390
        1386        1387        1392        1391
        1387        1388        1393        1392
        1388        1389        1394        1393
        1390        1391        1396        1395
        1391        1392        1397        1396
        1392        1393        1398        1397
        1393        1394        1399        1398
        1400        1401        1406        1405
        1401        1402        1407        1406
        1402        1403        1408        1407
        1403        1404        1409        1408
        1405        1406        1411        1410
        1406        1407        1412        1411
        1407        1408        1413        1412
        1408        1409        1414        1413
        1410        1411        1416        1415
        1411        1412        1417        1416
        1412        1413        1418        1417
        1413        1414        1419        1418
        1415        1416        1421        1420
        1416        1417        1422        1421
        1417        1418        1423        1422
        1418        1419        1424        1423
        1425        1426        1431        1430
        1426        1427        1432        1431
        1427        1428        1433        1432
        1428        1429        1434        1433
        1430        1431        1436        1435
        1431        1432        1437        1436
        1432        1433        1438        1437
        1433        1434        1439        1438
        1435        1436        1441        1440
        1436        1437        1442        1441
        1437        1438        1443        1442
        1438        1439        1444        1443
        1440        1441        1446        1445
        1441        1442        1447        1446
        1442        1443        1448        1447
        1443        1444        1449        1448
        1450        1451        1456        1455
        1451        1452        1457        1456
        1452        1453        1458        1457
        1453        1454        1459        1458
        1455        1456        1461        1460
        1456        1457        1462        1461
        1457        1458        1463        1462
        1458        1459        1464        1463
        1460        1461        1466        1465
        1461        1462        1467        1466
        1462        1463        1468        1467
        1463        1464        1469        1468
        1465        1466        1471        1470
        1466        1467        1472        1471
        1467        1468        1473        1472
        1468        1469        1474        1473
        1475        1476        1481        1480
        1476        1477        1482        1481
        1477        1478        1483        1482
        1478        1479        1484        1483
        1480        1481        1486        1485
        1481        1482        1487        1486
        1482        1483        1488        1487
        1483        1484        1489        1488
        1485        1486        1491        1490
        1486        1487        1492        1491
        1487        1488        1493        1492
        1488        1489        1494        1493
        1490        1491        1496        1495
        1491        1492        1497        1496
        1492        1493        1498        1497
        1493        1494        1499        1498
        1500        1501        1506        1505
        1501        1502        1507        1506
        1502        1503        1508        1507
        1503        1504        1509        1508
        1505        1506        1511        1510
        1506        1507        1512        1511
        1507        1508        1513        1512
        1508        1509        1514        1513
        1510        1511        1516        1515
        1511        1512        1517        1516
        1512        1513        1518        1517
        1513        1514        1519        1518
        1515        1516        1521        1520
        1516        1517        1522        1521
        1517        1518        1523        1522
        1518        1519        1524        1523
        1525        1526        1531        1530
        1526        1527        1532        1531
        1527        1528        1533        1532
        1528        1529        1534        1533
        1530        1531        1536        1535
        1531        1532        1537        1536
        1532        1533        1538        1537
        1533        1534        1539        1538
        1535        1536        1541        1540
        1536        1537        1542        1541
        1537        1538        1543        1542
        1538        1539        1544        1543
        1540        1541        1546        1545
        1541        1542        1547        1546
        1542        1543        1548        1547
        1543        1544        1549        1548
        1550        1551        1556        1555
        1551        1552        1557        1556
        1552        1553        1558        1557
        1553        1554        1559        1558
        1555        1556        1561        1560
        1556        1557        1562        1561
        1557        1558        1563        1562
        1558        1559        1564        1563
        1560        1561        1566        1565
        1561        1562        1567        1566
        1562        1563        1568        1567
        1563        1564        1569        1568
        1565        1566        1571        1570
        1566        1567        1572        1571
        1567        1568        1573        1572
        1568        1569        1574        1573
        1575        1576        1581        1580
        1576        1577        1582        1581
        1577        1578        1583        1582
        1578        1579        1584        1583
        1580        1581        1586        1585
        1581        1582        1587        1586
        1582        1583        1588        1587
        1583        1584        1589        1588
        1585        1586        1591        1590
        1586        1587        1592        1591
        1587        1588        1593        1592
        1588        1589        1594        1593
        1590        1591        1596        1595
        1591        1592        1597        1596
        1592        1593        1598        1597
        1593        1594        1599        1598
 </DataArray>
 <DataArray  type="Int32"  Name="offsets"  format="ascii"> 
           4
           8
          12
          16
          20
          24
          28
          32
          36
          40
          44
          48
          52
          56
          60
          64
          68
          72
          76
          80
          84
          88
          92
          96
         100
         104
         108
         112
         116
         120
         124
         128
         132
         136
         140
         144
         148
         152
         156
         160
         164
         168
         172
         176
         180
         184
         188
         192
         196
         200
         204
         208
         212
         216
         220
         224
         228
         232
         236
         240
         244
         248
         252
         256
         260
         264
         268
         272
         276
         280
         284
         288
         292
         296
         300
         304
         308
         312
         316
         320
         324
         328
         332
         336
         340
         344
         348
         352
         356
         360
         364
         368
         372
         376
         380
         384
         388
         392
         396
         400
         404
         408
         412
         416
         420
         424
         428
         432
         436
         440
         444
         448
         452
         456
         460
         464
         468
         472
         476
         480
         484
         488
         492
         496
         500
         504
         508
         512
         516
         520
         524
         528
         532
         536
         540
         544
         548
         552
         556
         560
         564
         568
         572
         576
         580
         584
         588
         592
         596
         600
         604
         608
         612
         616
         620
         624
         628
         632
         636
         640
         644
         648
         652
         656
         660
         664
         668
         672
         676
         680
         684
         688
         692
         696
         700
         704
         708
         712
         716
         720
         724
         728
         732
         736
         740
         744
         748
         752
         756
         760
         764
         768
         772
         776
         780
         784
         788
         792
         796
         800
         804
         808
         812
         816
         820
         824
         828
         832
         836
         840
         844
         848
         852
         856
         860
         864
         868
         872
         876
         880
         884
         888
         892
         896
         900
         904
         908
         912
         916
         920
         924
         928
         932
         936
         940
         944
         948
         952
         956
         960
         964
         968
         972
         976
         980
         984
         988
         992
         996
        1000
        1004
        1008
        1012
        1016
        1020
        1024
        1028
        1032
        1036
        1040
        1044
        1048
        1052
        1056
        1060
        1064
        1068
        1072
        1076
        1080
        1084
        1088
        1092
        1096
        1100
        1104
        1108
        1112
        1116
        1120
        1124
        1128
        1132
        1136
        1140
        1144
        1148
        1152
        1156
        1160
        1164
        1168
        1172
        1176
        1180
        1184
        1188
        1192
        1196
        1200
        1204
        1208
        1212
        1216
        1220
        1224
        1228
        1232
        1236
        1240
        1244
        1248
        1252
        1256
        1260
        1264
        1268
        1272
        1276
        1280
        1284
        1288
        1292
        1296
        1300
        1304
        1308
        1312
        1316
        1320
        1324
        1328
        1332
        1336
        1340
        1344
        1348
        1352
        1356
        1360
        1364
        1368
        1372
        1376
        1380
        1384
        1388
        1392
        1396
        1400
        1404
        1408
        1412
        1416
        1420
        1424
        1428
        1432
        1436
        1440
        1444
        1448
        1452
        1456
        1460
        1464
        1468
        1472
        1476
        1480
        1484
        1488
        1492
        1496
        1500
        1504
        1508
        1512
        1516
        1520
        1524
        1528
        1532
        1536
        1540
        1544
        1548
        1552
        1556
        1560
        1564
        1568
        1572
        1576
        1580
        1584
        1588
        1592
        1596
        1600
        1604
        1608
        1612
        1616
        1620
        1624
        1628
        1632
        1636
        1640
        1644
        1648
        1652
        1656
        1660
        1664
        1668
        1672
        1676
        1680
        1684
        1688
        1692
        1696
        1700
        1704
        1708
        1712
        1716
        1720
        1724
        1728
        1732
        1736
        1740
        1744
        1748
        1752
        1756
        1760
        1764
        1768
        1772
        1776
        1780
        1784
        1788
        1792
        1796
        1800
        1804
        1808
        1812
        1816
        1820
        1824
        1828
        1832
        1836
        1840
        1844
        1848
        1852
        1856
        1860
        1864
        1868
        1872
        1876
        1880
        1884
        1888
        1892
        1896
        1900
        1904
        1908
        1912
        1916
        1920
        1924
        1928
        1932
        1936
        1940
        1944
        1948
        1952
        1956
        1960
        1964
        1968
        1972
        1976
        1980
        1984
        1988
        1992
        1996
        2000
        2004
        2008
        2012
        2016
        2020
        2024
        2028
        2032
        2036
        2040
        2044
        2048
        2052
        2056
        2060
        2064
        2068
        2072
        2076
        2080
        2084
        2088
        2092
        2096
        2100
        2104
        2108
        2112
        2116
        2120
        2124
        2128
        2132
        2136
        2140
        2144
        2148
        2152
        2156
        2160
        2164
        2168
        2172
        2176
        2180
        2184
        2188
        2192
        2196
        2200
        2204
        2208
        2212
        2216
        2220
        2224
        2228
        2232
        2236
        2240
        2244
        2248
        2252
        2256
        2260
        2264
        2268
        2272
        2276
        2280
        2284
        2288
        2292
        2296
        2300
        2304
        2308
        2312
        2316
        2320
        2324
        2328
        2332
        2336
        2340
        2344
        2348
        2352
        2356
        2360
        2364
        2368
        2372
        2376
        2380
        2384
        2388
        2392
        2396
        2400
        2404
        2408
        2412
        2416
        2420
        2424
        2428
        2432
        2436
        2440
        2444
        2448
        2452
        2456
        2460
        2464
        2468
        2472
        2476
        2480
        2484
        2488
        2492
        2496
        2500
        2504
        2508
        2512
        2516
        2520
        2524
        2528
        2532
        2536
        2540
        2544
        2548
        2552
        2556
        2560
        2564
        2568
        2572
        2576
        2580
        2584
        2588
        2592
        2596
        2600
        2604
        2608
        2612
        2616
        2620
        2624
        2628
        2632
        2636
        2640
        2644
        2648
        2652
        2656
        2660
        2664
        2668
        2672
        2676
        2680
        2684
        2688
        2692
        2696
        2700
        2704
        2708
        2712
        2716
        2720
        2724
        2728
        2732
        2736
        2740
        2744
        2748
        2752
        2756
        2760
        2764
        2768
        2772
        2776
        2780
        2784
        2788
        2792
        2796
        2800
        2804
        2808
        2812
        2816
        2820
        2824
        2828
        2832
        2836
        2840
        2844
        2848
        2852
        2856
        2860
        2864
        2868
        2872
        2876
        2880
        2884
        2888
        2892
        2896
        2900
        2904
        2908
        2912
        2916
        2920
        2924
        2928
        2932
        2936
        2940
        2944
        2948
        2952
        2956
        2960
        2964
        2968
        2972
        2976
        2980
        2984
        2988
        2992
        2996
        3000
        3004
        3008
        3012
        3016
        3020
        3024
        3028
        3032
        3036
        3040
        3044
        3048
        3052
        3056
        3060
        3064
        3068
        3072
        3076
        3080
        3084
        3088
        3092
        3096
        3100
        3104
        3108
        3112
        3116
        3120
        3124
        3128
        3132
        3136
        3140
        3144
        3148
        3152
        3156
        3160
        3164
        3168
        3172
        3176
        3180
        3184
        3188
        3192
        3196
        3200
        3204
        3208
        3212
        3216
        3220
        3224
        3228
        3232
        3236
        3240
        3244
        3248
        3252
        3256
        3260
        3264
        3268
        3272
        3276
        3280
        3284
        3288
        3292
        3296
        3300
        3304
        3308
        3312
        3316
        3320
        3324
        3328
        3332
        3336
        3340
        3344
        3348
        3352
        3356
        3360
        3364
        3368
        3372
        3376
        3380
        3384
        3388
        3392
        3396
        3400
        3404
        3408
        3412
        3416
        3420
        3424
        3428
        3432
        3436
        3440
        3444
        3448
        3452
        3456
        3460
        3464
        3468
        3472
        3476
        3480
        3484
        3488
        3492
        3496
        3500
        3504
        3508
        3512
        3516
        3520
        3524
        3528
        3532
        3536
        3540
        3544
        3548
        3552
        3556
        3560
        3564
        3568
        3572
        3576
        3580
        3584
        3588
        3592
        3596
        3600
        3604
        3608
        3612
        3616
        3620
        3624
        3628
        3632
        3636
        3640
        3644
        3648
        3652
        3656
        3660
        3664
        3668
        3672
        3676
        3680
        3684
        3688
        3692
        3696
        3700
        3704
        3708
        3712
        3716
        3720
        3724
        3728
        3732
        3736
        3740
        3744
        3748
        3752
        3756
        3760
        3764
        3768
        3772
        3776
        3780
        3784
        3788
        3792
        3796
        3800
        3804
        3808
        3812
        3816
        3820
        3824
        3828
        3832
        3836
        3840
        3844
        3848
        3852
        3856
        3860
        3864
        3868
        3872
        3876
        3880
        3884
        3888
        3892
        3896
        3900
        3904
        3908
        3912
        3916
        3920
        3924
        3928
        3932
        3936
        3940
        3944
        3948
        3952
        3956
        3960
        3964
        3968
        3972
        3976
        3980
        3984
        3988
        3992
        3996
        4000
        4004
        4008
        4012
        4016
        4020
        4024
        4028
        4032
        4036
        4040
        4044
        4048
        4052
        4056
        4060
        4064
        4068
        4072
        4076
        4080
        4084
        4088
        4092
        4096
 </DataArray>
 <DataArray  type="UInt8"  Name="types"  format="ascii">
 9
 9
 9
 9
 9
 9
 9
 9
 9
 9
 9
 9
 9
 9
 9
 9
 9
 9
 9
 9
 9
 9
 9
 9
 9
 9
 9
 9
 9
 9
 9
 9
 9
 9
 9
 9
 9
 9
 9
 9
 9
 9
 9
 9
 9
 9
 9
 9
 9
 9
 9
 9
 9
 9
 9
 9
 9
 9
 9
 9
 9
 9
 9
 9
 9
 9
 9
 9
 9
 9
 9
 9
 9
 9
 9
 9
 9
 9
 9
 9
 9
 9
 9
 9
 9
 9
 9
 9
 9
 9
 9
 9
 9
 9
 9
 9
 9
 9
 9
 9
 9
 9
 9
 9
 9
 9
 9
 9
 9
 9
 9
 9
 9
 9
 9
 9
 9
 9
 9
 9
 9
 9
 9
 9
 9
 9
 9
 9
 9
 9
 9
 9
 9
 9
 9
 9
 9
 9
 9
 9
 9
 9
 9
 9
 9
 9
 9
 9
 9
 9
 9
 9
 9
 9
 9
 9
 9
 9
 9
 9
 9
 9
 9
 9
 9
 9
 9
 9
 9
 9
 9
 9
 9
 9
 9
 9
 9
 9
 9
 9
 9
 9
 9
 9
 9
 9
 9
 9
 9
 9
 9
 9
 9
 9
 9
 9
 9
 9
 9
 9
 9
 9
 9
 9
 9
 9
 9
 9
 9
 9
 9
 9
 9
 9
 9
 9
 9
 9
 9
 9
 9
 9
 9
 9
 9
 9
 9
 9
 9
 9
 9
 9
 9
 9
 9
 9
 9
 9
 9
 9
 9
 9
 9
 9
 9
 9
 9
 9
 9
 9
 9
 9
 9
 9
 9
 9
 9
 9
 9
 9
 9
 9
 9
 9
 9
 9
 9
 9
 9
 9
 9
 9
 9
 9
 9
 9
 9
 9
 9
 9
 9
 9
 9
 9
 9
 9
 9
 9
 9
 9
 9
 9
 9
 9
 9
 9
 9
 9
 9
 9
 9
 9
 9
 9
 9
 9
 9
 9
 9
 9
 9
 9
 9
 9
 9
 9
 9
 9
 9
 9
 9
 9
 9
 9
 9
 9
 9
 9
 9
 9
 9
 9
 9
 9
 9
 9
 9
 9
 9
 9
 9
 9
 9
 9
 9
 9
 9
 9
 9
 9
 9
 9
 9
 9
 9
 9
 9
 9
 9
 9
 9
 9
 9
 9
 9
 9
 9
 9
 9
 9
 9
 9
 9
 9
 9
 9
 9
 9
 9
 9
 9
 9
 9
 9
 9
 9
 9
 9
 9
 9
 9
 9
 9
 9
 9
 9
 9
 9
 9
 9
 9
 9
 9
 9
 9
 9
 9
 9
 9
 9
 9
 9
 9
 9
 9
 9
 9
 9
 9
 9
 9
 9
 9
 9
 9
 9
 9
 9
 9
 9
 9
 9
 9
 9
 9
 9
 9
 9
 9
 9
 9
 9
 9
 9
 9
 9
 9
 9
 9
 9
 9
 9
 9
 9
 9
 9
 9
 9
 9
 9
 9
 9
 9
 9
 9
 9
 9
 9
 9
 9
 9
 9
 9
 9
 9
 9
 9
 9
 9
 9
 9
 9
 9
 9
 9
 9
 9
 9
 9
 9
 9
 9
 9
 9
 9
 9
 9
 9
 9
 9
 9
 9
 9
 9
 9
 9
 9
 9
 9
 9
 9
 9
 9
 9
 9
 9
 9
 9
 9
 9
 9
 9
 9
 9
 9
 9
 9
 9
 9
 9
 9
 9
 9
 9
 9
 9
 9
 9
 9
 9
 9
 9
 9
 9
 9
 9
 9
 9
 9
 9
 9
 9
 9
 9
 9
 9
 9
 9
 9
 9
 9
 9
 9
 9
 9
 9
 9
 9
 9
 9
 9
 9
 9
 9
 9
 9
 9
 9
 9
 9
 9
 9
 9
 9
 9
 9
 9
 9
 9
 9
 9
 9
 9
 9
 9
 9
 9
 9
 9
 9
 9
 9
 9
 9
 9
 9
 9
 9
 9
 9
 9
 9
 9
 9
 9
 9
 9
 9
 9
 9
 9
 9
 9
 9
 9
 9
 9
 9
 9
 9
 9
 9
 9
 9
 9
 9
 9
 9
 9
 9
 9
 9
 9
 9
 9
 9
 9
 9
 9
 9
 9
 9
 9
 9
 9
 9
 9
 9
 9
 9
 9
 9
 9
 9
 9
 9
 9
 9
 9
 9
 9
 9
 9
 9
 9
 9
 9
 9
 9
 9
 9
 9
 9
 9
 9
 9
 9
 9
 9
 9
 9
 9
 9
 9
 9
 9
 9
 9
 9
 9
 9
 9
 9
 9
 9
 9
 9
 9
 9
 9
 9
 9
 9
 9
 9
 9
 9
 9
 9
 9
 9
 9
 9
 9
 9
 9
 9
 9
 9
 9
 9
 9
 9
 9
 9
 9
 9
 9
 9
 9
 9
 9
 9
 9
 9
 9
 9
 9
 9
 9
 9
 9
 9
 9
 9
 9
 9
 9
 9
 9
 9
 9
 9
 9
 9
 9
 9
 9
 9
 9
 9
 9
 9
 9
 9
 9
 9
 9
 9
 9
 9
 9
 9
 9
 9
 9
 9
 9
 9
 9
 9
 9
 9
 9
 9
 9
 9
 9
 9
 9
 9
 9
 9
 9
 9
 9
 9
 9
 9
 9
 9
 9
 9
 9
 9
 9
 9
 9
 9
 9
 9
 9
 9
 9
 9
 9
 9
 9
 9
 9
 9
 9
 9
 9
 9
 9
 9
 9
 9
 9
 9
 9
 9
 9
 9
 9
 9
 9
 9
 9
 9
 9
 9
 9
 9
 9
 9
 9
 9
 9
 9
 9
 9
 9
 9
 9
 9
 9
 9
 9
 9
 9
 9
 9
 9
 9
 9
 9
 9
 9
 9
 9
 9
 9
 9
 9
 9
 9
 9
 9
 9
 9
 9
 9
 9
 9
 9
 9
 9
 9
 9
 9
 9
 9
 9
 9
 9
 9
 9
 9
 9
 9
 9
 9
 9
 9
 9
 9
 9
 9
 9
 9
 9
 9
 9
 9
 9
 9
 9
 9
 9
 9
 9
 9
 9
 9
 9
 9
 9
 9
 9
 9
 9
 9
 9
 9
 9
 9
 9
 9
 9
 9
 9
 9
 9
 9
 9
 9
 9
 9
 9
 9
 9
 9
 9
 9
 9
 9
 9
 9
 9
 9
 9
 9
 9
 9
 9
 9
 9
 9
 9
 9
 9
 9
 9
 9
 9
 9
 9
 9
 9
 9
 9
 9
 9
 9
 9
 9
 9
 9
 9
 9
 9
 9
 9
 9
 9
 9
 9
 9
 9
 9
 9
 9
 9
 9
 9
 9
 9
 9
 9
 9
 9
 9
 </DataArray>
 </Cells> 
 <PointData>
 <DataArray  type="Float64" Name="disp" NumberOfComponents="3" format="ascii">
   6.5450143471651789E-002   6.2788986176795708E-002   0.0000000000000000     
   6.8491472214839172E-002   6.8176911511532337E-002   0.0000000000000000     
   7.1432037240272139E-002   7.3744050675984857E-002   0.0000000000000000     
   7.4271838547950692E-002   7.9490403670153281E-002   0.0000000000000000     
   7.7010876137874801E-002   8.5415970494037624E-002   0.0000000000000000     
   6.0085846861286638E-002   6.1890022314927018E-002   0.0000000000000000     
   6.3003966308537246E-002   6.7299989796088117E-002   0.0000000000000000     
   6.5809480122989331E-002   7.2891770398990974E-002   0.0000000000000000     
   6.8502388304642892E-002   7.8665364123635576E-002   0.0000000000000000     
   7.1082690853497929E-002   8.4620770970021950E-002   0.0000000000000000     
   5.5015904475626640E-002   6.1045985286681835E-002   0.0000000000000000     
   5.7780026204989413E-002   6.6478361586400997E-002   0.0000000000000000     
   6.0427584514726046E-002   7.2094345337384014E-002   0.0000000000000000     
   6.2958579404836540E-002   7.7893936539630906E-002   0.0000000000000000     
   6.5373010875320894E-002   8.3877135193141661E-002   0.0000000000000000     
   5.0240316314671796E-002   6.0256875092060173E-002   0.0000000000000000     
   5.2819651904195686E-002   6.5712026882470978E-002   0.0000000000000000     
   5.5286350415482313E-002   7.1351775491164018E-002   0.0000000000000000     
   5.7640411848531650E-002   7.7176120918139246E-002   0.0000000000000000     
   5.9881836203343704E-002   8.3185063163396716E-002   0.0000000000000000     
   4.5759082378422106E-002   5.9522691731062019E-002   0.0000000000000000     
   4.8122843406156079E-002   6.5000985684298074E-002   0.0000000000000000     
   5.0385777825258111E-002   7.0664060860330946E-002   0.0000000000000000     
   5.2547885635728209E-002   7.6511917259160636E-002   0.0000000000000000     
   5.4609166837566364E-002   8.2544554880787130E-002   0.0000000000000000     
   7.7010876137874801E-002   8.5415970494037624E-002   0.0000000000000000     
   7.9658815661044963E-002   9.1510342790520227E-002   0.0000000000000000     
   8.2225322768461659E-002   9.7763112202483446E-002   0.0000000000000000     
   8.4710397460124875E-002  0.10417427872992731        0.0000000000000000     
   8.7114039736034626E-002  0.11074384237285179        0.0000000000000000     
   7.1082690853497929E-002   8.4620770970021950E-002   0.0000000000000000     
   7.3568755568057170E-002   9.0745624379727469E-002   0.0000000000000000     
   7.5978950246823357E-002   9.7027557794329478E-002   0.0000000000000000     
   7.8313274889796475E-002  0.10346657121382799        0.0000000000000000     
   8.0571729496976552E-002  0.11006266463822301        0.0000000000000000     
   6.5373010875320894E-002   8.3877135193141661E-002   0.0000000000000000     
   6.7694022965766543E-002   9.0030185723411968E-002   0.0000000000000000     
   6.9944759715760946E-002   9.6339332555937587E-002   0.0000000000000000     
   7.2125221125304062E-002  0.10280457569071846        0.0000000000000000     
   7.4235407194395933E-002  0.10942591512775462        0.0000000000000000     
   5.9881836203343704E-002   8.3185063163396716E-002   0.0000000000000000     
   6.2034617854173087E-002   8.9364026821573739E-002   0.0000000000000000     
   6.4122751175274398E-002   9.5698436487307761E-002   0.0000000000000000     
   6.6146236166647610E-002  0.10218829216059871        0.0000000000000000     
   6.8105072828292770E-002  0.10883359384144667        0.0000000000000000     
   5.4609166837566364E-002   8.2544554880787130E-002   0.0000000000000000     
   5.6590540233276809E-002   8.8747147674212809E-002   0.0000000000000000     
   5.8512924625363727E-002   9.5104869588440027E-002   0.0000000000000000     
   6.0376320013827145E-002  0.10161772062346880        0.0000000000000000     
   6.2180726398667049E-002  0.10828570077929910        0.0000000000000000     
   8.7114039736034626E-002  0.11074384237285179        0.0000000000000000     
   8.9425493026396907E-002  0.11745891473537931        0.0000000000000000     
   9.1634000761417755E-002  0.12430660742163233        0.0000000000000000     
   9.3739562941097157E-002  0.13128692043161086        0.0000000000000000     
   9.5742179565435098E-002  0.13839985376531486        0.0000000000000000     
   8.0571729496976552E-002  0.11006266463822301        0.0000000000000000     
   8.2743474822118385E-002  0.11680403476807183        0.0000000000000000     
   8.4817671618976798E-002  0.12367887830393177        0.0000000000000000     
   8.6794319887551791E-002  0.13068719524580280        0.0000000000000000     
   8.8673419627843364E-002  0.13782898559368495        0.0000000000000000     
   7.4235407194395933E-002  0.10942591512775462        0.0000000000000000     
   7.6264582892963617E-002  0.11619235908256810        0.0000000000000000     
   7.8202013190934117E-002  0.12309291577068084        0.0000000000000000     
   8.0047698088307487E-002  0.13012758519209280        0.0000000000000000     
   8.1801637585083686E-002  0.13729636734680409        0.0000000000000000     
   6.8105072828292770E-002  0.10883359384144667        0.0000000000000000     
   6.9988817238932563E-002  0.11562388767886810        0.0000000000000000     
   7.1787025477289712E-002  0.12254871982187952        0.0000000000000000     
   7.3499697543364231E-002  0.12960809027048092        0.0000000000000000     
   7.5126833437156107E-002  0.13680199902467233        0.0000000000000000     
   6.2180726398667049E-002  0.10828570077929910        0.0000000000000000     
   6.3916177860025264E-002  0.11509862055697183        0.0000000000000000     
   6.5572708478043598E-002  0.12204629045752782        0.0000000000000000     
   6.7150318252722038E-002  0.12912871048096708        0.0000000000000000     
   6.8649007184060598E-002  0.13634588062728964        0.0000000000000000     
   9.5742179565435098E-002  0.13839985376531486        0.0000000000000000     
   9.7648062814787759E-002  0.14563432984570493        0.0000000000000000     
   9.9463424869511249E-002  0.15297927109574164        0.0000000000000000     
  0.10118826572960561       0.16043467751542498        0.0000000000000000     
  0.10282258539507080       0.16800054910475495        0.0000000000000000     
   8.8673419627843364E-002  0.13782898559368495        0.0000000000000000     
   9.0461306195425167E-002  0.14509212816569922        0.0000000000000000     
   9.2164314945870879E-002  0.15246450177996668        0.0000000000000000     
   9.3782445879180484E-002  0.15994610643648730        0.0000000000000000     
   9.5315698995353998E-002  0.16753694213526110        0.0000000000000000     
   8.1801637585083686E-002  0.13729636734680409        0.0000000000000000     
   8.3469832655112652E-002  0.14458646771893718        0.0000000000000000     
   8.5058284272244294E-002  0.15198509179261460        0.0000000000000000     
   8.6566992436478571E-002  0.15949223956783634        0.0000000000000000     
   8.7995957147815496E-002  0.16710791104460240        0.0000000000000000     
   7.5126833437156107E-002  0.13680199902467233        0.0000000000000000     
   7.6673642193850228E-002  0.14411734850541877        0.0000000000000000     
   7.8145332848631455E-002  0.15154104113368538        0.0000000000000000     
   7.9541905401499829E-002  0.15907307690947209        0.0000000000000000     
   8.0863359852455324E-002  0.16671345583277888        0.0000000000000000     
   6.8649007184060598E-002  0.13634588062728964        0.0000000000000000     
   7.0072734811637866E-002  0.14368477052514406        0.0000000000000000     
   7.1425460675032443E-002  0.15113234980317902        0.0000000000000000     
   7.2707184774244302E-002  0.15868861846139451        0.0000000000000000     
   7.3917907109273484E-002  0.16635357649979052        0.0000000000000000     
  0.10282258539507080       0.16800054910475495        0.0000000000000000     
  0.10436881413390339       0.17566632309159808        0.0000000000000000     
  0.10582938221409988       0.18342143670382088        0.0000000000000000     
  0.10720428963566027       0.19126588994142332        0.0000000000000000     
  0.10849353639858458       0.19919968280440545        0.0000000000000000     
   9.5315698995353998E-002  0.16753694213526110        0.0000000000000000     
   9.6764411786064458E-002  0.17522751895235794        0.0000000000000000     
   9.8128921742984931E-002  0.18300834696384771        0.0000000000000000     
   9.9409228866115404E-002  0.19087942616973042        0.0000000000000000     
  0.10060533315545589       0.19884075657000608        0.0000000000000000     
   8.7995957147815496E-002  0.16710791104460240        0.0000000000000000     
   8.9344104853650325E-002  0.17482316703799128        0.0000000000000000     
   9.0610362001378231E-002  0.18262906836308127        0.0000000000000000     
   9.1794728590999214E-002  0.19052561501987247        0.0000000000000000     
   9.2897204622513316E-002  0.19851280700836488        0.0000000000000000     
   8.0863359852455324E-002  0.16671345583277888        0.0000000000000000     
   8.2107893336660964E-002  0.17445326734849798        0.0000000000000000     
   8.3273702989279760E-002  0.18228360090152151        0.0000000000000000     
   8.4360788810311713E-002  0.19020445649184944        0.0000000000000000     
   8.5369150799756835E-002  0.19821583411948185        0.0000000000000000     
   7.3917907109273484E-002  0.16635357649979052        0.0000000000000000     
   7.5055777235096405E-002  0.17411781988387814        0.0000000000000000     
   7.6118944706689548E-002  0.18197194457916843        0.0000000000000000     
   7.7107409524052900E-002  0.18991595058566141        0.0000000000000000     
   7.8021171687186475E-002  0.19794983790335702        0.0000000000000000     
  0.10849353639858458       0.19919968280440545        0.0000000000000000     
  0.10970217280443856       0.20721905222014148        0.0000000000000000     
  0.11083524915478797       0.21532023511600568        0.0000000000000000     
  0.11189276544963285       0.22350323149199802        0.0000000000000000     
  0.11287472168897314       0.23176804134811854        0.0000000000000000     
  0.10060533315545589       0.19884075657000608        0.0000000000000000     
  0.10172271149443525       0.20688596968915299        0.0000000000000000     
  0.10276684076648235       0.21500869705164954        0.0000000000000000     
  0.10373772097159718       0.22320893865749578        0.0000000000000000     
  0.10463535210977976       0.23148669450669163        0.0000000000000000     
   9.2897204622513316E-002  0.19851280700836488        0.0000000000000000     
   9.3922693157749981E-002  0.20658281602574713        0.0000000000000000     
   9.4876097258538683E-002  0.21472781376920799        0.0000000000000000     
   9.5757416924879435E-002  0.22294780023874736        0.0000000000000000     
   9.6566652156772209E-002  0.23124277543436533        0.0000000000000000     
   8.5369150799756835E-002  0.19821583411948185        0.0000000000000000     
   8.6302117794382724E-002  0.20630959122992390        0.0000000000000000     
   8.7163018630956962E-002  0.21447758526868094        0.0000000000000000     
   8.7951853309479563E-002  0.22271981623575279        0.0000000000000000     
   8.8668621829950542E-002  0.23103628413113964        0.0000000000000000     
   7.8021171687186475E-002  0.19794983790335702        0.0000000000000000     
   7.8860985404333506E-002  0.20606629530168336        0.0000000000000000     
   7.9627604883737199E-002  0.21425801155006841        0.0000000000000000     
   8.0321030125397611E-002  0.22252498664851211        0.0000000000000000     
   8.0941261129314712E-002  0.23086722059701456        0.0000000000000000     
  0.11287472168897314       0.23176804134811854        0.0000000000000000     
  0.11380939923362708       0.24013117254308125        0.0000000000000000     
  0.11472507944441285       0.24860913293560025        0.0000000000000000     
  0.11562176232133045       0.25720192252567547        0.0000000000000000     
  0.11649944786437988       0.26590954131330691        0.0000000000000000     
  0.10463535210977976       0.23148669450669163        0.0000000000000000     
  0.10546478944653623       0.23986545529975073        0.0000000000000000     
  0.10623108824737275       0.24836871173718661        0.0000000000000000     
  0.10693424851228932       0.25699646381899932        0.0000000000000000     
  0.10757427024128599       0.26574871154518881        0.0000000000000000     
   9.6566652156772209E-002  0.23124277543436533        0.0000000000000000     
   9.7294629827070753E-002  0.23963924724793217        0.0000000000000000     
   9.7932176808628799E-002  0.24816372357131813        0.0000000000000000     
   9.8479293101446305E-002  0.25681620440452330        0.0000000000000000     
   9.8935978705523300E-002  0.26559668974754763        0.0000000000000000     
   8.8668621829950542E-002  0.23103628413113964        0.0000000000000000     
   8.9298920375230711E-002  0.23945254838762559        0.0000000000000000     
   8.9828345128181025E-002  0.24799416843799485        0.0000000000000000     
   9.0256896088801386E-002  0.25666114428224746        0.0000000000000000     
   9.0584573257091877E-002  0.26545347592038332        0.0000000000000000     
   8.0941261129314712E-002  0.23086722059701456        0.0000000000000000     
   8.1477661091016118E-002  0.23930535871883102        0.0000000000000000     
   8.1919593206029401E-002  0.24786004633721667        0.0000000000000000     
   8.2267057474354588E-002  0.25653128345217158        0.0000000000000000     
   8.2520053895991666E-002  0.26531907006369582        0.0000000000000000     
  0.11649944786437988       0.26590954131330691        0.0000000000000000     
  0.11729846009288422       0.27489661104330948        0.0000000000000000     
  0.11795912302616650       0.28432775346049804        0.0000000000000000     
  0.11848143666422675       0.29420296856487266        0.0000000000000000     
  0.11886540100706497       0.30452225635643315        0.0000000000000000     
  0.10757427024128599       0.26574871154518881        0.0000000000000000     
  0.10813217513658444       0.27475759485194695        0.0000000000000000     
  0.10858898490040646       0.28415525367546540        0.0000000000000000     
  0.10894469953275202       0.29394168801574427        0.0000000000000000     
  0.10919931903362112       0.30411689787278351        0.0000000000000000     
   9.8935978705523300E-002  0.26559668974754763        0.0000000000000000     
   9.9313264229131379E-002  0.27460345294154143        0.0000000000000000     
   9.9622180280542080E-002  0.28393476732765510        0.0000000000000000     
   9.9862726859755419E-002  0.29359063290588866        0.0000000000000000     
  0.10003490396677145       0.30357104967624204        0.0000000000000000     
   9.0584573257091877E-002  0.26545347592038332        0.0000000000000000     
   9.0841727370525011E-002  0.27443418531209302        0.0000000000000000     
   9.1058709166573409E-002  0.28366629441706714        0.0000000000000000     
   9.1235518645237074E-002  0.29314980323530576        0.0000000000000000     
   9.1372155806515934E-002  0.30288471176680876        0.0000000000000000     
   8.2520053895991666E-002  0.26531907006369582        0.0000000000000000     
   8.2717564560765386E-002  0.27424979196360166        0.0000000000000000     
   8.2898571558500445E-002  0.28334983494370158        0.0000000000000000     
   8.3063074889196842E-002  0.29261919900399563        0.0000000000000000     
   8.3211074552854605E-002  0.30205788414448365        0.0000000000000000     
   4.5759082378422106E-002   5.9522691731062019E-002   0.0000000000000000     
   4.8122843406156079E-002   6.5000985684298074E-002   0.0000000000000000     
   5.0385777825258111E-002   7.0664060860330946E-002   0.0000000000000000     
   5.2547885635728209E-002   7.6511917259160636E-002   0.0000000000000000     
   5.4609166837566364E-002   8.2544554880787130E-002   0.0000000000000000     
   4.1457524337951683E-002   5.8846246830198005E-002   0.0000000000000000     
   4.3598700200117357E-002   6.4346235126996401E-002   0.0000000000000000     
   4.5653165747991546E-002   7.0031037375495236E-002   0.0000000000000000     
   4.7620920981574263E-002   7.5900653575694504E-002   0.0000000000000000     
   4.9501965900865516E-002   8.1955083727594233E-002   0.0000000000000000     
   3.7220963864334648E-002   5.8230352015978759E-002   0.0000000000000000     
   3.9156321775326297E-002   6.3748772345680077E-002   0.0000000000000000     
   4.1015813187620709E-002   6.9452540967267273E-002   0.0000000000000000     
   4.2799438101217883E-002   7.5341657880740376E-002   0.0000000000000000     
   4.4507196516117821E-002   8.1416123086099329E-002   0.0000000000000000     
   3.3049400957570994E-002   5.7675007288404266E-002   0.0000000000000000     
   3.4795708131782906E-002   6.3208597340349088E-002   0.0000000000000000     
   3.6473720144145592E-002   6.8928571635647085E-002   0.0000000000000000     
   3.8083436994659041E-002   7.4834930174298181E-002   0.0000000000000000     
   3.9624858683323258E-002   8.0927672956302432E-002   0.0000000000000000     
   2.8942835617660721E-002   5.7180212647474547E-002   0.0000000000000000     
   3.0516859269487190E-002   6.2725710111003474E-002   0.0000000000000000     
   3.2026886617566197E-002   6.8459129380634615E-002   0.0000000000000000     
   3.3472917661897750E-002   7.4380470456367961E-002   0.0000000000000000     
   3.4854952402481855E-002   8.0489733338203501E-002   0.0000000000000000     
   5.4609166837566364E-002   8.2544554880787130E-002   0.0000000000000000     
   5.6590540233276809E-002   8.8747147674212809E-002   0.0000000000000000     
   5.8512924625363727E-002   9.5104869588440027E-002   0.0000000000000000     
   6.0376320013827145E-002  0.10161772062346880        0.0000000000000000     
   6.2180726398667049E-002  0.10828570077929910        0.0000000000000000     
   4.9501965900865516E-002   8.1955083727594233E-002   0.0000000000000000     
   5.1312829885806696E-002   8.8179403323658062E-002   0.0000000000000000     
   5.3070042316339223E-002   9.4558687856349702E-002   0.0000000000000000     
   5.4773603192463077E-002  0.10109293732566918        0.0000000000000000     
   5.6423512514178271E-002  0.10778215173161644        0.0000000000000000     
   4.4507196516117821E-002   8.1416123086099329E-002   0.0000000000000000     
   4.6152526594491809E-002   8.7660648812238506E-002   0.0000000000000000     
   4.7748866498511178E-002   9.4059947288052212E-002   0.0000000000000000     
   4.9296216228175871E-002  0.10061401851354045        0.0000000000000000     
   5.0794575783485944E-002  0.10732286248870322        0.0000000000000000     
   3.9624858683323258E-002   8.0927672956302432E-002   0.0000000000000000     
   4.1109630359332142E-002   8.7190884139954072E-002   0.0000000000000000     
   4.2549397171879569E-002   9.3608647883547488E-002   0.0000000000000000     
   4.3944159120965526E-002  0.10018096418708260        0.0000000000000000     
   4.5293916206590047E-002  0.10690783305055945        0.0000000000000000     
   3.4854952402481855E-002   8.0489733338203501E-002   0.0000000000000000     
   3.6184141180327679E-002   8.6770109306804843E-002   0.0000000000000000     
   3.7471634336444411E-002   9.3204789642835545E-002   0.0000000000000000     
   3.8717431870832049E-002   9.9793774346295619E-002   0.0000000000000000     
   3.9921533783490594E-002  0.10653706341718507        0.0000000000000000     
   6.2180726398667049E-002  0.10828570077929910        0.0000000000000000     
   6.3916177860025264E-002  0.11509862055697183        0.0000000000000000     
   6.5572708478043598E-002  0.12204629045752782        0.0000000000000000     
   6.7150318252722038E-002  0.12912871048096708        0.0000000000000000     
   6.8649007184060598E-002  0.13634588062728964        0.0000000000000000     
   5.6423512514178271E-002  0.10778215173161644        0.0000000000000000     
   5.8010443573339093E-002  0.11461630750196002        0.0000000000000000     
   5.9525069661799795E-002  0.12158538106446841        0.0000000000000000     
   6.0967390779560392E-002  0.12868937241914155        0.0000000000000000     
   6.2337406926620868E-002  0.13592828156597955        0.0000000000000000     
   5.0794575783485944E-002  0.10732286248870322        0.0000000000000000     
   5.2235393195971425E-002  0.11417669829891343        0.0000000000000000     
   5.3610116497162359E-002  0.12116574502954387        0.0000000000000000     
   5.4918745687058769E-002  0.12829000268059459        0.0000000000000000     
   5.6161280765660619E-002  0.13554947125206557        0.0000000000000000     
   4.5293916206590047E-002  0.10690783305055945        0.0000000000000000     
   4.6591026727922265E-002  0.11377979294783198        0.0000000000000000     
   4.7827848984131290E-002  0.12078738235275421        0.0000000000000000     
   4.9004382975217156E-002  0.12793060126532613        0.0000000000000000     
   5.0120628701179844E-002  0.13520944968554774        0.0000000000000000     
   3.9921533783490594E-002  0.10653706341718507        0.0000000000000000     
   4.1077344169191593E-002  0.11342559144871574        0.0000000000000000     
   4.2178267122706586E-002  0.12045029303409945        0.0000000000000000     
   4.3224302644035567E-002  0.12761116817333620        0.0000000000000000     
   4.4215450733178542E-002  0.13490821686642601        0.0000000000000000     
   6.8649007184060598E-002  0.13634588062728964        0.0000000000000000     
   7.0072734811637866E-002  0.14368477052514406        0.0000000000000000     
   7.1425460675032443E-002  0.15113234980317902        0.0000000000000000     
   7.2707184774244302E-002  0.15868861846139451        0.0000000000000000     
   7.3917907109273484E-002  0.16635357649979052        0.0000000000000000     
   6.2337406926620868E-002  0.13592828156597955        0.0000000000000000     
   6.3637825205046808E-002  0.14328926782205972        0.0000000000000000     
   6.4871352716903780E-002  0.15075949050445958        0.0000000000000000     
   6.6037989462191748E-002  0.15833894961317907        0.0000000000000000     
   6.7137735440910756E-002  0.16602764514821816        0.0000000000000000     
   5.6161280765660619E-002  0.13554947125206557        0.0000000000000000     
   5.7339628070648276E-002  0.14293137444011250        0.0000000000000000     
   5.8455693939702048E-002  0.15042293594089098        0.0000000000000000     
   5.9509478372821945E-002  0.15802415575440101        0.0000000000000000     
   6.0500981370007964E-002  0.16573503388064270        0.0000000000000000     
   5.0120628701179844E-002  0.13520944968554774        0.0000000000000000     
   5.1178143408442248E-002  0.14261109037930234        0.0000000000000000     
   5.2178484343427270E-002  0.15012268611247326        0.0000000000000000     
   5.3121651506134883E-002  0.15774423688506051        0.0000000000000000     
   5.4007644896565080E-002  0.16547574269706405        0.0000000000000000     
   4.4215450733178542E-002  0.13490821686642601        0.0000000000000000     
   4.5153371218428752E-002  0.14232841563962928        0.0000000000000000     
   4.6039723928079423E-002  0.14985874101920643        0.0000000000000000     
   4.6874508862130550E-002  0.15749919300515741        0.0000000000000000     
   4.7657726020582145E-002  0.16524977159748228        0.0000000000000000     
   7.3917907109273484E-002  0.16635357649979052        0.0000000000000000     
   7.5055777235096405E-002  0.17411781988387814        0.0000000000000000     
   7.6118944706689548E-002  0.18197194457916843        0.0000000000000000     
   7.7107409524052900E-002  0.18991595058566141        0.0000000000000000     
   7.8021171687186475E-002  0.19794983790335702        0.0000000000000000     
   6.7137735440910756E-002  0.16602764514821816        0.0000000000000000     
   6.8168932514555566E-002  0.17381552602091008        0.0000000000000000     
   6.9129922544620998E-002  0.18169254114258784        0.0000000000000000     
   7.0020705531107036E-002  0.18965869051325152        0.0000000000000000     
   7.0841281474013668E-002  0.19771397413290112        0.0000000000000000     
   6.0500981370007964E-002  0.16573503388064270        0.0000000000000000     
   6.1428535140637390E-002  0.17354508713637215        0.0000000000000000     
   6.2290471894087540E-002  0.18144383233834566        0.0000000000000000     
   6.3086791630358366E-002  0.18943126948656325        0.0000000000000000     
   6.3817494349449916E-002  0.19750739858102490        0.0000000000000000     
   5.4007644896565080E-002  0.16547574269706405        0.0000000000000000     
   5.4834585113341855E-002  0.17330650323026434        0.0000000000000000     
   5.5600592755089134E-002  0.18122581816644182        0.0000000000000000     
   5.6305667821806925E-002  0.18923368750559644        0.0000000000000000     
   5.6949810313495233E-002  0.19733011124772826        0.0000000000000000     
   4.7657726020582145E-002  0.16524977159748228        0.0000000000000000     
   4.8387082432668982E-002  0.17309977430258669        0.0000000000000000     
   4.9060285127625829E-002  0.18103849862687635        0.0000000000000000     
   4.9677334105452692E-002  0.18906594457035120        0.0000000000000000     
   5.0238229366149564E-002  0.19718211213301129        0.0000000000000000     
   7.8021171687186475E-002  0.19794983790335702        0.0000000000000000     
   7.8860985404333506E-002  0.20606629530168336        0.0000000000000000     
   7.9627604883737199E-002  0.21425801155006841        0.0000000000000000     
   8.0321030125397611E-002  0.22252498664851211        0.0000000000000000     
   8.0941261129314712E-002  0.23086722059701456        0.0000000000000000     
   7.0841281474013668E-002  0.19771397413290112        0.0000000000000000     
   7.1589911556602770E-002  0.20585205713516203        0.0000000000000000     
   7.2264856962136179E-002  0.21406660465365976        0.0000000000000000     
   7.2866117690613880E-002  0.22235761668839427        0.0000000000000000     
   7.3393693742035915E-002  0.23072509323936560        0.0000000000000000     
   6.3817494349449916E-002  0.19750739858102490        0.0000000000000000     
   6.4479511820191057E-002  0.20566600562449658        0.0000000000000000     
   6.5069775811410671E-002  0.21390087661974430        0.0000000000000000     
   6.5588286323108744E-002  0.22221201156676823        0.0000000000000000     
   6.6035043355285275E-002  0.23059941046556817        0.0000000000000000     
   5.6949810313495233E-002  0.19733011124772826        0.0000000000000000     
   5.7529786195098361E-002  0.20550814076968690        0.0000000000000000     
   5.8042361431560677E-002  0.21376082744832220        0.0000000000000000     
   5.8487536022882147E-002  0.22208817128363398        0.0000000000000000     
   5.8865309969062814E-002  0.23049017227562238        0.0000000000000000     
   5.0238229366149564E-002  0.19718211213301129        0.0000000000000000     
   5.0740734681324673E-002  0.20537846257073317        0.0000000000000000     
   5.1182613822586195E-002  0.21364645713939326        0.0000000000000000     
   5.1563866789934146E-002  0.22198609583899154        0.0000000000000000     
   5.1884493583368524E-002  0.23039737866952811        0.0000000000000000     
   8.0941261129314712E-002  0.23086722059701456        0.0000000000000000     
   8.1477661091016118E-002  0.23930535871883102        0.0000000000000000     
   8.1919593206029401E-002  0.24786004633721667        0.0000000000000000     
   8.2267057474354588E-002  0.25653128345217158        0.0000000000000000     
   8.2520053895991666E-002  0.26531907006369582        0.0000000000000000     
   7.3393693742035915E-002  0.23072509323936560        0.0000000000000000     
   7.3844318758948438E-002  0.23918269346486920        0.0000000000000000     
   7.4214726383897672E-002  0.24774407652320055        0.0000000000000000     
   7.4504916616883590E-002  0.25640924241435964        0.0000000000000000     
   7.4714889457906233E-002  0.26517819113834645        0.0000000000000000     
   6.6035043355285275E-002  0.23059941046556817        0.0000000000000000     
   6.6412360163549219E-002  0.23906956784906097        0.0000000000000000     
   6.6722550003509490E-002  0.24762897825016325        0.0000000000000000     
   6.6965612875166100E-002  0.25627764166887512        0.0000000000000000     
   6.7141548778519050E-002  0.26501555810519634        0.0000000000000000     
   5.8865309969062814E-002  0.23049017227562238        0.0000000000000000     
   5.9181785304818442E-002  0.23896598187140633        0.0000000000000000     
   5.9443064064864888E-002  0.24751475151810481        0.0000000000000000     
   5.9649146249202110E-002  0.25613648121571791        0.0000000000000000     
   5.9800031857830158E-002  0.26483117096424552        0.0000000000000000     
   5.1884493583368524E-002  0.23039737866952811        0.0000000000000000     
   5.2152594182756147E-002  0.23887193553190525        0.0000000000000000     
   5.2376268567963860E-002  0.24740139632702526        0.0000000000000000     
   5.2555516738991649E-002  0.25598576105488818        0.0000000000000000     
   5.2690338695839535E-002  0.26462502971549395        0.0000000000000000     
   8.2520053895991666E-002  0.26531907006369582        0.0000000000000000     
   8.2717564560765386E-002  0.27424979196360166        0.0000000000000000     
   8.2898571558500445E-002  0.28334983494370158        0.0000000000000000     
   8.3063074889196842E-002  0.29261919900399563        0.0000000000000000     
   8.3211074552854605E-002  0.30205788414448365        0.0000000000000000     
   7.4714889457906233E-002  0.26517819113834645        0.0000000000000000     
   7.4885582589307137E-002  0.27404458640274931        0.0000000000000000     
   7.5057933693427836E-002  0.28300209191515657        0.0000000000000000     
   7.5231942770268373E-002  0.29205070767556823        0.0000000000000000     
   7.5407609819828719E-002  0.30119043368398424        0.0000000000000000     
   6.7141548778519050E-002  0.26501555810519634        0.0000000000000000     
   6.7290588245604924E-002  0.27381288213621791        0.0000000000000000     
   6.7452961808460304E-002  0.28263976833903037        0.0000000000000000     
   6.7628669467085165E-002  0.29149621671363368        0.0000000000000000     
   6.7817711221479546E-002  0.30038222726002806        0.0000000000000000     
   5.9800031857830158E-002  0.26483117096424552        0.0000000000000000     
   5.9932581529658788E-002  0.27355467916400739        0.0000000000000000     
   6.0083655903597821E-002  0.28226286421532282        0.0000000000000000     
   6.0253254979647265E-002  0.29095572611819215        0.0000000000000000     
   6.0441378757807092E-002  0.29963326487261510        0.0000000000000000     
   5.2690338695839535E-002  0.26462502971549395        0.0000000000000000     
   5.2811562441468708E-002  0.27326997748611764        0.0000000000000000     
   5.2950015978840408E-002  0.28187137954403413        0.0000000000000000     
   5.3105699307954619E-002  0.29042923588924335        0.0000000000000000     
   5.3278612428811351E-002  0.29894354652174543        0.0000000000000000     
   2.8942835617660721E-002   5.7180212647474547E-002   0.0000000000000000     
   3.0516859269487190E-002   6.2725710111003474E-002   0.0000000000000000     
   3.2026886617566197E-002   6.8459129380634615E-002   0.0000000000000000     
   3.3472917661897750E-002   7.4380470456367961E-002   0.0000000000000000     
   3.4854952402481855E-002   8.0489733338203501E-002   0.0000000000000000     
   2.4954203394800381E-002   5.6745061620355669E-002   0.0000000000000000     
   2.6356282250238769E-002   6.2300201057442751E-002   0.0000000000000000     
   2.7698277466588105E-002   6.8044916964684121E-002   0.0000000000000000     
   2.8980189043848407E-002   7.3979209342079771E-002   0.0000000000000000     
   3.0202016982019665E-002   8.0103078189629723E-002   0.0000000000000000     
   2.1136439839186519E-002   5.6368647734213732E-002   0.0000000000000000     
   2.2350484135837269E-002   6.1932160579466454E-002   0.0000000000000000     
   2.3510857549916882E-002   6.7686637150249779E-002   0.0000000000000000     
   2.4617560081425384E-002   7.3632077446563679E-002   0.0000000000000000     
   2.5670591730362759E-002   7.9768481468408217E-002   0.0000000000000000     
   1.7489544950819148E-002   5.6050970989048723E-002   0.0000000000000000     
   1.8499464926282686E-002   6.1621588677074596E-002   0.0000000000000000     
   1.9464626867552539E-002   6.7384289937331587E-002   0.0000000000000000     
   2.0385030774628689E-002   7.3339074769819712E-002   0.0000000000000000     
   2.1260676647511141E-002   7.9485943174538970E-002   0.0000000000000000     
   1.4013518729698252E-002   5.5792031384860649E-002   0.0000000000000000     
   1.4803224621575035E-002   6.1368485350267177E-002   0.0000000000000000     
   1.5559585419495059E-002   6.7137875325929575E-002   0.0000000000000000     
   1.6282601123458314E-002   7.3100201311847843E-002   0.0000000000000000     
   1.6972271733464814E-002   7.9255463308021995E-002   0.0000000000000000     
   3.4854952402481855E-002   8.0489733338203501E-002   0.0000000000000000     
   3.6184141180327679E-002   8.6770109306804843E-002   0.0000000000000000     
   3.7471634336444411E-002   9.3204789642835545E-002   0.0000000000000000     
   3.8717431870832049E-002   9.9793774346295619E-002   0.0000000000000000     
   3.9921533783490594E-002  0.10653706341718507        0.0000000000000000     
   3.0202016982019665E-002   8.0103078189629723E-002   0.0000000000000000     
   3.1374727872332885E-002   8.6398782148673303E-002   0.0000000000000000     
   3.2509288306019082E-002   9.2848579860549868E-002   0.0000000000000000     
   3.3605698283078252E-002   9.9452471325259403E-002   0.0000000000000000     
   3.4663957803510392E-002  0.10621045654280191        0.0000000000000000     
   2.5670591730362759E-002   7.9768481468408217E-002   0.0000000000000000     
   2.6680059250202209E-002   8.6077360501442046E-002   0.0000000000000000     
   2.7656069394416949E-002   9.2540225831323916E-002   0.0000000000000000     
   2.8598622163006959E-002   9.9157077458053813E-002   0.0000000000000000     
   2.9507717555972254E-002  0.10592791538163174        0.0000000000000000     
   2.1260676647511141E-002   7.9485943174538970E-002   0.0000000000000000     
   2.2100135313935662E-002   8.5805844365111072E-002   0.0000000000000000     
   2.2911977601638007E-002   9.2279727555157676E-002   0.0000000000000000     
   2.3696203510618182E-002   9.8907592744678849E-002   0.0000000000000000     
   2.4452813040876181E-002  0.10568943993367452        0.0000000000000000     
   1.6972271733464814E-002   7.9255463308021995E-002   0.0000000000000000     
   1.7634956063533231E-002   8.5584233739680327E-002   0.0000000000000000     
   1.8277012927682267E-002   9.2067085032051174E-002   0.0000000000000000     
   1.8898442325911917E-002   9.8704017185134482E-002   0.0000000000000000     
   1.9499244258222179E-002  0.10549503019893033        0.0000000000000000     
   3.9921533783490594E-002  0.10653706341718507        0.0000000000000000     
   4.1077344169191593E-002  0.11342559144871574        0.0000000000000000     
   4.2178267122706586E-002  0.12045029303409945        0.0000000000000000     
   4.3224302644035567E-002  0.12761116817333620        0.0000000000000000     
   4.4215450733178542E-002  0.13490821686642601        0.0000000000000000     
   3.4663957803510392E-002  0.10621045654280191        0.0000000000000000     
   3.5678470929185482E-002  0.11311385988926140        0.0000000000000000     
   3.6643641721973472E-002  0.12015400574072177        0.0000000000000000     
   3.7559470181874374E-002  0.12733089409718315        0.0000000000000000     
   3.8425956308888197E-002  0.13464452495864537        0.0000000000000000     
   2.9507717555972254E-002  0.10592791538163174        0.0000000000000000     
   3.0378532417309957E-002  0.11284436435716565        0.0000000000000000     
   3.1206243591017192E-002  0.11989804913976346        0.0000000000000000     
   3.1990851077093964E-002  0.12708896972942518        0.0000000000000000     
   3.2732354875540270E-002  0.13441712612615081        0.0000000000000000     
   2.4452813040876181E-002  0.10568943993367452        0.0000000000000000     
   2.5177528633565031E-002  0.11261710485242850        0.0000000000000000     
   2.5866072729837743E-002  0.11968242323122445        0.0000000000000000     
   2.6518445329694319E-002  0.12688539507006238        0.0000000000000000     
   2.7134646433134759E-002  0.13422602036894227        0.0000000000000000     
   1.9499244258222179E-002  0.10549503019893033        0.0000000000000000     
   2.0075459577950702E-002  0.11243208137504998        0.0000000000000000     
   2.0623129138435121E-002  0.11950712801510477        0.0000000000000000     
   2.1142252939675449E-002  0.12672017011909467        0.0000000000000000     
   2.1632830981671677E-002  0.13407120768701974        0.0000000000000000     
   4.4215450733178542E-002  0.13490821686642601        0.0000000000000000     
   4.5153371218428752E-002  0.14232841563962928        0.0000000000000000     
   4.6039723928079423E-002  0.14985874101920643        0.0000000000000000     
   4.6874508862130550E-002  0.15749919300515741        0.0000000000000000     
   4.7657726020582145E-002  0.16524977159748228        0.0000000000000000     
   3.8425956308888197E-002  0.13464452495864537        0.0000000000000000     
   3.9244947539960315E-002  0.14208165268454462        0.0000000000000000     
   4.0018291312036158E-002  0.14962903163431679        0.0000000000000000     
   4.0745987625115700E-002  0.15728666180796191        0.0000000000000000     
   4.1428036479198953E-002  0.16505454320547996        0.0000000000000000     
   3.2732354875540270E-002  0.13441712612615081        0.0000000000000000     
   3.3432508412389511E-002  0.14186910397749952        0.0000000000000000     
   3.4093065113675103E-002  0.14943148893103064        0.0000000000000000     
   3.4714024979397039E-002  0.15710428098674400        0.0000000000000000     
   3.5295388009555319E-002  0.16488748014463980        0.0000000000000000     
   2.7134646433134759E-002  0.13422602036894227        0.0000000000000000     
   2.7716053835716323E-002  0.14169076951849413        0.0000000000000000     
   2.8264045332996257E-002  0.14926611290934799        0.0000000000000000     
   2.8778620924974567E-002  0.15695205054150385        0.0000000000000000     
   2.9259780611651246E-002  0.16474858241496174        0.0000000000000000     
   2.1632830981671677E-002  0.13407120768701974        0.0000000000000000     
   2.2095583809940752E-002  0.14154664930752830        0.0000000000000000     
   2.2531231969999621E-002  0.14913290356926887        0.0000000000000000     
   2.2939775461848284E-002  0.15682997047224131        0.0000000000000000     
   2.3321214285486742E-002  0.16463785001644576        0.0000000000000000     
   4.7657726020582145E-002  0.16524977159748228        0.0000000000000000     
   4.8387082432668982E-002  0.17309977430258669        0.0000000000000000     
   4.9060285127625829E-002  0.18103849862687635        0.0000000000000000     
   4.9677334105452692E-002  0.18906594457035120        0.0000000000000000     
   5.0238229366149564E-002  0.19718211213301129        0.0000000000000000     
   4.1428036479198953E-002  0.16505454320547996        0.0000000000000000     
   4.2061800613312300E-002  0.17292201686726871        0.0000000000000000     
   4.2644642766482131E-002  0.18087842383372582        0.0000000000000000     
   4.3176562938708453E-002  0.18892376410485132        0.0000000000000000     
   4.3657561129991265E-002  0.19705803768064520        0.0000000000000000     
   3.5295388009555319E-002  0.16488748014463980        0.0000000000000000     
   3.5834513169965367E-002  0.17277034743824005        0.0000000000000000     
   3.6328759426442592E-002  0.18074214390106702        0.0000000000000000     
   3.6778126778987001E-002  0.18880286953312067        0.0000000000000000     
   3.7182615227598602E-002  0.19695252433440108        0.0000000000000000     
   2.9259780611651246E-002  0.16474858241496174        0.0000000000000000     
   2.9705220102628174E-002  0.17264476601550066        0.0000000000000000     
   3.0112635107507207E-002  0.18062965882889986        0.0000000000000000     
   3.0482025626288344E-002  0.18870326085515932        0.0000000000000000     
   3.0813391658971588E-002  0.19686557209427896        0.0000000000000000     
   2.3321214285486742E-002  0.16463785001644576        0.0000000000000000     
   2.3673921411300723E-002  0.17254527259905061        0.0000000000000000     
   2.3996269809675966E-002  0.18054096861722441        0.0000000000000000     
   2.4288259480612463E-002  0.18862493807096717        0.0000000000000000     
   2.4549890424110217E-002  0.19679718096027890        0.0000000000000000     
   5.0238229366149564E-002  0.19718211213301129        0.0000000000000000     
   5.0740734681324673E-002  0.20537846257073317        0.0000000000000000     
   5.1182613822586195E-002  0.21364645713939326        0.0000000000000000     
   5.1563866789934146E-002  0.22198609583899154        0.0000000000000000     
   5.1884493583368524E-002  0.23039737866952811        0.0000000000000000     
   4.3657561129991265E-002  0.19705803768064520        0.0000000000000000     
   4.4086763954558641E-002  0.20527075915303405        0.0000000000000000     
   4.4463298026638683E-002  0.21355144311394456        0.0000000000000000     
   4.4787163346231368E-002  0.22190008956337662        0.0000000000000000     
   4.5058359913336711E-002  0.23031669850133035        0.0000000000000000     
   3.7182615227598602E-002  0.19695252433440108        0.0000000000000000     
   3.7542280690488941E-002  0.20517881864198845        0.0000000000000000     
   3.7857179085869566E-002  0.21346946279296303        0.0000000000000000     
   3.8127310413740498E-002  0.22182445678732485        0.0000000000000000     
   3.8352674674101708E-002  0.23024380062507394        0.0000000000000000     
   3.0813391658971588E-002  0.19686557209427896        0.0000000000000000     
   3.1107284889115554E-002  0.20510264103759634        0.0000000000000000     
   3.1364257000278867E-002  0.21340051617644878        0.0000000000000000     
   3.1584307992461515E-002  0.22175919751083631        0.0000000000000000     
   3.1767437865663509E-002  0.23017868504075892        0.0000000000000000     
   2.4549890424110217E-002  0.19679718096027890        0.0000000000000000     
   2.4781776550438499E-002  0.20504222633985769        0.0000000000000000     
   2.4984531769866567E-002  0.21334460326440172        0.0000000000000000     
   2.5158156082394439E-002  0.22170431173391089        0.0000000000000000     
   2.5302649488022105E-002  0.23012135174838530        0.0000000000000000     
   5.1884493583368524E-002  0.23039737866952811        0.0000000000000000     
   5.2152594182756147E-002  0.23887193553190525        0.0000000000000000     
   5.2376268567963860E-002  0.24740139632702526        0.0000000000000000     
   5.2555516738991649E-002  0.25598576105488818        0.0000000000000000     
   5.2690338695839535E-002  0.26462502971549395        0.0000000000000000     
   4.5058359913336711E-002  0.23031669850133035        0.0000000000000000     
   4.5285700792228378E-002  0.23878600023699287        0.0000000000000000     
   4.5477999047180036E-002  0.24729272507955133        0.0000000000000000     
   4.5635254678191677E-002  0.25583687302900587        0.0000000000000000     
   4.5757467685263294E-002  0.26441844408535636        0.0000000000000000     
   3.8352674674101708E-002  0.23024380062507394        0.0000000000000000     
   3.8542019128101228E-002  0.23870674739310430        0.0000000000000000     
   3.8704091036887038E-002  0.24719255017830996        0.0000000000000000     
   3.8838890400459153E-002  0.25570120898069093        0.0000000000000000     
   3.8946417218817565E-002  0.26423272380024732        0.0000000000000000     
   3.1767437865663509E-002  0.23017868504075892        0.0000000000000000     
   3.1921549190374682E-002  0.23863417700023959        0.0000000000000000     
   3.2054544537084874E-002  0.24710087162330108        0.0000000000000000     
   3.2166423905794099E-002  0.25557876890994352        0.0000000000000000     
   3.2257187296502336E-002  0.26406786886016681        0.0000000000000000     
   2.5302649488022105E-002  0.23012135174838530        0.0000000000000000     
   2.5424290979048744E-002  0.23856828905839866        0.0000000000000000     
   2.5529359547773540E-002  0.24701768941452470        0.0000000000000000     
   2.5617855194196498E-002  0.25546955281676348        0.0000000000000000     
   2.5689777918317613E-002  0.26392387926511490        0.0000000000000000     
   5.2690338695839535E-002  0.26462502971549395        0.0000000000000000     
   5.2811562441468708E-002  0.27326997748611764        0.0000000000000000     
   5.2950015978840408E-002  0.28187137954403413        0.0000000000000000     
   5.3105699307954619E-002  0.29042923588924335        0.0000000000000000     
   5.3278612428811351E-002  0.29894354652174543        0.0000000000000000     
   4.5757467685263294E-002  0.26441844408535636        0.0000000000000000     
   4.5868778295237972E-002  0.27298748501863024        0.0000000000000000     
   4.5993326734958789E-002  0.28149404259885480        0.0000000000000000     
   4.6131113004425732E-002  0.28993811682603016        0.0000000000000000     
   4.6282137103638793E-002  0.29831970770015631        0.0000000000000000     
   3.8946417218817565E-002  0.26423272380024732        0.0000000000000000     
   3.9045476405169879E-002  0.27273590967762640        0.0000000000000000     
   3.9154872872723699E-002  0.28115958165347571        0.0000000000000000     
   3.9274606621479032E-002  0.28950373972779531        0.0000000000000000     
   3.9404677651435877E-002  0.29776838390058513        0.0000000000000000     
   3.2257187296502336E-002  0.26406786886016681        0.0000000000000000     
   3.2341656771264417E-002  0.27251525146310618        0.0000000000000000     
   3.2434654392135158E-002  0.28086799670789681        0.0000000000000000     
   3.2536180159114546E-002  0.28912610459453875        0.0000000000000000     
   3.2646234072202601E-002  0.29728957512303189        0.0000000000000000     
   2.5689777918317613E-002  0.26392387926511490        0.0000000000000000     
   2.5757319393521588E-002  0.27232551037506958        0.0000000000000000     
   2.5832671293193138E-002  0.28061928776211809        0.0000000000000000     
   2.5915833617332264E-002  0.28880521142626037        0.0000000000000000     
   2.6006806365938960E-002  0.29688328136749653        0.0000000000000000     
   1.4013518729698252E-002   5.5792031384860649E-002   0.0000000000000000     
   1.4803224621575035E-002   6.1368485350267177E-002   0.0000000000000000     
   1.5559585419495059E-002   6.7137875325929575E-002   0.0000000000000000     
   1.6282601123458314E-002   7.3100201311847843E-002   0.0000000000000000     
   1.6972271733464814E-002   7.9255463308021995E-002   0.0000000000000000     
   1.0594729893196930E-002   5.5591156730388828E-002   0.0000000000000000     
   1.1163884943252376E-002   6.1172162441151902E-002   0.0000000000000000     
   1.1711276207347342E-002   6.6946733054142893E-002   0.0000000000000000     
   1.2236903685481823E-002   7.2914868569361815E-002   0.0000000000000000     
   1.2740767377655816E-002   7.9076568986808621E-002   0.0000000000000000     
   7.1195471586882712E-003   5.5447674834372608E-002   0.0000000000000000     
   7.4835676128527798E-003   6.1031931791836476E-002   0.0000000000000000     
   7.8352422327122723E-003   6.6810202860070708E-002   0.0000000000000000     
   8.1745710182667460E-003   7.2782488039075277E-002   0.0000000000000000     
   8.5015539695162037E-003   7.8948787328850176E-002   0.0000000000000000     
   3.5879705261722757E-003   5.5361585696811981E-002   0.0000000000000000     
   3.7622726303762457E-003   6.0947793402320913E-002   0.0000000000000000     
   3.9314834955898516E-003   6.6728284743713021E-002   0.0000000000000000     
   4.0956031218130941E-003   7.2703059720988256E-002   0.0000000000000000     
   4.2546315090459712E-003   7.8872118334146660E-002   0.0000000000000000     
  -4.3510564075310842E-012   5.5332889317706940E-002   0.0000000000000000     
  -4.1772262732164833E-012   6.0919747272605212E-002   0.0000000000000000     
  -4.0199204642127340E-012   6.6700978705069816E-002   0.0000000000000000     
  -3.8791380589479896E-012   7.2676583615100765E-002   0.0000000000000000     
  -3.7548783526908380E-012   7.8846562002698059E-002   0.0000000000000000     
   1.6972271733464814E-002   7.9255463308021995E-002   0.0000000000000000     
   1.7634956063533231E-002   8.5584233739680327E-002   0.0000000000000000     
   1.8277012927682267E-002   9.2067085032051174E-002   0.0000000000000000     
   1.8898442325911917E-002   9.8704017185134482E-002   0.0000000000000000     
   1.9499244258222179E-002  0.10549503019893033        0.0000000000000000     
   1.2740767377655816E-002   7.9076568986808621E-002   0.0000000000000000     
   1.3226916128733815E-002   8.5412158103462199E-002   0.0000000000000000     
   1.3699398783580306E-002   9.1901959716301357E-002   0.0000000000000000     
   1.4158215342195290E-002   9.8545973825326108E-002   0.0000000000000000     
   1.4603365804578763E-002  0.10534420043053644        0.0000000000000000     
   8.5015539695162037E-003   7.8948787328850176E-002   0.0000000000000000     
   8.8184101392763045E-003   8.5289246934768970E-002   0.0000000000000000     
   9.1273585803627166E-003   9.1784013062205252E-002   0.0000000000000000     
   9.4283992927754363E-003   9.8433085711158955E-002   0.0000000000000000     
   9.7215322765144656E-003  0.10523646488163015        0.0000000000000000     
   4.2546315090459712E-003   7.8872118334146660E-002   0.0000000000000000     
   4.4094380951607004E-003   8.5215500233600680E-002   0.0000000000000000     
   4.5608923180294964E-003   9.1713245069762833E-002   0.0000000000000000     
   4.7089941776523583E-003   9.8365352842633119E-002   0.0000000000000000     
   4.8537436740292853E-003  0.10517182355221150        0.0000000000000000     
  -3.7548783526908380E-012   7.8846562002698059E-002   0.0000000000000000     
  -3.6129983553567779E-012   8.5190917999957302E-002   0.0000000000000000     
  -3.4193555105421769E-012   9.1689655738974127E-002   0.0000000000000000     
  -3.1739475414224727E-012   9.8342775219748504E-002   0.0000000000000000     
  -2.8767760743009241E-012  0.10515027644228049        0.0000000000000000     
   1.9499244258222179E-002  0.10549503019893033        0.0000000000000000     
   2.0075459577950702E-002  0.11243208137504998        0.0000000000000000     
   2.0623129138435121E-002  0.11950712801510477        0.0000000000000000     
   2.1142252939675449E-002  0.12672017011909467        0.0000000000000000     
   2.1632830981671677E-002  0.13407120768701974        0.0000000000000000     
   1.4603365804578763E-002  0.10534420043053644        0.0000000000000000     
   1.5031292085506678E-002  0.11228866409427782        0.0000000000000000     
   1.5438436099754984E-002  0.11937138937889574        0.0000000000000000     
   1.5824797847323682E-002  0.12659237628439018        0.0000000000000000     
   1.6190377328212765E-002  0.13395162481076117        0.0000000000000000     
   9.7215322765144656E-003  0.10523646488163015        0.0000000000000000     
   1.0003992991272687E-002  0.11218622317935974        0.0000000000000000     
   1.0273016896742976E-002  0.11927443321008864        0.0000000000000000     
   1.0528603992925338E-002  0.12650109497381690        0.0000000000000000     
   1.0770754279819770E-002  0.13386620847054448        0.0000000000000000     
   4.8537436740292853E-003  0.10517182355221150        0.0000000000000000     
   4.9935622952487196E-003  0.11212475863029572        0.0000000000000000     
   5.1268715293990999E-003  0.11921625950868350        0.0000000000000000     
   5.2536713764804246E-003  0.12644632618737478        0.0000000000000000     
   5.3739618364926937E-003  0.13381495866636964        0.0000000000000000     
  -2.8767760743009241E-012  0.10515027644228049        0.0000000000000000     
  -2.5652158348876686E-012  0.11210427044708582        0.0000000000000000     
  -2.2766432836163197E-012  0.11919686827468029        0.0000000000000000     
  -2.0110589625879638E-012  0.12642806992506395        0.0000000000000000     
  -1.7684621128610800E-012  0.13379787539823670        0.0000000000000000     
   2.1632830981671677E-002  0.13407120768701974        0.0000000000000000     
   2.2095583809940752E-002  0.14154664930752830        0.0000000000000000     
   2.2531231969999621E-002  0.14913290356926887        0.0000000000000000     
   2.2939775461848284E-002  0.15682997047224131        0.0000000000000000     
   2.3321214285486742E-002  0.16463785001644576        0.0000000000000000     
   1.6190377328212765E-002  0.13395162481076117        0.0000000000000000     
   1.6535251508976244E-002  0.14143551285645517        0.0000000000000000     
   1.6859497356168127E-002  0.14903041831991867        0.0000000000000000     
   1.7163114869788412E-002  0.15673634120115168        0.0000000000000000     
   1.7446104049837097E-002  0.16455328150015414        0.0000000000000000     
   1.0770754279819770E-002  0.13386620847054448        0.0000000000000000     
   1.0999210106736233E-002  0.14135612967712771        0.0000000000000000     
   1.1213713822984696E-002  0.14895721457042294        0.0000000000000000     
   1.1414265428565155E-002  0.15666946315043004        0.0000000000000000     
   1.1600864923477613E-002  0.16449287541714910        0.0000000000000000     
   5.3739618364926937E-003  0.13381495866636964        0.0000000000000000     
   5.4874596032207243E-003  0.14130849976954596        0.0000000000000000     
   5.5938813704493355E-003  0.14891329232078154        0.0000000000000000     
   5.6932271381785237E-003  0.15662933632007645        0.0000000000000000     
   5.7854969064082924E-003  0.16445663176743064        0.0000000000000000     
  -1.7684621128610800E-012  0.13379787539823670        0.0000000000000000     
  -1.5702851345611446E-012  0.14129262313370983        0.0000000000000000     
  -1.4379615120158062E-012  0.14889865157099455        0.0000000000000000     
  -1.3714888057701768E-012  0.15661596071009087        0.0000000000000000     
  -1.3708699973802307E-012  0.16444455055099880        0.0000000000000000     
   2.3321214285486742E-002  0.16463785001644576        0.0000000000000000     
   2.3673921411300723E-002  0.17254527259905061        0.0000000000000000     
   2.3996269809675966E-002  0.18054096861722441        0.0000000000000000     
   2.4288259480612463E-002  0.18862493807096717        0.0000000000000000     
   2.4549890424110217E-002  0.19679718096027890        0.0000000000000000     
   1.7446104049837097E-002  0.16455328150015414        0.0000000000000000     
   1.7707575195515458E-002  0.17246962936243271        0.0000000000000000     
   1.7946638606024759E-002  0.18047377493349409        0.0000000000000000     
   1.8163294281365008E-002  0.18856571821333820        0.0000000000000000     
   1.8357542221536197E-002  0.19674545920196518        0.0000000000000000     
   1.1600864923477613E-002  0.16449287541714910        0.0000000000000000     
   1.1773139554804806E-002  0.17241559847918989        0.0000000000000000     
   1.1930716569629476E-002  0.18042577944516239        0.0000000000000000     
   1.2073595967951621E-002  0.18852341831506639        0.0000000000000000     
   1.2201777749771240E-002  0.19670851508890203        0.0000000000000000     
   5.7854969064082924E-003  0.16445663176743064        0.0000000000000000     
   5.8706144891687755E-003  0.17238317994932223        0.0000000000000000     
   5.9485037004901129E-003  0.18039698215222924        0.0000000000000000     
   6.0191645403723047E-003  0.18849803837615170        0.0000000000000000     
   6.0825970088153498E-003  0.19668634862108961        0.0000000000000000     
  -1.3708699973802307E-012  0.16444455055099880        0.0000000000000000     
  -1.3926381749185257E-012  0.17237237377282963        0.0000000000000000     
  -1.3933305464258749E-012  0.18038738305469473        0.0000000000000000     
  -1.3729442387665214E-012  0.18848957839659414        0.0000000000000000     
  -1.3314809324538324E-012  0.19667895979852779        0.0000000000000000     
   2.4549890424110217E-002  0.19679718096027890        0.0000000000000000     
   2.4781776550438499E-002  0.20504222633985769        0.0000000000000000     
   2.4984531769866567E-002  0.21334460326440172        0.0000000000000000     
   2.5158156082394439E-002  0.22170431173391089        0.0000000000000000     
   2.5302649488022105E-002  0.23012135174838530        0.0000000000000000     
   1.8357542221536197E-002  0.19674545920196518        0.0000000000000000     
   1.8529842060459534E-002  0.20499625975099833        0.0000000000000000     
   1.8680653432056223E-002  0.21330138171206117        0.0000000000000000     
   1.8809976336326258E-002  0.22166082508515381        0.0000000000000000     
   1.8917810773269646E-002  0.23007458987027612        0.0000000000000000     
   1.2201777749771240E-002  0.19670851508890203        0.0000000000000000     
   1.2315567805180451E-002  0.20496342647324386        0.0000000000000000     
   1.2415272024271359E-002  0.21327050917466658        0.0000000000000000     
   1.2500890407043969E-002  0.22162976319317010        0.0000000000000000     
   1.2572422953498280E-002  0.23004118852875444        0.0000000000000000     
   6.0825970088153498E-003  0.19668634862108961        0.0000000000000000     
   6.1389537846012433E-003  0.20494372650659445        0.0000000000000000     
   6.1883875465119868E-003  0.21325198565221787        0.0000000000000000     
   6.2308982945475742E-003  0.22161112605795982        0.0000000000000000     
   6.2664860287080090E-003  0.23002114772382029        0.0000000000000000     
  -1.3314809324538324E-012  0.19667895979852779        0.0000000000000000     
  -1.2780839754589213E-012  0.20493715985104996        0.0000000000000000     
  -1.2219015946626777E-012  0.21324581114471500        0.0000000000000000     
  -1.1629292635210314E-012  0.22160491367952287        0.0000000000000000     
  -1.1011690691231646E-012  0.23001446745547360        0.0000000000000000     
   2.5302649488022105E-002  0.23012135174838530        0.0000000000000000     
   2.5424290979048744E-002  0.23856828905839866        0.0000000000000000     
   2.5529359547773540E-002  0.24701768941452470        0.0000000000000000     
   2.5617855194196498E-002  0.25546955281676348        0.0000000000000000     
   2.5689777918317613E-002  0.26392387926511490        0.0000000000000000     
   1.8917810773269646E-002  0.23007458987027612        0.0000000000000000     
   1.9008533531698797E-002  0.23851356068160467        0.0000000000000000     
   1.9086521400426146E-002  0.24694862213331598        0.0000000000000000     
   1.9151774379451678E-002  0.25537977422540997        0.0000000000000000     
   1.9204292468775402E-002  0.26380701695788666        0.0000000000000000     
   1.2572422953498280E-002  0.23004118852875444        0.0000000000000000     
   1.2632565885900242E-002  0.23847446898388069        0.0000000000000000     
   1.2684015426515798E-002  0.24689928836100991        0.0000000000000000     
   1.2726771575344959E-002  0.25531564666014211        0.0000000000000000     
   1.2760834332387717E-002  0.26372354388127722        0.0000000000000000     
   6.2664860287080090E-003  0.23002114772382029        0.0000000000000000     
   6.2963880416530621E-003  0.23845101396522672        0.0000000000000000     
   6.3218416260425059E-003  0.24686968809760657        0.0000000000000000     
   6.3428467818763398E-003  0.25527717012095985        0.0000000000000000     
   6.3594035091545636E-003  0.26367346003528647        0.0000000000000000     
  -1.1011690691231646E-012  0.23001446745547360        0.0000000000000000     
  -1.0427349088348858E-012  0.23844319562564276        0.0000000000000000     
  -9.9373775267613818E-013  0.24685982134310600        0.0000000000000000     
  -9.5417957931588637E-013  0.25526434460786324        0.0000000000000000     
  -9.2406074111983649E-013  0.26365676541991456        0.0000000000000000     
   2.5689777918317613E-002  0.26392387926511490        0.0000000000000000     
   2.5757319393521588E-002  0.27232551037506958        0.0000000000000000     
   2.5832671293193138E-002  0.28061928776211809        0.0000000000000000     
   2.5915833617332264E-002  0.28880521142626037        0.0000000000000000     
   2.6006806365938960E-002  0.29688328136749653        0.0000000000000000     
   1.9204292468775402E-002  0.26380701695788666        0.0000000000000000     
   1.9254039744124266E-002  0.27217301316586484        0.0000000000000000     
   1.9310980281225232E-002  0.28042042568446324        0.0000000000000000     
   1.9375114080078311E-002  0.28854925451368185        0.0000000000000000     
   1.9446441140683488E-002  0.29655949965352058        0.0000000000000000     
   1.2760834332387717E-002  0.26372354388127722        0.0000000000000000     
   1.2793393295255322E-002  0.27206408658784020        0.0000000000000000     
   1.2831638061559021E-002  0.28027838134325589        0.0000000000000000     
   1.2875568631298817E-002  0.28836642814752433        0.0000000000000000     
   1.2925185004474708E-002  0.29632822700064554        0.0000000000000000     
   6.3594035091545636E-003  0.26367346003528647        0.0000000000000000     
   6.3753800469147559E-003  0.27199873064099561        0.0000000000000000     
   6.3946446341944961E-003  0.28019315473849610        0.0000000000000000     
   6.4171972709937851E-003  0.28825673232778809        0.0000000000000000     
   6.4430379573126211E-003  0.29618946340887142        0.0000000000000000     
  -9.2406074111983649E-013  0.26365676541991456        0.0000000000000000     
  -8.9742926631664055E-013  0.27197694532533112        0.0000000000000000     
  -8.6833795362450950E-013  0.28016474587018381        0.0000000000000000     
  -8.3678495989975010E-013  0.28822016705447284        0.0000000000000000     
  -8.0277017672214512E-013  0.29614320887819812        0.0000000000000000     
  -4.3510564075310842E-012   5.5332889317706940E-002   0.0000000000000000     
  -4.1772262732164833E-012   6.0919747272605212E-002   0.0000000000000000     
  -4.0199204642127340E-012   6.6700978705069816E-002   0.0000000000000000     
  -3.8791380589479896E-012   7.2676583615100765E-002   0.0000000000000000     
  -3.7548783526908380E-012   7.8846562002698059E-002   0.0000000000000000     
  -3.5879705346360310E-003   5.5361585696580909E-002   0.0000000000000000     
  -3.7622726384780271E-003   6.0947793402396755E-002   0.0000000000000000     
  -3.9314835033721187E-003   6.6728284743984664E-002   0.0000000000000000     
  -4.0956031293183049E-003   7.2703059721344679E-002   0.0000000000000000     
  -4.2546315163165885E-003   7.8872118334476757E-002   0.0000000000000000     
  -7.1195471664369557E-003   5.5447674832957296E-002   0.0000000000000000     
  -7.4835676201965434E-003   6.1031931791402920E-002   0.0000000000000000     
  -7.8352422397218128E-003   6.6810202860301093E-002   0.0000000000000000     
  -8.1745710250127664E-003   7.2782488039651844E-002   0.0000000000000000     
  -8.5015539760694026E-003   7.8948787329455108E-002   0.0000000000000000     
  -1.0594729899753829E-002   5.5591156726836080E-002   0.0000000000000000     
  -1.1163884949332776E-002   6.1172162439623735E-002   0.0000000000000000     
  -1.1711276213069007E-002   6.6946733054019117E-002   0.0000000000000000     
  -1.2236903690962518E-002   7.2914868570022259E-002   0.0000000000000000     
  -1.2740767383013319E-002   7.9076568987633100E-002   0.0000000000000000     
  -1.4013518734586653E-002   5.5792031378217283E-002   0.0000000000000000     
  -1.4803224625886726E-002   6.1368485347059173E-002   0.0000000000000000     
  -1.5559585423413697E-002   6.7137875325138721E-002   0.0000000000000000     
  -1.6282601127167569E-002   7.3100201312455926E-002   0.0000000000000000     
  -1.6972271737148339E-002   7.9255463309010787E-002   0.0000000000000000     
  -3.7548783526908380E-012   7.8846562002698059E-002   0.0000000000000000     
  -3.6129983553567779E-012   8.5190917999957302E-002   0.0000000000000000     
  -3.4193555105421769E-012   9.1689655738974127E-002   0.0000000000000000     
  -3.1739475414224727E-012   9.8342775219748504E-002   0.0000000000000000     
  -2.8767760743009241E-012  0.10515027644228049        0.0000000000000000     
  -4.2546315163165885E-003   7.8872118334476757E-002   0.0000000000000000     
  -4.4094381021687543E-003   8.5215500233830010E-002   0.0000000000000000     
  -4.5608923246765838E-003   9.1713245069853580E-002   0.0000000000000000     
  -4.7089941838400788E-003   9.8365352842547438E-002   0.0000000000000000     
  -4.8537436796592401E-003  0.10517182355191158        0.0000000000000000     
  -8.5015539760694026E-003   7.8948787329455108E-002   0.0000000000000000     
  -8.8184101456305237E-003   8.5289246935210034E-002   0.0000000000000000     
  -9.1273585864349357E-003   9.1784013062415695E-002   0.0000000000000000     
  -9.4283992984826401E-003   9.8433085711072107E-002   0.0000000000000000     
  -9.7215322817736285E-003  0.10523646488117927        0.0000000000000000     
  -1.2740767383013319E-002   7.9076568987633100E-002   0.0000000000000000     
  -1.3226916133998314E-002   8.5412158104097330E-002   0.0000000000000000     
  -1.3699398788694419E-002   9.1901959716660445E-002   0.0000000000000000     
  -1.4158215347101622E-002   9.8545973825322514E-002   0.0000000000000000     
  -1.4603365809219939E-002  0.10534420043008354        0.0000000000000000     
  -1.6972271737148339E-002   7.9255463309010787E-002   0.0000000000000000     
  -1.7634956067272119E-002   8.5584233740491886E-002   0.0000000000000000     
  -1.8277012931455019E-002   9.2067085032587884E-002   0.0000000000000000     
  -1.8898442329697038E-002   9.8704017185298698E-002   0.0000000000000000     
  -1.9499244261998179E-002  0.10549503019862440        0.0000000000000000     
  -2.8767760743009241E-012  0.10515027644228049        0.0000000000000000     
  -2.5652158348876686E-012  0.11210427044708582        0.0000000000000000     
  -2.2766432836163197E-012  0.11919686827468029        0.0000000000000000     
  -2.0110589625879638E-012  0.12642806992506395        0.0000000000000000     
  -1.7684621128610800E-012  0.13379787539823670        0.0000000000000000     
  -4.8537436796592401E-003  0.10517182355191158        0.0000000000000000     
  -4.9935623002924090E-003  0.11212475862982851        0.0000000000000000     
  -5.1268715338979257E-003  0.11921625950818072        0.0000000000000000     
  -5.2536713804757868E-003  0.12644632618696822        0.0000000000000000     
  -5.3739618400260002E-003  0.13381495866619098        0.0000000000000000     
  -9.7215322817736285E-003  0.10523646488117927        0.0000000000000000     
  -1.0003992996056144E-002  0.11218622317862233        0.0000000000000000     
  -1.0273016901078413E-002  0.11927443320928643        0.0000000000000000     
  -1.0528603996840438E-002  0.12650109497317163        0.0000000000000000     
  -1.0770754283342220E-002  0.13386620847027789        0.0000000000000000     
  -1.4603365809219939E-002  0.10534420043008354        0.0000000000000000     
  -1.5031292089856416E-002  0.11228866409346727        0.0000000000000000     
  -1.5438436103818108E-002  0.11937138937799747        0.0000000000000000     
  -1.5824797851105011E-002  0.12659237628367420        0.0000000000000000     
  -1.6190377331717121E-002  0.13395162481049744        0.0000000000000000     
  -1.9499244261998179E-002  0.10549503019862440        0.0000000000000000     
  -2.0075459581693236E-002  0.11243208137436331        0.0000000000000000     
  -2.0623129142117006E-002  0.11950712801431380        0.0000000000000000     
  -2.1142252943269501E-002  0.12672017011847589        0.0000000000000000     
  -2.1632830985150710E-002  0.13407120768684960        0.0000000000000000     
  -1.7684621128610800E-012  0.13379787539823670        0.0000000000000000     
  -1.5702851345611446E-012  0.14129262313370983        0.0000000000000000     
  -1.4379615120158062E-012  0.14889865157099455        0.0000000000000000     
  -1.3714888057701768E-012  0.15661596071009087        0.0000000000000000     
  -1.3708699973802307E-012  0.16444455055099880        0.0000000000000000     
  -5.3739618400260002E-003  0.13381495866619098        0.0000000000000000     
  -5.4874596063738176E-003  0.14130849976962195        0.0000000000000000     
  -5.5938813733444987E-003  0.14891329232103415        0.0000000000000000     
  -5.6932271409380428E-003  0.15662933632042753        0.0000000000000000     
  -5.7854969091544542E-003  0.16445663176780206        0.0000000000000000     
  -1.0770754283342220E-002  0.13386620847027789        0.0000000000000000     
  -1.0999210109926889E-002  0.14135612967728489        0.0000000000000000     
  -1.1213713825937588E-002  0.14895721457087244        0.0000000000000000     
  -1.1414265431374304E-002  0.15666946315104049        0.0000000000000000     
  -1.1600864926237044E-002  0.16449287541778904        0.0000000000000000     
  -1.6190377331717121E-002  0.13395162481049744        0.0000000000000000     
  -1.6535251512229510E-002  0.14143551285669867        0.0000000000000000     
  -1.6859497359217220E-002  0.14903041832050945        0.0000000000000000     
  -1.7163114872680265E-002  0.15673634120192978        0.0000000000000000     
  -1.7446104052618643E-002  0.16455328150095966        0.0000000000000000     
  -2.1632830985150710E-002  0.13407120768684960        0.0000000000000000     
  -2.2095583813281666E-002  0.14154664930786326        0.0000000000000000     
  -2.2531231973183411E-002  0.14913290356994519        0.0000000000000000     
  -2.2939775464855934E-002  0.15682997047309541        0.0000000000000000     
  -2.3321214288299245E-002  0.16463785001731396        0.0000000000000000     
  -1.3708699973802307E-012  0.16444455055099880        0.0000000000000000     
  -1.3926381749185257E-012  0.17237237377282963        0.0000000000000000     
  -1.3933305464258749E-012  0.18038738305469473        0.0000000000000000     
  -1.3729442387665214E-012  0.18848957839659414        0.0000000000000000     
  -1.3314809324538324E-012  0.19667895979852779        0.0000000000000000     
  -5.7854969091544542E-003  0.16445663176780206        0.0000000000000000     
  -5.8706144919436001E-003  0.17238317994966310        0.0000000000000000     
  -5.9485037032553558E-003  0.18039698215251584        0.0000000000000000     
  -6.0191645430897195E-003  0.18849803837636034        0.0000000000000000     
  -6.0825970114466929E-003  0.19668634862119655        0.0000000000000000     
  -1.1600864926237044E-002  0.16449287541778904        0.0000000000000000     
  -1.1773139557548279E-002  0.17241559847977356        0.0000000000000000     
  -1.1930716572330472E-002  0.18042577944564955        0.0000000000000000     
  -1.2073595970583622E-002  0.18852341831541700        0.0000000000000000     
  -1.2201777752307730E-002  0.19670851508907597        0.0000000000000000     
  -1.7446104052618643E-002  0.16455328150095966        0.0000000000000000     
  -1.7707575198206666E-002  0.17246962936316101        0.0000000000000000     
  -1.7946638608618670E-002  0.18047377493409583        0.0000000000000000     
  -1.8163294283854648E-002  0.18856571821376414        0.0000000000000000     
  -1.8357542223914603E-002  0.19674545920216591        0.0000000000000000     
  -2.3321214288299245E-002  0.16463785001731396        0.0000000000000000     
  -2.3673921413918782E-002  0.17254527259982549        0.0000000000000000     
  -2.3996269812119962E-002  0.18054096861785476        0.0000000000000000     
  -2.4288259482902804E-002  0.18862493807140174        0.0000000000000000     
  -2.4549890426267297E-002  0.19679718096046642        0.0000000000000000     
  -1.3314809324538324E-012  0.19667895979852779        0.0000000000000000     
  -1.2780839754589213E-012  0.20493715985104996        0.0000000000000000     
  -1.2219015946626777E-012  0.21324581114471500        0.0000000000000000     
  -1.1629292635210314E-012  0.22160491367952287        0.0000000000000000     
  -1.1011690691231646E-012  0.23001446745547360        0.0000000000000000     
  -6.0825970114466929E-003  0.19668634862119655        0.0000000000000000     
  -6.1389537871250986E-003  0.20494372650660331        0.0000000000000000     
  -6.1883875489237676E-003  0.21325198565215925        0.0000000000000000     
  -6.2308982968426931E-003  0.22161112605786448        0.0000000000000000     
  -6.2664860308818821E-003  0.23002114772371896        0.0000000000000000     
  -1.2201777752307730E-002  0.19670851508907597        0.0000000000000000     
  -1.2315567807607362E-002  0.20496342647324725        0.0000000000000000     
  -1.2415272026587078E-002  0.21327050917455187        0.0000000000000000     
  -1.2500890409246875E-002  0.22162976319298971        0.0000000000000000     
  -1.2572422955586754E-002  0.23004118852856090        0.0000000000000000     
  -1.8357542223914603E-002  0.19674545920216591        0.0000000000000000     
  -1.8529842062724875E-002  0.20499625975098185        0.0000000000000000     
  -1.8680653434211835E-002  0.21330138171189278        0.0000000000000000     
  -1.8809976338375473E-002  0.22166082508489859        0.0000000000000000     
  -1.8917810775215788E-002  0.23007458986999943        0.0000000000000000     
  -2.4549890426267297E-002  0.19679718096046642        0.0000000000000000     
  -2.4781776552477638E-002  0.20504222633980707        0.0000000000000000     
  -2.4984531771798039E-002  0.21334460326418203        0.0000000000000000     
  -2.5158156084228486E-002  0.22170431173359118        0.0000000000000000     
  -2.5302649489768979E-002  0.23012135174803455        0.0000000000000000     
  -1.1011690691231646E-012  0.23001446745547360        0.0000000000000000     
  -1.0427349088348858E-012  0.23844319562564276        0.0000000000000000     
  -9.9373775267613818E-013  0.24685982134310600        0.0000000000000000     
  -9.5417957931588637E-013  0.25526434460786324        0.0000000000000000     
  -9.2406074111983649E-013  0.26365676541991456        0.0000000000000000     
  -6.2664860308818821E-003  0.23002114772371896        0.0000000000000000     
  -6.2963880437124885E-003  0.23845101396513099        0.0000000000000000     
  -6.3218416280056760E-003  0.24686968809750898        0.0000000000000000     
  -6.3428467837614421E-003  0.25527717012085283        0.0000000000000000     
  -6.3594035109797910E-003  0.26367346003516262        0.0000000000000000     
  -1.2572422955586754E-002  0.23004118852856090        0.0000000000000000     
  -1.2632565887881538E-002  0.23847446898369368        0.0000000000000000     
  -1.2684015428406050E-002  0.24689928836081645        0.0000000000000000     
  -1.2726771577160295E-002  0.25531564665992917        0.0000000000000000     
  -1.2760834334144265E-002  0.26372354388103181        0.0000000000000000     
  -1.8917810775215788E-002  0.23007458986999943        0.0000000000000000     
  -1.9008533533549886E-002  0.23851356068133078        0.0000000000000000     
  -1.9086521402194866E-002  0.24694862213302837        0.0000000000000000     
  -1.9151774381150725E-002  0.25537977422509223        0.0000000000000000     
  -1.9204292470417474E-002  0.26380701695752229        0.0000000000000000     
  -2.5302649489768979E-002  0.23012135174803455        0.0000000000000000     
  -2.5424290980717523E-002  0.23856828905804239        0.0000000000000000     
  -2.5529359549372112E-002  0.24701768941414487        0.0000000000000000     
  -2.5617855195732751E-002  0.25546955281634204        0.0000000000000000     
  -2.5689777919799432E-002  0.26392387926463379        0.0000000000000000     
  -9.2406074111983649E-013  0.26365676541991456        0.0000000000000000     
  -8.9742926631664055E-013  0.27197694532533112        0.0000000000000000     
  -8.6833795362450950E-013  0.28016474587018381        0.0000000000000000     
  -8.3678495989975010E-013  0.28822016705447284        0.0000000000000000     
  -8.0277017672214512E-013  0.29614320887819812        0.0000000000000000     
  -6.3594035109797910E-003  0.26367346003516262        0.0000000000000000     
  -6.3753800486868618E-003  0.27199873064084895        0.0000000000000000     
  -6.3946446359087984E-003  0.28019315473832235        0.0000000000000000     
  -6.4171972726455992E-003  0.28825673232758292        0.0000000000000000     
  -6.4430379588972676E-003  0.29618946340863056        0.0000000000000000     
  -1.2760834334144265E-002  0.26372354388103181        0.0000000000000000     
  -1.2793393296959166E-002  0.27206408658755143        0.0000000000000000     
  -1.2831638063206202E-002  0.28027838134291494        0.0000000000000000     
  -1.2875568632885370E-002  0.28836642814712232        0.0000000000000000     
  -1.2925185005996674E-002  0.29632822700017353        0.0000000000000000     
  -1.9204292470417474E-002  0.26380701695752229        0.0000000000000000     
  -1.9254039745714335E-002  0.27217301316543868        0.0000000000000000     
  -1.9310980282760539E-002  0.28042042568396158        0.0000000000000000     
  -1.9375114081556094E-002  0.28854925451309105        0.0000000000000000     
  -1.9446441142100986E-002  0.29655949965282713        0.0000000000000000     
  -2.5689777919799432E-002  0.26392387926463379        0.0000000000000000     
  -2.5757319394952377E-002  0.27232551037451053        0.0000000000000000     
  -2.5832671294571834E-002  0.28061928776146228        0.0000000000000000     
  -2.5915833618657767E-002  0.28880521142548926        0.0000000000000000     
  -2.6006806367210207E-002  0.29688328136659126        0.0000000000000000     
  -1.4013518734586653E-002   5.5792031378217283E-002   0.0000000000000000     
  -1.4803224625886726E-002   6.1368485347059173E-002   0.0000000000000000     
  -1.5559585423413697E-002   6.7137875325138721E-002   0.0000000000000000     
  -1.6282601127167569E-002   7.3100201312455926E-002   0.0000000000000000     
  -1.6972271737148339E-002   7.9255463309010787E-002   0.0000000000000000     
  -1.7489544954102862E-002   5.6050970978963791E-002   0.0000000000000000     
  -1.8499464928853349E-002   6.1621588671875824E-002   0.0000000000000000     
  -1.9464626869658223E-002   6.7384289935606398E-002   0.0000000000000000     
  -2.0385030776517498E-002   7.3339074770155471E-002   0.0000000000000000     
  -2.1260676649431143E-002   7.9485943175523058E-002   0.0000000000000000     
  -2.1136439841469887E-002   5.6368647720938483E-002   0.0000000000000000     
  -2.2350484137227615E-002   6.1932160572240276E-002   0.0000000000000000     
  -2.3510857550704943E-002   6.7686637147368625E-002   0.0000000000000000     
  -2.4617560081901878E-002   7.3632077446323496E-002   0.0000000000000000     
  -2.5670591730818416E-002   7.9768481469104924E-002   0.0000000000000000     
  -2.4954203396687732E-002   5.6745061604141382E-002   0.0000000000000000     
  -2.6356282251009517E-002   6.2300201048152530E-002   0.0000000000000000     
  -2.7698277466553844E-002   6.8044916960425403E-002   0.0000000000000000     
  -2.8980189043320722E-002   7.3979209340960014E-002   0.0000000000000000     
  -3.0202016981310149E-002   8.0103078189756302E-002   0.0000000000000000     
  -2.8942835619756399E-002   5.7180212628572466E-002   0.0000000000000000     
  -3.0516859270199051E-002   6.2725710099612558E-002   0.0000000000000000     
  -3.2026886617204924E-002   6.8459129374776731E-002   0.0000000000000000     
  -3.3472917660774024E-002   7.4380470454064984E-002   0.0000000000000000     
  -3.4854952400906344E-002   8.0489733337477290E-002   0.0000000000000000     
  -1.6972271737148339E-002   7.9255463309010787E-002   0.0000000000000000     
  -1.7634956067272119E-002   8.5584233740491886E-002   0.0000000000000000     
  -1.8277012931455019E-002   9.2067085032587884E-002   0.0000000000000000     
  -1.8898442329697038E-002   9.8704017185298698E-002   0.0000000000000000     
  -1.9499244261998179E-002  0.10549503019862440        0.0000000000000000     
  -2.1260676649431143E-002   7.9485943175523058E-002   0.0000000000000000     
  -2.2100135316022375E-002   8.5805844365986220E-002   0.0000000000000000     
  -2.2911977603914380E-002   9.2279727555822033E-002   0.0000000000000000     
  -2.3696203513107153E-002   9.8907592745030470E-002   0.0000000000000000     
  -2.4452813043600700E-002  0.10568943993361152        0.0000000000000000     
  -2.5670591730818416E-002   7.9768481469104924E-002   0.0000000000000000     
  -2.6680059250819510E-002   8.6077360502172781E-002   0.0000000000000000     
  -2.7656069395270114E-002   9.2540225831987011E-002   0.0000000000000000     
  -2.8598622164170237E-002   9.9157077458547641E-002   0.0000000000000000     
  -2.9507717557519863E-002  0.10592791538185466        0.0000000000000000     
  -3.0202016981310149E-002   8.0103078189756302E-002   0.0000000000000000     
  -3.1374727871663517E-002   8.6398782149051542E-002   0.0000000000000000     
  -3.2509288305522223E-002   9.2848579861082844E-002   0.0000000000000000     
  -3.3605698282886280E-002   9.9452471325850264E-002   0.0000000000000000     
  -3.4663957803755675E-002  0.10621045654335376        0.0000000000000000     
  -3.4854952400906344E-002   8.0489733337477290E-002   0.0000000000000000     
  -3.6184141178554410E-002   8.6770109306622503E-002   0.0000000000000000     
  -3.7471634334670732E-002   9.3204789643109520E-002   0.0000000000000000     
  -3.8717431869255296E-002   9.9793774346938299E-002   0.0000000000000000     
  -3.9921533782308130E-002  0.10653706341810887        0.0000000000000000     
  -1.9499244261998179E-002  0.10549503019862440        0.0000000000000000     
  -2.0075459581693236E-002  0.11243208137436331        0.0000000000000000     
  -2.0623129142117006E-002  0.11950712801431380        0.0000000000000000     
  -2.1142252943269501E-002  0.12672017011847589        0.0000000000000000     
  -2.1632830985150710E-002  0.13407120768684960        0.0000000000000000     
  -2.4452813043600700E-002  0.10568943993361152        0.0000000000000000     
  -2.5177528636509461E-002  0.11261710485202142        0.0000000000000000     
  -2.5866072732947873E-002  0.11968242323071633        0.0000000000000000     
  -2.6518445332915946E-002  0.12688539506969629        0.0000000000000000     
  -2.7134646436413671E-002  0.13422602036896125        0.0000000000000000     
  -2.9507717557519863E-002  0.10592791538185466        0.0000000000000000     
  -3.0378532419247956E-002  0.11284436435715257        0.0000000000000000     
  -3.1206243593283462E-002  0.11989804913968599        0.0000000000000000     
  -3.1990851079626376E-002  0.12708896972945491        0.0000000000000000     
  -3.2732354878276700E-002  0.13441712612645923        0.0000000000000000     
  -3.4663957803755675E-002  0.10621045654335376        0.0000000000000000     
  -3.5678470929908737E-002  0.11311385988975681        0.0000000000000000     
  -3.6643641723123767E-002  0.12015400574122277        0.0000000000000000     
  -3.7559470183400806E-002  0.12733089409775170        0.0000000000000000     
  -3.8425956310739806E-002  0.13464452495934356        0.0000000000000000     
  -3.9921533782308130E-002  0.10653706341810887        0.0000000000000000     
  -4.1077344168491778E-002  0.11342559144983404        0.0000000000000000     
  -4.2178267122468797E-002  0.12045029303532667        0.0000000000000000     
  -4.3224302644239203E-002  0.12761116817458676        0.0000000000000000     
  -4.4215450733802980E-002  0.13490821686761426        0.0000000000000000     
  -2.1632830985150710E-002  0.13407120768684960        0.0000000000000000     
  -2.2095583813281666E-002  0.14154664930786326        0.0000000000000000     
  -2.2531231973183411E-002  0.14913290356994519        0.0000000000000000     
  -2.2939775464855934E-002  0.15682997047309541        0.0000000000000000     
  -2.3321214288299245E-002  0.16463785001731396        0.0000000000000000     
  -2.7134646436413671E-002  0.13422602036896125        0.0000000000000000     
  -2.7716053838983675E-002  0.14169076951894571        0.0000000000000000     
  -2.8264045336168601E-002  0.14926611291008421        0.0000000000000000     
  -2.8778620927968426E-002  0.15695205054237665        0.0000000000000000     
  -2.9259780614383168E-002  0.16474858241582307        0.0000000000000000     
  -3.2732354878276700E-002  0.13441712612645923        0.0000000000000000     
  -3.3432508415235852E-002  0.14186910397811325        0.0000000000000000     
  -3.4093065116505235E-002  0.14943148893183109        0.0000000000000000     
  -3.4714024982084861E-002  0.15710428098761273        0.0000000000000000     
  -3.5295388011974717E-002  0.16488748014545809        0.0000000000000000     
  -3.8425956310739806E-002  0.13464452495934356        0.0000000000000000     
  -3.9244947542038194E-002  0.14208165268536582        0.0000000000000000     
  -4.0018291314193329E-002  0.14962903163518582        0.0000000000000000     
  -4.0745987627205243E-002  0.15728666180880357        0.0000000000000000     
  -4.1428036481073904E-002  0.16505454320621910        0.0000000000000000     
  -4.4215450733802980E-002  0.13490821686761426        0.0000000000000000     
  -4.5153371219390698E-002  0.14232841564070339        0.0000000000000000     
  -4.6039723929232883E-002  0.14985874102014843        0.0000000000000000     
  -4.6874508863329563E-002  0.15749919300594931        0.0000000000000000     
  -4.7657726021680724E-002  0.16524977159810603        0.0000000000000000     
  -2.3321214288299245E-002  0.16463785001731396        0.0000000000000000     
  -2.3673921413918782E-002  0.17254527259982549        0.0000000000000000     
  -2.3996269812119962E-002  0.18054096861785476        0.0000000000000000     
  -2.4288259482902804E-002  0.18862493807140174        0.0000000000000000     
  -2.4549890426267297E-002  0.19679718096046642        0.0000000000000000     
  -2.9259780614383168E-002  0.16474858241582307        0.0000000000000000     
  -2.9705220105078759E-002  0.17264476601625334        0.0000000000000000     
  -3.0112635109721148E-002  0.18062965882949739        0.0000000000000000     
  -3.0482025628310320E-002  0.18870326085555517        0.0000000000000000     
  -3.0813391660846283E-002  0.19686557209442668        0.0000000000000000     
  -3.5295388011974717E-002  0.16488748014545809        0.0000000000000000     
  -3.5834513172080786E-002  0.17277034743893099        0.0000000000000000     
  -3.6328759428309029E-002  0.18074214390159485        0.0000000000000000     
  -3.6778126780659455E-002  0.18880286953344980        0.0000000000000000     
  -3.7182615229132042E-002  0.19695252433449578        0.0000000000000000     
  -4.1428036481073904E-002  0.16505454320621910        0.0000000000000000     
  -4.2061800614924857E-002  0.17292201686785827        0.0000000000000000     
  -4.2644642767883614E-002  0.18087842383414718        0.0000000000000000     
  -4.3176562939950182E-002  0.18892376410508563        0.0000000000000000     
  -4.3657561131124553E-002  0.19705803768067376        0.0000000000000000     
  -4.7657726021680724E-002  0.16524977159810603        0.0000000000000000     
  -4.8387082433610965E-002  0.17309977430303539        0.0000000000000000     
  -4.9060285128444896E-002  0.18103849862715432        0.0000000000000000     
  -4.9677334106182518E-002  0.18906594457046269        0.0000000000000000     
  -5.0238229366823837E-002  0.19718211213296061        0.0000000000000000     
  -2.4549890426267297E-002  0.19679718096046642        0.0000000000000000     
  -2.4781776552477638E-002  0.20504222633980707        0.0000000000000000     
  -2.4984531771798039E-002  0.21334460326418203        0.0000000000000000     
  -2.5158156084228486E-002  0.22170431173359118        0.0000000000000000     
  -2.5302649489768979E-002  0.23012135174803455        0.0000000000000000     
  -3.0813391660846283E-002  0.19686557209442668        0.0000000000000000     
  -3.1107284890873364E-002  0.20510264103750542        0.0000000000000000     
  -3.1364257001935868E-002  0.21340051617618477        0.0000000000000000     
  -3.1584307994033813E-002  0.22175919751046480        0.0000000000000000     
  -3.1767437867167188E-002  0.23017868504034553        0.0000000000000000     
  -3.7182615229132042E-002  0.19695252433449578        0.0000000000000000     
  -3.7542280691919748E-002  0.20517881864185916        0.0000000000000000     
  -3.7857179087215524E-002  0.21346946279266626        0.0000000000000000     
  -3.8127310415019357E-002  0.22182445678691703        0.0000000000000000     
  -3.8352674675331273E-002  0.23024380062461153        0.0000000000000000     
  -4.3657561131124553E-002  0.19705803768067376        0.0000000000000000     
  -4.4086763955616809E-002  0.20527075915286838        0.0000000000000000     
  -4.4463298027637002E-002  0.21355144311362645        0.0000000000000000     
  -4.4787163347185147E-002  0.22190008956294788        0.0000000000000000     
  -4.5058359914261222E-002  0.23031669850083264        0.0000000000000000     
  -5.0238229366823837E-002  0.19718211213296061        0.0000000000000000     
  -5.0740734681964529E-002  0.20537846257053310        0.0000000000000000     
  -5.1182613823200294E-002  0.21364645713906533        0.0000000000000000     
  -5.1563866790531127E-002  0.22198609583855725        0.0000000000000000     
  -5.1884493583957053E-002  0.23039737866900886        0.0000000000000000     
  -2.5302649489768979E-002  0.23012135174803455        0.0000000000000000     
  -2.5424290980717523E-002  0.23856828905804239        0.0000000000000000     
  -2.5529359549372112E-002  0.24701768941414487        0.0000000000000000     
  -2.5617855195732751E-002  0.25546955281634204        0.0000000000000000     
  -2.5689777919799432E-002  0.26392387926463379        0.0000000000000000     
  -3.1767437867167188E-002  0.23017868504034553        0.0000000000000000     
  -3.1921549191819235E-002  0.23863417699980810        0.0000000000000000     
  -3.2054544538473208E-002  0.24710087162283390        0.0000000000000000     
  -3.2166423907129087E-002  0.25557876890942288        0.0000000000000000     
  -3.2257187297786878E-002  0.26406786885957506        0.0000000000000000     
  -3.8352674675331273E-002  0.23024380062461153        0.0000000000000000     
  -3.8542019129289805E-002  0.23870674739260772        0.0000000000000000     
  -3.8704091038033538E-002  0.24719255017776359        0.0000000000000000     
  -3.8838890401562458E-002  0.25570120898007914        0.0000000000000000     
  -3.8946417219876572E-002  0.26423272379955443        0.0000000000000000     
  -4.5058359914261222E-002  0.23031669850083264        0.0000000000000000     
  -4.5285700793129220E-002  0.23878600023644128        0.0000000000000000     
  -4.5477999048053101E-002  0.24729272507893396        0.0000000000000000     
  -4.5635254679032858E-002  0.25583687302831082        0.0000000000000000     
  -4.5757467686068511E-002  0.26441844408457199        0.0000000000000000     
  -5.1884493583957053E-002  0.23039737866900886        0.0000000000000000     
  -5.2152594183337495E-002  0.23887193553130864        0.0000000000000000     
  -5.2376268568531913E-002  0.24740139632634500        0.0000000000000000     
  -5.2555516739540314E-002  0.25598576105411802        0.0000000000000000     
  -5.2690338696362700E-002  0.26462502971462765        0.0000000000000000     
  -2.5689777919799432E-002  0.26392387926463379        0.0000000000000000     
  -2.5757319394952377E-002  0.27232551037451053        0.0000000000000000     
  -2.5832671294571834E-002  0.28061928776146228        0.0000000000000000     
  -2.5915833618657767E-002  0.28880521142548926        0.0000000000000000     
  -2.6006806367210207E-002  0.29688328136659126        0.0000000000000000     
  -3.2257187297786878E-002  0.26406786885957506        0.0000000000000000     
  -3.2341656772500178E-002  0.27251525146242267        0.0000000000000000     
  -3.2434654393322555E-002  0.28086799670709794        0.0000000000000000     
  -3.2536180160254037E-002  0.28912610459360100        0.0000000000000000     
  -3.2646234073294596E-002  0.29728957512193172        0.0000000000000000     
  -3.8946417219876572E-002  0.26423272379955443        0.0000000000000000     
  -3.9045476406184595E-002  0.27273590967683076        0.0000000000000000     
  -3.9154872873695248E-002  0.28115958165254951        0.0000000000000000     
  -3.9274606622408510E-002  0.28950373972671073        0.0000000000000000     
  -3.9404677652324409E-002  0.29776838389931443        0.0000000000000000     
  -4.5757467686068511E-002  0.26441844408457199        0.0000000000000000     
  -4.5868778296005649E-002  0.27298748501773479        0.0000000000000000     
  -4.5993326735689885E-002  0.28149404259781696        0.0000000000000000     
  -4.6131113005121224E-002  0.28993811682481840        0.0000000000000000     
  -4.6282137104299653E-002  0.29831970769873922        0.0000000000000000     
  -5.2690338696362700E-002  0.26462502971462765        0.0000000000000000     
  -5.2811562441963326E-002  0.27326997748513476        0.0000000000000000     
  -5.2950015979306472E-002  0.28187137954290015        0.0000000000000000     
  -5.3105699308392137E-002  0.29042923588792402        0.0000000000000000     
  -5.3278612429220322E-002  0.29894354652020627        0.0000000000000000     
  -2.8942835619756399E-002   5.7180212628572466E-002   0.0000000000000000     
  -3.0516859270199051E-002   6.2725710099612558E-002   0.0000000000000000     
  -3.2026886617204924E-002   6.8459129374776731E-002   0.0000000000000000     
  -3.3472917660774024E-002   7.4380470454064984E-002   0.0000000000000000     
  -3.4854952400906344E-002   8.0489733337477290E-002   0.0000000000000000     
  -3.3049400960244016E-002   5.7675007268109292E-002   0.0000000000000000     
  -3.4795708132811090E-002   6.3208597327411326E-002   0.0000000000000000     
  -3.6473720143823919E-002   6.8928571628234431E-002   0.0000000000000000     
  -3.8083436993282489E-002   7.4834930170578587E-002   0.0000000000000000     
  -3.9624858681186814E-002   8.0927672954443822E-002   0.0000000000000000     
  -3.7220963867718719E-002   5.8230351996629390E-002   0.0000000000000000     
  -3.9156321776860507E-002   6.3748772332339707E-002   0.0000000000000000     
  -4.1015813187576536E-002   6.9452540958610240E-002   0.0000000000000000     
  -4.2799438099866818E-002   7.5341657875440990E-002   0.0000000000000000     
  -4.4507196513731334E-002   8.1416123082831957E-002   0.0000000000000000     
  -4.1457524342180502E-002   5.8846246814132787E-002   0.0000000000000000     
  -4.3598700202347282E-002   6.4346235114397715E-002   0.0000000000000000     
  -4.5653165748462787E-002   7.0031037365904186E-002   0.0000000000000000     
  -4.7620920980526997E-002   7.5900653568652166E-002   0.0000000000000000     
  -4.9501965898539918E-002   8.1955083722641694E-002   0.0000000000000000     
  -4.5759082383629385E-002   5.9522691720619456E-002   0.0000000000000000     
  -4.8122843409271442E-002   6.5000985673585365E-002   0.0000000000000000     
  -5.0385777826482660E-002   7.0664060850116256E-002   0.0000000000000000     
  -5.2547885635263039E-002   7.6511917250212141E-002   0.0000000000000000     
  -5.4609166835612566E-002   8.2544554873872994E-002   0.0000000000000000     
  -3.4854952400906344E-002   8.0489733337477290E-002   0.0000000000000000     
  -3.6184141178554410E-002   8.6770109306622503E-002   0.0000000000000000     
  -3.7471634334670732E-002   9.3204789643109520E-002   0.0000000000000000     
  -3.8717431869255296E-002   9.9793774346938299E-002   0.0000000000000000     
  -3.9921533782308130E-002  0.10653706341810887        0.0000000000000000     
  -3.9624858681186814E-002   8.0927672954443822E-002   0.0000000000000000     
  -4.1109630356712938E-002   8.7190884138997490E-002   0.0000000000000000     
  -4.2549397169036919E-002   9.3608647883406962E-002   0.0000000000000000     
  -4.3944159118158764E-002  0.10018096418767221        0.0000000000000000     
  -4.5293916204078459E-002  0.10690783305179327        0.0000000000000000     
  -4.4507196513731334E-002   8.1416123082831957E-002   0.0000000000000000     
  -4.6152526591359856E-002   8.7660648810288302E-002   0.0000000000000000     
  -4.7748866494942130E-002   9.4059947287315135E-002   0.0000000000000000     
  -4.9296216224478148E-002  0.10061401851391247        0.0000000000000000     
  -5.0794575779967904E-002  0.10732286249008030        0.0000000000000000     
  -4.9501965898539918E-002   8.1955083722641694E-002   0.0000000000000000     
  -5.1312829882495178E-002   8.8179403320494898E-002   0.0000000000000000     
  -5.3070042312386351E-002   9.4558687854834025E-002   0.0000000000000000     
  -5.4773603188213449E-002  0.10109293732565905        0.0000000000000000     
  -5.6423512509976480E-002  0.10778215173296996        0.0000000000000000     
  -5.4609166835612566E-002   8.2544554873872994E-002   0.0000000000000000     
  -5.6590540230118884E-002   8.8747147669617332E-002   0.0000000000000000     
  -5.8512924621369589E-002   9.5104869585963647E-002   0.0000000000000000     
  -6.0376320009364673E-002  0.10161772062291194        0.0000000000000000     
  -6.2180726394104151E-002  0.10828570078046224        0.0000000000000000     
  -3.9921533782308130E-002  0.10653706341810887        0.0000000000000000     
  -4.1077344168491778E-002  0.11342559144983404        0.0000000000000000     
  -4.2178267122468797E-002  0.12045029303532667        0.0000000000000000     
  -4.3224302644239203E-002  0.12761116817458676        0.0000000000000000     
  -4.4215450733802980E-002  0.13490821686761426        0.0000000000000000     
  -4.5293916204078459E-002  0.10690783305179327        0.0000000000000000     
  -4.6591026725843192E-002  0.11377979294954652        0.0000000000000000     
  -4.7827848982500115E-002  0.12078738235470841        0.0000000000000000     
  -4.9004382974049236E-002  0.12793060126727893        0.0000000000000000     
  -5.0120628700490555E-002  0.13520944968725807        0.0000000000000000     
  -5.0794575779967904E-002  0.10732286249008030        0.0000000000000000     
  -5.2235393192809065E-002  0.11417669830105645        0.0000000000000000     
  -5.3610116494399292E-002  0.12116574503207878        0.0000000000000000     
  -5.4918745684738542E-002  0.12829000268314728        0.0000000000000000     
  -5.6161280763826843E-002  0.13554947125426189        0.0000000000000000     
  -5.6423512509976480E-002  0.10778215173296996        0.0000000000000000     
  -5.8010443569389433E-002  0.11461630750436382        0.0000000000000000     
  -5.9525069658166313E-002  0.12158538106743776        0.0000000000000000     
  -6.0967390776307119E-002  0.12868937242219172        0.0000000000000000     
  -6.2337406923811872E-002  0.13592828156862569        0.0000000000000000     
  -6.2180726394104151E-002  0.10828570078046224        0.0000000000000000     
  -6.3916177855584247E-002  0.11509862055946864        0.0000000000000000     
  -6.5572708473801186E-002  0.12204629046078533        0.0000000000000000     
  -6.7150318248754975E-002  0.12912871048441227        0.0000000000000000     
  -6.8649007180445615E-002  0.13634588063034950        0.0000000000000000     
  -4.4215450733802980E-002  0.13490821686761426        0.0000000000000000     
  -4.5153371219390698E-002  0.14232841564070339        0.0000000000000000     
  -4.6039723929232883E-002  0.14985874102014843        0.0000000000000000     
  -4.6874508863329563E-002  0.15749919300594931        0.0000000000000000     
  -4.7657726021680724E-002  0.16524977159810603        0.0000000000000000     
  -5.0120628700490555E-002  0.13520944968725807        0.0000000000000000     
  -5.1178143408175183E-002  0.14261109038066763        0.0000000000000000     
  -5.2178484343454207E-002  0.15012268611352952        0.0000000000000000     
  -5.3121651506327659E-002  0.15774423688584363        0.0000000000000000     
  -5.4007644896795527E-002  0.16547574269761001        0.0000000000000000     
  -5.6161280763826843E-002  0.13554947125426189        0.0000000000000000     
  -5.7339628069273459E-002  0.14293137444180021        0.0000000000000000     
  -5.8455693938687624E-002  0.15042293594213971        0.0000000000000000     
  -5.9509478372069359E-002  0.15802415575528037        0.0000000000000000     
  -6.0500981369418658E-002  0.16573503388122227        0.0000000000000000     
  -6.2337406923811872E-002  0.13592828156862569        0.0000000000000000     
  -6.3637825202685530E-002  0.14328926782410104        0.0000000000000000     
  -6.4871352714933148E-002  0.15075949050597898        0.0000000000000000     
  -6.6037989460554669E-002  0.15833894961425954        0.0000000000000000     
  -6.7137735439550164E-002  0.16602764514894275        0.0000000000000000     
  -6.8649007180445615E-002  0.13634588063034950        0.0000000000000000     
  -7.0072734808411419E-002  0.14368477052757012        0.0000000000000000     
  -7.1425460672190744E-002  0.15113234980504736        0.0000000000000000     
  -7.2707184771783617E-002  0.15868861846278112        0.0000000000000000     
  -7.3917907107189984E-002  0.16635357650077148        0.0000000000000000     
  -4.7657726021680724E-002  0.16524977159810603        0.0000000000000000     
  -4.8387082433610965E-002  0.17309977430303539        0.0000000000000000     
  -4.9060285128444896E-002  0.18103849862715432        0.0000000000000000     
  -4.9677334106182518E-002  0.18906594457046269        0.0000000000000000     
  -5.0238229366823837E-002  0.19718211213296061        0.0000000000000000     
  -5.4007644896795527E-002  0.16547574269761001        0.0000000000000000     
  -5.4834585113550299E-002  0.17330650323060465        0.0000000000000000     
  -5.5600592755284513E-002  0.18122581816660358        0.0000000000000000     
  -5.6305667821998161E-002  0.18923368750560673        0.0000000000000000     
  -5.6949810313691236E-002  0.19733011124761418        0.0000000000000000     
  -6.0500981369418658E-002  0.16573503388122227        0.0000000000000000     
  -6.1428535140154068E-002  0.17354508713670849        0.0000000000000000     
  -6.2290471893694112E-002  0.18144383233848227        0.0000000000000000     
  -6.3086791630038802E-002  0.18943126948654360        0.0000000000000000     
  -6.3817494349188139E-002  0.19750739858089242        0.0000000000000000     
  -6.7137735439550164E-002  0.16602764514894275        0.0000000000000000     
  -6.8168932513422251E-002  0.17381552602134695        0.0000000000000000     
  -6.9129922543673686E-002  0.18169254114279040        0.0000000000000000     
  -7.0020705530304442E-002  0.18965869051327322        0.0000000000000000     
  -7.0841281473314519E-002  0.19771397413279532        0.0000000000000000     
  -7.3917907107189984E-002  0.16635357650077148        0.0000000000000000     
  -7.5055777233354867E-002  0.17411781988451991        0.0000000000000000     
  -7.6118944705223235E-002  0.18197194457952801        0.0000000000000000     
  -7.7107409522795073E-002  0.18991595058579561        0.0000000000000000     
  -7.8021171686070395E-002  0.19794983790332288        0.0000000000000000     
  -5.0238229366823837E-002  0.19718211213296061        0.0000000000000000     
  -5.0740734681964529E-002  0.20537846257053310        0.0000000000000000     
  -5.1182613823200294E-002  0.21364645713906533        0.0000000000000000     
  -5.1563866790531127E-002  0.22198609583855725        0.0000000000000000     
  -5.1884493583957053E-002  0.23039737866900886        0.0000000000000000     
  -5.6949810313691236E-002  0.19733011124761418        0.0000000000000000     
  -5.7529786195304009E-002  0.20550814076946361        0.0000000000000000     
  -5.8042361431776768E-002  0.21376082744799274        0.0000000000000000     
  -5.8487536023109500E-002  0.22208817128320155        0.0000000000000000     
  -5.8865309969302199E-002  0.23049017227509000        0.0000000000000000     
  -6.3817494349188139E-002  0.19750739858089242        0.0000000000000000     
  -6.4479511819976368E-002  0.20566600562427023        0.0000000000000000     
  -6.5069775811237768E-002  0.21390087661941845        0.0000000000000000     
  -6.5588286322972367E-002  0.22221201156633699        0.0000000000000000     
  -6.6035043355180095E-002  0.23059941046502594        0.0000000000000000     
  -7.0841281473314519E-002  0.19771397413279532        0.0000000000000000     
  -7.1589911555981572E-002  0.20585205713495303        0.0000000000000000     
  -7.2264856961583329E-002  0.21406660465334243        0.0000000000000000     
  -7.2866117690119719E-002  0.22235761668796369        0.0000000000000000     
  -7.3393693741590771E-002  0.23072509323881674        0.0000000000000000     
  -7.8021171686070395E-002  0.19794983790332288        0.0000000000000000     
  -7.8860985403319692E-002  0.20606629530151188        0.0000000000000000     
  -7.9627604882813396E-002  0.21425801154976479        0.0000000000000000     
  -8.0321030124551593E-002  0.22252498664808160        0.0000000000000000     
  -8.0941261128534212E-002  0.23086722059646231        0.0000000000000000     
  -5.1884493583957053E-002  0.23039737866900886        0.0000000000000000     
  -5.2152594183337495E-002  0.23887193553130864        0.0000000000000000     
  -5.2376268568531913E-002  0.24740139632634500        0.0000000000000000     
  -5.2555516739540314E-002  0.25598576105411802        0.0000000000000000     
  -5.2690338696362700E-002  0.26462502971462765        0.0000000000000000     
  -5.8865309969302199E-002  0.23049017227509000        0.0000000000000000     
  -5.9181785305066521E-002  0.23896598187077497        0.0000000000000000     
  -5.9443064065114140E-002  0.24751475151737334        0.0000000000000000     
  -5.9649146249445034E-002  0.25613648121488508        0.0000000000000000     
  -5.9800031858059197E-002  0.26483117096331005        0.0000000000000000     
  -6.6035043355180095E-002  0.23059941046502594        0.0000000000000000     
  -6.6412360163468215E-002  0.23906956784840544        0.0000000000000000     
  -6.6722550003443917E-002  0.24762897824939556        0.0000000000000000     
  -6.6965612875107203E-002  0.25627764166799633        0.0000000000000000     
  -6.7141548778458057E-002  0.26501555810420763        0.0000000000000000     
  -7.3393693741590771E-002  0.23072509323881674        0.0000000000000000     
  -7.3844318758542610E-002  0.23918269346419990        0.0000000000000000     
  -7.4214726383521293E-002  0.24774407652241165        0.0000000000000000     
  -7.4504916616526862E-002  0.25640924241345187        0.0000000000000000     
  -7.4714889457559316E-002  0.26517819113732066        0.0000000000000000     
  -8.0941261128534212E-002  0.23086722059646231        0.0000000000000000     
  -8.1477661090289630E-002  0.23930535871815845        0.0000000000000000     
  -8.1919593205346225E-002  0.24786004633642161        0.0000000000000000     
  -8.2267057473703983E-002  0.25653128345125181        0.0000000000000000     
  -8.2520053895362933E-002  0.26531907006264893        0.0000000000000000     
  -5.2690338696362700E-002  0.26462502971462765        0.0000000000000000     
  -5.2811562441963326E-002  0.27326997748513476        0.0000000000000000     
  -5.2950015979306472E-002  0.28187137954290015        0.0000000000000000     
  -5.3105699308392137E-002  0.29042923588792402        0.0000000000000000     
  -5.3278612429220322E-002  0.29894354652020627        0.0000000000000000     
  -5.9800031858059197E-002  0.26483117096331005        0.0000000000000000     
  -5.9932581529869453E-002  0.27355467916295051        0.0000000000000000     
  -6.0083655903788627E-002  0.28226286421410868        0.0000000000000000     
  -6.0253254979816706E-002  0.29095572611678439        0.0000000000000000     
  -6.0441378757953683E-002  0.29963326487097791        0.0000000000000000     
  -6.7141548778458057E-002  0.26501555810420763        0.0000000000000000     
  -6.7290588245535868E-002  0.27381288213510202        0.0000000000000000     
  -6.7452961808379938E-002  0.28263976833775162        0.0000000000000000     
  -6.7628669466990324E-002  0.29149621671215648        0.0000000000000000     
  -6.7817711221366997E-002  0.30038222725831654        0.0000000000000000     
  -7.4714889457559316E-002  0.26517819113732066        0.0000000000000000     
  -7.4885582588962538E-002  0.27404458640158930        0.0000000000000000     
  -7.5057933693080434E-002  0.28300209191382908        0.0000000000000000     
  -7.5231942769913004E-002  0.29205070767403996        0.0000000000000000     
  -7.5407609819460250E-002  0.30119043368222204        0.0000000000000000     
  -8.2520053895362933E-002  0.26531907006264893        0.0000000000000000     
  -8.2717564560149476E-002  0.27424979196241228        0.0000000000000000     
  -8.2898571557890086E-002  0.28334983494234106        0.0000000000000000     
  -8.3063074888584748E-002  0.29261919900243510        0.0000000000000000     
  -8.3211074552233477E-002  0.30205788414269463        0.0000000000000000     
  -4.5759082383629385E-002   5.9522691720619456E-002   0.0000000000000000     
  -4.8122843409271442E-002   6.5000985673585365E-002   0.0000000000000000     
  -5.0385777826482660E-002   7.0664060850116256E-002   0.0000000000000000     
  -5.2547885635263039E-002   7.6511917250212141E-002   0.0000000000000000     
  -5.4609166835612566E-002   8.2544554873872994E-002   0.0000000000000000     
  -5.0240316319232703E-002   6.0256875088388499E-002   0.0000000000000000     
  -5.2819651907154055E-002   6.5712026874404361E-002   0.0000000000000000     
  -5.5286350416907840E-002   7.1351775480788984E-002   0.0000000000000000     
  -5.7640411848494083E-002   7.7176120907542431E-002   0.0000000000000000     
  -5.9881836201912765E-002   8.3185063154664632E-002   0.0000000000000000     
  -5.5015904476157819E-002   6.1045985289738987E-002   0.0000000000000000     
  -5.7780026205516179E-002   6.6478361581356352E-002   0.0000000000000000     
  -6.0427584515009992E-002   7.2094345327464865E-002   0.0000000000000000     
  -6.2958579404639253E-002   7.7893936528064533E-002   0.0000000000000000     
  -6.5373010874403975E-002   8.3877135183155357E-002   0.0000000000000000     
  -6.0085846854404747E-002   6.1890022324670946E-002   0.0000000000000000     
  -6.3003966304357825E-002   6.7299989794441392E-002   0.0000000000000000     
  -6.5809480120789118E-002   7.2891770390143912E-002   0.0000000000000000     
  -6.8502388303698550E-002   7.8665364111778477E-002   0.0000000000000000     
  -7.1082690853086203E-002   8.4620770959345115E-002   0.0000000000000000     
  -6.5450143453973458E-002   6.2788986193184362E-002   0.0000000000000000     
  -6.8491472203679016E-002   6.8176911513659455E-002   0.0000000000000000     
  -7.1432037234245210E-002   7.3744050668826069E-002   0.0000000000000000     
  -7.4271838545672028E-002   7.9490403658684247E-002   0.0000000000000000     
  -7.7010876137959483E-002   8.5415970483233974E-002   0.0000000000000000     
  -5.4609166835612566E-002   8.2544554873872994E-002   0.0000000000000000     
  -5.6590540230118884E-002   8.8747147669617332E-002   0.0000000000000000     
  -5.8512924621369589E-002   9.5104869585963647E-002   0.0000000000000000     
  -6.0376320009364673E-002  0.10161772062291194        0.0000000000000000     
  -6.2180726394104151E-002  0.10828570078046224        0.0000000000000000     
  -5.9881836201912765E-002   8.3185063154664632E-002   0.0000000000000000     
  -6.2034617851538576E-002   8.9364026815622999E-002   0.0000000000000000     
  -6.4122751171746206E-002   9.5698436483884833E-002   0.0000000000000000     
  -6.6146236162535649E-002  0.10218829215945020        0.0000000000000000     
  -6.8105072823906904E-002  0.10883359384231905        0.0000000000000000     
  -6.5373010874403975E-002   8.3877135183155357E-002   0.0000000000000000     
  -6.7694022964061865E-002   9.0030185716479333E-002   0.0000000000000000     
  -6.9944759713370608E-002   9.6339332551778470E-002   0.0000000000000000     
  -7.2125221122330205E-002  0.10280457568905281        0.0000000000000000     
  -7.4235407190940669E-002  0.10942591512830233        0.0000000000000000     
  -7.1082690853086203E-002   8.4620770959345115E-002   0.0000000000000000     
  -7.3568755567688743E-002   9.0745624372186334E-002   0.0000000000000000     
  -7.5978950246242780E-002   9.7027557789644545E-002   0.0000000000000000     
  -7.8313274888748355E-002  0.10346657121171977        0.0000000000000000     
  -8.0571729495205482E-002  0.11006266463841204        0.0000000000000000     
  -7.7010876137959483E-002   8.5415970483233974E-002   0.0000000000000000     
  -7.9658815662419197E-002   9.1510342782743989E-002   0.0000000000000000     
  -8.2225322770362708E-002   9.7763112197483029E-002   0.0000000000000000     
  -8.4710397461790099E-002  0.10417427872745111        0.0000000000000000     
  -8.7114039736701315E-002  0.11074384237264820        0.0000000000000000     
  -6.2180726394104151E-002  0.10828570078046224        0.0000000000000000     
  -6.3916177855584247E-002  0.11509862055946864        0.0000000000000000     
  -6.5572708473801186E-002  0.12204629046078533        0.0000000000000000     
  -6.7150318248754975E-002  0.12912871048441227        0.0000000000000000     
  -6.8649007180445615E-002  0.13634588063034950        0.0000000000000000     
  -6.8105072823906904E-002  0.10883359384231905        0.0000000000000000     
  -6.9988817234474782E-002  0.11562388768131841        0.0000000000000000     
  -7.1787025472854177E-002  0.12254871982527535        0.0000000000000000     
  -7.3499697539045006E-002  0.12960809027418985        0.0000000000000000     
  -7.5126833433047366E-002  0.13680199902806192        0.0000000000000000     
  -7.4235407190940669E-002  0.10942591512830233        0.0000000000000000     
  -7.6264582889142327E-002  0.11619235908486071        0.0000000000000000     
  -7.8202013186875502E-002  0.12309291577406177        0.0000000000000000     
  -8.0047698084140209E-002  0.13012758519590539        0.0000000000000000     
  -8.1801637580936420E-002  0.13729636735039172        0.0000000000000000     
  -8.0571729495205482E-002  0.11006266463841204        0.0000000000000000     
  -8.2743474819586840E-002  0.11680403477009553        0.0000000000000000     
  -8.4817671615865203E-002  0.12367887830714448        0.0000000000000000     
  -8.6794319884040502E-002  0.13068719524955888        0.0000000000000000     
  -8.8673419624112793E-002  0.13782898559733878        0.0000000000000000     
  -8.7114039736701315E-002  0.11074384237264820        0.0000000000000000     
  -8.9425493025808350E-002  0.11745891473702284        0.0000000000000000     
  -9.1634000759823225E-002  0.12430660742452357        0.0000000000000000     
  -9.3739562938745913E-002  0.13128692043515033        0.0000000000000000     
  -9.5742179562576454E-002  0.13839985376890318        0.0000000000000000     
  -6.8649007180445615E-002  0.13634588063034950        0.0000000000000000     
  -7.0072734808411419E-002  0.14368477052757012        0.0000000000000000     
  -7.1425460672190744E-002  0.15113234980504736        0.0000000000000000     
  -7.2707184771783617E-002  0.15868861846278112        0.0000000000000000     
  -7.3917907107189984E-002  0.16635357650077148        0.0000000000000000     
  -7.5126833433047366E-002  0.13680199902806192        0.0000000000000000     
  -7.6673642190023553E-002  0.14411734850819974        0.0000000000000000     
  -7.8145332845135945E-002  0.15154104113591141        0.0000000000000000     
  -7.9541905398384571E-002  0.15907307691119704        0.0000000000000000     
  -8.0863359849769417E-002  0.16671345583405650        0.0000000000000000     
  -8.1801637580936420E-002  0.13729636735039172        0.0000000000000000     
  -8.3469832651094367E-002  0.14458646772198203        0.0000000000000000     
  -8.5058284268444223E-002  0.15198509179513781        0.0000000000000000     
  -8.6566992432986004E-002  0.15949223956985908        0.0000000000000000     
  -8.7995957144719722E-002  0.16710791104614592        0.0000000000000000     
  -8.8673419624112793E-002  0.13782898559733878        0.0000000000000000     
  -9.0461306191623861E-002  0.14509212816891703        0.0000000000000000     
  -9.2164314942115577E-002  0.15246450178272655        0.0000000000000000     
  -9.3782445875587900E-002  0.15994610643876747        0.0000000000000000     
  -9.5315698992040856E-002  0.16753694213703962        0.0000000000000000     
  -9.5742179562576454E-002  0.13839985376890318        0.0000000000000000     
  -9.7648062811612063E-002  0.14563432984900473        0.0000000000000000     
  -9.9463424866150008E-002  0.15297927109867765        0.0000000000000000     
 -0.10118826572619025       0.16043467751792198        0.0000000000000000     
 -0.10282258539173285       0.16800054910673767        0.0000000000000000     
  -7.3917907107189984E-002  0.16635357650077148        0.0000000000000000     
  -7.5055777233354867E-002  0.17411781988451991        0.0000000000000000     
  -7.6118944705223235E-002  0.18197194457952801        0.0000000000000000     
  -7.7107409522795073E-002  0.18991595058579561        0.0000000000000000     
  -7.8021171686070395E-002  0.19794983790332288        0.0000000000000000     
  -8.0863359849769417E-002  0.16671345583405650        0.0000000000000000     
  -8.2107893334388990E-002  0.17445326734938404        0.0000000000000000     
  -8.3273702987341811E-002  0.18228360090207382        0.0000000000000000     
  -8.4360788808627837E-002  0.19020445649212570        0.0000000000000000     
  -8.5369150798247126E-002  0.19821583411953986        0.0000000000000000     
  -8.7995957144719722E-002  0.16710791104614592        0.0000000000000000     
  -8.9344104850961725E-002  0.17482316703909584        0.0000000000000000     
  -9.0610361999028444E-002  0.18262906836380668        0.0000000000000000     
  -9.1794728588919891E-002  0.19052561502027837        0.0000000000000000     
  -9.2897204620636026E-002  0.19851280700851101        0.0000000000000000     
  -9.5315698992040856E-002  0.16753694213703962        0.0000000000000000     
  -9.6764411783073073E-002  0.17522751895365524        0.0000000000000000     
  -9.8128921740283176E-002  0.18300834696472659        0.0000000000000000     
  -9.9409228863671206E-002  0.19087942617025366        0.0000000000000000     
 -0.10060533315323711       0.19884075657023637        0.0000000000000000     
 -0.10282258539173285       0.16800054910673767        0.0000000000000000     
 -0.10436881413072302       0.17566632309306235        0.0000000000000000     
 -0.10582938221110598       0.18342143670483363        0.0000000000000000     
 -0.10720428963288178       0.19126588994205146        0.0000000000000000     
 -0.10849353639605039       0.19919968280471595        0.0000000000000000     
  -7.8021171686070395E-002  0.19794983790332288        0.0000000000000000     
  -7.8860985403319692E-002  0.20606629530151188        0.0000000000000000     
  -7.9627604882813396E-002  0.21425801154976479        0.0000000000000000     
  -8.0321030124551593E-002  0.22252498664808160        0.0000000000000000     
  -8.0941261128534212E-002  0.23086722059646231        0.0000000000000000     
  -8.5369150798247126E-002  0.19821583411953986        0.0000000000000000     
  -8.6302117792999719E-002  0.20630959122980189        0.0000000000000000     
  -8.7163018629685701E-002  0.21447758526839758        0.0000000000000000     
  -8.7951853308305128E-002  0.22271981623532700        0.0000000000000000     
  -8.8668621828857944E-002  0.23103628413058999        0.0000000000000000     
  -9.2897204620636026E-002  0.19851280700851101        0.0000000000000000     
  -9.3922693156030732E-002  0.20658281602567807        0.0000000000000000     
  -9.4876097256957878E-002  0.21472781376895311        0.0000000000000000     
  -9.5757416923417479E-002  0.22294780023833616        0.0000000000000000     
  -9.6566652155409521E-002  0.23124277543382724        0.0000000000000000     
 -0.10060533315323711       0.19884075657023637        0.0000000000000000     
 -0.10172271149241274       0.20688596968914044        0.0000000000000000     
 -0.10276684076462993       0.21500869705143139        0.0000000000000000     
 -0.10373772096988866       0.22320893865710928        0.0000000000000000     
 -0.10463535210818892       0.23148669450617398        0.0000000000000000     
 -0.10849353639605039       0.19919968280471595        0.0000000000000000     
 -0.10970217280214575       0.20721905222018894        0.0000000000000000     
 -0.11083524915270183       0.21532023511583229        0.0000000000000000     
 -0.11189276544771866       0.22350323149164611        0.0000000000000000     
 -0.11287472168719617       0.23176804134763027        0.0000000000000000     
  -8.0941261128534212E-002  0.23086722059646231        0.0000000000000000     
  -8.1477661090289630E-002  0.23930535871815845        0.0000000000000000     
  -8.1919593205346225E-002  0.24786004633642161        0.0000000000000000     
  -8.2267057473703983E-002  0.25653128345125181        0.0000000000000000     
  -8.2520053895362933E-002  0.26531907006264893        0.0000000000000000     
  -8.8668621828857944E-002  0.23103628413058999        0.0000000000000000     
  -8.9298920374206309E-002  0.23945254838695845        0.0000000000000000     
  -8.9828345127212411E-002  0.24799416843720401        0.0000000000000000     
  -9.0256896087876265E-002  0.25666114428132675        0.0000000000000000     
  -9.0584573256197773E-002  0.26545347591932650        0.0000000000000000     
  -9.6566652155409521E-002  0.23124277543382724        0.0000000000000000     
  -9.7294629825789652E-002  0.23963924724727731        0.0000000000000000     
  -9.7932176807413562E-002  0.24816372357053731        0.0000000000000000     
  -9.8479293100281209E-002  0.25681620440360725        0.0000000000000000     
  -9.8935978704392663E-002  0.26559668974648720        0.0000000000000000     
 -0.10463535210818892       0.23148669450617398        0.0000000000000000     
 -0.10546478944503963       0.23986545529911499        0.0000000000000000     
 -0.10623108824594964       0.24836871173642150        0.0000000000000000     
 -0.10693424851091898       0.25699646381809355        0.0000000000000000     
 -0.10757427023994764       0.26574871154413110        0.0000000000000000     
 -0.11287472168719617       0.23176804134763027        0.0000000000000000     
 -0.11380939923195624       0.24013117254247157        0.0000000000000000     
 -0.11472507944282069       0.24860913293485662        0.0000000000000000     
 -0.11562176231978950       0.25720192252478552        0.0000000000000000     
 -0.11649944786286268       0.26590954131225825        0.0000000000000000     
  -8.2520053895362933E-002  0.26531907006264893        0.0000000000000000     
  -8.2717564560149476E-002  0.27424979196241228        0.0000000000000000     
  -8.2898571557890086E-002  0.28334983494234106        0.0000000000000000     
  -8.3063074888584748E-002  0.29261919900243510        0.0000000000000000     
  -8.3211074552233477E-002  0.30205788414269463        0.0000000000000000     
  -9.0584573256197773E-002  0.26545347591932650        0.0000000000000000     
  -9.0841727369651404E-002  0.27443418531088526        0.0000000000000000     
  -9.1058709165711543E-002  0.28366629441568525        0.0000000000000000     
  -9.1235518644378205E-002  0.29314980323372603        0.0000000000000000     
  -9.1372155805651320E-002  0.30288471176500786        0.0000000000000000     
  -9.8935978704392663E-002  0.26559668974648720        0.0000000000000000     
  -9.9313264228023057E-002  0.27460345294032268        0.0000000000000000     
  -9.9622180279447470E-002  0.28393476732625922        0.0000000000000000     
  -9.9862726858665943E-002  0.29359063290429688        0.0000000000000000     
 -0.10003490396567849       0.30357104967443566        0.0000000000000000     
 -0.10757427023994764       0.26574871154413110        0.0000000000000000     
 -0.10813217513526435       0.27475759485072421        0.0000000000000000     
 -0.10858898489909781       0.28415525367406314        0.0000000000000000     
 -0.10894469953144800       0.29394168801414766        0.0000000000000000     
 -0.10919931903231499       0.30411689787097795        0.0000000000000000     
 -0.11649944786286268       0.26590954131225825        0.0000000000000000     
 -0.11729846009137535       0.27489661104209023        0.0000000000000000     
 -0.11795912302466256       0.28432775345909700        0.0000000000000000     
 -0.11848143666272438       0.29420296856327849        0.0000000000000000     
 -0.11886540100556078       0.30452225635463470        0.0000000000000000     
 </DataArray>
 <DataArray  type="Float64" Name="stress" NumberOfComponents="3" format="ascii">
   5936771696.0924196        2291133.7612671852       -157406992.86576152     
   5738007230.9028788       -15369289.908856392       -104681765.97002721     
   5541142789.2385988       -26696301.828155279       -63612400.602170311     
   5346178371.0995560       -31689901.996641874       -34198896.762195937     
   5153113976.4857559       -30350090.414318800       -16441254.450101532     
   5724073065.7746687        43941065.223082542        75279819.528104246     
   5500555552.5239048        19558737.631088495        107188458.17139050     
   5278428548.0707397       -188560.63558888435        133263360.73896959     
   5057692052.4151726       -15300829.576945066        153504527.23083124     
   4838346065.5571985       -25778069.192978144        167911957.64699084     
   5438096926.4087620        63607743.970458031        308534622.11431867     
   5206461009.2458200        37493905.701299667        319032238.65623671     
   4975706086.1528368        14316714.331970692        329518244.57460761     
   4745832157.1297932       -5923830.1375374794        339992639.86943889     
   4516839222.1766930       -23227727.707232475        350455424.54073006     
   5078843277.9946756        61291170.003376007        542357414.89287984     
   4855723601.0686255        38436214.301782846        530849575.48449397     
   4632975403.4848690        16819523.074517488        525152250.90473884     
   4410598685.2434149       -3558903.6784346104        525265441.15360862     
   4188593446.3442469       -22699065.957067251        531189146.23111218     
   4646312120.5324421        36991343.321850061        776748197.86378574     
   4448343327.9923286        22385663.432542562        742640468.65617883     
   4250236500.0668588        7319865.5920484066        720165379.72936499     
   4051991636.7560349       -8206050.1996293068        709322931.08335400     
   3853608738.0598564       -24192083.942481995        710113122.71813893     
   5153113976.4857559       -30350090.414318800       -16441254.450101532     
   5001316913.6893396       -15172838.913491726       -17836049.806872007     
   4848580645.1962061       -3126273.0683674812       -15135173.333681051     
   4694905171.0063620        5789607.1210312843       -8338625.0305574806     
   4540290491.1197929        11574801.654706001        2553595.1025159941     
   4838346065.5571985       -25778069.192978144        167911957.64699084     
   4696839321.1705866       -11898988.072756052        163197832.25689626     
   4554604407.3236656       -447138.48692607880        162603242.36300302     
   4411641324.0164003        8577479.5644359589        166128187.96531329     
   4267950071.2488122        15174866.081388712        173772669.06382552     
   4516839222.1766930       -23227727.707232475        350455424.54073006     
   4385690978.1034889       -10626362.396515608        342668178.05975354     
   4254025600.8063364        251225.50105929375        339024330.74123955     
   4121843090.2852435        9405035.9854884148        339523882.58517933     
   3989143446.5402060        16835069.056773901        344166833.59157658     
   4188593446.3442469       -22699065.957067251        531189146.23111218     
   4067871884.4880176       -11354961.884794712        520574987.60171205     
   3946844225.6442356       -1031181.1043772697        514128091.80101961     
   3825510469.8128977        8272276.3841812611        511848458.82904059     
   3703870616.9939985        16555410.580883503        513736088.68576783     
   3853608738.0598564       -24192083.942481995        710113122.71813893     
   3743382040.3241906       -14084786.537582159        696918260.88276303     
   3633060281.8373542       -4294358.3032486439        687914525.54234910     
   3522643462.5993443        5179200.7605113983        683101916.69689929     
   3412131582.6101680        14335890.653702736        682480434.34641075     
   4540290491.1197929        11574801.654706001        2553595.1025159941     
   4340119659.3837605        3190250.0531754494       -1623742.1170116018     
   4140556450.5441866       -3168891.8934764862       -1965527.2795054540     
   3941600864.6010680       -7502624.1852803230        1528239.6150369996     
   3743252901.5544052       -9810946.8222429752        8857558.5666183215     
   4267950071.2488122        15174866.081388712        173772669.06382552     
   4078391658.3632932        7624070.8102126122        168112073.45554438     
   3889305568.5077238        1647685.6388683319        166586919.59901124     
   3700691801.6820951       -2754289.4326963425        169197207.49421743     
   3512550357.8864136       -5581854.4044137001        175942937.14116198     
   3989143446.5402060        16835069.056773901        344166833.59157658     
   3811054280.2043657        10375078.425718307        336865129.75028920     
   3633302137.0319490        5038498.3394200802        333998757.35543913     
   3455887017.0229602        825328.79787921906        335567716.40703207     
   3278808920.1774049       -2264430.1988859177        341572006.90507311     
   3703870616.9939985        16555410.580883503        513736088.68576783     
   3538107524.9069710        11443272.899687052        504635426.76719743     
   3372546156.1168566        7003546.2081830502        500269985.98977315     
   3207186510.6236587        3236230.5063982010        500639766.35349292     
   3042028588.4273720        141325.79432606697        505744767.85835445     
   3412131582.6101680        14335890.653702736        682480434.34641075     
   3259551392.4711094        10828654.232102513        671422964.50629163     
   3107037625.7624474        7542829.2451475859        665400605.50202286     
   2954590282.4841881        4478415.6928654909        664413357.33359158     
   2802209362.6363206        1635413.5752359629        668461220.00101578     
   3743252901.5544052       -9810946.8222429752        8857558.5666183215     
   3570948845.1160808       -4822155.9900817871        3921604.6713308473     
   3397696907.4208369       -2992969.3476734161        3341011.3571052947     
   3223497088.4686770       -4323386.8949824572        7115778.6239628000     
   3048349388.2595696       -8813408.6320971251        15245906.471863011     
   3512550357.8864136       -5581854.4044137001        175942937.14116198     
   3351071662.4146199       -626142.97266983986        168844071.36244977     
   3188978524.2906737        2281426.2852317095        165724679.45394608     
   3026270943.5145693        3140853.3692553043        166584761.41564971     
   2862948920.0863075        1952138.2794435024        171424317.24755934     
   3278808920.1774049       -2264430.1988859177        341572006.90507311     
   3127081623.6410985        2336013.2231037617        332699240.94850045     
   2975073323.0574207        5999776.4871687889        327430062.15129226     
   2822784018.4263573        8726859.5932816267        325764470.51342344     
   2670213709.7479019        10517262.541441202        327702466.03488994     
   3042028588.4273720        141325.79432606697        505744767.85835445     
   2898978728.7955356        4064312.5972818136        495487113.42950946     
   2755981303.7210879        8162081.2581956387        488457159.44915056     
   2613036313.2040281        12434631.777069449        484654905.91726249     
   2470143757.2443538        16881964.153896093        484080352.83387440     
   2802209362.6363206        1635413.5752359629        668461220.00101578     
   2666762977.8779154        4558755.1498326063        657207688.80545354     
   2531702466.2816744        8768340.5983076096        648805971.34750962     
   2397027827.8475800        14264169.920607328        643256067.62719536     
   2262739062.5756540        21046243.116798759        640557977.64449501     
   3048349388.2595696       -8813408.6320971251        15245906.471863011     
   2883353320.1121321       -10572087.185904026        10333841.709516592     
   2719098003.7039070       -9861593.2756690979        6182834.9860058539     
   2555583439.0348840       -6681926.9014327526        2792886.3013576982     
   2392809626.1050754       -1033088.0631392002        163995.65554778496     
   2862948920.0863075        1952138.2794435024        171424317.24755934     
   2700950433.2823339        855318.52214825153        164933740.92315915     
   2539365181.0064907        1135947.1919364929        159835201.71723399     
   2378193163.2587671        2794024.2887946367        156128699.62976015     
   2217434380.0391793        5829549.8127930164        153814234.66077283     
   2670213709.7479019        10517262.541441202        327702466.03488994     
   2513015601.6577358        10623140.791750431        319251274.73552245     
   2355903210.8846126        11014743.432205319        312823099.63424307     
   2198876537.4285455        11692070.462844253        308417940.73104405     
   2041935581.2895136        12655121.883607507        306035798.02593571     
   2470143757.2443538        16881964.153896093        484080352.83387440     
   2319548825.2383270        18731379.622914553        473286443.14659816     
   2168712093.3382645        19774795.445138812        465146528.73703688     
   2017633561.5441771        20012211.620609760        459660609.60518020     
   1866313229.8560510        19443628.149289608        456828685.75102717     
   2262739062.5756540        21046243.116798759        640557977.64449501     
   2120550104.0241158        25180035.015637875        627039246.15639842     
   1977791828.3674541        27416103.230728745        616805489.02562439     
   1834464235.6056783        27754447.762118340        609856706.25217497     
   1690567325.7388039        26195068.609823167        606192897.83605194     
   2392809626.1050754       -1033088.0631392002        163995.65554778496     
   2250076037.6286664        6772638.9113594294       -6577211.7136243274     
   2104059821.0175762        3636272.1035536528       -11188572.966147615     
   1954760976.2717917       -10442188.486544609       -13670088.102027198     
   1802179503.3913414       -35462742.858874440       -14021757.121268203     
   2217434380.0391793        5829549.8127930164        153814234.66077283     
   2078913497.3624473        12887302.590168476        143431692.90643635     
   1938232692.5249629        12745314.831696033        134332457.38837060     
   1795391965.5267172        5403586.5373721123        126516528.10658711     
   1650391316.3677237       -9137882.2927768230        119983905.06108463     
   2041935581.2895136        12655121.883607507        306035798.02593571     
   1905208719.0399828        18239294.852100611        293321745.52267247     
   1767444640.6036296        20366080.531197548        281044459.37532234     
   1628643345.9804621        19035478.920895040        269203939.58390939     
   1488804835.1704850        14247490.021234512        257800186.14840642     
   1866313229.8560510        19443628.149289608        456828685.75102717     
   1728961702.6612668        22828615.697165608        443092946.13509935     
   1591695665.2535994        26498569.202082396        428947432.99473792     
   1454515117.6330621        30453488.664107800        414392146.32993865     
   1317420059.7996345        34693374.083175600        399427086.14070135     
   1690567325.7388039        26195068.609823167        606192897.83605194     
   1550172448.2263145        26655265.125363052        592745294.74372482     
   1410985766.4748716        31142780.844381332        578041378.24659956     
   1273007280.4844925        39657615.766938806        562081148.34467864     
   1136236990.2551663        52199769.893018246        544864605.03796208     
   1802179503.3913414       -35462742.858874440       -14021757.121268203     
   1771331500.9981022       -16706480.746723771       -8336549.2894022381     
   1748550813.7758102        28940831.935240269       -41469108.842657924     
   1733837441.7244673        101479195.18705058       -113419435.78104679     
   1727191384.8440824        200908609.00869918       -224187530.10458037     
   1650391316.3677237       -9137882.2927768230        119983905.06108463     
   1527727700.0948718       -13929973.314671397        135599196.53120321     
   1409233852.9777524       -4822833.8174619079        124839095.43305941     
   1294909775.0163536        18183536.198817849        87703601.766669914     
   1184755466.2107143        55089136.734296381        24192715.532028303     
   1488804835.1704850        14247490.021234512        257800186.14840642     
   1309875247.3519602       -3428061.4345300794        278798424.23901546     
   1131217882.6739466       -20196202.421926975        285863644.57824641     
   952832741.13645577       -36056932.940909743        278995847.16610664     
   774719822.73949385       -51010252.991468757        258195032.00258684     
   1317420059.7996345        34693374.083175600        399427086.14070135     
   1117774142.7693765        14799254.893713057        421261133.83403426     
   914502902.86441922       -17179273.878075898        441604538.59289271     
   707606340.08477211       -61242212.232166678        460457300.41724652     
   497084454.43043160       -117389560.16856980        477819419.30711484     
   1136236990.2551663        52199769.893018246        544864605.03796208     
   951424386.34711921        40751975.670060635        562987325.31628871     
   759088913.54914916        4227951.8140324056        592061777.47699869     
   559230571.86127734       -57372301.674998522        632087961.52010751     
   351849361.28350025       -144048784.79705825        683065877.44559717     
   1727191384.8440824        200908609.00869918       -224187530.10458037     
   1456671468.3238120        184611043.36219192       -96639439.109588936     
   1153975563.0659363        61060181.923655093        60091482.146707751     
   819103669.07036686       -169743975.30715513        246005233.66428280     
   452055786.33718866       -507801428.33006096        461101815.44315028     
   1184755466.2107143        55089136.734296381        24192715.532028303     
   977688504.88621128        11874773.768544853        155574006.10107711     
   732794960.50778759       -157428199.37691888        312794000.55616707     
   450074833.07549262       -452819782.70197105        495852698.89726615     
   129528122.58928293       -874299976.20670533        704750101.12444484     
   774719822.73949385       -51010252.991468757        258195032.00258684     
   621551169.82427979       -124007807.31247473        386817162.11005527     
   424905339.53891540       -341929286.20062834        537933869.72830904     
   184782331.88340345       -704774689.65593088        711545154.85734153     
  -98817853.142255247       -1212544017.6784394        907651017.49714983     
   497084454.43043160       -117389560.16856980        477819419.30711484     
   388259463.13806176       -223036699.88071692        597090028.91738498     
   230306700.15927666       -492443078.54758185        735511089.66316175     
   23226165.494092643       -925608696.16910756        893082601.54448271     
  -232982140.85749322       -1522533552.7453101        1069804564.5613202     
   351849361.28350025       -144048784.79705825        683065877.44559717     
   277813384.82753038       -285211903.93627977        786392606.52302742     
   148999042.36887616       -608969576.41777730        905525660.36072183     
  -34593666.092412293       -1115321802.2413859        1040465038.9586831     
  -272964740.55637670       -1804268581.4072478        1191210742.3169034     
   4646312120.5324421        36991343.321850061        776748197.86378574     
   4448343327.9923286        22385663.432542562        742640468.65617883     
   4250236500.0668588        7319865.5920484066        720165379.72936499     
   4051991636.7560349       -8206050.1996293068        709322931.08335400     
   3853608738.0598564       -24192083.942481995        710113122.71813893     
   4200116174.8724384        19388725.981798649        840754754.88328660     
   4029866277.0508628        6835078.0419704914        819053137.64951754     
   3859795847.2486835       -5120343.1665232182        806567561.00702918     
   3689904885.4659066       -16477537.643688440        803298024.95581412     
   3520193391.7025251       -27236505.389534473        809244529.49587274     
   3792749494.3040829        13434888.169238567        902167010.63485610     
   3643313920.6595535        861901.01645660400        893241926.01381445     
   3494375318.4391747       -10054514.722491741        891116282.29452133     
   3345933687.6429467       -19314359.047601938        895790079.47698009     
   3197989028.2708683       -26917631.958879828        907263317.56119156     
   3424212078.8273959        19129829.884178877        960984965.11849844     
   3288686258.8184142        4466132.3559913635        965206833.74905336     
   3153974913.6383319       -7482649.0758619308        973811543.59183884     
   3020078043.2871547       -16716514.411364198        986799094.64685178     
   2886995647.7648845       -23235463.650523901        1004169486.9140888     
   3094503928.4423614        36473551.126618147        1017208618.3342140     
   2965983291.5274334        17647772.060572147        1034947860.8552483     
   2838594632.8461556        2595253.7733709812        1054653344.8989848     
   2712337952.3985386       -8684003.7349702120        1076325070.4654279     
   2587213250.1845741       -16190000.464466095        1099963037.5545719     
   3853608738.0598564       -24192083.942481995        710113122.71813893     
   3743382040.3241906       -14084786.537582159        696918260.88276303     
   3633060281.8373542       -4294358.3032486439        687914525.54234910     
   3522643462.5993443        5179200.7605113983        683101916.69689929     
   3412131582.6101680        14335890.653702736        682480434.34641075     
   3520193391.7025251       -27236505.389534473        809244529.49587274     
   3420265589.6770916       -16959230.592206478        799602642.45064747     
   3320225002.0642142       -7057907.7530360222        793652630.82777309     
   3220071628.8638811        2467463.1279602051        791394494.62724900     
   3119805470.0761008        11616882.050787568        792828233.84907866     
   3197989028.2708683       -26917631.958879828        907263317.56119156     
   3106933690.3196383       -16898309.259929538        901153726.33045745     
   3015747841.9446769       -7314021.3067455292        898236759.44946361     
   2924431483.1459885        1835231.9006767273        898512416.91820896     
   2832984613.9235697        10549450.362334490        901980698.73668778     
   2886995647.7648845       -23235463.650523901        1004169486.9140888     
   2803386342.2518177       -13902022.540768147        1001571512.5221897     
   2719628801.4787469       -5062698.9643697739        1001666911.4074154     
   2635723025.4456692        3282507.0786728859        1004455683.5697689     
   2551669014.1525779        11133595.588340878        1009937829.0092489     
   2587213250.1845741       -16190000.464466095        1099963037.5545719     
   2509623545.4736433       -7970370.4347063303        1100856001.0258451     
   2431867880.6664224       -303940.72591412067        1103943086.7016361     
   2353946255.7629147        6809288.6619271040        1109224294.5819409     
   2275858670.7631207        13369317.728807807        1116699624.6667542     
   3412131582.6101680        14335890.653702736        682480434.34641075     
   3259551392.4711094        10828654.232102513        671422964.50629163     
   3107037625.7624474        7542829.2451475859        665400605.50202286     
   2954590282.4841881        4478415.6928654909        664413357.33359158     
   2802209362.6363206        1635413.5752359629        668461220.00101578     
   3119805470.0761008        11616882.050787568        792828233.84907866     
   2980199177.3580537        9014385.4713357687        783671877.71007073     
   2840738719.4649057        6898004.9748703241        779251545.71088445     
   2701424096.3966532        5267740.5613850355        779567237.85152006     
   2562255308.1532931        4123592.2308920622        784618954.13196886     
   2832984613.9235697        10549450.362334490        901980698.73668778     
   2705497685.2093177        8595333.5998682976        894818102.92570972     
   2578236002.7144604        7392037.5687186718        892092444.55852485     
   2451199566.4389930        6939562.2688771486        893803723.63513207     
   2324388376.3829198        7237907.7003428936        899951940.15552974     
   2551669014.1525779        11133595.588340878        1009937829.0092489     
   2435446916.0248985        9571498.6176991463        1004861640.1532096     
   2319529475.5111094        9024927.0266952515        1003923302.0449376     
   2203916692.6112103        9493880.8153189421        1007122814.6844311     
   2088608567.3252037        10978359.983591795        1014460178.0716925     
   2275858670.7631207        13369317.728807807        1116699624.6667542     
   2170046869.8047905        11942880.524813175        1113802489.3925705     
   2064619137.8548579        11796673.348807693        1114744118.1701274     
   1959575474.9133062        12930696.200736761        1119524510.9994216     
   1854915880.9801421        15344949.080630183        1128143667.8804545     
   2802209362.6363206        1635413.5752359629        668461220.00101578     
   2666762977.8779154        4558755.1498326063        657207688.80545354     
   2531702466.2816744        8768340.5983076096        648805971.34750962     
   2397027827.8475800        14264169.920607328        643256067.62719536     
   2262739062.5756540        21046243.116798759        640557977.64449501     
   2562255308.1532931        4123592.2308920622        784618954.13196886     
   2434736138.6620779        7160599.9683091640        774683888.30416119     
   2307523620.3518524        11219778.309028745        767968635.98360324     
   2180617753.2226238        16301127.253061771        764473197.17030728     
   2054018537.2743773        22404646.800383210        764197571.86426258     
   2324388376.3829198        7237907.7003428936        899951940.15552974     
   2205847850.0721345        10704009.974549294        891242914.05077624     
   2087534752.9611735        14928209.581506371        886121701.22291100     
   1969449085.0500374        19910506.521203756        884588301.67193794     
   1851590846.3387232        25650900.793657541        886642715.39785731     
   2088608567.3252037        10978359.983591795        1014460178.0716925     
   1980098112.1080861        15188985.168553472        1006884766.0452923     
   1871735864.1096342        19893634.415722489        1003265167.0654272     
   1763521823.3298349        25092307.725066185        1003601381.1320908     
   1655455989.7686930        30785005.096614063        1007893408.2452716     
   1854915880.9801421        15344949.080630183        1128143667.8804545     
   1757486924.7699380        20615525.550327897        1121609444.2877266     
   1660126953.7972312        26116052.811672807        1119399033.5111575     
   1562835968.0620110        31846530.864648581        1121512435.5507512     
   1465613967.5642803        37806959.709255934        1127949650.4065063     
   2262739062.5756540        21046243.116798759        640557977.64449501     
   2120550104.0241158        25180035.015637875        627039246.15639842     
   1977791828.3674541        27416103.230728745        616805489.02562439     
   1834464235.6056783        27754447.762118340        609856706.25217497     
   1690567325.7388039        26195068.609823167        606192897.83605194     
   2054018537.2743773        22404646.800383210        764197571.86426258     
   1920387459.6484685        26292800.288789630        752364516.89009249     
   1786379967.6180758        28926239.095578074        743886158.67302942     
   1651996061.1831882        30304963.220725358        738762497.21306539     
   1517235740.3438194        30428972.664261937        736993532.51021397     
   1851590846.3387232        25650900.793657541        886642715.39785731     
   1726716856.4949627        29353177.928590536        876720390.08834243     
   1601659354.9473414        32443749.383993208        870222483.93571365     
   1476418341.6958642        34922615.159861982        867148996.93997121     
   1350993816.7405224        36789775.256206989        867499929.10111499     
   1655455989.7686930        30785005.096614063        1007893408.2452716     
   1539538294.5635979        34361167.935037196        1000106865.7511435     
   1423629990.3552721        37968634.096014798        995814464.81368852     
   1307731077.1437109        41607403.579553246        995016205.43289900     
   1191841554.9289279        45277476.385672867        997712087.60877717     
   1465613967.5642803        37806959.709255934        1127949650.4065063     
   1358851773.8543665        41316770.308110535        1122523943.8785036     
   1252291873.8418529        45500893.231629908        1120662101.3069458     
   1145934267.5267334        50359328.479800284        1122364122.6918380     
   1039778954.9090090        55892076.052621365        1127630008.0331879     
   1690567325.7388039        26195068.609823167        606192897.83605194     
   1550172448.2263145        26655265.125363052        592745294.74372482     
   1410985766.4748716        31142780.844381332        578041378.24659956     
   1273007280.4844925        39657615.766938806        562081148.34467864     
   1136236990.2551663        52199769.893018246        544864605.03796208     
   1517235740.3438194        30428972.664261937        736993532.51021397     
   1375108836.8877029        28254560.966991663        727811791.98136985     
   1233300031.5575240        27140476.356170177        719162023.71903050     
   1091809324.3532906        27086718.831843257        711044227.72319448     
   950636715.27500093        28093288.393987060        703458403.99384725     
   1350993816.7405224        36789775.256206989        867499929.10111499     
   1212244274.9730592        33513571.635822237        861545603.89479852     
   1072922733.6964221        28330702.984854400        857911536.62627470     
   933029192.91060984        21241169.303304493        856597727.29554951     
   792563652.61562443        12244970.591185957        857604175.90262139     
   1191841554.9289279        45277476.385672867        997712087.60877717     
   1061578762.4823844        42432297.131847680        993946730.48400664     
   929853872.89156258        34713460.730410576        994289916.96833742     
   796666886.15644288        22120967.181316316        998741647.06175911     
   662017802.27704549        4654816.4846307337        1007301920.7642736     
   1039778954.9090090        55892076.052621365        1127630008.0331879     
   923112299.41567385        55010737.455049068        1125015171.7490048     
   804093449.14294004        46288749.592817813        1128297164.7452168     
   682722404.09079504        29726112.465883911        1137475987.0218186     
   558999164.25925875        5322826.0743065476        1152551638.5788102     
   1136236990.2551663        52199769.893018246        544864605.03796208     
   951424386.34711921        40751975.670060635        562987325.31628871     
   759088913.54914916        4227951.8140324056        592061777.47699869     
   559230571.86127734       -57372301.674998522        632087961.52010751     
   351849361.28350025       -144048784.79705825        683065877.44559717     
   950636715.27500093        28093288.393987060        703458403.99384725     
   791520401.86100948        11096885.579090774        721359639.27434969     
   623765202.79821014       -34695802.731809437        749355968.11218345     
   447371118.08660853       -109284776.53872398        787447390.50735223     
   262338147.72621387       -212670035.84162384        835633906.45985734     
   792563652.61562443        12244970.591185957        857604175.90262139     
   656696091.62410057       -11034302.237135500        873981906.63325429     
   511073628.22489226       -66829916.424411565        899598092.59617341     
   355696262.41799206       -155141871.97066033        934452733.79137349     
   190563994.20339695       -275970168.87587517        978545830.21885335     
   662017802.27704549        4654816.4846307337        1007301920.7642736     
   546951455.63641715       -25641587.778579116        1020854127.3930036     
   421014189.82921183       -92174389.263712496        1042788150.9289687     
   284206004.85542530       -194943587.97078845        1073103991.3721541     
   136526900.71507019       -333949183.89975953        1111801648.7225747     
   558999164.25925875        5322826.0743065476        1152551638.5788102     
   462286493.89794642       -32724971.045265675        1161976301.5536005     
   353586887.61117268       -110729221.24971434        1178926143.1105642     
   232900345.39892164       -228689924.53907934        1203401163.2497091     
   100226867.26120788       -386607080.91333121        1235401361.9710326     
   351849361.28350025       -144048784.79705825        683065877.44559717     
   277813384.82753038       -285211903.93627977        786392606.52302742     
   148999042.36887616       -608969576.41777730        905525660.36072183     
  -34593666.092412293       -1115321802.2413859        1040465038.9586831     
  -272964740.55637670       -1804268581.4072478        1191210742.3169034     
   262338147.72621387       -212670035.84162384        835633906.45985734     
   223618061.33430201       -352348015.88816696        885018262.76295686     
   140666584.15106088       -639463965.23910773        945419639.17984951     
   13483716.176521778       -1074017883.8944125        1016838035.7105083     
  -157930542.58935428       -1656009771.8541324        1099273452.3549395     
   190563994.20339695       -275970168.87587517        978545830.21885335     
   173476070.31417352       -418268128.09809089        986292618.16085899     
   122703730.84496477       -672847472.58690906        1000267121.5701627     
   38246975.795766413       -1039708202.3423363        1020469340.4467498     
  -79894194.833392441       -1518850317.3643484        1046899274.7906272     
   136526900.71507019       -333949183.89975953        1111801648.7225747     
   127387411.76713473       -482972240.56609118        1090215672.7167146     
   95110482.450560689       -709120098.46122956        1070068107.5316571     
   39696112.765351474       -1012392757.5851629        1051358953.1674200     
  -38855697.288506448       -1392790217.9378808        1034088209.6239685     
   100226867.26120788       -386607080.91333121        1235401361.9710326     
   85352085.693185210       -546460353.29219139        1196787426.4305267     
   57886838.967871428       -748281842.86200571        1154822597.0643489     
   17831127.085246503       -992071549.62287891        1109506873.8724980     
  -34815049.954676688       -1277829473.5747299        1060840256.8549626     
   3094503928.4423614        36473551.126618147        1017208618.3342140     
   2965983291.5274334        17647772.060572147        1034947860.8552483     
   2838594632.8461556        2595253.7733709812        1054653344.8989848     
   2712337952.3985386       -8684003.7349702120        1076325070.4654279     
   2587213250.1845741       -16190000.464466095        1099963037.5545719     
   2764770330.7121549        50328782.483264208        1149897830.9707069     
   2643702026.1907201        31303057.581676483        1156977308.5582230     
   2523596439.0268393        15486390.538609266        1167869249.3493066     
   2404453569.2205124        2878781.3540618420        1182573653.3439620     
   2286273416.7717466       -6519769.9719564915        1201090520.5421863     
   2398451642.8805504        53208486.809492350        1281748992.3668730     
   2290110589.8407922        35565291.798813939        1277971233.9987590     
   2182562993.2824931        20566951.726333737        1279852160.5150781     
   2075808853.2056525        8213466.5920455456        1287391771.9158351     
   1969848169.6102715       -1495163.6040396690        1300590068.2010248     
   1995547864.9475384        45112664.105298281        1412762102.5227151     
   1905208982.4776518        30434474.711990714        1397929637.1768539     
   1815494295.6131227        17836937.336551547        1390602078.3962953     
   1726403804.3539565        7320051.9789807796        1390779426.1810353     
   1637937508.7001491       -1116181.3607209921        1398461680.5310793     
   1556058996.9131246        26041314.370682001        1542937161.4382370     
   1488997204.1012945        15910606.321198881        1516852518.0925136     
   1422390346.0187280        7296347.3692638874        1500119002.9929574     
   1356238422.6654198        198537.51485598087        1492736616.1395717     
   1290541434.0413804       -5382823.2419896722        1494705357.5323508     
   2587213250.1845741       -16190000.464466095        1099963037.5545719     
   2509623545.4736433       -7970370.4347063303        1100856001.0258451     
   2431867880.6664224       -303940.72591412067        1103943086.7016361     
   2353946255.7629147        6809288.6619271040        1109224294.5819409     
   2275858670.7631207        13369317.728807807        1116699624.6667542     
   2286273416.7717466       -6519769.9719564915        1201090520.5421863     
   2214800895.7087431       -598584.43566656113        1196831904.2934186     
   2143227710.5496705        4987054.1137322187        1195615101.9908781     
   2071553861.2945251        10237145.676217794        1197440113.6345716     
   1999779347.9433050        15151690.251789927        1202306939.2244871     
   1969848169.6102715       -1495163.6040396690        1300590068.2010248     
   1906914808.6001000        2854170.3602635860        1291256050.8991287     
   1843946079.4940734        7085610.6717149019        1285811539.2851768     
   1780941982.2921913        11199157.330315232        1284256533.3591735     
   1717902516.9944501        15194810.336058974        1286591033.1211154     
   1637937508.7001491       -1116181.3607209921        1398461680.5310793     
   1585965284.1477129        2387893.9530671239        1384128440.8429747     
   1534022987.4996376        5991728.9480559826        1374532398.5845306     
   1482110618.7559180        9695323.6242325902        1369673553.7557504     
   1430228177.9165614        13498677.981616914        1369551906.3566327     
   1290541434.0413804       -5382823.2419896722        1494705357.5323508     
   1251952322.3515790       -1997413.6572583318        1475449074.1249578     
   1213458434.5663550        1705408.9427312613        1461777679.8889391     
   1175059770.6857064        5725644.5579729676        1453691174.8242984     
   1136756330.7096326        10063293.188462794        1451189558.9310384     
   2275858670.7631207        13369317.728807807        1116699624.6667542     
   2170046869.8047905        11942880.524813175        1113802489.3925705     
   2064619137.8548579        11796673.348807693        1114744118.1701274     
   1959575474.9133062        12930696.200736761        1119524510.9994216     
   1854915880.9801421        15344949.080630183        1128143667.8804545     
   1999779347.9433050        15151690.251789927        1202306939.2244871     
   1904508966.3276122        13374682.010186791        1198056903.1525772     
   1809574770.3434923        12718292.540492535        1198157788.1473258     
   1714976759.9909420        13182521.842692852        1202609594.2087426     
   1620714935.2699530        14767369.916772127        1211412321.3368108     
   1717902516.9944501        15194810.336058974        1286591033.1211154     
   1634636860.4783199        13506222.783936024        1280932232.3118532     
   1551659506.2169356        12778642.747637153        1280136509.5841734     
   1468970454.2103024        13012070.227166474        1284203864.9380782     
   1386569704.4584100        14206505.222511411        1293134298.3735635     
   1430228177.9165614        13498677.981616914        1369551906.3566327     
   1360430552.2569094        12337502.846046388        1362428476.8703904     
   1290873345.4751804        11977723.970213711        1360680282.4806578     
   1221556557.5713816        12419341.354149163        1364307323.1874287     
   1152480188.5455065        13662354.997834086        1373309598.9907084     
   1136756330.7096326        10063293.188462794        1451189558.9310384     
   1081890041.6633823        9868522.1965183616        1442545636.8281958     
   1027216288.1182323        10315536.208242416        1439789106.8367853     
   972735070.07419109        11404335.223664999        1442919968.9568005     
   918446387.53125215        13134919.242761612        1451938223.1882398     
   1854915880.9801421        15344949.080630183        1128143667.8804545     
   1757486924.7699380        20615525.550327897        1121609444.2877266     
   1660126953.7972312        26116052.811672807        1119399033.5111575     
   1562835968.0620110        31846530.864648581        1121512435.5507512     
   1465613967.5642803        37806959.709255934        1127949650.4065063     
   1620714935.2699530        14767369.916772127        1211412321.3368108     
   1534461367.3941503        19399214.573690951        1205037736.4795597     
   1448296571.8181672        24326966.896679401        1203083191.0201740     
   1362220548.5420105        29550626.885759056        1205548684.9586523     
   1276233297.5656793        35070194.540916800        1212434218.2949972     
   1386569704.4584100        14206505.222511411        1293134298.3735635     
   1311766458.0075860        18282097.993814468        1286942437.1578453     
   1237071770.9189165        22719555.305636466        1285266841.9216967     
   1162485643.1924086        27518877.157999277        1288107512.6651163     
   1088008074.8280611        32680063.550889254        1295464449.3881068     
   1152480188.5455065        13662354.997834086        1373309598.9907084     
   1089402196.6102464        17264175.810702085        1367323546.3225784     
   1026452551.0994768        21293818.038540125        1365949986.2157254     
   963631252.01320028        25751281.681359112        1369188918.6701436     
   900938299.35141253        30636566.739137590        1377040343.6858311     
   918446387.53125215        13134919.242761612        1451938223.1882398     
   867368583.20213580        16345448.024358332        1446181063.9737604     
   816438912.35984373        20049755.095375061        1445132623.9022593     
   765657375.00438297        24247840.455825210        1448792902.9737296     
   715023971.13574922        28939704.105701506        1457161901.1881831     
   1465613967.5642803        37806959.709255934        1127949650.4065063     
   1358851773.8543665        41316770.308110535        1122523943.8785036     
   1252291873.8418529        45500893.231629908        1120662101.3069458     
   1145934267.5267334        50359328.479800284        1122364122.6918380     
   1039778954.9090090        55892076.052621365        1127630008.0331879     
   1276233297.5656793        35070194.540916800        1212434218.2949972     
   1179194614.1319008        37508594.466812372        1207868811.8925200     
   1082221616.8650889        40165948.282593429        1207466413.4397671     
   985314305.76524842        43042255.988285184        1211227022.9367356     
   888472680.83238602        46137517.583895087        1219150640.3834288     
   1088008074.8280611        32680063.550889254        1295464449.3881068     
   1002404741.6511965        34560604.798042715        1291599967.6589928     
   916730487.11088240        36204741.500351727        1292497637.8728762     
   830985311.20711005        37612473.657807767        1298157460.0297625     
   745169213.93988252        38783801.270411402        1308579434.1296403     
   900938299.35141253        30636566.739137590        1377040343.6858311     
   828482156.41225660        32472801.301802307        1373717411.1779191     
   755818484.57922018        33617272.884859532        1375755774.6062753     
   682947283.85230291        34069981.488319486        1383155433.9709115     
   609868554.23150110        33830927.112160951        1395916389.2718155     
   715023971.13574922        28939704.105701506        1457161901.1881831     
   657426858.41508102        31245183.978094578        1454221142.4492998     
   599485609.27010274        32403542.436120838        1457240823.6399672     
   541200223.70082462        32414779.479814082        1466220944.7601852     
   482570701.70723802        31278895.109145999        1481161505.8099513     
   1039778954.9090090        55892076.052621365        1127630008.0331879     
   923112299.41567385        55010737.455049068        1125015171.7490048     
   804093449.14294004        46288749.592817813        1128297164.7452168     
   682722404.09079504        29726112.465883911        1137475987.0218186     
   558999164.25925875        5322826.0743065476        1152551638.5788102     
   888472680.83238602        46137517.583895087        1219150640.3834288     
   786824142.09125197        44389071.032451659        1216597455.6788681     
   682867081.57573509        34945551.899731636        1219899941.0311153     
   576601499.28583288        17806960.185725927        1229058096.4401863     
   468027395.22155237       -7026704.1095384061        1244071921.9060614     
   745169213.93988252        38783801.270411402        1308579434.1296403     
   658421194.16929436        36132967.430563569        1306138852.8438907     
   569408325.62934911        25932637.692857772        1309512782.3913655     
   478130608.32004833        8182812.0573011935        1318701222.7720792     
   384588042.24138588       -17116509.476128027        1333704173.9860406     
   609868554.23150110        33830927.112160951        1395916389.2718155     
   537903455.64982152        30242426.649445891        1393639363.2440562     
   463717181.30380058        19250006.972261846        1397135688.8259609     
   387309731.19344705        853668.08063149452        1406405366.0175216     
   308681105.31875587       -24946590.025456727        1421448394.8187504     
   482570701.70723802        31278895.109145999        1481161505.8099513     
   425270926.53281599        26717448.689055070        1479098986.8793800     
   365793648.59907359        14897659.737890735        1482768660.3348963     
   304138867.90603226       -4180471.7442660481        1492170526.1765008     
   240306584.45366341       -30516945.757517517        1507304584.4041967     
   558999164.25925875        5322826.0743065476        1152551638.5788102     
   462286493.89794642       -32724971.045265675        1161976301.5536005     
   353586887.61117268       -110729221.24971434        1178926143.1105642     
   232900345.39892164       -228689924.53907934        1203401163.2497091     
   100226867.26120788       -386607080.91333121        1235401361.9710326     
   468027395.22155237       -7026704.1095384061        1244071921.9060614     
   390416906.06034946       -41455541.430793896        1242628254.8551812     
   302663779.88434827       -109693168.80137102        1247518250.1918254     
   204768016.69356188       -211739586.22122723        1258741907.9159904     
   96729616.487975836       -347594793.69042629        1276299228.0276861     
   384588042.24138588       -17116509.476128027        1333704173.9860406     
   322675402.29557055       -48947686.594486669        1323543858.9719439     
   252464424.24563983       -108439990.72656627        1318525690.1507137     
   173955108.09158933       -195593421.87237892        1318649667.5223622     
   87147453.833419114       -310407980.03192544        1323915791.0868869     
   308681105.31875587       -24946590.025456727        1421448394.8187504     
   259061982.60362026       -55201406.536319271        1404723113.9038789     
   202988820.69503930       -106969687.02532911        1391948462.9872403     
   140461619.59301198       -180251431.49249542        1383124442.0688195     
   71480379.297537580       -275046639.93781871        1378251051.1486273     
   240306584.45366341       -30516945.757517517        1507304584.4041967     
   199576646.98448503       -60216701.256320626        1486166019.6510081     
   154236969.23254225       -105282257.69766930        1467786568.7014031     
   104287551.19782454       -165713615.08160368        1452166231.5553644     
   49728392.880332693       -241510773.40811568        1439305008.2129083     
   100226867.26120788       -386607080.91333121        1235401361.9710326     
   85352085.693185210       -546460353.29219139        1196787426.4305267     
   57886838.967871428       -748281842.86200571        1154822597.0643489     
   17831127.085246503       -992071549.62287891        1109506873.8724980     
  -34815049.954676688       -1277829473.5747299        1060840256.8549626     
   96729616.487975836       -347594793.69042629        1276299228.0276861     
   79794680.068336517       -488766692.13111460        1221973837.7352521     
   51476404.768610895       -667883053.50543225        1165103520.4738288     
   11774790.588755846       -884943877.81350195        1105688276.2434094     
  -39310162.471200347       -1139949165.0552588        1043728105.0440130     
   87147453.833419114       -310407980.03192544        1323915791.0868869     
   70455125.009860992       -432207675.80011243        1255287260.0325701     
   43586583.583398521       -587928080.24464595        1184919768.8659542     
   6541829.5540088415       -777569193.36560905        1112813317.5870314     
  -40679137.078302205       -1001131015.1629612        1038967906.1958261     
   71480379.297537580       -275046639.93781871        1378251051.1486273     
   57333420.517751217       -376783304.29918063        1296727693.3224840     
   34217375.412238538       -508416923.07962990        1214271342.2407250     
   2132243.9809871018       -669947496.27920830        1130881997.9033685     
  -38921973.775979072       -861375023.89783621        1046559660.3103968     
   49728392.880332693       -241510773.40811568        1439305008.2129083     
   40429566.591993660       -322493577.62838304        1346295137.6049829     
   23368780.255125672       -429349582.01040792        1253158240.5981464     
  -1453966.1302847862       -562078786.55424809        1159894317.1923881     
  -34038672.564236879       -720681191.25988543        1066503367.3877150     
   1556058996.9131246        26041314.370682001        1542937161.4382370     
   1488997204.1012945        15910606.321198881        1516852518.0925136     
   1422390346.0187280        7296347.3692638874        1500119002.9929574     
   1356238422.6654198        198537.51485598087        1492736616.1395717     
   1290541434.0413804       -5382823.2419896722        1494705357.5323508     
   1114831037.4593093        3867022.7692800164        1504421519.3679686     
   1071381359.0729179       -1677008.3715940714        1490185593.2425146     
   1028272881.7284727       -6083702.7059766054        1483703239.9115493     
   985505605.42596722       -9353060.2338961959        1484974459.3750746     
   943079530.16540813       -11485080.955325782        1493999251.6330936     
   708411884.89949787       -7864626.7639275789        1465011853.7105536     
   684009876.79089952       -10191314.240473002        1462491955.5034943     
   659835336.03692555       -11759777.201607257        1466128074.6392472     
   635888262.63757467       -12570015.647328913        1475920211.1178131     
   612168656.59284770       -12622029.577638268        1491868364.9391940     
   336801539.23369384       -9153634.2289295644        1424708164.4659960     
   326882757.25523752       -9632311.2854516208        1433771604.8754568     
   317077708.94408721       -9731876.1176223457        1447393507.1760540     
   307386394.30023986       -9452328.7254500389        1465573871.3677864     
   297808813.32369775       -8793669.1089259982        1488312697.4506562     
  0.46189599764038086       0.37427025764305966        1383510451.6342866     
  0.46593461689625015       0.49348245270361746        1404024541.3583968     
  0.44995779080702936       0.54597441494570387        1427499537.5219669     
  0.41396673177286214       0.53175296126069260        1453935440.1249950     
  0.35795890061608915       0.45080962772305250        1483332249.1674824     
   1290541434.0413804       -5382823.2419896722        1494705357.5323508     
   1251952322.3515790       -1997413.6572583318        1475449074.1249578     
   1213458434.5663550        1705408.9427312613        1461777679.8889391     
   1175059770.6857064        5725644.5579729676        1453691174.8242984     
   1136756330.7096326        10063293.188462794        1451189558.9310384     
   943079530.16540813       -11485080.955325782        1493999251.6330936     
   917944999.86048615       -7803832.7567459345        1480188851.1639884     
   892881887.48064971       -3884524.8078827262        1471074969.0625303     
   867890193.02589655        272842.89125931263        1466657605.3287091     
   842969916.49623048        4668270.3406916261        1466936759.9625320     
   612168656.59284770       -12622029.577638268        1491868364.9391940     
   597950505.37641287       -9406403.4541335404        1483476073.7656455     
   583779966.10557389       -6032070.8453080654        1478891930.1560037     
   569657038.78032815       -2499031.7511719167        1478115934.1102638     
   555581723.40067744        1192713.8282801807        1481148085.6284301     
   297808813.32369775       -8793669.1089259982        1488312697.4506562     
   291968838.89936090       -6805125.7494085431        1485310741.9299252     
   286152670.44112849       -4737229.1695424914        1485228563.1693609     
   280360307.94900078       -2589979.3693275005        1488066161.1689651     
   274591751.42297226       -363376.34878109396        1493823535.9287372     
  0.35795890061608915       0.45080962772305250        1483332249.1674824     
  0.42932681219655577       0.35741350355524204        1485692855.6568263     
  0.48731096996484985       0.21940556056958010        1490084868.1026044     
  0.53190782822243809        3.6773285881565393E-002   1496508286.5048103     
  0.56311740984479486      -0.19048393814661121        1504963110.8634527     
   1136756330.7096326        10063293.188462794        1451189558.9310384     
   1081890041.6633823        9868522.1965183616        1442545636.8281958     
   1027216288.1182323        10315536.208242416        1439789106.8367853     
   972735070.07419109        11404335.223664999        1442919968.9568005     
   918446387.53125215        13134919.242761612        1451938223.1882398     
   842969916.49623048        4668270.3406916261        1466936759.9625320     
   803143212.09931350        4919095.7671420872        1460574410.4669375     
   763460909.34030056        5651259.9866024256        1459790750.1859317     
   723923008.21918964        6864762.9990701675        1464585779.1195095     
   684529508.73598230        8559604.8045496941        1474959497.2676733     
   555581723.40067744        1192713.8282801807        1481148085.6284301     
   529912595.37640667        1624533.1901243925        1477011152.5663481     
   504339735.12683630        2377245.1343026757        1478144205.8220131     
   478863142.65196759        3450849.6608224511        1484547245.3954225     
   453482817.95180142        4845346.7696794271        1496220271.2865701     
   274591751.42297226       -363376.34878109396        1493823535.9287372     
   262198191.49465606       -15165.534549742937        1491855863.1264327     
   249852765.47783938        493491.65134644508        1494849473.7450297     
   237555473.37251884        1162595.2088967711        1502804367.7845290     
   225306315.17870104        1992145.1381225139        1515720545.2449250     
  0.56311740984479486      -0.19048393814661121        1504963110.8634527     
  0.45406238293109269      -0.40688018430680628        1505108542.1471889     
  0.39330960649513957      -0.46226962276389461        1509906553.9549830     
  0.38085029635476275      -0.35668153412511927        1519357146.2868378     
  0.41669012562761554       -9.0094232440740912E-002   1533460319.1427517     
   918446387.53125215        13134919.242761612        1451938223.1882398     
   867368583.20213580        16345448.024358332        1446181063.9737604     
   816438912.35984373        20049755.095375061        1445132623.9022593     
   765657375.00438297        24247840.455825210        1448792902.9737296     
   715023971.13574922        28939704.105701506        1457161901.1881831     
   684529508.73598230        8559604.8045496941        1474959497.2676733     
   645588542.06788516        10777717.435786337        1470431928.3518691     
   606758675.50773931        13366163.760195881        1470760688.3747268     
   568039909.05555511        16324943.777811348        1475945777.3362408     
   529432242.71132588        19654057.488607496        1485987195.2364190     
   453482817.95180142        4845346.7696794271        1496220271.2865701     
   427100431.21809733        6197565.9325531423        1492879087.0607605     
   400792111.21347958        7796674.1923805028        1494541841.5692976     
   374557857.93794990        9642671.5491677374        1501208534.8121738     
   348397671.39150673        11735558.002911374        1512879166.7893908     
   225306315.17870104        1992145.1381225139        1515720545.2449250     
   211904250.65277255        2604993.5146555230        1513522540.1004384     
   198539219.47705740        3341286.3919011876        1516476083.4859715     
   185211221.65156224        4201023.7698809803        1524581175.4015315     
   171920257.17628747        5184205.6485935450        1537837815.8471122     
  0.41669012562761554       -9.0094232440740912E-002   1533460319.1427517     
  0.37191152172585190       0.18210037415706865        1532362287.4708970     
  0.29848143187840914       0.35879072149200486        1536563414.1247470     
  0.19639912407010618       0.43997367562407386        1546063699.1043038     
   6.5664415297147768E-002  0.42564793265123430        1560863142.4095690     
   715023971.13574922        28939704.105701506        1457161901.1881831     
   657426858.41508102        31245183.978094578        1454221142.4492998     
   599485609.27010274        32403542.436120838        1457240823.6399672     
   541200223.70082462        32414779.479814082        1466220944.7601852     
   482570701.70723802        31278895.109145999        1481161505.8099513     
   529432242.71132588        19654057.488607496        1485987195.2364190     
   486996733.42888278        21611864.962421864        1484201197.6039584     
   444303121.82604420        22709331.368254155        1488197764.0094855     
   401351407.90280908        22946456.706097975        1497976894.4530020     
   358141591.65918308        22323240.975974798        1513538588.9345095     
   348397671.39150673        11735558.002911374        1512879166.7893908     
   320615548.71424848        13193228.028203323        1512348303.3845868     
   292661357.82051247        14077337.331905529        1517422128.1262124     
   264535098.71030077        14387885.914020687        1528100641.0142643     
   236236771.38361084        14124873.774541773        1544383842.0487437     
   171920257.17628747        5184205.6485935450        1537837815.8471122     
   158283304.27118519        5989273.1754535884        1538662459.7911973     
   144560317.25352493        6507560.3271235079        1544913915.9901536     
   130751296.12330046        6739067.1035791412        1556592184.4439712     
   116856240.88051726        6683793.5048390143        1573697265.1526704     
   6.5664415297147768E-002  0.42564793265123430        1560863142.4095690     
   9.9696990589832543E-002  0.40419636502277950        1563143666.8237801     
  0.12508684564340100       0.35393295437304217        1570673127.6013007     
  0.14182437275860155       0.27482983837419261        1583451524.7421296     
  0.14991936263848110       0.16691826492427303        1601478858.2462628     
   482570701.70723802        31278895.109145999        1481161505.8099513     
   425270926.53281599        26717448.689055070        1479098986.8793800     
   365793648.59907359        14897659.737890735        1482768660.3348963     
   304138867.90603226       -4180471.7442660481        1492170526.1765008     
   240306584.45366341       -30516945.757517517        1507304584.4041967     
   358141591.65918308        22323240.975974798        1513538588.9345095     
   315925714.85104191        19129842.506062195        1510048159.3247976     
   272076710.97619486        10492687.147132680        1512112832.6991832     
   226594580.03465649       -3588225.1007706523        1519732609.0576503     
   179479322.02640757       -23112894.237706460        1532907488.4002037     
   236236771.38361084        14124873.774541773        1544383842.0487437     
   208598823.22175956        12147732.338820182        1540100606.7346125     
   179872123.68581676        6541419.6561256498        1541195385.0025744     
   150056672.77579114       -2694064.2735086232        1547668176.8526266     
   119152470.49167424       -15558719.450118676        1559518982.2847707     
   116856240.88051726        6683793.5048390143        1573697265.1526704     
   103290251.64496765        5771118.1873203032        1569256329.1088245     
   89179886.727938116        3043857.2648713663        1570016317.2450790     
   74525146.129434854       -1497989.2624906413        1575977229.5614252     
   59326029.849450447       -7854421.3947913572        1587139066.0578635     
  0.14991936263848110       0.16691826492427303        1601478858.2462628     
  0.12066702948198871        5.1567815951458026E-002   1597515326.4474313     
  0.10255578437760977       -2.6645672847645477E-002   1598575629.4266927     
   9.5580160086960658E-002  -6.7740078656287728E-002   1604659767.1840541     
   9.9746676120247763E-002  -7.1694710607866238E-002   1615767739.7195075     
   240306584.45366341       -30516945.757517517        1507304584.4041967     
   199576646.98448503       -60216701.256320626        1486166019.6510081     
   154236969.23254225       -105282257.69766930        1467786568.7014031     
   104287551.19782454       -165713615.08160368        1452166231.5553644     
   49728392.880332693       -241510773.40811568        1439305008.2129083     
   179479322.02640757       -23112894.237706460        1532907488.4002037     
   148287934.73523733       -45580891.116676278        1507313416.5752604     
   113639242.23131546       -79573238.704820842        1484628709.8637040     
   75533244.514644802       -125089937.00212598        1464853368.2655430     
   33969941.585215524       -182130986.00862792        1447987391.7807789     
   119152470.49167424       -15558719.450118676        1559518982.2847707     
   97928922.835128427       -30666170.872303605        1530813910.9697475     
   74400505.035857052       -53456522.770241044        1505168456.0779355     
   48567217.093856230       -83929775.143944025        1482582617.6093390     
   20429059.009124160       -122085927.99341579        1463056395.5639589     
   59326029.849450447       -7854421.3947913572        1587139066.0578635     
   48499611.284161463       -15472540.523185022        1556667502.8344636     
   36520757.646166667       -26932109.893931255        1529405807.3440940     
   23389468.935466170       -42233129.507029302        1505353979.5867553     
   9105745.1520546079       -61375599.362498775        1484512019.5624502     
   9.9746676120247763E-002  -7.1694710607866238E-002   1615767739.7195075     
   8.2334414011894508E-002  -6.9331125090083906E-002   1584874192.1694181     
   6.2243067842717090E-002  -7.5896431996268013E-002   1557340763.6621768     
   3.9470052684107311E-002  -9.1400982478588438E-002   1533167454.1977918     
   1.4001894881638624E-002 -0.11589003566316236        1512354263.7762482     
   49728392.880332693       -241510773.40811568        1439305008.2129083     
   40429566.591993660       -322493577.62838304        1346295137.6049829     
   23368780.255125672       -429349582.01040792        1253158240.5981464     
  -1453966.1302847862       -562078786.55424809        1159894317.1923881     
  -34038672.564236879       -720681191.25988543        1066503367.3877150     
   33969941.585215524       -182130986.00862792        1447987391.7807789     
   29813460.692060843       -242022797.53260568        1347501278.1453385     
   19835509.762166098       -321319509.17905581        1246230689.0521314     
   4036088.7955400646       -420021120.94794154        1144175624.5011399     
  -17584802.207820117       -538127632.83927286        1041336084.4923742     
   20429059.009124160       -122085927.99341579        1463056395.5639589     
   19536497.628690824       -161450274.58587280        1357357943.9147770     
   14762956.223321036       -213751221.26144853        1250217567.7489634     
   6108434.7930236310       -278988768.02011389        1141635267.0664985     
  -6427066.6622082889       -357162914.86190194        1031611041.8674204     
   9105745.1520546079       -61375599.362498775        1484512019.5624502     
   9598677.4018826149       -80776008.788178056        1375865134.9132948     
   8151119.6385817304       -106644718.25761995        1265118876.6886451     
   4763071.8621609583       -138981727.77079520        1152273244.8884962     
  -565465.92740141600       -177787037.32777250        1037328239.5128576     
   1.4001894881638624E-002 -0.11589003566316236        1512354263.7762482     
   1.1640230903706597E-002 -0.13951353808480518        1403022851.1408935     
   7.9563187540153055E-003 -0.16754384052292187        1290934615.8711815     
   2.9486486512537574E-003 -0.19998805725005345        1176089557.9671116     
  -3.3949034060145045E-003 -0.23688313215736959        1058487677.4286895     
  0.46189599764038086       0.37427025764305966        1383510451.6342866     
  0.46593461689625015       0.49348245270361746        1404024541.3583968     
  0.44995779080702936       0.54597441494570387        1427499537.5219669     
  0.41396673177286214       0.53175296126069260        1453935440.1249950     
  0.35795890061608915       0.45080962772305250        1483332249.1674824     
  -336801538.87309951        9153632.9784013927        1424708165.0856688     
  -326882756.67351991        9632311.0437448770        1433771605.4342554     
  -317077708.24182302        9731876.5494825989        1447393507.6600704     
  -307386393.57800710        9452329.4956159890        1465573871.7631211     
  -297808812.68207192        8793669.8821458668        1488312697.7434046     
  -708411885.02182913        7864623.5384139717        1465011855.2569554     
  -684009876.51878428        10191312.782264292        1462491956.8574996     
  -659835335.53148723        11759776.973626196        1466128075.7730532     
  -635888262.05993724        12570016.112493873        1475920212.0036142     
  -612168656.10413504        12622030.198870748        1491868365.5491803     
  -1114831037.9842935       -3867027.9456946850        1504421522.1481318     
  -1071381359.0698577        1677005.7090418935        1490185595.6281307     
  -1028272881.4190328        6083701.8184084296        1483703241.8609087     
  -985505605.03182507        9353060.3823851943        1484974460.8464708     
  -943079529.90823007        11485081.400985241        1493999252.5848134     
  -1556058997.7604933       -26041321.473924041        1542937165.7592113     
  -1488997204.3267388       -15910610.175919592        1516852521.7461474     
  -1422390345.9044642       -7296348.9161816835        1500119005.9236450     
  -1356238422.4936700       -198537.69471138716        1492736618.2916956     
  -1290541434.0943553        5382823.4884940386        1494705358.8503015     
  0.35795890061608915       0.45080962772305250        1483332249.1674824     
  0.42932681219655577       0.35741350355524204        1485692855.6568263     
  0.48731096996484985       0.21940556056958010        1490084868.1026044     
  0.53190782822243809        3.6773285881565393E-002   1496508286.5048103     
  0.56311740984479486      -0.19048393814661121        1504963110.8634527     
  -297808812.68207192        8793669.8821458668        1488312697.7434046     
  -291968838.10199130        6805126.4120111614        1485310742.1634345     
  -286152669.50912046        4737229.6511745751        1485228563.3360636     
  -280360306.90347105        2589979.5996013582        1488066161.2612832     
  -274591750.28503454        363376.25731782615        1493823535.9391010     
  -612168656.10413504        12622030.198870748        1491868365.5491803     
  -597950504.74058342        9406404.0344307721        1483476074.2637646     
  -583779965.33807504        6032071.3331795335        1478891930.5271077     
  -569657037.89661539        2499032.0950996578        1478115934.3392103     
  -555581722.41619730       -1192713.6797869503        1481148085.7000728     
  -943079529.90823007        11485081.400985241        1493999252.5848134     
  -917944999.48645103        7803833.2246707082        1480188851.9578145     
  -892881886.99954951        3884525.2654303908        1471074969.6757395     
  -867890192.44752324       -272842.47672432661        1466657605.7385890     
  -842969915.83036900       -4668270.0017911792        1466936760.1463606     
  -1290541434.0943553        5382823.4884940386        1494705358.8503015     
  -1251952322.3395989        1997413.9827131629        1475449075.2455850     
  -1213458434.4935443       -1705408.5520723462        1461777680.7819574     
  -1175059770.5561979       -5725644.1158869267        1453691175.4594188     
  -1136756330.5275526       -10063292.708702207        1451189559.2779686     
  0.56311740984479486      -0.19048393814661121        1504963110.8634527     
  0.45406238293109269      -0.40688018430680628        1505108542.1471889     
  0.39330960649513957      -0.46226962276389461        1509906553.9549830     
  0.38085029635476275      -0.35668153412511927        1519357146.2868378     
  0.41669012562761554       -9.0094232440740912E-002   1533460319.1427517     
  -274591750.28503454        363376.25731782615        1493823535.9391010     
  -262198190.53474897        15165.114626467228        1491855863.1796505     
  -249852764.62579182       -493492.16582533717        1494849473.8478494     
  -237555472.55816296       -1162595.5840376318        1502804367.9437065     
  -225306314.33186200       -1992145.1400102377        1515720545.4672174     
  -555581722.41619730       -1192713.6797869503        1481148085.7000728     
  -529912594.51058793       -1624533.2599851191        1477011152.6928654     
  -504339734.33593237       -2377245.2766961455        1478144206.0169082     
  -478863141.89222854       -3450849.7299127579        1484547245.6721997     
  -453482817.17947996       -4845346.6196493208        1496220271.6587439     
  -842969915.83036900       -4668270.0017911792        1466936760.1463606     
  -803143211.47345138       -4919095.5307090580        1460574410.6868382     
  -763460908.73710871       -5651259.7948726714        1459790750.4621639     
  -723923007.62134624       -6864762.7943051755        1464585779.4723287     
  -684529508.12616193       -8559604.5289992690        1474959497.7173424     
  -1136756330.5275526       -10063292.708702207        1451189559.2779686     
  -1081890041.4233339       -9868521.6975203753        1442545637.1615665     
  -1027216287.8293245       -10315535.720366895        1439789107.1836047     
  -972735069.74551141       -11404334.777201593        1442919969.3440840     
  -918446387.17191088       -13134918.868079305        1451938223.6430042     
  0.41669012562761554       -9.0094232440740912E-002   1533460319.1427517     
  0.37191152172585190       0.18210037415706865        1532362287.4708970     
  0.29848143187840914       0.35879072149200486        1536563414.1247470     
  0.19639912407010618       0.43997367562407386        1546063699.1043038     
   6.5664415297147768E-002  0.42564793265123430        1560863142.4095690     
  -225306314.33186200       -1992145.1400102377        1515720545.4672174     
  -211904249.92981744       -2604993.1468630508        1513522540.2411940     
  -198539218.91959089       -3341285.7931091413        1516476083.5591087     
  -185211221.30117887       -4201023.0787366629        1524581175.4209609     
  -171920257.07458603       -5184205.0037595332        1537837815.8267462     
  -453482817.17947996       -4845346.6196493208        1496220271.6587439     
  -427100430.56424052       -6197565.5756330192        1492879087.2881985     
  -400792110.70398390       -7796673.7148927152        1494541841.6798177     
  -374557857.59870988       -9642671.0374298096        1501208534.8336053     
  -348397671.24842066       -11735557.543245569        1512879166.7495580     
  -684529508.12616193       -8559604.5289992690        1474959497.7173424     
  -645588541.53135908       -10777717.104212523        1470431928.6119092     
  -606758675.05470383       -13366163.406580597        1470760688.4868734     
  -568039908.69619703       -16324943.436111331        1475945777.3422310     
  -529432242.45584095       -19654057.192812294        1485987195.1779902     
  -918446387.17191088       -13134918.868079305        1451938223.6430042     
  -867368582.83117354       -16345447.732600719        1446181064.2123284     
  -816438911.97174776       -20049754.868164897        1445132623.9802778     
  -765657374.59363854       -24247840.274782300        1448792902.9468517     
  -715023970.69684172       -28939703.952439845        1457161901.1120541     
   6.5664415297147768E-002  0.42564793265123430        1560863142.4095690     
   9.9696990589832543E-002  0.40419636502277950        1563143666.8237801     
  0.12508684564340100       0.35393295437304217        1570673127.6013007     
  0.14182437275860155       0.27482983837419261        1583451524.7421296     
  0.14991936263848110       0.16691826492427303        1601478858.2462628     
  -171920257.07458603       -5184205.0037595332        1537837815.8267462     
  -158283304.10661933       -5989272.5658444688        1538662459.7753093     
  -144560317.03878555       -6507559.7950366214        1544913915.9729629     
  -130751295.87109366       -6739066.6913706884        1556592184.4197104     
  -116856240.60353298       -6683793.2548039369        1573697265.1155565     
  -348397671.24842066       -11735557.543245569        1512879166.7495580     
  -320615548.52998179       -13193227.600979164        1512348303.3590584     
  -292661357.60317183       -14077336.964140356        1517422128.1034396     
  -264535098.46799409       -14387885.632742614        1528100640.9827013     
  -236236771.12444571       -14124873.606777579        1544383841.9968424     
  -529432242.45584095       -19654057.192812294        1485987195.1779902     
  -486996733.17039740       -21611864.701229811        1484201197.5750232     
  -444303121.56808406       -22709331.153415233        1488197763.9927254     
  -401351407.64889032       -22946456.549331605        1497976894.4310908     
  -358141591.41281748       -22323240.888985604        1513538588.8901289     
  -715023970.69684172       -28939703.952439845        1457161901.1120541     
  -657426858.02786958       -31245183.866610795        1454221142.4232142     
  -599485608.93351269       -32403542.362831652        1457240823.6408267     
  -541200223.41376841       -32414779.441096842        1466220944.7648897     
  -482570701.46864080       -31278895.101415783        1481161505.7954066     
  0.14991936263848110       0.16691826492427303        1601478858.2462628     
  0.12066702948198871        5.1567815951458026E-002   1597515326.4474313     
  0.10255578437760977       -2.6645672847645477E-002   1598575629.4266927     
   9.5580160086960658E-002  -6.7740078656287728E-002   1604659767.1840541     
   9.9746676120247763E-002  -7.1694710607866238E-002   1615767739.7195075     
  -116856240.60353298       -6683793.2548039369        1573697265.1155565     
  -103290251.41227183       -5771118.1142691560        1569256329.0954185     
  -89179886.522941813       -3043857.3135048002        1570016317.2539160     
  -74525145.935529307        1497989.1475348547        1575977229.5910399     
  -59326029.650049716        7854421.2688002139        1587139066.1068020     
  -236236771.12444571       -14124873.606777579        1544383841.9968424     
  -208598822.99686351       -12147732.295638613        1540100606.7234983     
  -179872123.48426384       -6541419.7011120841        1541195385.0293210     
  -150056672.58665529        2694064.1767779738        1547668176.9143157     
  -119152470.30403237        15558719.338049248        1559518982.3784752     
  -358141591.41281748       -22323240.888985604        1513538588.8901289     
  -315925714.63309181       -19129842.492487401        1510048159.3316689     
  -272076710.78141189       -10492687.189473435        1512112832.7529140     
  -226594579.85778573        3588225.0200265199        1519732609.1538644     
  -179479321.86220399        23112894.136046588        1532907488.5345147     
  -482570701.46864080       -31278895.101415783        1481161505.7954066     
  -425270926.32095736       -26717448.704814017        1479098986.9199321     
  -365793648.41438317       -14897659.778581738        1482768660.4246936     
  -304138867.74892294        4180471.6772730500        1492170526.3096988     
  -240306584.32456955        30516945.662772417        1507304584.5749397     
   9.9746676120247763E-002  -7.1694710607866238E-002   1615767739.7195075     
   8.2334414011894508E-002  -6.9331125090083906E-002   1584874192.1694181     
   6.2243067842717090E-002  -7.5896431996268013E-002   1557340763.6621768     
   3.9470052684107311E-002  -9.1400982478588438E-002   1533167454.1977918     
   1.4001894881638624E-002 -0.11589003566316236        1512354263.7762482     
  -59326029.650049716        7854421.2688002139        1587139066.1068020     
  -48499611.121068731        15472540.392583113        1556667502.8742888     
  -36520757.523499236        26932109.744991314        1529405807.3758225     
  -23389468.857329860        42233129.326068178        1505353979.6114068     
  -9105745.1225645542        61375599.135799214        1484512019.5810328     
  -119152470.30403237        15558719.338049248        1559518982.3784752     
  -97928922.682393759        30666170.747107476        1530813911.0467033     
  -74400504.920883223        53456522.622405700        1505168456.1401670     
  -48567217.019492999        83929774.963968128        1482582617.6588829     
  -20429058.978235610        122085927.77175708        1463056395.6028271     
  -179479321.86220399        23112894.136046588        1532907488.5345147     
  -148287934.60163555        45580890.994263448        1507313416.6866448     
  -113639242.12991500        79573238.556319505        1484628709.9552052     
  -75533244.447041780        125089936.82221919        1464853368.3401992     
  -33969941.553008437        182130985.79198441        1447987391.8416386     
  -240306584.32456955        30516945.662772417        1507304584.5749397     
  -199576646.87880054        60216701.134029165        1486166019.7941217     
  -154236969.15059644        105282257.54673341        1467786568.8209343     
  -104287551.13995403        165713614.90089828        1452166231.6553819     
  -49728392.846887678        241510773.19647980        1439305008.2974586     
   1.4001894881638624E-002 -0.11589003566316236        1512354263.7762482     
   1.1640230903706597E-002 -0.13951353808480518        1403022851.1408935     
   7.9563187540153055E-003 -0.16754384052292187        1290934615.8711815     
   2.9486486512537574E-003 -0.19998805725005345        1176089557.9671116     
  -3.3949034060145045E-003 -0.23688313215736959        1058487677.4286895     
  -9105745.1225645542        61375599.135799214        1484512019.5810328     
  -9598677.3762356825        80776008.518703848        1375865134.9284945     
  -8151119.6195984185        106644717.93596803        1265118876.7001033     
  -4763071.8526251391        138981727.38768667        1152273244.8958442     
   565465.92466925830        177787036.87380868        1037328239.5157616     
  -20429058.978235610        122085927.77175708        1463056395.6028271     
  -19536497.601781495        161450274.32559359        1357357943.9466894     
  -14762956.203361660        213751220.95265064        1250217567.7732065     
  -6108434.7829638124        278988767.65296859        1141635267.0823889     
   6427066.6594034284        357162914.42651480        1031611041.8742021     
  -33969941.553008437        182130985.79198441        1447987391.8416386     
  -29813460.664988741        242022797.28118494        1347501278.1954904     
  -19835509.743342906        321319508.88247120        1246230689.0905159     
  -4036088.7880806923        420021120.59581202        1144175624.5266843     
   17584802.200801224        538127632.42121994        1041336084.5040277     
  -49728392.846887678        241510773.19647980        1439305008.2974586     
  -40429566.565848172        322493577.38551390        1346295137.6749012     
  -23368780.239555568        429349581.72538900        1253158240.6520047     
   1453966.1320187747        562078786.21620202        1159894317.2287867     
   34038672.548860162        720681190.85791028        1066503367.4052188     
  -1556058997.7604933       -26041321.473924041        1542937165.7592113     
  -1488997204.3267388       -15910610.175919592        1516852521.7461474     
  -1422390345.9044642       -7296348.9161816835        1500119005.9236450     
  -1356238422.4936700       -198537.69471138716        1492736618.2916956     
  -1290541434.0943553        5382823.4884940386        1494705358.8503015     
  -1995547865.2802496       -45112670.571718812        1412762107.6143992     
  -1905208982.5065889       -30434478.578113317        1397929641.3421731     
  -1815494295.5553463       -17836939.325900197        1390602081.5957131     
  -1726403804.4265265       -7320052.8150951862        1390779428.3750265     
  -1637937509.1201239        1116180.9543203115        1398461681.6801097     
  -2398451642.6295261       -53208492.618369818        1281748997.9786525     
  -2290110589.5582047       -35565295.641831756        1277971238.5011604     
  -2182562993.1202393       -20566954.109823704        1279852163.8846517     
  -2075808853.3156338       -8213468.0223441124        1287391774.1291292     
  -1969848170.1443861        1495162.6206054688        1300590069.2345953     
  -2764770329.8083386       -50328787.613881588        1149897836.8519635     
  -2643702025.4815912       -31303061.367080569        1156977313.2231085     
  -2523596438.5991421       -15486393.267942786        1167869252.7904563     
  -2404453569.1609936       -2878783.3164739609        1182573655.5540042     
  -2286273417.1671433        6519768.4873368740        1201090521.5137546     
  -3094503926.8166752       -36473555.558250546        1017208624.2343354     
  -2965983290.2767467       -17647775.753866673        1034947865.5080227     
  -2838594631.9920588       -2595256.8002759218        1054653348.3131294     
  -2712337951.9626088        8684001.3025188446        1076325072.6496525     
  -2587213250.1883936        16189998.554527164        1099963038.5175924     
  -1290541434.0943553        5382823.4884940386        1494705358.8503015     
  -1251952322.3395989        1997413.9827131629        1475449075.2455850     
  -1213458434.4935443       -1705408.5520723462        1461777680.7819574     
  -1175059770.5561979       -5725644.1158869267        1453691175.4594188     
  -1136756330.5275526       -10063292.708702207        1451189559.2779686     
  -1637937509.1201239        1116180.9543203115        1398461681.6801097     
  -1585965284.5492408       -2387894.1511285305        1384128441.8775070     
  -1534022987.8839905       -5991728.9420142770        1374532399.4692199     
  -1482110619.1243629       -9695323.4183122516        1369673554.4552515     
  -1430228178.2703691       -13498677.580056190        1369551906.8355954     
  -1969848170.1443861        1495162.6206054688        1300590069.2345953     
  -1906914809.1767287       -2854171.0103238821        1291256051.9043612     
  -1843946080.1116271       -7085610.9830998182        1285811540.2216690     
  -1780941982.9490755       -11199157.297715068        1284256534.1865215     
  -1717902517.6890771       -15194809.954174161        1286591033.7989156     
  -2286273417.1671433        6519768.4873368740        1201090521.5137546     
  -2214800896.2220631        598583.40511858463        1196831905.3261440     
  -2143227711.1764565       -4987054.6753463745        1195615103.0393021     
  -2071553862.0303304       -10237145.754073739        1197440114.6532338     
  -1999779348.7836790       -15151689.831062078        1202306940.1679385     
  -2587213250.1883936        16189998.554527164        1099963038.5175924     
  -2509623545.6852379        7970369.0952217579        1100856002.1428573     
  -2431867881.0784826        303939.98124349117        1103943087.9221225     
  -2353946256.3681278       -6809288.7874031067        1109224295.8553870     
  -2275858671.5541735       -13369317.210714459        1116699625.9426503     
  -1136756330.5275526       -10063292.708702207        1451189559.2779686     
  -1081890041.4233339       -9868521.6975203753        1442545637.1615665     
  -1027216287.8293245       -10315535.720366895        1439789107.1836047     
  -972735069.74551141       -11404334.777201593        1442919969.3440840     
  -918446387.17191088       -13134918.868079305        1451938223.6430042     
  -1430228178.2703691       -13498677.580056190        1369551906.8355954     
  -1360430552.4505234       -12337502.257446110        1362428477.3723397     
  -1290873345.5417974       -11977723.305235326        1360680283.0184906     
  -1221556557.5441983       -12419340.723445475        1364307323.7740474     
  -1152480188.4577150       -13662354.512049198        1373309599.6390059     
  -1717902517.6890771       -15194809.954174161        1286591033.7989156     
  -1634636860.9508452       -13506222.059300780        1280932233.0210719     
  -1551659506.5246491       -12778641.871221125        1280136510.3235958     
  -1468970454.4104972       -13012069.389949858        1284203865.7064910     
  -1386569704.6083851       -14206504.615480483        1293134299.1697552     
  -1999779348.7836790       -15151689.831062078        1202306940.1679385     
  -1904508966.9243007       -13374681.103095889        1198056904.1077600     
  -1809574770.7778785       -12718291.418316722        1198157789.0989184     
  -1714976760.3444214       -13182520.776750088        1202609595.1414137     
  -1620714935.6239178       -14767369.178369701        1211412322.2352414     
  -2275858671.5541735       -13369317.210714459        1116699625.9426503     
  -2170046870.3708949       -11942879.388839245        1113802490.6324043     
  -2064619138.3014884       -11796671.946531415        1114744119.3444617     
  -1959575475.3459654       -12930694.883836508        1119524512.0788157     
  -1854915881.5043168       -15344948.200722218        1128143668.8354714     
  -918446387.17191088       -13134918.868079305        1451938223.6430042     
  -867368582.83117354       -16345447.732600719        1446181064.2123284     
  -816438911.97174776       -20049754.868164897        1445132623.9802778     
  -765657374.59363854       -24247840.274782300        1448792902.9468517     
  -715023970.69684172       -28939703.952439845        1457161901.1120541     
  -1152480188.4577150       -13662354.512049198        1373309599.6390059     
  -1089402196.4095879       -17264175.482863665        1367323546.7699993     
  -1026452550.7716691       -21293817.821032405        1365949986.5018132     
  -963631251.54397178       -25751281.526609063        1369188918.8344378     
  -900938298.72648108       -30636566.599541545        1377040343.7678881     
  -1386569704.6083851       -14206504.615480483        1293134299.1697552     
  -1311766457.9894612       -18282097.633554280        1286942437.7786982     
  -1237071770.7096479       -22719555.115330756        1285266842.3906558     
  -1162485642.7689486       -27518877.060822189        1288107513.0056224     
  -1088008074.1673608       -32680063.470015347        1295464449.6235936     
  -1620714935.6239178       -14767369.178369701        1211412322.2352414     
  -1534461367.5707924       -19399214.184687138        1205037737.2384257     
  -1448296571.7856772       -24326966.751034141        1203083191.6468098     
  -1362220548.2685781       -29550626.877431273        1205548685.4603975     
  -1276233297.0194857       -35070194.563862681        1212434218.6791873     
  -1854915881.5043168       -15344948.200722218        1128143668.8354714     
  -1757486925.1535840       -20615525.136254907        1121609445.1491759     
  -1660126953.9997621       -26116052.728161693        1119399034.2702739     
  -1562835968.0428495       -31846530.976433039        1121512436.1987658     
  -1465613967.2828491       -37806959.881074905        1127949650.9346530     
  -715023970.69684172       -28939703.952439845        1457161901.1120541     
  -657426858.02786958       -31245183.866610795        1454221142.4232142     
  -599485608.93351269       -32403542.362831652        1457240823.6408267     
  -541200223.41376841       -32414779.441096842        1466220944.7648897     
  -482570701.46864080       -31278895.101415783        1481161505.7954066     
  -900938298.72648108       -30636566.599541545        1377040343.7678881     
  -828482155.89239764       -32472801.226470172        1373717411.2660840     
  -755818484.15949941       -33617272.857346684        1375755774.6877813     
  -682947283.52779365       -34069981.492201298        1383155434.0329757     
  -609868553.99726689       -33830927.130982757        1395916389.3016751     
  -1088008074.1673608       -32680063.470015347        1295464449.6235936     
  -1002404741.1194580       -34560604.795079172        1291599967.8611586     
  -916730486.69931412       -36204741.546010137        1292497638.0392735     
  -830985310.90693521       -37612473.722820669        1298157460.1579378     
  -745169213.74231529       -38783801.325493097        1308579434.2171459     
  -1276233297.0194857       -35070194.563862681        1212434218.6791873     
  -1179194613.7090554       -37508594.572457850        1207868812.2084506     
  -1082221616.5529602       -40165948.428829610        1207466413.6953115     
  -985314305.55119812       -43042256.132983029        1211227023.1397643     
  -888472680.70376682       -46137517.684906036        1219150640.5418162     
  -1465613967.2828491       -37806959.881074905        1127949650.9346530     
  -1358851773.6611886       -41316770.558590353        1122523944.3079472     
  -1252291873.7204268       -45500893.505775392        1120662101.6558859     
  -1145934267.4605837       -50359328.722687244        1122364122.9784658     
  -1039778954.8816419       -55892076.209266067        1127630008.2756913     
  -482570701.46864080       -31278895.101415783        1481161505.7954066     
  -425270926.32095736       -26717448.704814017        1479098986.9199321     
  -365793648.41438317       -14897659.778581738        1482768660.4246936     
  -304138867.74892294        4180471.6772730500        1492170526.3096988     
  -240306584.32456955        30516945.662772417        1507304584.5749397     
  -609868553.99726689       -33830927.130982757        1395916389.3016751     
  -537903455.44506216       -30242426.663535982        1393639363.3166733     
  -463717181.13249964       -19250006.994885683        1397135688.9385560     
  -387309731.05957693       -853668.12503778934        1406405366.1673226     
  -308681105.22628897        24946589.946022540        1421448395.0029879     
  -745169213.74231529       -38783801.325493097        1308579434.2171459     
  -658421193.99516892       -36132967.450065225        1306138852.9576650     
  -569408325.48619378       -25932637.701869637        1309512782.5317225     
  -478130608.21538699       -8182812.0809021294        1318701222.9393094     
  -384588042.18274397        17116509.412848607        1333704174.1804371     
  -888472680.70376682       -46137517.684906036        1219150640.5418162     
  -786824141.97126460       -44389071.064387769        1216597455.8429110     
  -682867081.47545886       -34945551.899521530        1219899941.2041907     
  -576601499.21635020       -17806960.190309078        1229058096.6256430     
  -468027395.19393635        7026704.0632452071        1244071922.1072831     
  -1039778954.8816419       -55892076.209266067        1127630008.2756913     
  -923112299.37335634       -55010737.506509155        1125015171.9724133     
  -804093449.10029936       -46288749.587844342        1128297164.9559586     
  -682722404.06247091       -29726112.453279525        1137475987.2263319     
  -558999164.25985682       -5322826.1027567089        1152551638.7835362     
  -240306584.32456955        30516945.662772417        1507304584.5749397     
  -199576646.87880054        60216701.134029165        1486166019.7941217     
  -154236969.15059644        105282257.54673341        1467786568.8209343     
  -104287551.13995403        165713614.90089828        1452166231.6553819     
  -49728392.846887678        241510773.19647980        1439305008.2974586     
  -308681105.22628897        24946589.946022540        1421448395.0029879     
  -259061982.52632454        55201406.424830705        1404723114.0613410     
  -202988820.63214558        106969686.88434844        1391948463.1212416     
  -140461619.54376286        180251431.32454878        1383124442.1826837     
  -71480379.261178672        275046639.74542570        1378251051.2456782     
  -384588042.18274397        17116509.412848607        1333704174.1804371     
  -322675402.24596924        48947686.494009376        1323543859.1416960     
  -252464424.20321175        108439990.59510756        1318525690.2984195     
  -173955108.05447540        195593421.71613470        1318649667.6505945     
  -87147453.799760178        310407979.85709774        1323915791.1982362     
  -468027395.19393635        7026704.0632452071        1244071922.1072831     
  -390416906.03774232        41455541.341539502        1242628255.0351913     
  -302663779.86379611        109693168.67900491        1247518250.3524706     
  -204768016.67209685        211739586.07564470        1258741908.0591183     
  -96729616.462645844        347594793.53146517        1276299228.1551440     
  -558999164.25985682       -5322826.1027567089        1152551638.7835362     
  -462286493.90163833        32724970.967439443        1161976301.7418191     
  -353586887.61389029        110729221.13606432        1178926143.2833900     
  -232900345.39661992        228689924.40309459        1203401163.4082470     
  -100226867.24982393        386607080.76855159        1235401362.1163857     
  -49728392.846887678        241510773.19647980        1439305008.2974586     
  -40429566.565848172        322493577.38551390        1346295137.6749012     
  -23368780.239555568        429349581.72538900        1253158240.6520047     
   1453966.1320187747        562078786.21620202        1159894317.2287867     
   34038672.548860162        720681190.85791028        1066503367.4052188     
  -71480379.261178672        275046639.74542570        1378251051.2456782     
  -57333420.490137622        376783304.08039296        1296727693.3996518     
  -34217375.396248758        508416922.82485020        1214271342.2971959     
  -2132243.9795064330        669947495.97881377        1130881997.9383330     
   38921973.760079443        861375023.54226685        1046559660.3230509     
  -87147453.799760178        310407979.85709774        1323915791.1982362     
  -70455124.984656453        432207675.60422653        1255287260.1192443     
  -43586583.569128275        587928080.01944232        1184919768.9277539     
  -6541829.5531670451        777569193.10276484        1112813317.6237664     
   40679137.063228309        1001131014.8542024        1038967906.2072810     
  -96729616.462645844        347594793.53146517        1276299228.1551440     
  -79794680.049425811        488766691.95696664        1221973837.8336966     
  -51476404.758186877        667883053.30920053        1165103520.5436656     
  -11774790.588944554        884943877.58810425        1105688276.2850566     
   39310162.458306193        1139949164.7937167        1043728105.0578775     
  -100226867.24982393        386607080.76855159        1235401362.1163857     
  -85352085.684429586        546460353.13865638        1196787426.5429907     
  -57886838.963435411        748281842.69408011        1154822597.1449397     
  -17831127.086861014        992071549.43477666        1109506873.9222372     
   34815049.945313454        1277829473.3608098        1060840256.8748646     
  -3094503926.8166752       -36473555.558250546        1017208624.2343354     
  -2965983290.2767467       -17647775.753866673        1034947865.5080227     
  -2838594631.9920588       -2595256.8002759218        1054653348.3131294     
  -2712337951.9626088        8684001.3025188446        1076325072.6496525     
  -2587213250.1883936        16189998.554527164        1099963038.5175924     
  -3424212075.1873307       -19129829.221545696        960984970.75225055     
  -3288686256.2761407       -4466133.4647912979        965206838.20197368     
  -3153974911.9873552        7482646.8839495182        973811546.87839866     
  -3020078042.3209763        16716511.824680448        986799096.78152072     
  -2886995647.2769995        23235461.357389927        1004169487.9113415     
  -3792749488.7760234       -13434882.450252056        902167014.98728859     
  -3643313916.9356265       -861899.57374382019        893241929.51802480     
  -3494375316.0847955        10054513.337534904        891116284.97073925     
  -3345933686.2235379        19314356.283576965        895790081.34543514     
  -3197989027.3518457        26917629.264389157        907263318.64211345     
  -4200116167.5827608       -19388715.244371653        840754756.93945205     
  -4029866272.2552018       -6835074.0807199478        819053139.45617115     
  -3859795844.2843771        5120342.5604763031        806567562.59015179     
  -3689904883.6702895        16477534.679218292        803298026.34139204     
  -3520193390.4129353        27236502.275512934        809244530.70989871     
  -4646312111.6075354       -36991327.603902340        776748196.60874486     
  -4448343322.2348623       -22385656.985728025        742640468.01641619     
  -4250236496.5860972       -7319865.4472239017        720165379.73663616     
  -4051991634.6612349        8206047.0116033554        709322931.76939762     
  -3853608736.4602704        24192080.390762568        710113124.11470640     
  -2587213250.1883936        16189998.554527164        1099963038.5175924     
  -2509623545.6852379        7970369.0952217579        1100856002.1428573     
  -2431867881.0784826        303939.98124349117        1103943087.9221225     
  -2353946256.3681278       -6809288.7874031067        1109224295.8553870     
  -2275858671.5541735       -13369317.210714459        1116699625.9426503     
  -2886995647.2769995        23235461.357389927        1004169487.9113415     
  -2803386342.0663295        13902020.899250150        1001571513.6582217     
  -2719628801.6008520        5062697.9571378231        1001666912.6412241     
  -2635723025.8805757       -3282507.4689769745        1004455684.8603543     
  -2551669014.9054961       -11133595.379076958        1009937830.3156112     
  -3197989027.3518457        26917629.264389157        907263318.64211345     
  -3106933689.7704439        16898307.306383014        901153727.52034378     
  -3015747841.7830353        7314020.0350716114        898236760.71682703     
  -2924431483.3896117       -1835232.5495305061        898512418.23155963     
  -2832984614.5901823       -10549450.447437048        901980700.06454933     
  -3520193390.4129353        27236502.275512934        809244530.70989871     
  -3420265588.7975888        16959228.316596270        799602643.72922373     
  -3320225001.6250219        7057906.2150774002        793652632.14892662     
  -3220071628.8952422       -2467464.0290671587        791394495.96900761     
  -3119805470.6082473       -11616882.415817976        792828235.18946719     
  -3853608736.4602704        24192080.390762568        710113124.11470640     
  -3743382039.1477547        14084783.929909468        696918262.28486133     
  -3633060281.1268187        4294356.4971289635        687914526.93752789     
  -3522643462.3974595       -5179201.9075734615        683101918.07269394     
  -3412131582.9596758       -14335891.284201384        682480435.69036651     
  -2275858671.5541735       -13369317.210714459        1116699625.9426503     
  -2170046870.3708949       -11942879.388839245        1113802490.6324043     
  -2064619138.3014884       -11796671.946531415        1114744119.3444617     
  -1959575475.3459654       -12930694.883836508        1119524512.0788157     
  -1854915881.5043168       -15344948.200722218        1128143668.8354714     
  -2551669014.9054961       -11133595.379076958        1009937830.3156112     
  -2435446916.6293740       -9571497.8152886629        1004861641.3284374     
  -2319529476.0584531       -9024925.9354984760        1003923303.0653243     
  -2203916693.1927328       -9493879.7397147417        1007122815.5262724     
  -2088608568.0322139       -10978359.227928162        1014460178.7112825     
  -2832984614.5901823       -10549450.447437048        901980700.06454933     
  -2705497685.7876253       -8595333.1116814613        894818104.04390788     
  -2578236003.2815857       -7392036.7643215656        892092445.44908547     
  -2451199567.0720663       -6939561.4053655863        893803724.28008687     
  -2324388377.1590691       -7237907.0348063707        899951940.53690863     
  -3119805470.6082473       -11616882.415817976        792828235.18946719     
  -2980199177.8456440       -9014385.2779986858        783671878.77881408     
  -2840738719.9708872       -6898004.4329924583        779251546.49574280     
  -2701424096.9839664       -5267739.8807752132        779567238.34025443     
  -2562255308.8848906       -4123591.6213786602        784618954.31235051     
  -3412131582.9596758       -14335891.284201384        682480435.69036651     
  -3259551392.8034325       -10828654.314250112        671422965.53316259     
  -3107037626.1263533       -7542828.9415137768        665400606.20530069     
  -2954590282.9284320       -4478415.1659697294        664413357.70678246     
  -2802209363.2096758       -1635412.9876401424        668461220.03760314     
  -1854915881.5043168       -15344948.200722218        1128143668.8354714     
  -1757486925.1535840       -20615525.136254907        1121609445.1491759     
  -1660126953.9997621       -26116052.728161693        1119399034.2702739     
  -1562835968.0428495       -31846530.976433039        1121512436.1987658     
  -1465613967.2828491       -37806959.881074905        1127949650.9346530     
  -2088608568.0322139       -10978359.227928162        1014460178.7112825     
  -1980098112.6694868       -15188984.747923970        1006884766.6665905     
  -1871735864.4976895       -19893634.237686515        1003265167.6509124     
  -1763521823.5168171       -25092307.697200060        1003601381.6642511     
  -1655455989.7268693       -30785005.126458049        1007893408.7066082     
  -2324388377.1590691       -7237907.0348063707        899951940.53690863     
  -2205847850.7225757       -10704009.520750642        891242914.47413480     
  -2087534753.4710214       -14928209.289832354        886121701.66199887     
  -1969449085.4044065       -19910506.342040300        884588302.10050249     
  -1851590846.5227342       -25650900.677391291        886642715.78964710     
  -2562255308.8848906       -4123591.6213786602        784618954.31235051     
  -2434736139.3128471       -7160599.4547245502        774683888.57180917     
  -2307523620.9197559       -11219777.884595633        767968636.30353189     
  -2180617753.7056227       -16301126.910981655        764473197.50751650     
  -2054018537.6704423       -22404646.533869267        764197572.18376148     
  -2802209363.2096758       -1635412.9876401424        668461220.03760314     
  -2666762978.4403014       -4558754.5498600006        657207688.95961487     
  -2531702466.8438988       -8768340.0219833851        648805971.57551384     
  -2397027828.4204621       -14264169.403994203        643256067.88529503     
  -2262739063.1699986       -21046242.695914984        640557977.88896096     
  -1465613967.2828491       -37806959.881074905        1127949650.9346530     
  -1358851773.6611886       -41316770.558590353        1122523944.3079472     
  -1252291873.7204268       -45500893.505775392        1120662101.6558859     
  -1145934267.4605837       -50359328.722687244        1122364122.9784658     
  -1039778954.8816419       -55892076.209266067        1127630008.2756913     
  -1655455989.7268693       -30785005.126458049        1007893408.7066082     
  -1539538294.5621843       -34361168.042486787        1000106866.1355511     
  -1423629990.3818498       -37968634.239685893        995814465.13952172     
  -1307731077.1858888       -41607403.718119144        995016205.71852791     
  -1191841554.9742711       -45277476.477716386        997712087.87256706     
  -1851590846.5227342       -25650900.677391291        886642715.78964710     
  -1726716856.6710553       -29353177.888745904        876720390.42020261     
  -1601659355.1071792       -32443749.392781734        870222484.22618604     
  -1476418341.8311157       -34922615.189534307        867148997.20758832     
  -1350993816.8428643       -36789775.278969228        867499929.36441660     
  -2054018537.6704423       -22404646.533869267        764197572.18376148     
  -1920387459.9877944       -26292800.097351909        752364517.16191399     
  -1786379967.8964067       -28926238.965040326        743886158.91587806     
  -1651996061.3962815       -30304963.136927724        738762497.44565749     
  -1517235740.4874144       -30428972.613009214        736993532.75124729     
  -2262739063.1699986       -21046242.695914984        640557977.88896096     
  -2120550104.5124173       -25180034.668349981        627039246.36067986     
  -1977791828.7495353       -27416102.956465960        616805489.20859730     
  -1834464235.8813701       -27754447.560303926        609856706.43272352     
  -1690567325.9079156       -26195068.479827821        606192898.03305078     
  -1039778954.8816419       -55892076.209266067        1127630008.2756913     
  -923112299.37335634       -55010737.506509155        1125015171.9724133     
  -804093449.10029936       -46288749.587844342        1128297164.9559586     
  -682722404.06247091       -29726112.453279525        1137475987.2263319     
  -558999164.25985682       -5322826.1027567089        1152551638.7835362     
  -1191841554.9742711       -45277476.477716386        997712087.87256706     
  -1061578762.5118884       -42432297.165924549        993946730.72000957     
  -929853872.91380250       -34713460.735136598        994289917.18169546     
  -796666886.18003798       -22120967.185423702        998741647.25762165     
  -662017802.31059206       -4654816.5167503953        1007301920.9477887     
  -1350993816.8428643       -36789775.278969228        867499929.36441660     
  -1212244275.0623281       -33513571.648892283        861545604.12864614     
  -1072922733.7751925       -28330702.996822357        857911536.83453596     
  -933029192.98145759       -21241169.322743833        856597727.48207772     
  -792563652.68112302       -12244970.626682818        857604176.07127166     
  -1517235740.4874144       -30428972.613009214        736993532.75124729     
  -1375108837.0246868       -28254560.955438912        727811792.19833136     
  -1233300031.6844573       -27140476.372846901        719162023.91448498     
  -1091809324.4667127       -27086718.865217805        711044227.89970601     
  -950636715.37146211       -28093288.432557702        703458404.15399623     
  -1690567325.9079156       -26195068.479827821        606192898.03305078     
  -1550172448.3989730       -26655265.085583866        592745294.92905092     
  -1410985766.6416059       -31142780.863258183        578041378.42153776     
  -1273007280.6358078       -39657615.812834203        562081148.51050103     
  -1136236990.3815994       -52199769.934365332        544864605.19594848     
  -558999164.25985682       -5322826.1027567089        1152551638.7835362     
  -462286493.90163833        32724970.967439443        1161976301.7418191     
  -353586887.61389029        110729221.13606432        1178926143.2833900     
  -232900345.39661992        228689924.40309459        1203401163.4082470     
  -100226867.24982393        386607080.76855159        1235401362.1163857     
  -662017802.31059206       -4654816.5167503953        1007301920.9477887     
  -546951455.66547489        25641587.713285416        1020854127.5640342     
  -421014189.85143948        92174389.173068017        1042788151.0884892     
  -284206004.86847126        194943587.86261135        1073103991.5211530     
  -136526900.71658516        333949183.78189230        1111801648.8620224     
  -792563652.68112302       -12244970.626682818        857604176.07127166     
  -656696091.67790961        11034302.184538603        873981906.79144573     
  -511073628.26635879        66829916.356873184        899598092.74475300     
  -355696262.44649458        155141871.89026308        934452733.93119133     
  -190563994.21829793        275970168.78475088        978545830.35076773     
  -950636715.37146211       -28093288.432557702        703458404.15399623     
  -791520401.93892360       -11096885.618765295        721359639.42406440     
  -623765202.85866344        34695802.687449843        749355968.25218940     
  -447371118.13067389        109284776.48608139        787447390.63836873     
  -262338147.75496531        212670035.77712142        835633906.58261275     
  -1136236990.3815994       -52199769.934365332        544864605.19594848     
  -951424386.44854057       -40751975.696670175        562987325.46187735     
  -759088913.62833488       -4227951.8351568878        592061777.61078656     
  -559230571.92102456        57372301.650034994        632087961.64267552     
  -351849361.32658154        144048784.75901398        683065877.55755115     
  -100226867.24982393        386607080.76855159        1235401362.1163857     
  -85352085.684429586        546460353.13865638        1196787426.5429907     
  -57886838.963435411        748281842.69408011        1154822597.1449397     
  -17831127.086861014        992071549.43477666        1109506873.9222372     
   34815049.945313454        1277829473.3608098        1060840256.8748646     
  -136526900.71658516        333949183.78189230        1111801648.8620224     
  -127387411.76887292        482972240.43794519        1090215672.8219533     
  -95110482.452911943        709120098.32146883        1070068107.6038746     
  -39696112.768721044        1012392757.4324534        1051358953.2077931     
   38855697.283719420        1392790217.7709169        1034088209.6336844     
  -190563994.21829793        275970168.78475088        978545830.35076773     
  -173476070.32641312        418268127.99530160        986292618.25877488     
  -122703730.85363370        672847472.47551131        1000267121.6354262     
  -38246975.799967408        1039708202.2253176        1020469340.4807096     
   79894194.834580660        1518850317.2447610        1046899274.7946420     
  -262338147.75496531        212670035.77712142        835633906.58261275     
  -223618061.35706440        352348015.81071979        885018262.85345531     
  -140666584.16561255        639463965.15614307        945419639.23958921     
  -13483716.180625498        1074017883.8133564        1016838035.7410107     
   157930542.59789425        1656009771.7823339        1099273452.3577168     
  -351849361.32658154        144048784.75901398        683065877.55755115     
  -277813384.86080855        285211903.88421667        786392606.60599697     
  -148999042.38882852        608969576.36343193        905525660.41637349     
   34593666.089325190        1115321802.1965618        1040465038.9886854     
   272964740.57366687        1804268581.3836579        1191210742.3229396     
  -4646312111.6075354       -36991327.603902340        776748196.60874486     
  -4448343322.2348623       -22385656.985728025        742640468.01641619     
  -4250236496.5860972       -7319865.4472239017        720165379.73663616     
  -4051991634.6612349        8206047.0116033554        709322931.76939762     
  -3853608736.4602704        24192080.390762568        710113124.11470640     
  -5078843270.2674856       -61291154.725489140        542357412.60350025     
  -4855723595.9671288       -38436207.329993486        530849573.96520305     
  -4632975400.2308064       -16819521.814589024        525152250.31781185     
  -4410598683.0585051        3558901.8207368851        525265441.66132641     
  -4188593444.4502320        22699063.575984240        531189147.99574625     
  -5438096922.4051237       -63607729.890381813        308534619.16487473     
  -5206461006.9532032       -37493898.850401163        319032236.50046247     
  -4975706084.9054356       -14316712.490923405        329518243.50531870     
  -4745832156.2618132        5923829.1880691051        339992640.17943901     
  -4516839221.0223408        23227726.186566830        350455426.52282822     
  -5724073068.0204535       -43941053.098575354        75279816.292858839     
  -5500555555.1930847       -19558731.546952963        107188455.62218991     
  -5278428550.6099806        188562.52376723289        133263359.29915290     
  -5057692054.2711554        15300829.113576651        153504527.32373810     
  -4838346066.1765909        25778068.222505808        167911959.69595015     
  -5936771707.1134863       -2291124.3500933647       -157406996.01253664     
  -5738007240.6867657        15369294.580365658       -104681768.66960751     
  -5541142797.3444519        26696303.229466677       -63612402.300684713     
  -5346178377.0865259        31689901.597286701       -34198896.905780762     
  -5153113979.9129925        30350089.683796167       -16441252.484888924     
  -3853608736.4602704        24192080.390762568        710113124.11470640     
  -3743382039.1477547        14084783.929909468        696918262.28486133     
  -3633060281.1268187        4294356.4971289635        687914526.93752789     
  -3522643462.3974595       -5179201.9075734615        683101918.07269394     
  -3412131582.9596758       -14335891.284201384        682480435.69036651     
  -4188593444.4502320        22699063.575984240        531189147.99574625     
  -4067871883.0152173        11354960.082952738        520574989.02543682     
  -3946844224.6181459        1031179.7967915535        514128092.98197371     
  -3825510469.2590013       -8272277.2824680805        511848459.86534721     
  -3703870616.9377995       -16555411.154856205        513736089.67556769     
  -4516839221.0223408        23227726.186566830        350455426.52282822     
  -4385690977.0524397        10626361.185058355        342668179.37464225     
  -4254025599.8668346       -251226.43074464798        339024331.59763163     
  -4121843089.4655218       -9405036.6608586311        339523883.19179791     
  -3989143445.8485012       -16835069.505282640        344166834.15714628     
  -4838346066.1765909        25778068.222505808        167911959.69595015     
  -4696839321.2594233        11898987.236237288        163197833.33246574     
  -4554604406.8728924        447137.81450033188        162603242.78449711     
  -4411641323.0170174       -8577480.0427572727        166128188.05204237     
  -4267950069.6917858       -15174866.335479736        173772669.13510320     
  -5153113979.9129925        30350089.683796167       -16441252.484888924     
  -5001316915.6361465        15172838.236507416       -17836049.101089139     
  -4848580645.6363115        3126272.5325369835       -15135173.457430137     
  -4694905169.9134769       -5789607.4281115532       -8338625.5539226457     
  -4540290488.4676523       -11574801.645461559        2553594.6094334959     
  -3412131582.9596758       -14335891.284201384        682480435.69036651     
  -3259551392.8034325       -10828654.314250112        671422965.53316259     
  -3107037626.1263533       -7542828.9415137768        665400606.20530069     
  -2954590282.9284320       -4478415.1659697294        664413357.70678246     
  -2802209363.2096758       -1635412.9876401424        668461220.03760314     
  -3703870616.9377995       -16555411.154856205        513736089.67556769     
  -3538107524.9191914       -11443273.099361420        504635427.47011578     
  -3372546156.2239661       -7003546.1218113899        500269986.38663131     
  -3207186510.8521304       -3236230.2222220898        500639766.42511272     
  -3042028588.8036833       -141325.40058970451        505744767.58555776     
  -3989143445.8485012       -16835069.505282640        344166834.15714628     
  -3811054279.7028875       -10375078.684839010        336865130.08518898     
  -3633302136.7248936       -5038498.4231097698        333998757.42781538     
  -3455887016.9145055       -825328.72007751465        335567716.18503165     
  -3278808920.2717266        2264430.4242599010        341572006.35683602     
  -4267950069.6917858       -15174866.335479736        173772669.13510320     
  -4078391657.1545391       -7624071.0707087517        168112073.37836829     
  -3889305567.6291223       -1647685.8453822136        166586919.32885310     
  -3700691801.1155539        2754289.3404612541        169197206.98654613     
  -3512550357.6138072        5581854.4868900776        175942936.35144642     
  -4540290488.4676523       -11574801.645461559        2553594.6094334959     
  -4340119657.2741337       -3190250.2569782734       -1623742.6503311442     
  -4140556448.9366722        3168891.6113257408       -1965527.9102585961     
  -3941600863.4552774        7502623.9594120979        1528238.8296492191     
  -3743252900.8299341        9810946.7873060703        8857557.5693878178     
  -2802209363.2096758       -1635412.9876401424        668461220.03760314     
  -2666762978.4403014       -4558754.5498600006        657207688.95961487     
  -2531702466.8438988       -8768340.0219833851        648805971.57551384     
  -2397027828.4204621       -14264169.403994203        643256067.88529503     
  -2262739063.1699986       -21046242.695914984        640557977.88896096     
  -3042028588.8036833       -141325.40058970451        505744767.58555776     
  -2898978729.2466145       -4064312.1385605335        495487113.29226834     
  -2755981304.2643161       -8162080.7924267054        488457159.41310495     
  -2613036313.8567781       -12434631.362157941        484654905.94807482     
  -2470143758.0240073       -16881963.847780943        484080352.89717084     
  -3278808920.2717266        2264430.4242599010        341572006.35683602     
  -3127081623.8691287       -2336012.8721251488        332699240.54615146     
  -2975073323.4430962       -5999776.0903880596        327430061.86983597     
  -2822784018.9936118       -8726859.2304767370        325764470.32790452     
  -2670213710.5206842       -10517262.292430401        327702465.92033863     
  -3512550357.6138072        5581854.4868900776        175942936.35144642     
  -3351071662.3078418        626143.24944257736        168844070.72127178     
  -3188978524.3802180       -2281425.9158240557        165724678.94571474     
  -3026270943.8309584       -3140853.0089564323        166584761.02477983     
  -2862948920.6600385       -1952138.0299050808        171424316.95845583     
  -3743252900.8299341        9810946.7873060703        8857557.5693878178     
  -3570948844.5627480        4822156.2261655331        3921603.8176316847     
  -3397696907.0757132        2992969.7311861515        3341010.6407321799     
  -3223497088.3688097        4323387.3024374247        7115778.0387117220     
  -3048349388.4420624        8813408.9398328066        15245906.011538925     
  -2262739063.1699986       -21046242.695914984        640557977.88896096     
  -2120550104.5124173       -25180034.668349981        627039246.36067986     
  -1977791828.7495353       -27416102.956465960        616805489.20859730     
  -1834464235.8813701       -27754447.560303926        609856706.43272352     
  -1690567325.9079156       -26195068.479827821        606192898.03305078     
  -2470143758.0240073       -16881963.847780943        484080352.89717084     
  -2319548825.8809023       -18731379.371400714        473286443.22846085     
  -2168712093.8428831       -19774795.245310426        465146528.83806890     
  -2017633561.9099553       -20012211.469519854        459660609.72599423     
  -1866313230.0821130       -19443628.044020176        456828685.89223504     
  -2670213710.5206842       -10517262.292430401        327702465.92033863     
  -2513015602.3145947       -10623140.594013929        319251274.69909292     
  -2355903211.4239717       -11014743.280483961        312823099.65828377     
  -2198876537.8488154       -11692070.351844907        308417940.79790342     
  -2041935581.5891161       -12655121.808050632        306035798.11795187     
  -2862948920.6600385       -1952138.0299050808        171424316.95845583     
  -2700950433.8134966       -855318.33621656895        164933740.77257282     
  -2539365181.4927945       -1135947.0619808435        159835201.66924483     
  -2378193163.6979303       -2794024.2071931362        156128699.64844656     
  -2217434380.4289079       -5829549.7719128132        153814234.71020207     
  -3048349388.4420624        8813408.9398328066        15245906.011538925     
  -2883353320.3775935        10572087.402062297        10333841.448907109     
  -2719098004.0493522        9861593.4102115631        6182834.8709440483     
  -2555583439.4573255        6681926.9643001556        2792886.2776292432     
  -2392809626.6015129        1033088.0643544197        163995.66897806749     
  -1690567325.9079156       -26195068.479827821        606192898.03305078     
  -1550172448.3989730       -26655265.085583866        592745294.92905092     
  -1410985766.6416059       -31142780.863258183        578041378.42153776     
  -1273007280.6358078       -39657615.812834203        562081148.51050103     
  -1136236990.3815994       -52199769.934365332        544864605.19594848     
  -1866313230.0821130       -19443628.044020176        456828685.89223504     
  -1728961702.8804224       -22828615.664572716        443092946.26955467     
  -1591695665.4581892       -26498569.216635883        428947433.12515265     
  -1454515117.8154006       -30453488.700194001        414392146.45902652     
  -1317420059.9520586       -34693374.115240395        399427086.27117872     
  -2041935581.5891161       -12655121.808050632        306035798.11795187     
  -1905208719.3181226       -18239294.830453277        293321745.61073858     
  -1767444640.8544569       -20366080.543931484        281044459.46360111     
  -1628643346.1981053       -19035478.948460519        269203939.67652941     
  -1488804835.3490884       -14247490.044103384        257800186.24953130     
  -2217434380.4289079       -5829549.7719128132        153814234.71020207     
  -2078913497.7120552       -12887302.583175421        143431692.95259655     
  -1938232692.8304167       -12745314.845144987        134332457.43686953     
  -1795391965.7839389       -5403586.5576591492        126516528.16300124     
  -1650391316.5726891        9137882.2790772915        119983905.13100481     
  -2392809626.6015129        1033088.0643544197        163995.66897806749     
  -2250076038.0622416       -6772638.9228000641       -6577211.7048659492     
  -2104059821.3860486       -3636272.1202303171       -11188572.955035990     
  -1954760976.5729024        10442188.472195745       -13670088.081547426     
  -1802179503.6228530        35462742.854289055       -14021757.084397696     
  -1136236990.3815994       -52199769.934365332        544864605.19594848     
  -951424386.44854057       -40751975.696670175        562987325.46187735     
  -759088913.62833488       -4227951.8351568878        592061777.61078656     
  -559230571.92102456        57372301.650034994        632087961.64267552     
  -351849361.32658154        144048784.75901398        683065877.55755115     
  -1317420059.9520586       -34693374.115240395        399427086.27117872     
  -1117774142.8945796       -14799254.914264202        421261133.94977021     
  -914502902.96461463        17179273.861688733        441604538.69571126     
  -707606340.16214836        61242212.212629855        460457300.50899804     
  -497084454.48718965        117389560.13855618        477819419.38964337     
  -1488804835.3490884       -14247490.044103384        257800186.24953130     
  -1309875247.4975877        3428061.4210110307        278798424.32372081     
  -1131217882.7882206        20196202.412329972        285863644.64962393     
  -952832741.22097671        36056932.929913282        278995847.22725165     
  -774719822.79586852        51010252.973700404        258195032.05659044     
  -1650391316.5726891        9137882.2790772915        119983905.13100481     
  -1527727700.2575366        13929973.309194028        135599196.58372369     
  -1409233853.0991473        4822833.8168048859        124839095.47252847     
  -1294909775.0975194       -18183536.198144197        87703601.797415674     
  -1184755466.2526448       -55089136.735596120        24192715.558385585     
  -1802179503.6228530        35462742.854289055       -14021757.084397696     
  -1771331501.1744249        16706480.750375152       -8336549.2702047741     
  -1748550813.8974061       -28940831.924936414       -41469108.835580252     
  -1733837441.7917540       -101479195.17145354       -113419435.78050011     
  -1727191384.8574972       -200908608.98928905       -224187530.10495955     
  -351849361.32658154        144048784.75901398        683065877.55755115     
  -277813384.86080855        285211903.88421667        786392606.60599697     
  -148999042.38882852        608969576.36343193        905525660.41637349     
   34593666.089325190        1115321802.1965618        1040465038.9886854     
   272964740.57366687        1804268581.3836579        1191210742.3229396     
  -497084454.48718965        117389560.13855618        477819419.38964337     
  -388259463.18137383        223036699.83951920        597090028.97913456     
  -230306700.18600193        492443078.50566888        735511089.70462298     
  -23226165.501092374        925608696.13696098        893082601.56610227     
   232982140.87337062        1522533552.7334201        1069804564.5635864     
  -774719822.79586852        51010252.973700404        258195032.05659044     
  -621551169.86698771        124007807.28531715        386817162.15105259     
  -424905339.56519574        341929286.17331231        537933869.75556767     
  -184782331.89049411        704774689.63766813        711545154.87014043     
   98817853.157121360        1212544017.6783829        907651017.49476969     
  -1184755466.2526448       -55089136.735596120        24192715.558385585     
  -977688504.91766667       -11874773.778429449        155574006.12173462     
  -732794960.52641833        157428199.36632746        312794000.56921214     
  -450074833.07891095        452819782.69862914        495852698.90080357     
  -129528122.57510149        874299976.21855366        704750101.11650765     
  -1727191384.8574972       -200908608.98928905       -224187530.10495955     
  -1456671468.3333972       -184611043.35166484       -96639439.108789578     
  -1153975563.0696611       -61060181.915243506        60091482.145569563     
  -819103669.06629694        169743975.31997764        246005233.65808824     
  -452055786.32328033        507801428.35395098        461101815.42879766     
 </DataArray>
 <DataArray  type="Float64" Name="VM" NumberOfComponents="1" format="ascii">
   5941884580.4139652     
   5748567396.3150759     
   5555631713.5108719     
   5362420720.8831739     
   5168434308.5973635     
   5703720063.7215366     
   5493940125.6691647     
   5283567038.1316786     
   5072332877.1125717     
   4859996260.8179216     
   5432920014.8960018     
   5217161698.0451756     
   5001236555.2905951     
   4785170471.8292942     
   4568998688.0768890     
   5135131166.7422743     
   4923240519.7186966     
   4713191509.8837852     
   4505197184.9145775     
   4299580583.3221016     
   4819514980.0275822     
   4619872829.6464996     
   4425987714.5672445     
   4238085826.4153252     
   4056709791.2247686     
   5168434308.5973635     
   5009015835.0818396     
   4850215382.2341709     
   4692035275.4305315     
   4534516327.0673685     
   4859996260.8179216     
   4711287449.0136604     
   4563526869.5767651     
   4416741752.2572451     
   4271001444.3922601     
   4568998688.0768890     
   4430944217.3709373     
   4294237725.8624744     
   4158935228.3463817     
   4025138976.3905411     
   4299580583.3221016     
   4172157246.2118034     
   4046558216.6033387     
   3922871351.4089136     
   3801234909.4343872     
   4056709791.2247686     
   3939913375.3238354     
   3825496869.5479717     
   3713581020.6320853     
   3604340458.3001390     
   4534516327.0673685     
   4338526325.6209545     
   4142143204.6323528     
   3945358414.8614426     
   3748199402.8951640     
   4271001444.3922601     
   4084975851.3842449     
   3899172447.1363430     
   3713650933.8576660     
   3528528796.8021507     
   4025138976.3905411     
   3850342417.0844345     
   3676583866.6331725     
   3504014924.2550330     
   3332871435.3118620     
   3801234909.4343872     
   3638931026.8521957     
   3478693291.8268466     
   3320782606.4426889     
   3165571251.1842294     
   3604340458.3001390     
   3455708664.9095926     
   3310374260.6108098     
   3168710658.6559668     
   3031223915.0758305     
   3748199402.8951640     
   3573368819.0470362     
   3399199306.0616345     
   3225684500.8501458     
   3052879842.1947088     
   3528528796.8021507     
   3364120225.2547970     
   3200735512.6603322     
   3038432501.0503297     
   2877333895.6957359     
   3332871435.3118620     
   3178585595.6120172     
   3025703031.8119020     
   2874355441.4367962     
   2724744987.8192067     
   3165571251.1842294     
   3021396079.8947387     
   2879023482.4563370     
   2738666168.6493554     
   2600614478.8879189     
   3031223915.0758305     
   2897456519.3709183     
   2765907264.7911000     
   2636871132.1177564     
   2510727468.5648885     
   3052879842.1947088     
   2888709325.1434188     
   2724063238.1982455     
   2558935517.8253908     
   2393326354.2187214     
   2877333895.6957359     
   2715590767.8384709     
   2553846922.4410167     
   2392131750.4320531     
   2230493000.5737653     
   2724744987.8192067     
   2567961891.4633384     
   2412058554.2653456     
   2257177483.1512651     
   2103519397.4875660     
   2600614478.8879189     
   2451368890.9355788     
   2304322292.5384626     
   2159799063.6966071     
   2018239968.5208259     
   2510727468.5648885     
   2371393240.4030943     
   2235964187.5518579     
   2104968029.6314640     
   1979098033.3344989     
   2393326354.2187214     
   2246726256.2146635     
   2102333363.5175483     
   1960145941.0314224     
   1820332009.8013830     
   2230493000.5737653     
   2087336526.8625314     
   1945852166.7545571     
   1806039658.5965559     
   1667976166.5089509     
   2103519397.4875660     
   1963037495.9716673     
   1823523342.1556277     
   1685007945.0983627     
   1547550937.4817755     
   2018239968.5208259     
   1881317089.0211122     
   1744708373.3509173     
   1608542550.1267049     
   1472996771.4278917     
   1979098033.3344989     
   1848368420.5601001     
   1717644954.6950088     
   1587274859.9503140     
   1457765522.3098366     
   1820332009.8013830     
   1779802124.5932887     
   1735748272.6023526     
   1696801042.6825993     
   1681465692.8988390     
   1667976166.5089509     
   1552607034.0520308     
   1428115615.7794225     
   1294855857.9787652     
   1158951696.2677741     
   1547550937.4817755     
   1397662667.5004683     
   1244211461.0829041     
   1084925163.0659039     
   917772045.47952127     
   1472996771.4278917     
   1328713158.0496171     
   1198901533.9662199     
   1088051237.4268820     
   1002077832.0800023     
   1457765522.3098366     
   1348688566.1312070     
   1274612061.7459991     
   1243672115.9029095     
   1262920613.9552858     
   1681465692.8988390     
   1383861592.7653244     
   1129494996.3737779     
   1010117555.4285495     
   1153089741.1636200     
   1158951696.2677741     
   1008472016.0470853     
   985218221.31022561     
   1161475611.4952099     
   1544164023.8456550     
   917772045.47952127     
   963152916.93241596     
   1144930700.2541025     
   1476472589.0329902     
   1957472368.8805373     
   1002077832.0800023     
   1164747353.4906185     
   1425441682.8606911     
   1808750633.3079231     
   2334761527.3548899     
   1262920613.9552858     
   1446721046.4164031     
   1715724543.1777451     
   2110511517.6568553     
   2663520650.5781112     
   4819514980.0275822     
   4619872829.6464996     
   4425987714.5672445     
   4238085826.4153252     
   4056709791.2247686     
   4436273501.1595621     
   4269059452.1020474     
   4107245715.9329348     
   3951244521.7143416     
   3801711619.0019279     
   4095838131.8953004     
   3957807512.5680590     
   3824677619.5098553     
   3696970306.9716525     
   3575377023.1542125     
   3798758484.8440838     
   3687229616.2454658     
   3579963770.8597140     
   3477492396.4145236     
   3380448715.0029674     
   3545216136.6370358     
   3458088569.7854576     
   3374483721.2902713     
   3294819191.5169978     
   3219561702.1151605     
   4056709791.2247686     
   3939913375.3238354     
   3825496869.5479717     
   3713581020.6320853     
   3604340458.3001390     
   3801711619.0019279     
   3697918678.0803547     
   3596808476.3353176     
   3498547943.6122813     
   3403352543.6050282     
   3575377023.1542125     
   3484545673.4969010     
   3396665072.2660642     
   3311934411.7616467     
   3230593478.8749499     
   3380448715.0029674     
   3302662179.8729548     
   3228031120.4967742     
   3156768683.7960715     
   3089118437.2325354     
   3219561702.1151605     
   3154984675.2549367     
   3093669607.6205273     
   3035822170.1797009     
   2981667135.2552967     
   3604340458.3001390     
   3455708664.9095926     
   3310374260.6108098     
   3168710658.6559668     
   3031223915.0758305     
   3403352543.6050282     
   3270661793.4977417     
   3141965553.5029306     
   3017725092.0836625     
   2898531400.8372903     
   3230593478.8749499     
   3114263197.1696486     
   3002629497.5295539     
   2896216930.6118155     
   2795666376.1638303     
   3089118437.2325354     
   2989552335.2376628     
   2895332596.0908804     
   2807009848.7376924     
   2725227537.9965997     
   2981667135.2552967     
   2899137353.6237874     
   2822481010.6224537     
   2752229997.9876156     
   2688979213.2644734     
   3031223915.0758305     
   2897456519.3709183     
   2765907264.7911000     
   2636871132.1177564     
   2510727468.5648885     
   2898531400.8372903     
   2776861996.5666008     
   2658614059.2435331     
   2544223023.3431211     
   2434228490.9896307     
   2795666376.1638303     
   2687975016.9309688     
   2585052426.5661716     
   2487449052.4205360     
   2395820855.6048703     
   2725227537.9965997     
   2632944046.9310427     
   2546797647.8357229     
   2467394417.1184740     
   2395426140.9340930     
   2688979213.2644734     
   2612848447.6860337     
   2544112846.6355867     
   2483358610.8309245     
   2431224897.3423710     
   2510727468.5648885     
   2371393240.4030943     
   2235964187.5518579     
   2104968029.6314640     
   1979098033.3344989     
   2434228490.9896307     
   2310031177.5805707     
   2190985329.2873611     
   2077800707.2265356     
   1971355039.0965977     
   2395820855.6048703     
   2288589961.4451089     
   2187752949.0542836     
   2094113766.6959639     
   2008607329.1002989     
   2395426140.9340930     
   2306317355.6940203     
   2224646044.9740486     
   2151197852.0540819     
   2086830370.0460405     
   2431224897.3423710     
   2360555414.7137475     
   2298037315.9820094     
   2244347700.1079369     
   2200181151.6014390     
   1979098033.3344989     
   1848368420.5601001     
   1717644954.6950088     
   1587274859.9503140     
   1457765522.3098366     
   1971355039.0965977     
   1855262663.5264869     
   1743523808.8506370     
   1637058166.4163749     
   1536995141.2838657     
   2008607329.1002989     
   1912280102.1583323     
   1824720740.2639823     
   1747127651.3949854     
   1680790567.4744611     
   2086830370.0460405     
   2011838724.2606063     
   1949202944.8829560     
   1899999751.4134147     
   1865255785.4608741     
   2200181151.6014390     
   2145077812.1596165     
   2104911380.2944624     
   2080445553.9611337     
   2072355853.0245314     
   1457765522.3098366     
   1348688566.1312070     
   1274612061.7459991     
   1243672115.9029095     
   1262920613.9552858     
   1536995141.2838657     
   1476117699.7857797     
   1447940593.4679759     
   1456432322.7674091     
   1504889825.8852515     
   1680790567.4744611     
   1652316802.2809823     
   1651559167.4733486     
   1680886061.1628914     
   1742905612.2390046     
   1865255785.4608741     
   1854795821.0684316     
   1867291400.6780310     
   1904950582.7954466     
   1970802734.2753119     
   2072355853.0245314     
   2068930838.4801917     
   2084715232.5838344     
   2122339910.1037729     
   2185613975.9788127     
   1262920613.9552858     
   1446721046.4164031     
   1715724543.1777451     
   2110511517.6568553     
   2663520650.5781112     
   1504889825.8852515     
   1613293996.1938202     
   1788884385.5472603     
   2066411563.6641014     
   2476082039.8592997     
   1742905612.2390046     
   1787713923.1628356     
   1884660119.3819163     
   2060653948.6290693     
   2340926380.8199983     
   1970802734.2753119     
   1968940060.1914535     
   2003616564.3313155     
   2093506598.8105640     
   2257270873.6770058     
   2185613975.9788127     
   2156257373.1679473     
   2146494343.1312206     
   2166847980.8362708     
   2228389262.6684113     
   3545216136.6370358     
   3458088569.7854576     
   3374483721.2902713     
   3294819191.5169978     
   3219561702.1151605     
   3387349333.6760030     
   3305022512.1018658     
   3228227557.9753332     
   3157518756.0119767     
   3093517405.1582274     
   3249065232.0324435     
   3172389379.8030796     
   3103736491.6745696     
   3043703828.0034623     
   2992967234.8071680     
   3143550894.7995639     
   3071707229.0598402     
   3010859886.6556225     
   2961534830.1395268     
   2924338212.1988473     
   3086007320.6089034     
   3015990659.4381151     
   2960395302.7416325     
   2919572100.4655118     
   2893942853.9100909     
   3219561702.1151605     
   3154984675.2549367     
   3093669607.6205273     
   3035822170.1797009     
   2981667135.2552967     
   3093517405.1582274     
   3033791181.4565749     
   2978464019.2105942     
   2927767387.9536905     
   2881956437.0836935     
   2992967234.8071680     
   2938182455.3235946     
   2889127170.8974619     
   2846028679.8251104     
   2809139760.9870577     
   2924338212.1988473     
   2873836997.7955756     
   2830563357.5893588     
   2794708084.0415511     
   2766486207.8483434     
   2893942853.9100909     
   2846179752.7173715     
   2807275689.0334835     
   2777359243.6691327     
   2756579424.0126362     
   2981667135.2552967     
   2899137353.6237874     
   2822481010.6224537     
   2752229997.9876156     
   2688979213.2644734     
   2881956437.0836935     
   2812095679.8632569     
   2749264294.1376157     
   2693978629.4329844     
   2646801979.0876875     
   2809139760.9870577     
   2751818392.5190511     
   2702634060.3120852     
   2662042047.5207176     
   2630526183.3433671     
   2766486207.8483434     
   2720803787.3838520     
   2684285422.3632979     
   2657289436.9680505     
   2640187382.6511168     
   2756579424.0126362     
   2720794100.4579134     
   2695118075.8079019     
   2679795568.5152693     
   2675075024.2953486     
   2688979213.2644734     
   2612848447.6860337     
   2544112846.6355867     
   2483358610.8309245     
   2431224897.3423710     
   2646801979.0876875     
   2584865279.1295381     
   2530839700.9777813     
   2485217593.4251642     
   2448516652.8764071     
   2630526183.3433671     
   2581810632.5220394     
   2541355856.4103985     
   2509542339.1862693     
   2486756482.5090504     
   2640187382.6511168     
   2603268831.2349277     
   2574812472.2055383     
   2555086782.0065446     
   2544355927.6443672     
   2675075024.2953486     
   2648157267.6280651     
   2629796568.5678892     
   2620163403.8573971     
   2619421047.1862655     
   2431224897.3423710     
   2360555414.7137475     
   2298037315.9820094     
   2244347700.1079369     
   2200181151.6014390     
   2448516652.8764071     
   2392596518.4931579     
   2345905772.3347507     
   2309003999.4865990     
   2282434074.1895595     
   2486756482.5090504     
   2444597598.1202002     
   2412502022.9453106     
   2390885661.3359008     
   2380130511.5937743     
   2544355927.6443672     
   2514325477.5765843     
   2495014028.1184516     
   2486697934.6939764     
   2489618337.0100074     
   2619421047.1862655     
   2599408068.3847365     
   2590687164.0846949     
   2593418032.3883791     
   2607734033.9734845     
   2200181151.6014390     
   2145077812.1596165     
   2104911380.2944624     
   2080445553.9611337     
   2072355853.0245314     
   2282434074.1895595     
   2241977773.0754399     
   2215430674.6185203     
   2203240856.1354423     
   2205795218.9391966     
   2380130511.5937743     
   2351388835.8642874     
   2335509208.9146242     
   2332741333.4831338     
   2343306256.7928457     
   2489618337.0100074     
   2469955313.4657292     
   2462202677.8892703     
   2466496925.4714532     
   2482972717.4328971     
   2607734033.9734845     
   2594881204.9538550     
   2593142141.2109303     
   2602596397.6053505     
   2623340102.2381415     
   2072355853.0245314     
   2068930838.4801917     
   2084715232.5838344     
   2122339910.1037729     
   2185613975.9788127     
   2205795218.9391966     
   2191507199.6164703     
   2192200597.0525379     
   2209844940.3502836     
   2247358589.2744613     
   2343306256.7928457     
   2318968422.7259126     
   2306166677.3424449     
   2306307108.3715687     
   2321477573.3472328     
   2482972717.4328971     
   2450347316.6352038     
   2426298043.6719785     
   2411770743.6403923     
   2408142108.9482574     
   2623340102.2381415     
   2584868091.4810581     
   2552313469.4989805     
   2526257915.3531370     
   2507510125.4742322     
   2185613975.9788127     
   2156257373.1679473     
   2146494343.1312206     
   2166847980.8362708     
   2228389262.6684113     
   2247358589.2744613     
   2182640884.9050093     
   2134360900.1454070     
   2112184659.0872278     
   2127045573.7178650     
   2321477573.3472328     
   2224737503.8618917     
   2141328926.1968319     
   2079616265.2113895     
   2049769715.4144704     
   2408142108.9482574     
   2282841034.1118097     
   2168045194.8559761     
   2070493894.0497835     
   1998953927.3112876     
   2507510125.4742322     
   2357160733.9456182     
   2214980195.7206936     
   2085948684.4021814     
   1976941394.5590823     
   3086007320.6089034     
   3015990659.4381151     
   2960395302.7416325     
   2919572100.4655118     
   2893942853.9100909     
   2833443919.1122565     
   2794926984.9777794     
   2769072723.7871399     
   2756079408.5691762     
   2756168272.0206962     
   2635575808.1732650     
   2625184278.0591073     
   2625238098.4056463     
   2635816082.7385254     
   2657000234.3911076     
   2491180861.6870580     
   2505433455.4572878     
   2527560610.1043944     
   2557577286.5099845     
   2595498084.4243174     
   2396310395.0331483     
   2431841840.7063336     
   2472501726.7691216     
   2518290053.2215085     
   2569206820.0634971     
   2893942853.9100909     
   2846179752.7173715     
   2807275689.0334835     
   2777359243.6691327     
   2756579424.0126362     
   2756168272.0206962     
   2724467749.3345132     
   2700538144.5507097     
   2684445987.1135125     
   2676265165.2245665     
   2657000234.3911076     
   2639197157.3397899     
   2627873828.7939506     
   2623055302.8921881     
   2624768328.5618167     
   2595498084.4243174     
   2589541078.5630722     
   2588623769.0094175     
   2592750940.1653643     
   2601927518.5185018     
   2569206820.0634971     
   2573295510.4397173     
   2580902699.1432800     
   2592028386.1741734     
   2606672571.5324130     
   2756579424.0126362     
   2720794100.4579134     
   2695118075.8079019     
   2679795568.5152693     
   2675075024.2953486     
   2676265165.2245665     
   2653477963.6925287     
   2640370633.7798638     
   2637077283.6829143     
   2643730540.1332464     
   2624768328.5618167     
   2612400231.9062266     
   2609194542.4127426     
   2615207621.6763191     
   2630493900.9019446     
   2601927518.5185018     
   2597239614.9109797     
   2601159009.9731469     
   2613698658.4528913     
   2634870846.0290804     
   2606672571.5324130     
   2606924465.9048538     
   2615234866.1312690     
   2631603772.2116623     
   2656031184.1460314     
   2675075024.2953486     
   2648157267.6280651     
   2629796568.5678892     
   2620163403.8573971     
   2619421047.1862655     
   2643730540.1332464     
   2626109845.7044907     
   2617180871.8969569     
   2617042306.7654729     
   2625786191.4259768     
   2630493900.9019446     
   2620280540.4837832     
   2618880716.5721493     
   2626338901.7101650     
   2642695619.9282684     
   2634870846.0290804     
   2629944795.3167181     
   2633982677.3970757     
   2646995664.8336086     
   2668993747.5377603     
   2656031184.1460314     
   2654129337.5020595     
   2661405902.3155594     
   2677860878.5865355     
   2703494266.3149896     
   2619421047.1862655     
   2599408068.3847365     
   2590687164.0846949     
   2593418032.3883791     
   2607734033.9734845     
   2625786191.4259768     
   2614510961.6034551     
   2613815009.7859950     
   2623776710.9151530     
   2644459496.0579972     
   2642695619.9282684     
   2638243849.5238233     
   2643754658.4187608     
   2659258249.2294464     
   2684778364.1075320     
   2668993747.5377603     
   2669567000.3519058     
   2679603762.1522532     
   2699110568.4504771     
   2728092421.1235080     
   2703494266.3149896     
   2707444250.4683042     
   2720485659.0885673     
   2742618492.1757755     
   2773842749.7299232     
   2607734033.9734845     
   2594881204.9538550     
   2593142141.2109303     
   2602596397.6053505     
   2623340102.2381415     
   2644459496.0579972     
   2633413702.6776404     
   2632629232.1121755     
   2642145465.4351931     
   2662012664.0350938     
   2684778364.1075320     
   2675230208.8554459     
   2675270041.7461782     
   2684913198.2756867     
   2704180395.8232794     
   2728092421.1235080     
   2719890137.6681523     
   2720761763.8567991     
   2730710633.4312406     
   2749741530.8374610     
   2773842749.7299232     
   2766977711.2769322     
   2768814209.9084296     
   2779352245.6244273     
   2798591818.4249125     
   2623340102.2381415     
   2584868091.4810581     
   2552313469.4989805     
   2526257915.3531370     
   2507510125.4742322     
   2662012664.0350938     
   2616640447.7484999     
   2576946960.7843866     
   2543263136.9405580     
   2516051488.3880372     
   2704180395.8232794     
   2653998357.7802196     
   2609399637.9979725     
   2570531632.0664268     
   2537600928.1790118     
   2749741530.8374610     
   2696846893.5311408     
   2649582807.9066043     
   2607985875.4465556     
   2572107415.7263308     
   2798591818.4249125     
   2745082624.4421129     
   2697393327.3610053     
   2655523927.1816053     
   2619474423.9038854     
   2507510125.4742322     
   2357160733.9456182     
   2214980195.7206936     
   2085948684.4021814     
   1976941394.5590823     
   2516051488.3880372     
   2348181955.8830462     
   2183869501.9835181     
   2026213921.0120435     
   1879779303.2974837     
   2537600928.1790118     
   2357300108.7124438     
   2176739541.0369563     
   1997390667.6923332     
   1821530996.2182360     
   2572107415.7263308     
   2384618805.9024696     
   2194057001.7669935     
   2000800209.9465632     
   1805452200.2407300     
   2619474423.9038854     
   2430106862.3561735     
   2235964343.9382982     
   2037046868.6502597     
   1833354436.4920669     
   2396310395.0331483     
   2431841840.7063336     
   2472501726.7691216     
   2518290053.2215085     
   2569206820.0634971     
   2491180862.6116886     
   2505433456.3229184     
   2527560610.8752031     
   2557577287.1505938     
   2595498084.9001942     
   2635575810.3419633     
   2625184280.0549955     
   2625238100.1474085     
   2635816084.1441302     
   2657000235.3793612     
   2833443922.7355747     
   2794926988.2805429     
   2769072726.6386189     
   2756079410.8329864     
   2756168273.5579224     
   3086007325.7828846     
   3015990664.1302586     
   2960395306.7742553     
   2919572103.6450248     
   2893942856.0313292     
   2569206820.0634971     
   2573295510.4397173     
   2580902699.1432800     
   2592028386.1741734     
   2606672571.5324130     
   2595498084.9001942     
   2589541078.9130263     
   2588623769.2199783     
   2592750940.2234197     
   2601927518.4113426     
   2657000235.3793612     
   2639197158.1023746     
   2627873829.3044209     
   2623055303.1245623     
   2624768328.4905882     
   2756168273.5579224     
   2724467750.5819683     
   2700538145.4697032     
   2684445987.6653385     
   2676265165.3704815     
   2893942856.0313292     
   2846179754.5266919     
   2807275690.4812388     
   2777359244.7043624     
   2756579424.5829730     
   2606672571.5324130     
   2606924465.9048538     
   2615234866.1312690     
   2631603772.2116623     
   2656031184.1460314     
   2601927518.4113426     
   2597239614.8845782     
   2601159010.0440407     
   2613698658.6367435     
   2634870846.3405323     
   2624768328.4905882     
   2612400231.9384193     
   2609194542.5778260     
   2615207622.0028181     
   2630493901.4172430     
   2676265165.3704815     
   2653477963.9021435     
   2640370634.0915704     
   2637077284.1349955     
   2643730540.7637391     
   2756579424.5829730     
   2720794100.9905491     
   2695118076.3452821     
   2679795569.1013842     
   2675075024.9758286     
   2656031184.1460314     
   2654129337.5020595     
   2661405902.3155594     
   2677860878.5865355     
   2703494266.3149896     
   2634870846.3405323     
   2629944795.5162911     
   2633982677.5035405     
   2646995664.8660250     
   2668993747.5156198     
   2630493901.4172430     
   2620280540.7949653     
   2618880716.7192650     
   2626338901.7337694     
   2642695619.8695707     
   2643730540.7637391     
   2626109846.0499010     
   2617180872.0213346     
   2617042306.7336807     
   2625786191.3038282     
   2675075024.9758286     
   2648157267.9445376     
   2629796568.6110377     
   2620163403.7194619     
   2619421046.9610562     
   2703494266.3149896     
   2707444250.4683042     
   2720485659.0885673     
   2742618492.1757755     
   2773842749.7299232     
   2668993747.5156198     
   2669567000.3315659     
   2679603762.1242557     
   2699110568.4055552     
   2728092421.0524983     
   2642695619.8695707     
   2638243849.4818120     
   2643754658.3744650     
   2659258249.1640553     
   2684778364.0023413     
   2625786191.3038282     
   2614510961.5292649     
   2613815009.7310319     
   2623776710.8505125     
   2644459495.9546247     
   2619421046.9610562     
   2599408068.2581105     
   2590687164.0179262     
   2593418032.3418040     
   2607734033.9066014     
   2773842749.7299232     
   2766977711.2769322     
   2768814209.9084296     
   2779352245.6244273     
   2798591818.4249125     
   2728092421.0524983     
   2719890137.6375904     
   2720761763.8647499     
   2730710633.4755383     
   2749741530.9158964     
   2684778364.0023413     
   2675230208.8207130     
   2675270041.7776957     
   2684913198.3688998     
   2704180395.9734774     
   2644459495.9546247     
   2633413702.6648211     
   2632629232.1829987     
   2642145465.5823565     
   2662012664.2510271     
   2607734033.9066014     
   2594881204.9884405     
   2593142141.3368111     
   2602596397.8119454     
   2623340102.5144377     
   2798591818.4249125     
   2745082624.4421129     
   2697393327.3610053     
   2655523927.1816053     
   2619474423.9038854     
   2749741530.9158964     
   2696846893.5947795     
   2649582807.9566932     
   2607985875.4841671     
   2572107415.7522388     
   2704180395.9734774     
   2653998357.9031081     
   2609399638.0960708     
   2570531632.1419559     
   2537600928.2336922     
   2662012664.2510271     
   2616640447.9266524     
   2576946960.9286366     
   2543263137.0543675     
   2516051488.4743662     
   2623340102.5144377     
   2584868091.7109461     
   2552313469.6877718     
   2526257915.5057454     
   2507510125.5950708     
   2619474423.9038854     
   2430106862.3561735     
   2235964343.9382982     
   2037046868.6502597     
   1833354436.4920669     
   2572107415.7522388     
   2384618805.9185710     
   2194057001.7700505     
   2000800209.9318368     
   1805452200.2012374     
   2537600928.2336922     
   2357300108.7475209     
   2176739541.0462422     
   1997390667.6670039     
   1821530996.1454213     
   2516051488.4743662     
   2348181955.9401369     
   2183869502.0026913     
   2026213920.9811842     
   1879779303.2000685     
   2507510125.5950708     
   2357160734.0278726     
   2214980195.7536821     
   2085948684.3716955     
   1976941394.4468720     
   3086007325.7828846     
   3015990664.1302586     
   2960395306.7742553     
   2919572103.6450248     
   2893942856.0313292     
   3143550899.9135718     
   3071707233.6038728     
   3010859890.4660392     
   2961534833.0310946     
   2924338213.9686389     
   3249065236.4417768     
   3172389383.6979027     
   3103736494.9071794     
   3043703830.4029112     
   2992967236.1821246     
   3387349336.9169326     
   3305022514.9589195     
   3228227560.3230033     
   3157518757.7044368     
   3093517406.0307927     
   3545216138.4165339     
   3458088571.3284230     
   3374483722.5025063     
   3294819192.2905111     
   3219561702.3282771     
   2893942856.0313292     
   2846179754.5266919     
   2807275690.4812388     
   2777359244.7043624     
   2756579424.5829730     
   2924338213.9686389     
   2873836999.4572988     
   2830563359.0877018     
   2794708085.3186636     
   2766486208.8435669     
   2992967236.1821246     
   2938182456.8125582     
   2889127172.4426074     
   2846028681.3649545     
   2809139762.4559760     
   3093517406.0307927     
   3033791182.6772275     
   2978464020.7225428     
   2927767389.6956358     
   2881956438.9891548     
   3219561702.3282771     
   3154984676.0566511     
   3093669608.9582543     
   3035822171.9958034     
   2981667137.4862771     
   2756579424.5829730     
   2720794100.9905491     
   2695118076.3452821     
   2679795569.1013842     
   2675075024.9758286     
   2766486208.8435669     
   2720803788.3787518     
   2684285423.3700047     
   2657289438.0011835     
   2640187383.7281818     
   2809139762.4559760     
   2751818394.0006428     
   2702634061.7861786     
   2662042048.9696817     
   2630526184.7529159     
   2881956438.9891548     
   2812095681.7896309     
   2749264296.0307856     
   2693978631.2402658     
   2646801980.7590017     
   2981667137.4862771     
   2899137355.8957992     
   2822481012.8466587     
   2752230000.0744724     
   2688979215.1250467     
   2675075024.9758286     
   2648157267.9445376     
   2629796568.6110377     
   2620163403.7194619     
   2619421046.9610562     
   2640187383.7281818     
   2603268831.9230452     
   2574812472.5730815     
   2555086782.1236849     
   2544355927.5831108     
   2630526184.7529159     
   2581810633.5302849     
   2541355857.0655990     
   2509542339.5382042     
   2486756482.6089778     
   2646801980.7590017     
   2584865280.4076061     
   2530839701.8932686     
   2485217594.0092683     
   2448516653.1606960     
   2688979215.1250467     
   2612848449.1879411     
   2544112847.7951198     
   2483358611.6631999     
   2431224897.8608775     
   2619421046.9610562     
   2599408068.2581105     
   2590687164.0179262     
   2593418032.3418040     
   2607734033.9066014     
   2544355927.5831108     
   2514325477.5645914     
   2495014028.1327567     
   2486697934.7101607     
   2489618337.0023961     
   2486756482.6089778     
   2444597598.2269278     
   2412502023.0514588     
   2390885661.4324393     
   2380130511.6701345     
   2448516653.1606960     
   2392596518.7421741     
   2345905772.5567989     
   2309003999.6885834     
   2282434074.3769794     
   2431224897.8608775     
   2360555415.1491699     
   2298037316.3582664     
   2244347700.4483609     
   2200181151.9286799     
   2607734033.9066014     
   2594881204.9884405     
   2593142141.3368111     
   2602596397.8119454     
   2623340102.5144377     
   2489618337.0023961     
   2469955313.5439482     
   2462202678.0473952     
   2466496925.7032351     
   2482972717.7316175     
   2380130511.6701345     
   2351388836.0040340     
   2335509209.1156116     
   2332741333.7431359     
   2343306257.1092772     
   2282434074.3769794     
   2241977773.2965975     
   2215430674.8743372     
   2203240856.4273424     
   2205795219.2687020     
   2200181151.9286799     
   2145077812.4837041     
   2104911380.6183748     
   2080445554.2893801     
   2072355853.3625062     
   2623340102.5144377     
   2584868091.7109461     
   2552313469.6877718     
   2526257915.5057454     
   2507510125.5950708     
   2482972717.7316175     
   2450347316.8885632     
   2426298043.8838444     
   2411770743.8141403     
   2408142109.0869074     
   2343306257.1092772     
   2318968423.0000324     
   2306166677.5767732     
   2306307108.5680056     
   2321477573.5075655     
   2205795219.2687020     
   2191507199.9087977     
   2192200597.3088717     
   2209844940.5711522     
   2247358589.4605589     
   2072355853.3625062     
   2068930838.7882483     
   2084715232.8618970     
   2122339910.3509629     
   2185613976.1948333     
   2507510125.5950708     
   2357160734.0278726     
   2214980195.7536821     
   2085948684.3716955     
   1976941394.4468720     
   2408142109.0869074     
   2282841034.2014804     
   2168045194.8869753     
   2070493894.0094812     
   1998953927.1845212     
   2321477573.5075655     
   2224737503.9642034     
   2141328926.2330501     
   2079616265.1715100     
   2049769715.2875333     
   2247358589.4605589     
   2182640885.0253654     
   2134360900.1941211     
   2112184659.0576096     
   2127045573.6037400     
   2185613976.1948333     
   2156257373.3118048     
   2146494343.1995976     
   2166847980.8261638     
   2228389262.5783753     
   3545216138.4165339     
   3458088571.3284230     
   3374483722.5025063     
   3294819192.2905111     
   3219561702.3282771     
   3798758486.1429653     
   3687229616.9833121     
   3579963771.1153402     
   3477492396.2547026     
   3380448714.4783702     
   4095838132.2905698     
   3957807512.1767764     
   3824677618.5899968     
   3696970305.7762866     
   3575377021.9262700     
   4436273500.4789019     
   4269059450.4820962     
   4107245713.7925138     
   3951244519.4822578     
   3801711617.1144543     
   4819514978.3067522     
   4619872826.8807135     
   4425987711.3004255     
   4238085823.2247534     
   4056709788.7257590     
   3219561702.3282771     
   3154984676.0566511     
   3093669608.9582543     
   3035822171.9958034     
   2981667137.4862771     
   3380448714.4783702     
   3302662180.0450711     
   3228031121.3224287     
   3156768685.2283912     
   3089118439.2200599     
   3575377021.9262700     
   3484545673.0486588     
   3396665072.5605559     
   3311934412.7595072     
   3230593480.5336094     
   3801711617.1144543     
   3697918677.0314622     
   3596808476.0911579     
   3498547944.1376238     
   3403352544.8626189     
   4056709788.7257590     
   3939913373.6998973     
   3825496868.7657776     
   3713581020.6574993     
   3604340459.0978155     
   2981667137.4862771     
   2899137355.8957992     
   2822481012.8466587     
   2752230000.0744724     
   2688979215.1250467     
   3089118439.2200599     
   2989552337.2384748     
   2895332598.0236335     
   2807009850.5180345     
   2725227539.5378103     
   3230593480.5336094     
   3114263198.8458314     
   3002629499.1529613     
   2896216932.1073213     
   2795666377.4513936     
   3403352544.8626189     
   3270661794.7971425     
   3141965554.7875886     
   3017725093.2911158     
   2898531401.8985085     
   3604340459.0978155     
   3455708665.7825904     
   3310374261.5178351     
   3168710659.5495305     
   3031223915.9012022     
   2688979215.1250467     
   2612848449.1879411     
   2544112847.7951198     
   2483358611.6631999     
   2431224897.8608775     
   2725227539.5378103     
   2632944048.2201495     
   2546797648.8753595     
   2467394417.9102011     
   2395426141.4778614     
   2795666377.4513936     
   2687975018.0689583     
   2585052427.5440478     
   2487449053.2264032     
   2395820856.2247596     
   2898531401.8985085     
   2776861997.5841861     
   2658614060.1948872     
   2544223024.2039175     
   2434228491.7329092     
   3031223915.9012022     
   2897456520.2681441     
   2765907265.7272120     
   2636871133.0578861     
   2510727469.4712768     
   2431224897.8608775     
   2360555415.1491699     
   2298037316.3582664     
   2244347700.4483609     
   2200181151.9286799     
   2395426141.4778614     
   2306317356.1589065     
   2224646045.3848677     
   2151197852.4362211     
   2086830370.4255114     
   2395820856.2247596     
   2288589961.9727502     
   2187752949.5136533     
   2094113767.1126795     
   2008607329.5021119     
   2434228491.7329092     
   2310031178.2037168     
   2190985329.8113055     
   2077800707.6745901     
   1971355039.4952698     
   2510727469.4712768     
   2371393241.1507874     
   2235964188.1568379     
   2104968030.1121159     
   1979098033.7126586     
   2200181151.9286799     
   2145077812.4837041     
   2104911380.6183748     
   2080445554.2893801     
   2072355853.3625062     
   2086830370.4255114     
   2011838724.6173825     
   1949202945.2188268     
   1899999751.7312250     
   1865255785.7644317     
   2008607329.5021119     
   1912280102.5262945     
   1824720740.6001031     
   1747127651.7017939     
   1680790567.7551529     
   1971355039.4952698     
   1855262663.8864200     
   1743523809.1756589     
   1637058166.7105043     
   1536995141.5513155     
   1979098033.7126586     
   1848368420.8980603     
   1717644954.9996693     
   1587274860.2286839     
   1457765522.5686369     
   2072355853.3625062     
   2068930838.7882483     
   2084715232.8618970     
   2122339910.3509629     
   2185613976.1948333     
   1865255785.7644317     
   1854795821.3490701     
   1867291400.9361506     
   1904950583.0307243     
   1970802734.4874928     
   1680790567.7551529     
   1652316802.5427675     
   1651559167.7166286     
   1680886061.3874974     
   1742905612.4445913     
   1536995141.5513155     
   1476117700.0364180     
   1447940593.7014978     
   1456432322.9830723     
   1504889826.0820479     
   1457765522.5686369     
   1348688566.3749607     
   1274612061.9732411     
   1243672116.1112726     
   1262920614.1417613     
   2185613976.1948333     
   2156257373.3118048     
   2146494343.1995976     
   2166847980.8261638     
   2228389262.5783753     
   1970802734.4874928     
   1968940060.3310139     
   2003616564.3947692     
   2093506598.7969725     
   2257270873.5901694     
   1742905612.4445913     
   1787713923.2984810     
   1884660119.4445457     
   2060653948.6205313     
   2340926380.7494888     
   1504889826.0820479     
   1613293996.3261154     
   1788884385.6128032     
   2066411563.6678298     
   2476082039.8149581     
   1262920614.1417613     
   1446721046.5461102     
   1715724543.2494853     
   2110511517.6786726     
   2663520650.5673547     
   4819514978.3067522     
   4619872826.8807135     
   4425987711.3004255     
   4238085823.2247534     
   4056709788.7257590     
   5135131165.7933655     
   4923240517.5992813     
   4713191507.1094685     
   4505197182.0414562     
   4299580580.9536295     
   5432920017.2913895     
   5217161698.7392063     
   5001236554.7505436     
   4785170470.5619841     
   4568998686.6294947     
   5703720071.8290644     
   5493940131.2116709     
   5283567041.5027876     
   5072332878.7420187     
   4859996261.1603489     
   5941884596.3714180     
   5748567408.5855017     
   5555631722.3789673     
   5362420726.6710157     
   5168434311.6372805     
   4056709788.7257590     
   3939913373.6998973     
   3825496868.7657776     
   3713581020.6574993     
   3604340459.0978155     
   4299580580.9536295     
   4172157244.4234362     
   4046558215.4145198     
   3922871350.8388915     
   3801234909.5039277     
   4568998686.6294947     
   4430944216.0319767     
   4294237724.6741958     
   4158935227.3503194     
   4025138975.6311717     
   4859996261.1603489     
   4711287448.7950201     
   4563526868.8362846     
   4416741751.0318174     
   4271001442.7217607     
   5168434311.6372805     
   5009015836.6810417     
   4850215382.4072571     
   4692035274.1871881     
   4534516324.4190073     
   3604340459.0978155     
   3455708665.7825904     
   3310374261.5178351     
   3168710659.5495305     
   3031223915.9012022     
   3801234909.5039277     
   3638931027.0600510     
   3478693292.1434908     
   3320782606.8325768     
   3165571251.6042647     
   4025138975.6311717     
   3850342416.5491095     
   3676583866.3084297     
   3504014924.1226482     
   3332871435.3471384     
   4271001442.7217607     
   4084975850.0394869     
   3899172446.1226153     
   3713650933.1774764     
   3528528796.4536128     
   4534516324.4190073     
   4338526323.4101391     
   4142143202.8845000     
   3945358413.6014853     
   3748199402.1460938     
   3031223915.9012022     
   2897456520.2681441     
   2765907265.7272120     
   2636871133.0578861     
   2510727469.4712768     
   3165571251.6042647     
   3021396080.4791689     
   2879023483.1788430     
   2738666169.4830937     
   2600614479.8046651     
   3332871435.3471384     
   3178585595.8823161     
   3025703032.2936506     
   2874355442.1069813     
   2724744988.6547532     
   3528528796.4536128     
   3364120225.1897821     
   3200735512.8543339     
   3038432501.4800549     
   2877333896.3387079     
   3748199402.1460938     
   3573368818.6091747     
   3399199305.9064078     
   3225684500.9505415     
   3052879842.5248256     
   2510727469.4712768     
   2371393241.1507874     
   2235964188.1568379     
   2104968030.1121159     
   1979098033.7126586     
   2600614479.8046651     
   2451368891.7056336     
   2304322293.1647210     
   2159799064.1829228     
   2018239968.8723273     
   2724744988.6547532     
   2567961892.1871319     
   2412058554.8736715     
   2257177483.6404896     
   2103519397.8538754     
   2877333896.3387079     
   2715590768.4316545     
   2553846922.9799957     
   2392131750.9125271     
   2230493000.9911423     
   3052879842.5248256     
   2888709325.5147467     
   2724063238.6105385     
   2558935518.2793093     
   2393326354.7157693     
   1979098033.7126586     
   1848368420.8980603     
   1717644954.9996693     
   1587274860.2286839     
   1457765522.5686369     
   2018239968.8723273     
   1881317089.3307731     
   1744708373.6257830     
   1608542550.3739922     
   1472996771.6549816     
   2103519397.8538754     
   1963037496.2901022     
   1823523342.4321289     
   1685007945.3388782     
   1547550937.6925249     
   2230493000.9911423     
   2087336527.2226045     
   1945852167.0612490     
   1806039658.8537090     
   1667976166.7205532     
   2393326354.7157693     
   2246726256.6424608     
   2102333363.8775108     
   1960145941.3248484     
   1820332010.0296297     
   1457765522.5686369     
   1348688566.3749607     
   1274612061.9732411     
   1243672116.1112726     
   1262920614.1417613     
   1472996771.6549816     
   1328713158.2559114     
   1198901534.1504974     
   1088051237.5884147     
   1002077832.2185775     
   1547550937.6925249     
   1397662667.6814492     
   1244211461.2324073     
   1084925163.1835163     
   917772045.56576669     
   1667976166.7205532     
   1552607034.2238357     
   1428115615.9094417     
   1294855858.0659394     
   1158951696.3106897     
   1820332010.0296297     
   1779802124.7711813     
   1735748272.7283428     
   1696801042.7562692     
   1681465692.9196186     
   1262920614.1417613     
   1446721046.5461102     
   1715724543.2494853     
   2110511517.6786726     
   2663520650.5673547     
   1002077832.2185775     
   1164747353.5894127     
   1425441682.9159403     
   1808750633.3251712     
   2334761527.3472519     
   917772045.56576669     
   963152916.99986219     
   1144930700.2929747     
   1476472589.0442140     
   1957472368.8733389     
   1158951696.3106897     
   1008472016.0822805     
   985218221.33236504     
   1161475611.4997811     
   1544164023.8367889     
   1681465692.9196186     
   1383861592.7787430     
   1129494996.3811433     
   1010117555.4277350     
   1153089741.1530905     
 </DataArray>
 <DataArray  type="Float64" Name="strain" NumberOfComponents="3" format="ascii">
   9.8934739266067329E-002  -2.9645672917774313E-002  -6.8209696908496653E-003
   9.5710300297925599E-002  -2.8946190986328668E-002  -4.5362098587011790E-003
   9.2485861329784091E-002  -2.8150652309995583E-002  -2.7565373594273801E-003
   8.9261422361642473E-002  -2.7259056888775141E-002  -1.4819521930284907E-003
   8.6036983393500854E-002  -2.6271404722667424E-002  -7.1245435950439973E-004
   9.5181512436795734E-002  -2.7888014241821968E-002   3.2621255128845172E-003
   9.1578132187242978E-002  -2.7176798802101387E-002   4.6448331874269222E-003
   8.7974751937690276E-002  -2.6395285417613518E-002   5.7747456320220159E-003
   8.4371371688137603E-002  -2.5543474088358283E-002   6.6518628466693541E-003
   8.0767991438584874E-002  -2.4621364814335633E-002   7.2761848313696031E-003
   9.0316910053627075E-002  -2.6130355565869512E-002   1.3369833624953809E-002
   8.6586880625590501E-002  -2.5407406617874106E-002   1.3824730341770258E-002
   8.2856851197554093E-002  -2.4639918525231341E-002   1.4279123931566329E-002
   7.9126821769517575E-002  -2.3827891287941258E-002   1.4733014394342353E-002
   7.5396792341481056E-002  -2.2971324906004009E-002   1.5186401730098303E-002
   8.4340932116561046E-002  -2.4372696889917111E-002   2.3502154645358125E-002
   8.0736545612968169E-002  -2.3638014433646742E-002   2.3003481604328073E-002
   7.7132159109375237E-002  -2.2884551632849054E-002   2.2756597539205350E-002
   7.3527772605782415E-002  -2.2112308487524317E-002   2.2761502449989708E-002
   6.9923386102189455E-002  -2.1321284997672357E-002   2.3018196336681528E-002
   7.7253578625598118E-002  -2.2615038213964711E-002   3.3659088574097384E-002
   7.4027127149376093E-002  -2.1868622249419267E-002   3.2181086975101081E-002
   7.0800675673154068E-002  -2.1129184740466822E-002   3.1207166454939150E-002
   6.7574224196932070E-002  -2.0396725687107334E-002   3.0737327013612009E-002
   6.4347772720710017E-002  -1.9671245089340650E-002   3.0771568651119352E-002
   8.6036983393500854E-002  -2.6271404722667424E-002  -7.1245435950439973E-004
   8.3431146089389785E-002  -2.5259465217004895E-002  -7.7289549163112037E-004
   8.0825308785278605E-002  -2.4295007777120486E-002  -6.5585751112617885E-004
   7.8219471481167535E-002  -2.3378032403014622E-002  -3.6134041799082417E-004
   7.5613634177056355E-002  -2.2508539094687197E-002   1.1065578777569307E-004
   8.0767991438584874E-002  -2.4621364814335633E-002   7.2761848313696031E-003
   7.8340150293206900E-002  -2.3682513073732203E-002   7.0719060644655052E-003
   7.5912309147829066E-002  -2.2780474344733764E-002   7.0461405023967971E-003
   7.3484468002451162E-002  -2.1915248627341406E-002   7.1988881451635761E-003
   7.1056626857073257E-002  -2.1086835921554248E-002   7.5301489927657728E-003
   7.5396792341481056E-002  -2.2971324906004009E-002   1.5186401730098303E-002
   7.3147981447040725E-002  -2.2105560930459373E-002   1.4848954382589319E-002
   7.0899170552600310E-002  -2.1265940912347361E-002   1.4691054332120382E-002
   6.8650359658159951E-002  -2.0452464851668076E-002   1.4712701578691104E-002
   6.6401548763719564E-002  -1.9665132748421466E-002   1.4913896122301651E-002
   6.9923386102189455E-002  -2.1321284997672357E-002   2.3018196336681528E-002
   6.7854639550890938E-002  -2.0528608787186667E-002   2.2558249462740855E-002
   6.5785892999592477E-002  -1.9751407479960799E-002   2.2278883978044183E-002
   6.3717146448294057E-002  -1.8989681075994802E-002   2.2180099882591758E-002
   6.1648399896995554E-002  -1.8243429575288600E-002   2.2261897176383272E-002
   6.4347772720710017E-002  -1.9671245089340650E-002   3.0771568651119352E-002
   6.2460124604757750E-002  -1.8951656643913989E-002   3.0199791304919732E-002
   6.0572476488805482E-002  -1.8236874047574250E-002   2.9809629440168461E-002
   5.8684828372853187E-002  -1.7526897300321535E-002   2.9601083056865637E-002
   5.6797180256900948E-002  -1.6821726402155790E-002   2.9574152155011135E-002
   7.5613634177056355E-002  -2.2508539094687197E-002   1.1065578777569307E-004
   7.2319376406130120E-002  -2.1647427462699209E-002  -7.0362158403836084E-005
   6.9025118635203830E-002  -2.0755597117612212E-002  -8.5172848778569676E-005
   6.5730860864277540E-002  -1.9833048059426678E-002   6.6223716651603315E-005
   6.2436603093351306E-002  -1.8879780288142745E-002   3.8382753788679391E-004
   7.1056626857073257E-002  -2.1086835921554248E-002   7.5301489927657728E-003
   6.7935073952003822E-002  -2.0264890444979589E-002   7.2848565164069234E-003
   6.4813521046934386E-002  -1.9419066415224145E-002   7.2187665159571535E-003
   6.1691968141865061E-002  -1.8549363832288744E-002   7.3318789914160881E-003
   5.8570415236795625E-002  -1.7655782696172295E-002   7.6241939427836858E-003
   6.6401548763719564E-002  -1.9665132748421466E-002   1.4913896122301651E-002
   6.3465695944610837E-002  -1.8882353427259857E-002   1.4597488955845866E-002
   6.0529843125502053E-002  -1.8082535712836079E-002   1.4473279485402363E-002
   5.7593990306393270E-002  -1.7265679605150144E-002   1.4541267710971389E-002
   5.4658137487284514E-002  -1.6431785104201790E-002   1.4801453632553169E-002
   6.1648399896995554E-002  -1.8243429575288600E-002   2.2261897176383272E-002
   5.8911242383951082E-002  -1.7499816409540070E-002   2.1867535159911890E-002
   5.6174084870906700E-002  -1.6746005010447901E-002   2.1678366059556836E-002
   5.3436927357862318E-002  -1.5981995378011656E-002   2.1694389875318028E-002
   5.0699769844817902E-002  -1.5207787512231424E-002   2.1915606607195361E-002
   5.6797180256900948E-002  -1.6821726402155790E-002   2.9574152155011135E-002
   5.4271713270024641E-002  -1.6117279391820505E-002   2.9094995128605972E-002
   5.1746246283148389E-002  -1.5409474308059778E-002   2.8834026238420990E-002
   4.9220779296272138E-002  -1.4698311150873181E-002   2.8791245484455635E-002
   4.6695312309395831E-002  -1.3983789920261003E-002   2.8966652866710685E-002
   6.2436603093351306E-002  -1.8879780288142745E-002   3.8382753788679391E-004
   5.9539924865218419E-002  -1.7935113492081767E-002   1.6993620242433671E-004
   5.6643246637085642E-002  -1.7038367359565404E-002   1.4477715880789610E-004
   5.3746568408952866E-002  -1.6189541890593094E-002   3.0835040703838801E-004
   5.0849890180819979E-002  -1.5388637085166135E-002   6.6065594711406384E-004
   5.8570415236795625E-002  -1.7655782696172295E-002   7.6241939427836858E-003
   5.5854325088440349E-002  -1.6765794028284264E-002   7.3165764257061561E-003
   5.3138234940085072E-002  -1.5906868850032840E-002   7.1814027763376642E-003
   5.0422144791729878E-002  -1.5079007161418592E-002   7.2186729946781547E-003
   4.7706054643374574E-002  -1.4282208962440812E-002   7.4283870807275720E-003
   5.4658137487284514E-002  -1.6431785104201790E-002   1.4801453632553169E-002
   5.2106346994569452E-002  -1.5596474564487095E-002   1.4416967107768353E-002
   4.9554556501854502E-002  -1.4775370340500957E-002   1.4188636026555998E-002
   4.7002766009139552E-002  -1.3968472432243761E-002   1.4116460388915016E-002
   4.4450975516424490E-002  -1.3175780839715490E-002   1.4200440194845232E-002
   5.0699769844817902E-002  -1.5207787512231424E-002   2.1915606607195361E-002
   4.8295990583605855E-002  -1.4427155100689648E-002   2.1471108248612078E-002
   4.5892211322393815E-002  -1.3643871830968844E-002   2.1166476909463192E-002
   4.3488432061181789E-002  -1.2857937703068983E-002   2.1001712589748041E-002
   4.1084652799969749E-002  -1.2069352716990167E-002   2.0976815289467890E-002
   4.6695312309395831E-002  -1.3983789920261003E-002   2.8966652866710685E-002
   4.4423255855549432E-002  -1.3257835636892368E-002   2.8478999848236319E-002
   4.2151199401703032E-002  -1.2512373321436579E-002   2.8114925425058751E-002
   3.9879142947856633E-002  -1.1747402973894445E-002   2.7874429597178466E-002
   3.7607086494010233E-002  -1.0962924594264956E-002   2.7757512364594783E-002
   5.0849890180819979E-002  -1.5388637085166135E-002   6.6065594711406384E-004
   4.8108749104465054E-002  -1.4592968053659061E-002   4.4779980741238568E-004
   4.5367608028110129E-002  -1.3759849906447352E-002   2.6792284939358701E-004
   4.2626466951755232E-002  -1.2889282643531633E-002   1.2102507305883359E-004
   3.9885325875400279E-002  -1.1981266264911028E-002   7.1064784070706821E-006
   4.7706054643374574E-002  -1.4282208962440812E-002   7.4283870807275720E-003
   4.5011563962094825E-002  -1.3490496857709200E-002   7.1471287733368971E-003
   4.2317073280815160E-002  -1.2677893451833511E-002   6.9261920744134731E-003
   3.9622582599535480E-002  -1.1844398744813925E-002   6.7655769839562729E-003
   3.6928091918255690E-002  -1.0990012736649346E-002   6.6652835019668233E-003
   4.4450975516424490E-002  -1.3175780839715490E-002   1.4200440194845232E-002
   4.1830477657003512E-002  -1.2388025661759505E-002   1.3834221905205973E-002
   3.9209979797582520E-002  -1.1595936997219641E-002   1.3555667650817199E-002
   3.6589481938161535E-002  -1.0799514846095322E-002   1.3364777431678576E-002
   3.3968984078740522E-002  -9.9987592083874421E-003   1.3261551247790548E-002
   4.1084652799969749E-002  -1.2069352716990167E-002   2.0976815289467890E-002
   3.8565490189190879E-002  -1.1285554465809727E-002   2.0509079203019254E-002
   3.6046327578412043E-002  -1.0513980542605675E-002   2.0156349578604932E-002
   3.3527164967633236E-002  -9.7546309473773886E-003   1.9918626416224477E-002
   3.1008002356854400E-002  -9.0075056801254272E-003   1.9795909715877844E-002
   3.7607086494010233E-002  -1.0962924594264956E-002   2.7757512364594783E-002
   3.5216601558657079E-002  -1.0183083269859949E-002   2.7171700666777265E-002
   3.2826116623303925E-002  -9.4320240879917916E-003   2.6728237857777060E-002
   3.0435631687950715E-002  -8.7097470486597536E-003   2.6427123937594249E-002
   2.8045146752597616E-002  -8.0162521518636343E-003   2.6268358906228917E-002
   3.9885325875400279E-002  -1.1981266264911028E-002   7.1064784070706821E-006
   3.7467404099254309E-002  -1.1137502872954008E-002  -2.8501250759038754E-004
   3.5049482323108505E-002  -1.0459694570028655E-002  -4.8483816186639661E-004
   3.2631560546962590E-002  -9.9478413561347040E-003  -5.9237048442117857E-004
   3.0213638770816731E-002  -9.6019432312712816E-003  -6.0760947525495546E-004
   3.6928091918255690E-002  -1.0990012736649346E-002   6.6652835019668233E-003
   3.4584121776423282E-002  -1.0179779110309428E-002   6.2153733592789084E-003
   3.2240151634590902E-002  -9.4787415487632143E-003   5.8210731534960591E-003
   2.9896181492758425E-002  -8.8869000520107183E-003   5.4823828846187750E-003
   2.7552211350925948E-002  -8.4042546200515655E-003   5.1993025526470005E-003
   3.3968984078740522E-002  -9.9987592083874421E-003   1.3261551247790548E-002
   3.1662282176405876E-002  -9.2220553476649036E-003   1.2710608972649140E-002
   2.9355580274071175E-002  -8.4977885274981901E-003   1.2178593239597302E-002
   2.7048878371736557E-002  -7.8259587478873918E-003   1.1665504048636074E-002
   2.4742176469401911E-002  -7.2065660088318495E-003   1.1171341399764279E-002
   3.1008002356854400E-002  -9.0075056801254272E-003   1.9795909715877844E-002
   2.8701885299201951E-002  -8.2643315850202403E-003   1.9200694332520973E-002
   2.6395768241549579E-002  -7.5168355062332909E-003   1.8587722096438643E-002
   2.4089651183897162E-002  -6.7650174437635137E-003   1.7956993007630675E-002
   2.1783534126244695E-002  -6.0088773976119114E-003   1.7308507066097059E-002
   2.8045146752597616E-002  -8.0162521518636343E-003   2.6268358906228917E-002
   2.5702931144811758E-002  -7.3066078223755215E-003   2.5685629438894741E-002
   2.3360715537025956E-002  -6.5358824849680031E-003   2.5048459724019312E-002
   2.1018499929240181E-002  -5.7040761396401490E-003   2.4356849761602739E-002
   1.8676284321454351E-002  -4.8111887863921954E-003   2.3610799551645023E-002
   3.0213638770816731E-002  -9.6019432312712816E-003  -6.0760947525495546E-004
   2.9605724087035323E-002  -9.1350988507692410E-003  -3.6125046920743031E-004
   2.8997809403253971E-002  -8.2604068699583810E-003  -1.7969947165151767E-003
   2.8389894719472536E-002  -6.9778672888381604E-003  -4.9148422171786943E-003
   2.7781980035691212E-002  -5.2874801074087596E-003  -9.7147929711984826E-003
   2.7552211350925948E-002  -8.4042546200515655E-003   5.1993025526470005E-003
   2.5531778201487887E-002  -7.8708047223855493E-003   5.8759651830188053E-003
   2.3511345052049853E-002  -7.1265498285131290E-003   5.4096941354325745E-003
   2.1490911902611806E-002  -6.1714899384348043E-003   3.8004894098890296E-003
   1.9470478753173759E-002  -5.0056250521486323E-003   1.0483510063878931E-003
   2.4742176469401911E-002  -7.2065660088318495E-003   1.1171341399764279E-002
   2.1848394429705320E-002  -6.6065105940019686E-003   1.2081265050357337E-002
   1.8954612390008743E-002  -5.9926927870685154E-003   1.2387424598390678E-002
   1.6060830350312146E-002  -5.3651125880307751E-003   1.2089820043864621E-002
   1.3167048310615576E-002  -4.7237699968886160E-003   1.1188451386778764E-002
   2.1783534126244695E-002  -6.0088773976119114E-003   1.7308507066097059E-002
   1.8555572771687713E-002  -5.3422164656183324E-003   1.8254649132808151E-002
   1.5327611417130699E-002  -4.8588357456233605E-003   1.9136196672358684E-002
   1.2099650062573701E-002  -4.5587352376266384E-003   1.9953149684747349E-002
   8.8716887080167103E-003  -4.4419149416283221E-003   2.0705508169974976E-002
   1.8676284321454351E-002  -4.8111887863921954E-003   2.3610799551645023E-002
   1.5653313227435017E-002  -4.0779223372345852E-003   2.4396117430372510E-002
   1.2630342133415656E-002  -3.7249787041785387E-003   2.5656010357336612E-002
   9.6073710393962813E-003  -3.7523578872230290E-003   2.7390478332537993E-002
   6.5843999453769619E-003  -4.1600598863684723E-003   2.9599521355975877E-002
   2.7781980035691212E-002  -5.2874801074087596E-003  -9.7147929711984826E-003
   2.3354802588585910E-002  -4.2065066189158618E-003  -4.1877090280821871E-003
   1.8927625141480664E-002  -4.7522081166020969E-003   2.6039642263573359E-003
   1.4500447694375224E-002  -6.9245846004710870E-003   1.0660226792118921E-002
   1.0073270247270116E-002  -1.0723636070520293E-002   1.9981078669203178E-002
   1.9470478753173759E-002  -5.0056250521486323E-003   1.0483510063878931E-003
   1.6235434545927463E-002  -4.6905296282886422E-003   6.7415402643800082E-003
   1.3000390338681056E-002  -6.2877781254875864E-003   1.3554406690767240E-002
   9.7653461314347323E-003  -9.7973705437436470E-003   2.1486950285548201E-002
   6.5303019241882421E-003  -1.5219306883058170E-002   3.0539171048725944E-002
   1.3167048310615576E-002  -4.7237699968886160E-003   1.1188451386778764E-002
   1.0979225200300369E-002  -5.1745526376626438E-003   1.6762077024769062E-002
   8.7914020899850648E-003  -7.8233481343717159E-003   2.3310467688226727E-002
   6.6035789796697122E-003  -1.2670156487015867E-002   3.0833623377151467E-002
   4.4157558693546095E-003  -1.9714977695596048E-002   3.9331544091543158E-002
   8.8716887080167103E-003  -4.4419149416283221E-003   2.0705508169974976E-002
   7.5861745517046136E-003  -5.6585756470355908E-003   2.5873901253086681E-002
   6.3006603953925204E-003  -9.3589181432560814E-003   3.1872147218737011E-002
   5.0151462390804150E-003  -1.5542942430288923E-002   3.8700246066927582E-002
   3.7296320827683305E-003  -2.4210648508134369E-002   4.6358197797657208E-002
   6.5843999453769619E-003  -4.1600598863684723E-003   2.9599521355975877E-002
   6.0562826001402392E-003  -6.1425986564089818E-003   3.4077012949331187E-002
   5.5281652549034888E-003  -1.0894488152140669E-002   3.9239445282297947E-002
   5.0000479096667244E-003  -1.8415728373561036E-002   4.5086818354876268E-002
   4.4719305644299601E-003  -2.8706319320672247E-002   5.1619132167065818E-002
   7.7253578625598118E-002  -2.2615038213964711E-002   3.3659088574097384E-002
   7.4027127149376093E-002  -2.1868622249419267E-002   3.2181086975101081E-002
   7.0800675673154068E-002  -2.1129184740466822E-002   3.1207166454939150E-002
   6.7574224196932070E-002  -2.0396725687107334E-002   3.0737327013612009E-002
   6.4347772720710017E-002  -1.9671245089340650E-002   3.0771568651119352E-002
   6.9904992617964984E-002  -2.0677435441332215E-002   3.6432706044942420E-002
   6.7130262560637866E-002  -2.0035413417888143E-002   3.5492302631479095E-002
   6.4355532503310678E-002  -1.9384318289018806E-002   3.4951260976971266E-002
   6.1580802445983553E-002  -1.8724150054724342E-002   3.4809581081418614E-002
   5.8806072388656427E-002  -1.8054908715004869E-002   3.5067262944821154E-002
   6.3145317130888529E-002  -1.8739832668699774E-002   3.9093903794177098E-002
   6.0717589172576941E-002  -1.8202204586356824E-002   3.8707150127265291E-002
   5.8289861214265368E-002  -1.7639451837570735E-002   3.8615038899429258E-002
   5.5862133255953787E-002  -1.7051574422341433E-002   3.8817570110669136E-002
   5.3434405297642207E-002  -1.6438572340669005E-002   3.9314743760984969E-002
   5.6974552164369037E-002  -1.6802229896067333E-002   4.1642681821801600E-002
   5.4789106985193611E-002  -1.6368995754825547E-002   4.1825629462458977E-002
   5.2603661806018179E-002  -1.5894585386122692E-002   4.2198500222313015E-002
   5.0418216626842732E-002  -1.5378998789958510E-002   4.2761294101363576E-002
   4.8232771447667362E-002  -1.4822235966333155E-002   4.3514011099610519E-002
   5.1392697718406266E-002  -1.4864627123434837E-002   4.4079040127815938E-002
   4.9344815998487696E-002  -1.4535786923294297E-002   4.4847740637060762E-002
   4.7296934278569069E-002  -1.4149718934674593E-002   4.5701644945622677E-002
   4.5249052558650499E-002  -1.3706423157575531E-002   4.6640753053501877E-002
   4.3201170838731900E-002  -1.3205899591997305E-002   4.7665064960698111E-002
   6.4347772720710017E-002  -1.9671245089340650E-002   3.0771568651119352E-002
   6.2460124604757750E-002  -1.8951656643913989E-002   3.0199791304919732E-002
   6.0572476488805482E-002  -1.8236874047574250E-002   2.9809629440168461E-002
   5.8684828372853187E-002  -1.7526897300321535E-002   2.9601083056865637E-002
   5.6797180256900948E-002  -1.6821726402155790E-002   2.9574152155011135E-002
   5.8806072388656427E-002  -1.8054908715004869E-002   3.5067262944821154E-002
   5.7089222647579221E-002  -1.7383981791588898E-002   3.4649447839528058E-002
   5.5372372906502085E-002  -1.6718756806205007E-002   3.4391614002536833E-002
   5.3655523165424893E-002  -1.6059233758853406E-002   3.4293761433847457E-002
   5.1938673424347742E-002  -1.5405412649534045E-002   3.4355890133460076E-002
   5.3434405297642207E-002  -1.6438572340669005E-002   3.9314743760984969E-002
   5.1866719718293618E-002  -1.5816306939263683E-002   3.9049994807653157E-002
   5.0299034138945015E-002  -1.5200639564835812E-002   3.8923592909476758E-002
   4.8731348559596425E-002  -1.4591570217385332E-002   3.8935538066455722E-002
   4.7163662980247822E-002  -1.3989098896912272E-002   3.9085830278589806E-002
   4.8232771447667362E-002  -1.4822235966333155E-002   4.3514011099610519E-002
   4.6792615816900800E-002  -1.4248632086938558E-002   4.3401432209294891E-002
   4.5352460186134300E-002  -1.3682522323466565E-002   4.3405566160988000E-002
   4.3912304555367793E-002  -1.3123906675917132E-002   4.3526412954689987E-002
   4.2472148924601258E-002  -1.2572785144290541E-002   4.3763972590400782E-002
   4.3201170838731900E-002  -1.3205899591997305E-002   4.7665064960698111E-002
   4.1866910943400920E-002  -1.2680957234613321E-002   4.7703760044453286E-002
   4.0532651048069940E-002  -1.2164405082097346E-002   4.7837533757070894E-002
   3.9198391152738946E-002  -1.1656243134449122E-002   4.8066386098550767E-002
   3.7864131257407979E-002  -1.1156471391668810E-002   4.8390317068892685E-002
   5.6797180256900948E-002  -1.6821726402155790E-002   2.9574152155011135E-002
   5.4271713270024641E-002  -1.6117279391820505E-002   2.9094995128605972E-002
   5.1746246283148389E-002  -1.5409474308059778E-002   2.8834026238420990E-002
   4.9220779296272138E-002  -1.4698311150873181E-002   2.8791245484455635E-002
   4.6695312309395831E-002  -1.3983789920261003E-002   2.8966652866710685E-002
   5.1938673424347742E-002  -1.5405412649534045E-002   3.4355890133460076E-002
   4.9624914361944217E-002  -1.4750756128934672E-002   3.3959114700769732E-002
   4.7311155299540747E-002  -1.4088726847743357E-002   3.3767566980804992E-002
   4.4997396237137291E-002  -1.3419324805960180E-002   3.3781246973565868E-002
   4.2683637174733752E-002  -1.2742550003584929E-002   3.4000154679051986E-002
   4.7163662980247822E-002  -1.3989098896912272E-002   3.9085830278589806E-002
   4.5048651418822618E-002  -1.3384232866048784E-002   3.8775451126780755E-002
   4.2933639857397413E-002  -1.2767979387426992E-002   3.8657339264202742E-002
   4.0818628295972166E-002  -1.2140338461047014E-002   3.8731494690855725E-002
   3.8703616734546947E-002  -1.1501310086908884E-002   3.8997917406739621E-002
   4.2472148924601258E-002  -1.2572785144290541E-002   4.3763972590400782E-002
   4.0542924440659815E-002  -1.2017709603162841E-002   4.3544004406639081E-002
   3.8613699956718345E-002  -1.1447231927110627E-002   4.3503343088613963E-002
   3.6684475472776909E-002  -1.0861352116134069E-002   4.3641988636325346E-002
   3.4755250988835439E-002  -1.0260070170232824E-002   4.3959941049773341E-002
   3.7864131257407979E-002  -1.1156471391668810E-002   4.8390317068892685E-002
   3.6107733427455768E-002  -1.0651186340277063E-002   4.8264774540344724E-002
   3.4351335597503599E-002  -1.0126484466794164E-002   4.8305578454038850E-002
   3.2594937767551423E-002  -9.5823657712209194E-003   4.8512728809974939E-002
   3.0838539937599219E-002  -9.0188302535568754E-003   4.8886225608153033E-002
   4.6695312309395831E-002  -1.3983789920261003E-002   2.8966652866710685E-002
   4.4423255855549432E-002  -1.3257835636892368E-002   2.8478999848236319E-002
   4.2151199401703032E-002  -1.2512373321436579E-002   2.8114925425058751E-002
   3.9879142947856633E-002  -1.1747402973894445E-002   2.7874429597178466E-002
   3.7607086494010233E-002  -1.0962924594264956E-002   2.7757512364594783E-002
   4.2683637174733752E-002  -1.2742550003584929E-002   3.4000154679051986E-002
   4.0543132644526414E-002  -1.2054337360505235E-002   3.3569635159846983E-002
   3.8402628114319062E-002  -1.1350621796608784E-002   3.3278640892622807E-002
   3.6262123584111759E-002  -1.0631403311895424E-002   3.3127171877379985E-002
   3.4121619053904373E-002  -9.8966819063655009E-003   3.3115228114118045E-002
   3.8703616734546947E-002  -1.1501310086908884E-002   3.8997917406739621E-002
   3.6710610784662832E-002  -1.0850839084118186E-002   3.8620526275533640E-002
   3.4717604834778690E-002  -1.0188870271780760E-002   3.8398607052992813E-002
   3.2724598884894603E-002  -9.5154036498967896E-003   3.8332159739117314E-002
   3.0731592935010432E-002  -8.8304392184659908E-003   3.8421184333907149E-002
   3.4755250988835439E-002  -1.0260070170232824E-002   4.3959941049773341E-002
   3.2925690275958666E-002  -9.6473408077312056E-003   4.3631673195295997E-002
   3.1096129563081960E-002  -9.0271187469527954E-003   4.3474823906168511E-002
   2.9266568850205253E-002  -8.3994039878980721E-003   4.3489393182390604E-002
   2.7437008137328481E-002  -7.7641965305665639E-003   4.3675381023961769E-002
   3.0838539937599219E-002  -9.0188302535568754E-003   4.8886225608153033E-002
   2.9188371118413992E-002  -8.4438425313442256E-003   4.8603075919134819E-002
   2.7538202299228820E-002  -7.8653672221249415E-003   4.8507291452150159E-002
   2.5888033480043607E-002  -7.2834043258992454E-003   4.8598872207199217E-002
   2.4237864660858394E-002  -6.6979538426671370E-003   4.8877818184281940E-002
   3.7607086494010233E-002  -1.0962924594264956E-002   2.7757512364594783E-002
   3.5216601558657079E-002  -1.0183083269859949E-002   2.7171700666777265E-002
   3.2826116623303925E-002  -9.4320240879917916E-003   2.6728237857777060E-002
   3.0435631687950715E-002  -8.7097470486597536E-003   2.6427123937594249E-002
   2.8045146752597616E-002  -8.0162521518636343E-003   2.6268358906228917E-002
   3.4121619053904373E-002  -9.8966819063655009E-003   3.3115228114118045E-002
   3.1874993659363859E-002  -9.1637239600958487E-003   3.2602462398570675E-002
   2.9628368264823374E-002  -8.4497958531640771E-003   3.2235066875831275E-002
   2.7381742870282846E-002  -7.7548975855705193E-003   3.2013041545899498E-002
   2.5135117475742347E-002  -7.0790291573147313E-003   3.1936386408775941E-002
   3.0731592935010432E-002  -8.8304392184659908E-003   3.8421184333907149E-002
   2.8631848385273093E-002  -8.1443646503316369E-003   3.7991216903828173E-002
   2.6532103835535725E-002  -7.4675676183368206E-003   3.7709640970547589E-002
   2.4432359285798427E-002  -6.8000481224816216E-003   3.7576456534065418E-002
   2.2332614736061004E-002  -6.1418061627658282E-003   3.7591663594381652E-002
   2.7437008137328481E-002  -7.7641965305665639E-003   4.3675381023961769E-002
   2.5487165736384779E-002  -7.1250053405673697E-003   4.3337964182549552E-002
   2.3537323335441125E-002  -6.4853393835094461E-003   4.3151960141926501E-002
   2.1587480934497416E-002  -5.8451986593926666E-003   4.3117368902092293E-002
   1.9637638533553770E-002  -5.2045831682167587E-003   4.3234190463047009E-002
   2.4237864660858394E-002  -6.6979538426671370E-003   4.8877818184281940E-002
   2.2440945712698890E-002  -6.1056460308033245E-003   4.8642704234735157E-002
   2.0644026764539400E-002  -5.5031111486820994E-003   4.8562024389967651E-002
   1.8847107816379889E-002  -4.8903491963036630E-003   4.8635778649979644E-002
   1.7050188868220378E-002  -4.2673601736680222E-003   4.8863967014771470E-002
   2.8045146752597616E-002  -8.0162521518636343E-003   2.6268358906228917E-002
   2.5702931144811758E-002  -7.3066078223755215E-003   2.5685629438894741E-002
   2.3360715537025956E-002  -6.5358824849680031E-003   2.5048459724019312E-002
   2.1018499929240181E-002  -5.7040761396401490E-003   2.4356849761602739E-002
   1.8676284321454351E-002  -4.8111887863921954E-003   2.3610799551645023E-002
   2.5135117475742347E-002  -7.0790291573147313E-003   3.1936386408775941E-002
   2.2777207809960093E-002  -6.4046348349886539E-003   3.1538510985859358E-002
   2.0419298144177880E-002  -5.7141588851847835E-003   3.1163687694491321E-002
   1.8061388478395626E-002  -5.0076013079023984E-003   3.0811916534671760E-002
   1.5703478812613414E-002  -4.2849621031418872E-003   3.0483197506400050E-002
   2.2332614736061004E-002  -6.1418061627658282E-003   3.7591663594381652E-002
   2.0036503391371877E-002  -5.5026618476015920E-003   3.7333642835441272E-002
   1.7740392046682762E-002  -4.8924352854012032E-003   3.7176166587138570E-002
   1.5444280701993642E-002  -4.3111264761646409E-003   3.7119234849473812E-002
   1.3148169357304479E-002  -3.7587354198916900E-003   3.7162847622446926E-002
   1.9637638533553770E-002  -5.2045831682167587E-003   4.3234190463047009E-002
   1.7480817889047168E-002  -4.6006888602144608E-003   4.3071024987640288E-002
   1.5323997244540657E-002  -4.0707116856176367E-003   4.3085896401961289E-002
   1.3167176600034133E-002  -3.6146516444269423E-003   4.3278804706009560E-002
   1.1010355955527604E-002  -3.2325087366413818E-003   4.3649749899785192E-002
   1.7050188868220378E-002  -4.2673601736680222E-003   4.8863967014771470E-002
   1.5110151302985986E-002  -3.6987158728275515E-003   4.8750657442456879E-002
   1.3170113737751579E-002  -3.2489880858344033E-003   4.8892877138959401E-002
   1.1230076172517166E-002  -2.9181768126892438E-003   4.9290626104278812E-002
   9.2900386072827801E-003  -2.7062820533911847E-003   4.9943904338415113E-002
   1.8676284321454351E-002  -4.8111887863921954E-003   2.3610799551645023E-002
   1.5653313227435017E-002  -4.0779223372345852E-003   2.4396117430372510E-002
   1.2630342133415656E-002  -3.7249787041785387E-003   2.5656010357336612E-002
   9.6073710393962813E-003  -3.7523578872230290E-003   2.7390478332537993E-002
   6.5843999453769619E-003  -4.1600598863684723E-003   2.9599521355975877E-002
   1.5703478812613414E-002  -4.2849621031418872E-003   3.0483197506400050E-002
   1.3136522269788037E-002  -3.7726539163202011E-003   3.1258917701888489E-002
   1.0569565726962549E-002  -3.6970893928545412E-003   3.2472091951527948E-002
   8.0026091841370953E-003  -4.0582685327451087E-003   3.4122720255318595E-002
   5.4356526413116835E-003  -4.8561913359914666E-003   3.6210802613260484E-002
   1.3148169357304479E-002  -3.7587354198916900E-003   3.7162847622446926E-002
   1.1000106371587354E-002  -3.4673854954060945E-003   3.7872549287441021E-002
   8.8520433858702632E-003  -3.6692000815313208E-003   3.8982584012500848E-002
   6.7039804001531693E-003  -4.3641791782676326E-003   4.0492951797626187E-002
   4.5559174144359921E-003  -5.5523227856149049E-003   4.2403652642816980E-002
   1.1010355955527604E-002  -3.2325087366413818E-003   4.3649749899785192E-002
   9.2440655328331831E-003  -3.1621170744917382E-003   4.4237012187030154E-002
   7.4777751101387600E-003  -3.6413107702079339E-003   4.5187486540255312E-002
   5.7114846874443638E-003  -4.6700898237902674E-003   4.6501172959460012E-002
   3.9451942647499676E-003  -6.2484542352380101E-003   4.8178071444644907E-002
   9.2900386072827801E-003  -2.7062820533911847E-003   4.9943904338415113E-002
   7.8683997535254346E-003  -2.8568486535774928E-003   5.0352306400656022E-002
   6.4467608997681169E-003  -3.6134214588844360E-003   5.1086799534791116E-002
   5.0251220460107576E-003  -4.9760004693125970E-003   5.2147383740820730E-002
   3.6034831922534538E-003  -6.9445856848615595E-003   5.3534059018744751E-002
   6.5843999453769619E-003  -4.1600598863684723E-003   2.9599521355975877E-002
   6.0562826001402392E-003  -6.1425986564089818E-003   3.4077012949331187E-002
   5.5281652549034888E-003  -1.0894488152140669E-002   3.9239445282297947E-002
   5.0000479096667244E-003  -1.8415728373561036E-002   4.5086818354876268E-002
   4.4719305644299601E-003  -2.8706319320672247E-002   5.1619132167065818E-002
   5.4356526413116835E-003  -4.8561913359914666E-003   3.6210802613260484E-002
   5.4887077683458685E-003  -6.9905572381409598E-003   3.8350791386394800E-002
   5.5417628953798870E-003  -1.1361065674740434E-002   4.0968184364460147E-002
   5.5948180224140928E-003  -1.7967716645789486E-002   4.4062981547455360E-002
   5.6478731494480905E-003  -2.6810510151288769E-002   4.7635182935380715E-002
   4.5559174144359921E-003  -5.5523227856149049E-003   4.2403652642816980E-002
   4.9826084790600134E-003  -7.8385158198723826E-003   4.2739346786970556E-002
   5.4092995436839583E-003  -1.1827643197339976E-002   4.3344908601373716E-002
   5.8359906083077888E-003  -1.7519704918017770E-002   4.4220338086025823E-002
   6.2626816729318691E-003  -2.4914700981905513E-002   4.5365635240927182E-002
   3.9451942647499676E-003  -6.2484542352380101E-003   4.8178071444644907E-002
   4.5379847322827016E-003  -8.6864744016038609E-003   4.7242679151057634E-002
   5.1307751998154929E-003  -1.2294220719939963E-002   4.6369617993038473E-002
   5.7235656673483388E-003  -1.7071693190246137E-002   4.5558887970588199E-002
   6.3163561348809627E-003  -2.3018891812522146E-002   4.4810489083705302E-002
   3.6034831922534538E-003  -6.9445856848615595E-003   5.3534059018744751E-002
   4.1548365280140442E-003  -9.5344329833357833E-003   5.1860788478656161E-002
   4.7061898637745514E-003  -1.2760798242539451E-002   5.0042312539455125E-002
   5.2575431995351696E-003  -1.6623681462474213E-002   4.8078631201141586E-002
   5.8088965352957045E-003  -2.1123082643138780E-002   4.5969744463715045E-002
   5.1392697718406266E-002  -1.4864627123434837E-002   4.4079040127815938E-002
   4.9344815998487696E-002  -1.4535786923294297E-002   4.4847740637060762E-002
   4.7296934278569069E-002  -1.4149718934674593E-002   4.5701644945622677E-002
   4.5249052558650499E-002  -1.3706423157575531E-002   4.6640753053501877E-002
   4.3201170838731900E-002  -1.3205899591997305E-002   4.7665064960698111E-002
   4.5827861599452929E-002  -1.2985038612173039E-002   4.9828906008730633E-002
   4.3905185148603615E-002  -1.2696792504592325E-002   5.0135683370856332E-002
   4.1982508697754273E-002  -1.2359875686157373E-002   5.0607667471803286E-002
   4.0059832246904903E-002  -1.1974288156868199E-002   5.1244858311571689E-002
   3.8137155796055561E-002  -1.1540029916724676E-002   5.2047255890161404E-002
   3.9708151613961712E-002  -1.1105450100911213E-002   5.5542456335897827E-002
   3.7990683371685798E-002  -1.0857798085890394E-002   5.5378753473279557E-002
   3.6273215129409883E-002  -1.0570032437640237E-002   5.5460260288986721E-002
   3.4555746887133983E-002  -1.0242153156160838E-002   5.5786976783019526E-002
   3.2838278644858054E-002  -9.8741602414520180E-003   5.6358902955377738E-002
   3.3033567761932482E-002  -9.2258615896493867E-003   6.1219691109317659E-002
   3.1601310667734243E-002  -9.0188036671884145E-003   6.0576950944330341E-002
   3.0169053573535953E-002  -8.7801891891230860E-003   6.0259423397172801E-002
   2.8736796479337703E-002  -8.5100181554534360E-003   6.0267108467844860E-002
   2.7304539385139423E-002  -8.2082905661794298E-003   6.0600006156346774E-002
   2.5804110043365330E-002  -7.3462730783875885E-003   6.6860610328990266E-002
   2.4737067036748911E-002  -7.1798092484864906E-003   6.5730275784008918E-002
   2.3670024030132478E-002  -6.9903459406059076E-003   6.5005156796361485E-002
   2.2602981023516051E-002  -6.7778831547461657E-003   6.4685253366048107E-002
   2.1535938016899625E-002  -6.5424208909067305E-003   6.4770565493068533E-002
   4.3201170838731900E-002  -1.3205899591997305E-002   4.7665064960698111E-002
   4.1866910943400920E-002  -1.2680957234613321E-002   4.7703760044453286E-002
   4.0532651048069940E-002  -1.2164405082097346E-002   4.7837533757070894E-002
   3.9198391152738946E-002  -1.1656243134449122E-002   4.8066386098550767E-002
   3.7864131257407979E-002  -1.1156471391668810E-002   4.8390317068892685E-002
   3.8137155796055561E-002  -1.1540029916724676E-002   5.2047255890161404E-002
   3.6916341183990717E-002  -1.1083980885804826E-002   5.1862715852714805E-002
   3.5695526571925845E-002  -1.0633020984186149E-002   5.1809987752938047E-002
   3.4474711959860994E-002  -1.0187150211868995E-002   5.1889071590831434E-002
   3.3253897347796130E-002  -9.7463685688533586E-003   5.2099967366394440E-002
   3.2838278644858054E-002  -9.8741602414520180E-003   5.6358902955377738E-002
   3.1767642624867018E-002  -9.4870045369961076E-003   5.5954428872295577E-002
   3.0697006604875982E-002  -9.1016368862751190E-003   5.5718500035690996E-002
   2.9626370584884945E-002  -8.7180572892890350E-003   5.5651116445564190E-002
   2.8555734564893874E-002  -8.3362657460379352E-003   5.5752278101915007E-002
   2.7304539385139423E-002  -8.2082905661794298E-003   6.0600006156346774E-002
   2.6420815266029879E-002  -7.8900281881874451E-003   5.9978899103195572E-002
   2.5537091146920349E-002  -7.5702527883639223E-003   5.9563070605329657E-002
   2.4653367027810805E-002  -7.2489643667090469E-003   5.9352520662749181E-002
   2.3769642908701274E-002  -6.9261629232225258E-003   5.9347249275454081E-002
   2.1535938016899625E-002  -6.5424208909067305E-003   6.4770565493068533E-002
   2.0875859107479272E-002  -6.2930518393788659E-003   6.3936126545414834E-002
   2.0215780198058926E-002  -6.0388686904529199E-003   6.3343699461854031E-002
   1.9555701288638577E-002  -5.7798714441289825E-003   6.2993284242386260E-002
   1.8895622379218227E-002  -5.5160601004071164E-003   6.2884880887011663E-002
   3.7864131257407979E-002  -1.1156471391668810E-002   4.8390317068892685E-002
   3.6107733427455768E-002  -1.0651186340277063E-002   4.8264774540344724E-002
   3.4351335597503599E-002  -1.0126484466794164E-002   4.8305578454038850E-002
   3.2594937767551423E-002  -9.5823657712209194E-003   4.8512728809974939E-002
   3.0838539937599219E-002  -9.0188302535568754E-003   4.8886225608153033E-002
   3.3253897347796130E-002  -9.7463685688533586E-003   5.2099967366394440E-002
   3.1674942695409269E-002  -9.2996334648016155E-003   5.1915799136611679E-002
   3.0095988043022409E-002  -8.8359023093759204E-003   5.1920170819717448E-002
   2.8517033390635570E-002  -8.3551751025764953E-003   5.2113082415712178E-002
   2.6938078738248689E-002  -7.8574518444035624E-003   5.2494533924595133E-002
   2.8555734564893874E-002  -8.3362657460379352E-003   5.5752278101915007E-002
   2.7176416560718987E-002  -7.9480805893260009E-003   5.5507063400180301E-002
   2.5797098556544076E-002  -7.5453201519573923E-003   5.5472582081980852E-002
   2.4417780552369206E-002  -7.1279844339320695E-003   5.5648834147316723E-002
   2.3038462548194277E-002  -6.6960734352501938E-003   5.6035819596187753E-002
   2.3769642908701274E-002  -6.9261629232225258E-003   5.9347249275454081E-002
   2.2612155023384928E-002  -6.5965277138504419E-003   5.9038567331050257E-002
   2.1454667138068605E-002  -6.2547379945390065E-003   5.8962812240828506E-002
   2.0297179252752279E-002  -5.9007937652877556E-003   5.9119984004788580E-002
   1.9139691367435936E-002  -5.5346950260969641E-003   5.9510082622930699E-002
   1.8895622379218227E-002  -5.5160601004071164E-003   6.2884880887011663E-002
   1.7982158083407113E-002  -5.2449748383749384E-003   6.2510310929221824E-002
   1.7068693787595991E-002  -4.9641558371204542E-003   6.2390861296260702E-002
   1.6155229491784859E-002  -4.6736030966432057E-003   6.2526531988128020E-002
   1.5241765195973728E-002  -4.3733166169435678E-003   6.2917323004823722E-002
   3.0838539937599219E-002  -9.0188302535568754E-003   4.8886225608153033E-002
   2.9188371118413992E-002  -8.4438425313442256E-003   4.8603075919134819E-002
   2.7538202299228820E-002  -7.8653672221249415E-003   4.8507291452150159E-002
   2.5888033480043607E-002  -7.2834043258992454E-003   4.8598872207199217E-002
   2.4237864660858394E-002  -6.6979538426671370E-003   4.8877818184281940E-002
   2.6938078738248689E-002  -7.8574518444035624E-003   5.2494533924595133E-002
   2.5477360050367381E-002  -7.3489865940759014E-003   5.2218301914114251E-002
   2.4016641362486060E-002  -6.8360334108128473E-003   5.2133604944207546E-002
   2.2555922674604711E-002  -6.3185922946140671E-003   5.2240443014874932E-002
   2.1095203986723404E-002  -5.7966632454797828E-003   5.2538816126116550E-002
   2.3038462548194277E-002  -6.6960734352501938E-003   5.6035819596187753E-002
   2.1771363810157360E-002  -6.2541306568076882E-003   5.5767505610173296E-002
   2.0504265072120428E-002  -5.8066995995006421E-003   5.5694896483273526E-002
   1.9237166334083483E-002  -5.3537802633287224E-003   5.5817992215488374E-002
   1.7970067596046573E-002  -4.8953726482921511E-003   5.6136792806817964E-002
   1.9139691367435936E-002  -5.5346950260969641E-003   5.9510082622930699E-002
   1.8070382397783930E-002  -5.1592747195395305E-003   5.9250687007311731E-002
   1.7001073428131910E-002  -4.7773657881883813E-003   5.9191166069348100E-002
   1.5931764458479877E-002  -4.3889682320433498E-003   5.9331519809039557E-002
   1.4862455488827855E-002  -3.9940820511047692E-003   5.9671748226386011E-002
   1.5241765195973728E-002  -4.3733166169435678E-003   6.2917323004823722E-002
   1.4374415813247138E-002  -4.0644187822713729E-003   6.2667846105529612E-002
   1.3507066430520520E-002  -3.7480319768763010E-003   6.2622413702431240E-002
   1.2639717047793923E-002  -3.4241562007581612E-003   6.2781025795528286E-002
   1.1772367665067313E-002  -3.0927914539170542E-003   6.3143682384821265E-002
   2.4237864660858394E-002  -6.6979538426671370E-003   4.8877818184281940E-002
   2.2440945712698890E-002  -6.1056460308033245E-003   4.8642704234735157E-002
   2.0644026764539400E-002  -5.5031111486820994E-003   4.8562024389967651E-002
   1.8847107816379889E-002  -4.8903491963036630E-003   4.8635778649979644E-002
   1.7050188868220378E-002  -4.2673601736680222E-003   4.8863967014771470E-002
   2.1095203986723404E-002  -5.7966632454797828E-003   5.2538816126116550E-002
   1.9465700596530952E-002  -5.2708298295459644E-003   5.2340981848675860E-002
   1.7836197206338514E-002  -4.7416756129488868E-003   5.2323544582389914E-002
   1.6206693816146048E-002  -4.2092005956881548E-003   5.2486504327258543E-002
   1.4577190425953623E-002  -3.6734047777636780E-003   5.2829861083281915E-002
   1.7970067596046573E-002  -4.8953726482921511E-003   5.6136792806817964E-002
   1.6533942670196394E-002  -4.4360136282886042E-003   5.5969331931889688E-002
   1.5097817744346282E-002  -3.9802400772152163E-003   5.6008230974491299E-002
   1.3661692818496130E-002  -3.5280519950720880E-003   5.6253489934623042E-002
   1.2225567892645985E-002  -3.0794493818592228E-003   5.6705108812284410E-002
   1.4862455488827855E-002  -3.9940820511047692E-003   5.9671748226386011E-002
   1.3645671933695265E-002  -3.6011974270312441E-003   5.9527754484376492E-002
   1.2428888378562705E-002  -3.2188045414817748E-003   5.9616083566271932E-002
   1.1212104823430118E-002  -2.8469033944561895E-003   5.9936735472072830E-002
   9.9953212682975471E-003  -2.4854939859548231E-003   6.0489710201778679E-002
   1.1772367665067313E-002  -3.0927914539170542E-003   6.3143682384821265E-002
   1.0800888387027544E-002  -2.7663812257738285E-003   6.3016249506136324E-002
   9.8294091089877744E-003  -2.4573690057484998E-003   6.3147102357731910E-002
   8.8579298309480053E-003  -2.1657547938405547E-003   6.3536240939608024E-002
   7.8864505529082363E-003  -1.8915385900504234E-003   6.4183665251764555E-002
   1.7050188868220378E-002  -4.2673601736680222E-003   4.8863967014771470E-002
   1.5110151302985986E-002  -3.6987158728275515E-003   4.8750657442456879E-002
   1.3170113737751579E-002  -3.2489880858344033E-003   4.8892877138959401E-002
   1.1230076172517166E-002  -2.9181768126892438E-003   4.9290626104278812E-002
   9.2900386072827801E-003  -2.7062820533911847E-003   4.9943904338415113E-002
   1.4577190425953623E-002  -3.6734047777636780E-003   5.2829861083281915E-002
   1.2891790346358609E-002  -3.1943028599153989E-003   5.2719223079417621E-002
   1.1206390266763594E-002  -2.8319095428831487E-003   5.2862330778014999E-002
   9.5209901871685862E-003  -2.5862248266670662E-003   5.3259184179074742E-002
   7.8355901075735646E-003  -2.4572487112667352E-003   5.3909783282595991E-002
   1.2225567892645985E-002  -3.0794493818592228E-003   5.6705108812284410E-002
   1.0793021732335421E-002  -2.6898898470037458E-003   5.6599350289901929E-002
   9.3604755720248616E-003  -2.4148309999324491E-003   5.6745553903625845E-002
   7.9279294117143000E-003  -2.2542728406452217E-003   5.7143719653456770E-002
   6.4953832514037385E-003  -2.2082153691423967E-003   5.7793847539395093E-002
   9.9953212682975471E-003  -2.4854939859548231E-003   6.0489710201778679E-002
   8.8138454609164637E-003  -2.1854768340916764E-003   6.0391039073909109E-002
   7.6323696535353673E-003  -1.9977524569813054E-003   6.0542546515791634E-002
   6.4508938461542934E-003  -1.9223208546233772E-003   6.0944232527425937E-002
   5.2694180387732152E-003  -1.9591820270180582E-003   6.1596097108812517E-002
   7.8864505529082363E-003  -1.8915385900504234E-003   6.4183665251764555E-002
   6.9542615321016577E-003  -1.6810638211798290E-003   6.4094289431439799E-002
   6.0220725112951068E-003  -1.5806739140305226E-003   6.4253308614512172E-002
   5.0898834904885351E-003  -1.5903688686012621E-003   6.4660722800981701E-002
   4.1576944696819773E-003  -1.7101486848936087E-003   6.5316531990848525E-002
   9.2900386072827801E-003  -2.7062820533911847E-003   4.9943904338415113E-002
   7.8683997535254346E-003  -2.8568486535774928E-003   5.0352306400656022E-002
   6.4467608997681169E-003  -3.6134214588844360E-003   5.1086799534791116E-002
   5.0251220460107576E-003  -4.9760004693125970E-003   5.2147383740820730E-002
   3.6034831922534538E-003  -6.9445856848615595E-003   5.3534059018744751E-002
   7.8355901075735646E-003  -2.4572487112667352E-003   5.3909783282595991E-002
   6.7142261414931265E-003  -2.6430102208149786E-003   5.3847224377057856E-002
   5.5928621754126606E-003  -3.3415383794445919E-003   5.4059124174979101E-002
   4.4714982093321670E-003  -4.5528331871549296E-003   5.4545482676359586E-002
   3.3501342432517289E-003  -6.2768946439469842E-003   5.5306299881199728E-002
   6.4953832514037385E-003  -2.2082153691423967E-003   5.7793847539395093E-002
   5.6226618045652765E-003  -2.4291717880526309E-003   5.7353567222117569E-002
   4.7499403577268284E-003  -3.0696553000043036E-003   5.7136113239864256E-002
   3.8772189108883838E-003  -4.1296659049975953E-003   5.7141485592635696E-002
   3.0044974640499461E-003  -5.6092036030325199E-003   5.7369684280431765E-002
   5.2694180387732152E-003  -1.9591820270180582E-003   6.1596097108812517E-002
   4.5937067427419334E-003  -2.2153333552900889E-003   6.0871334935834749E-002
   3.9179954467106343E-003  -2.7977722205640154E-003   6.0317766729447081E-002
   3.2422841506793429E-003  -3.7064986228399835E-003   5.9935392489648846E-002
   2.5665728546480533E-003  -4.9415125621180001E-003   5.9724212216440517E-002
   4.1576944696819773E-003  -1.7101486848936087E-003   6.5316531990848525E-002
   3.6273609560230208E-003  -2.0014949225277689E-003   6.4400527518210349E-002
   3.0970274423640504E-003  -2.5258891411238660E-003   6.3604084643727465E-002
   2.5666939287050938E-003  -3.2833313406825174E-003   6.2927203367399126E-002
   2.0363604150461234E-003  -4.2738215212035913E-003   6.2369883689226024E-002
   3.6034831922534538E-003  -6.9445856848615595E-003   5.3534059018744751E-002
   4.1548365280140442E-003  -9.5344329833357833E-003   5.1860788478656161E-002
   4.7061898637745514E-003  -1.2760798242539451E-002   5.0042312539455125E-002
   5.2575431995351696E-003  -1.6623681462474213E-002   4.8078631201141586E-002
   5.8088965352957045E-003  -2.1123082643138780E-002   4.5969744463715045E-002
   3.3501342432517289E-003  -6.2768946439469842E-003   5.5306299881199728E-002
   3.7737447951278480E-003  -8.5450849358602587E-003   5.2952199635194264E-002
   4.1973553470040087E-003  -1.1388766248933591E-002   5.0487819220532582E-002
   4.6209658988801069E-003  -1.4807938583168812E-002   4.7913158637214404E-002
   5.0445764507562885E-003  -1.8802601938564978E-002   4.5228217885240563E-002
   3.0044974640499461E-003  -5.6092036030325199E-003   5.7369684280431765E-002
   3.3352904624982457E-003  -7.5557368883845122E-003   5.4395781268078036E-002
   3.6660834609465384E-003  -1.0016734255327758E-002   5.1346523317524678E-002
   3.9968764593948589E-003  -1.2992195703863528E-002   4.8221910428771358E-002
   4.3276694578431030E-003  -1.6482121233991176E-002   4.5021942601819132E-002
   2.5665728546480533E-003  -4.9415125621180001E-003   5.9724212216440517E-002
   2.8394735301250900E-003  -6.5663888409084326E-003   5.6191533377307645E-002
   3.1123742056021250E-003  -8.6447022617216901E-003   5.2618424830431422E-002
   3.3852748810791599E-003  -1.1176452824558408E-002   4.9004886575812631E-002
   3.6581755565561966E-003  -1.4161640529417374E-002   4.5350918613450530E-002
   2.0363604150461234E-003  -4.2738215212035913E-003   6.2369883689226024E-002
   2.2862939980084762E-003  -5.5770407934330191E-003   5.8339455962882591E-002
   2.5362275809708013E-003  -7.2726702681157607E-003   5.4303523759253014E-002
   2.7861611639331610E-003  -9.3607099452527112E-003   5.0262087078336820E-002
   3.0360947468954791E-003  -1.1841159824843572E-002   4.6215145920134315E-002
   2.5804110043365330E-002  -7.3462730783875885E-003   6.6860610328990266E-002
   2.4737067036748911E-002  -7.1798092484864906E-003   6.5730275784008918E-002
   2.3670024030132478E-002  -6.9903459406059076E-003   6.5005156796361485E-002
   2.2602981023516051E-002  -6.7778831547461657E-003   6.4685253366048107E-002
   2.1535938016899625E-002  -6.5424208909067305E-003   6.4770565493068533E-002
   1.8561182177142088E-002  -5.5097048078085464E-003   6.5191599172611969E-002
   1.7864741026406603E-002  -5.3848569348911579E-003   6.4574709040508965E-002
   1.7168299875671096E-002  -5.2427594537419742E-003   6.4293807062833802E-002
   1.6471858724935600E-002  -5.0834123643614393E-003   6.4348893239586563E-002
   1.5775417574200097E-002  -4.9068156667491369E-003   6.4739967570767387E-002
   1.1846187882144601E-002  -3.6731365372296154E-003   6.3483846994123988E-002
   1.1451121184384024E-002  -3.5899046212957142E-003   6.3374651405151416E-002
   1.1056054486623463E-002  -3.4951729668780823E-003   6.3532216567700708E-002
   1.0660987788862890E-002  -3.3889415739766886E-003   6.3956542481771905E-002
   1.0265921091102321E-002  -3.2712104425915434E-003   6.4647629147365077E-002
   5.6591271583728790E-003  -1.8365682666506289E-003   6.1737353793526496E-002
   5.4962075106812173E-003  -1.7949523077003815E-003   6.2130102877936466E-002
   5.3332878629895651E-003  -1.7475864800141419E-003   6.2720385310962343E-002
   5.1703682152979148E-003  -1.6944707835920333E-003   6.3508201092604077E-002
   5.0074485676062592E-003  -1.6356052184339220E-003   6.4493550222861767E-002
   5.8269153391243833E-012   3.9283576391824226E-012   5.9952119570819085E-002
   5.2981646847527486E-012   5.8950344605790406E-012   6.0841063458863864E-002
   4.7694244387219698E-012   6.8497846283932518E-012   6.1858313292618566E-002
   4.2406807232442389E-012   6.7927156954805668E-012   6.3003869072083121E-002
   3.7119335383195562E-012   5.7236992923037633E-012   6.4277730797257571E-002
   2.1535938016899625E-002  -6.5424208909067305E-003   6.4770565493068533E-002
   2.0875859107479272E-002  -6.2930518393788659E-003   6.3936126545414834E-002
   2.0215780198058926E-002  -6.0388686904529199E-003   6.3343699461854031E-002
   1.9555701288638577E-002  -5.7798714441289825E-003   6.2993284242386260E-002
   1.8895622379218227E-002  -5.5160601004071164E-003   6.2884880887011663E-002
   1.5775417574200097E-002  -4.9068156667491369E-003   6.4739967570767387E-002
   1.5338102494791832E-002  -4.7197888785815295E-003   6.4141516883772828E-002
   1.4900787415383577E-002  -4.5291515175346284E-003   6.3746581992709647E-002
   1.4463472335975313E-002  -4.3349035836084942E-003   6.3555162897577400E-002
   1.4026157256567050E-002  -4.1370450768029587E-003   6.3567259598376391E-002
   1.0265921091102321E-002  -3.2712104425915434E-003   6.4647629147365077E-002
   1.0012873773544217E-002  -3.1465259177842902E-003   6.4283963196511307E-002
   9.7598264559861040E-003  -3.0194343446163369E-003   6.4085316973426829E-002
   9.5067791384279947E-003  -2.8899357230878393E-003   6.4051690478111434E-002
   9.2537318208698906E-003  -2.7580300531987179E-003   6.4183083710565303E-002
   5.0074485676062592E-003  -1.6356052184339220E-003   6.4493550222861767E-002
   4.9001729437363906E-003  -1.5732629569869469E-003   6.4363465483630089E-002
   4.7928973198665212E-003  -1.5097171716980176E-003   6.4359904404005644E-002
   4.6856216959966510E-003  -1.4449678625671290E-003   6.4482866983988488E-002
   4.5783460721267764E-003  -1.3790150295945464E-003   6.4732353223578606E-002
   3.7119335383195562E-012   5.7236992923037633E-012   6.4277730797257571E-002
   5.3683793521663858E-012   3.8102576649379216E-012   6.4380023745129134E-002
   7.0248216965662635E-012   1.2202044930020861E-012   6.4570344284446191E-002
   8.6812640409661412E-012  -2.0466510430861007E-012   6.4848692415208450E-002
   1.0337709854812971E-011  -5.9903193516674946E-012   6.5215068137416288E-002
   1.8895622379218227E-002  -5.5160601004071164E-003   6.2884880887011663E-002
   1.7982158083407113E-002  -5.2449748383749384E-003   6.2510310929221824E-002
   1.7068693787595991E-002  -4.9641558371204542E-003   6.2390861296260702E-002
   1.6155229491784859E-002  -4.6736030966432057E-003   6.2526531988128020E-002
   1.5241765195973728E-002  -4.3733166169435678E-003   6.2917323004823722E-002
   1.4026157256567050E-002  -4.1370450768029587E-003   6.3567259598376391E-002
   1.3361124722819515E-002  -3.9337311310441991E-003   6.3291557786900626E-002
   1.2696092189071997E-002  -3.7231168802581288E-003   6.3257599174723705E-002
   1.2031059655324477E-002  -3.5052023244447790E-003   6.3465383761845406E-002
   1.1366027121576958E-002  -3.2799874636040838E-003   6.3914911548265840E-002
   9.2537318208698906E-003  -2.7580300531987179E-003   6.4183083710565303E-002
   8.8237539236561552E-003  -2.6224874237132934E-003   6.4003816611208422E-002
   8.3937760264424250E-003  -2.4820779233958035E-003   6.4052915585620568E-002
   7.9637981292286809E-003  -2.3368015522461302E-003   6.4330380633801643E-002
   7.5338202320149594E-003  -2.1866583102643500E-003   6.4836211755751369E-002
   4.5783460721267764E-003  -1.3790150295945464E-003   6.4732353223578606E-002
   4.3700456859170171E-003  -1.3112437163824431E-003   6.4647087402145420E-002
   4.1617452997072570E-003  -1.2410389665334226E-003   6.4776810528951290E-002
   3.9534449134974968E-003  -1.1684007800476480E-003   6.5121522603996257E-002
   3.7451445272877384E-003  -1.0933291569247966E-003   6.5681223627280086E-002
   1.0337709854812971E-011  -5.9903193516674946E-012   6.5215068137416288E-002
   9.6021073037189097E-012  -9.0516483197689013E-012   6.5221370159711523E-002
   8.8665082220718006E-012  -9.6710417452072761E-012   6.5429284004715926E-002
   8.1309126098716433E-012  -7.8489437171924692E-012   6.5838809672429638E-002
   7.3953065893306302E-012  -3.5850211688170930E-012   6.6449947162852574E-002
   1.5241765195973728E-002  -4.3733166169435678E-003   6.2917323004823722E-002
   1.4374415813247138E-002  -4.0644187822713729E-003   6.2667846105529612E-002
   1.3507066430520520E-002  -3.7480319768763010E-003   6.2622413702431240E-002
   1.2639717047793923E-002  -3.4241562007581612E-003   6.2781025795528286E-002
   1.1772367665067313E-002  -3.0927914539170542E-003   6.3143682384821265E-002
   1.1366027121576958E-002  -3.2799874636040838E-003   6.3914911548265840E-002
   1.0705920447285820E-002  -3.0483140864096536E-003   6.3718716895247662E-002
   1.0045813772994676E-002  -2.8110239815354321E-003   6.3732963162904832E-002
   9.3857070987035281E-003  -2.5681171489809196E-003   6.3957650351237100E-002
   8.7256004244123941E-003  -2.3195935887465047E-003   6.4392778460244826E-002
   7.5338202320149594E-003  -2.1866583102643500E-003   6.4836211755751369E-002
   7.0873526906388568E-003  -2.0322093905479344E-003   6.4691427105966287E-002
   6.6408851492627576E-003  -1.8740159861943897E-003   6.4763479801336232E-002
   6.1944176078866601E-003  -1.7120780972036207E-003   6.5052369841860871E-002
   5.7479500665105557E-003  -1.5463957235756776E-003   6.5558097227540274E-002
   3.7451445272877384E-003  -1.0933291569247966E-003   6.5681223627280086E-002
   3.5187125433062648E-003  -1.0161046946862706E-003   6.5585976737685667E-002
   3.2922805593247843E-003  -9.3700799085360068E-004   6.5713963617725427E-002
   3.0658485753432990E-003  -8.5603904542646148E-004   6.6065184267399699E-002
   2.8394165913618232E-003  -7.7319785840487820E-004   6.6639638686708191E-002
   7.3953065893306302E-012  -3.5850211688170930E-012   6.6449947162852574E-002
   5.2880234913121882E-012   1.1754486273218845E-012   6.6402365790405538E-002
   3.1807369238467942E-012   4.4874381988080358E-012   6.6584414612072373E-002
   1.0734503563814002E-012   6.3508989733840338E-012   6.6996093627853165E-002
  -1.0338327416370419E-012   6.7658101343681665E-012   6.7637402837747995E-002
   1.1772367665067313E-002  -3.0927914539170542E-003   6.3143682384821265E-002
   1.0800888387027544E-002  -2.7663812257738285E-003   6.3016249506136324E-002
   9.8294091089877744E-003  -2.4573690057484998E-003   6.3147102357731910E-002
   8.8579298309480053E-003  -2.1657547938405547E-003   6.3536240939608024E-002
   7.8864505529082363E-003  -1.8915385900504234E-003   6.4183665251764555E-002
   8.7256004244123941E-003  -2.3195935887465047E-003   6.4392778460244826E-002
   8.0085528990026036E-003  -2.0747859177707162E-003   6.4315385229504862E-002
   7.2915053735927993E-003  -1.8430267529926520E-003   6.4488569773744370E-002
   6.5744578481829949E-003  -1.6243160944124126E-003   6.4912332092963418E-002
   5.8574103227731766E-003  -1.4186539420296684E-003   6.5586672187162076E-002
   5.7479500665105557E-003  -1.5463957235756776E-003   6.5558097227540274E-002
   5.2776263384297917E-003  -1.3831906097678537E-003   6.5535093146665432E-002
   4.8073026103490138E-003  -1.2286845002374702E-003   6.5754958885469200E-002
   4.3369788822682429E-003  -1.0828773949844925E-003   6.6217694443951453E-002
   3.8666551541874719E-003  -9.4576929400902454E-004   6.6923299822112231E-002
   2.8394165913618232E-003  -7.7319785840487820E-004   6.6639638686708191E-002
   2.6081087053091518E-003  -6.9159530176503281E-004   6.6675373257618548E-002
   2.3768008192564648E-003  -6.1434224748223298E-004   6.6946269692906651E-002
   2.1454929332037787E-003  -5.4143869555684995E-004   6.7452327992572086E-002
   1.9141850471510926E-003  -4.7288464598860269E-004   6.8193548156615713E-002
  -1.0338327416370419E-012   6.7658101343681665E-012   6.7637402837747995E-002
  -3.5936531528335536E-013   6.2381211307638296E-012   6.7736225562363805E-002
   3.1511598885813896E-013   5.2734483446670311E-012   6.8062502196056363E-002
   9.8959035410572938E-013   3.8713754424435365E-012   6.8616232738825611E-002
   1.6640647193533198E-012   2.0323742688788116E-012   6.9397417190671384E-002
   7.8864505529082363E-003  -1.8915385900504234E-003   6.4183665251764555E-002
   6.9542615321016577E-003  -1.6810638211798290E-003   6.4094289431439799E-002
   6.0220725112951068E-003  -1.5806739140305226E-003   6.4253308614512172E-002
   5.0898834904885351E-003  -1.5903688686012621E-003   6.4660722800981701E-002
   4.1576944696819773E-003  -1.7101486848936087E-003   6.5316531990848525E-002
   5.8574103227731766E-003  -1.4186539420296684E-003   6.5586672187162076E-002
   5.1697793683203874E-003  -1.2607978658208396E-003   6.5435420237407893E-002
   4.4821484138675843E-003  -1.1855054357620964E-003   6.5524889416964605E-002
   3.7945174594147951E-003  -1.1927766518527935E-003   6.5855079725831517E-002
   3.1068865049619920E-003  -1.2826115140938121E-003   6.6425991164008824E-002
   3.8666551541874719E-003  -9.4576929400902454E-004   6.6923299822112231E-002
   3.4159083920018915E-003  -8.4053191046179476E-004   6.6737692958499878E-002
   2.9651616298163180E-003  -7.9033695749365640E-004   6.6785133350111561E-002
   2.5144148676307290E-003  -7.9518443510409945E-004   6.7065620996947156E-002
   2.0636681054451642E-003  -8.5507434329368248E-004   6.7579155899006732E-002
   1.9141850471510926E-003  -4.7288464598860269E-004   6.8193548156615713E-002
   1.6926486031461924E-003  -4.2026595510283316E-004   6.8001107594715726E-002
   1.4711121591412784E-003  -3.9516847922516779E-004   6.8034040413953431E-002
   1.2495757151363674E-003  -3.9759221835535159E-004   6.8292346614328425E-002
   1.0280392711314642E-003  -4.2753717249377488E-004   6.8776026195840750E-002
   1.6640647193533198E-012   2.0323742688788116E-012   6.9397417190671384E-002
   1.7532780782758550E-012   2.5612845178102361E-013   6.9225664146055355E-002
   1.8424914371983903E-012  -9.5687346934880679E-013   6.9271610608490020E-002
   1.9317030613974495E-012  -1.6069021113729320E-012   6.9535256577975685E-002
   2.0209181550434607E-012  -1.6936452240656763E-012   7.0016602054511989E-002
   4.1576944696819773E-003  -1.7101486848936087E-003   6.5316531990848525E-002
   3.6273609560230208E-003  -2.0014949225277689E-003   6.4400527518210349E-002
   3.0970274423640504E-003  -2.5258891411238660E-003   6.3604084643727465E-002
   2.5666939287050938E-003  -3.2833313406825174E-003   6.2927203367399126E-002
   2.0363604150461234E-003  -4.2738215212035913E-003   6.2369883689226024E-002
   3.1068865049619920E-003  -1.2826115140938121E-003   6.6425991164008824E-002
   2.6993700345040034E-003  -1.5011211922874579E-003   6.5316914718261287E-002
   2.2918535640460286E-003  -1.8944168562369246E-003   6.4333910760760504E-002
   1.8843370935880434E-003  -2.4624985059419902E-003   6.3476979291506863E-002
   1.4768206231300651E-003  -3.2053661414032097E-003   6.2746120310500419E-002
   2.0636681054451642E-003  -8.5507434329368248E-004   6.7579155899006732E-002
   1.7854795682803251E-003  -1.0007474620473689E-003   6.6335269475355729E-002
   1.5072910311154895E-003  -1.2629445713499693E-003   6.5223966430043870E-002
   1.2291024939506574E-003  -1.6416656712016815E-003   6.4245246763071362E-002
   9.5091395678581492E-004  -2.1369107616025507E-003   6.3399110474438219E-002
   1.0280392711314642E-003  -4.2753717249377488E-004   6.8776026195840750E-002
   8.8568955735194958E-004  -5.0037373180722433E-004   6.7455591789493424E-002
   7.4333984357243411E-004  -6.3147228646302095E-004   6.6274251651577409E-002
   6.0099012979291603E-004  -8.2083283646115258E-004   6.5232005782092733E-002
   4.5864041601340402E-004  -1.0684553818019193E-003   6.4328854181039508E-002
   2.0209181550434607E-012  -1.6936452240656763E-012   7.0016602054511989E-002
   1.7188958589819947E-012  -1.5671908215608710E-012   6.8677881660674789E-002
   1.4168666240266248E-012  -1.5761558724847191E-012   6.7484766425360998E-002
   1.1148391237947308E-012  -1.7206999713970106E-012   6.6437256348570978E-002
   8.1281509300978882E-013  -2.0015100687942322E-012   6.5535351430304090E-002
   2.0363604150461234E-003  -4.2738215212035913E-003   6.2369883689226024E-002
   2.2862939980084762E-003  -5.5770407934330191E-003   5.8339455962882591E-002
   2.5362275809708013E-003  -7.2726702681157607E-003   5.4303523759253014E-002
   2.7861611639331610E-003  -9.3607099452527112E-003   5.0262087078336820E-002
   3.0360947468954791E-003  -1.1841159824843572E-002   4.6215145920134315E-002
   1.4768206231300651E-003  -3.2053661414032097E-003   6.2746120310500419E-002
   1.7070049991973757E-003  -4.1827805956703989E-003   5.8391722052964667E-002
   1.9371893752647140E-003  -5.4545027017950942E-003   5.4003329858925697E-002
   2.1673737513320419E-003  -7.0205324597767266E-003   4.9580943728382731E-002
   2.3975581273993629E-003  -8.8808698696154487E-003   4.5124563661336214E-002
   9.5091395678581492E-004  -2.1369107616025507E-003   6.3399110474438219E-002
   1.1328596667408777E-003  -2.7885203979080009E-003   5.8818844236307011E-002
   1.3148053766959267E-003  -3.6363351354740808E-003   5.4176094602455080E-002
   1.4967510866509635E-003  -4.6803549743003499E-003   4.9470861572881601E-002
   1.6786967966060384E-003  -5.9205799143873250E-003   4.4703145147588219E-002
   4.5864041601340402E-004  -1.0684553818019193E-003   6.4328854181039508E-002
   5.6385800063893377E-004  -1.3942602001457138E-003   5.9620822512909441E-002
   6.6907558526446177E-004  -1.8181675691532409E-003   5.4821817989841287E-002
   7.7429316988999195E-004  -2.3401774888240582E-003   4.9931840611834831E-002
   8.7951075451550564E-004  -2.9602899591592013E-003   4.4950890378890496E-002
   8.1281509300978882E-013  -2.0015100687942322E-012   6.5535351430304090E-002
   8.9157153881913587E-013  -2.3834267892652861E-012   6.0797656882772055E-002
   9.7032451518153096E-013  -2.8321789358187743E-012   5.5940500021084527E-002
   1.0490844304378300E-012  -3.3478775307571595E-012   5.0963880845241505E-002
   1.1278339373532731E-012  -3.9310776855927543E-012   4.5867799355243211E-002
   5.8269153391243833E-012   3.9283576391824226E-012   5.9952119570819085E-002
   5.2981646847527486E-012   5.8950344605790406E-012   6.0841063458863864E-002
   4.7694244387219698E-012   6.8497846283932518E-012   6.1858313292618566E-002
   4.2406807232442389E-012   6.7927156954805668E-012   6.3003869072083121E-002
   3.7119335383195562E-012   5.7236992923037633E-012   6.4277730797257571E-002
  -5.6591271461103321E-003   1.8365682440055209E-003   6.1737353820378982E-002
  -5.4962074997773891E-003   1.7949523007633472E-003   6.2130102902151069E-002
  -5.3332878534444635E-003   1.7475864837004917E-003   6.2720385331936385E-002
  -5.1703682071115309E-003   1.6944707928169683E-003   6.3508201109735249E-002
  -5.0074485607785948E-003   1.6356052281127909E-003   6.4493550235547537E-002
  -1.1846187868055889E-002   3.6731364840827119E-003   6.3483847061134732E-002
  -1.1451121172557727E-002   3.5899045956316600E-003   6.3374651463824982E-002
  -1.1056054477059584E-002   3.4951729605512058E-003   6.3532216616832310E-002
  -1.0660987781561423E-002   3.3889415788412505E-003   6.3956542520156617E-002
  -1.0265921086063272E-002   3.2712104505018547E-003   6.4647629173797808E-002
  -1.8561182160009751E-002   5.5097047241598890E-003   6.5191599293085711E-002
  -1.7864741013042838E-002   5.3848568904999866E-003   6.4574709143885661E-002
  -1.7168299866075924E-002   5.2427594374019719E-003   6.4293807147306051E-002
  -1.6471858719109011E-002   5.0834123648655456E-003   6.4348893303347074E-002
  -1.5775417572142094E-002   4.9068156728909046E-003   6.4739967612008578E-002
  -2.5804110021971936E-002   7.3462729642370661E-003   6.6860610516232488E-002
  -2.4737067021232718E-002   7.1798091853683688E-003   6.5730275942333050E-002
  -2.3670024020493497E-002   6.9903459142526270E-003   6.5005156923357954E-002
  -2.2602981019754276E-002   6.7778831508898268E-003   6.4685253459306813E-002
  -2.1535938019015058E-002   6.5424208952800100E-003   6.4770565550179737E-002
   3.7119335383195562E-012   5.7236992923037633E-012   6.4277730797257571E-002
   5.3683793521663858E-012   3.8102576649379216E-012   6.4380023745129134E-002
   7.0248216965662635E-012   1.2202044930020861E-012   6.4570344284446191E-002
   8.6812640409661412E-012  -2.0466510430861007E-012   6.4848692415208450E-002
   1.0337709854812971E-011  -5.9903193516674946E-012   6.5215068137416288E-002
  -5.0074485607785948E-003   1.6356052281127909E-003   6.4493550235547537E-002
  -4.9001729337599109E-003   1.5732629640434759E-003   6.4363465493748828E-002
  -4.7928973067412131E-003   1.5097171750651783E-003   6.4359904411229421E-002
  -4.6856216797225240E-003   1.4449678611773778E-003   6.4482866987988940E-002
  -4.5783460527038314E-003   1.3790150223804698E-003   6.4732353224027706E-002
  -1.0265921086063272E-002   3.2712104505018547E-003   6.4647629173797808E-002
  -1.0012873765848545E-002   3.1465259242767635E-003   6.4283963218096471E-002
  -9.7598264456338155E-003   3.0194343489100342E-003   6.4085316989508007E-002
  -9.5067791254190882E-003   2.8899357244014049E-003   6.4051690488032442E-002
  -9.2537318052043523E-003   2.7580300507512034E-003   6.4183083713669820E-002
  -1.5775417572142094E-002   4.9068156728909046E-003   6.4739967612008578E-002
  -1.5338102490897537E-002   4.7197888845100996E-003   6.4141516918171965E-002
  -1.4900787409652977E-002   4.5291515227549213E-003   6.3746582019282044E-002
  -1.4463472328408432E-002   4.3349035876255439E-003   6.3555162915338859E-002
  -1.4026157247163861E-002   4.1370450791219926E-003   6.3567259606342297E-002
  -2.1535938019015058E-002   6.5424208952800100E-003   6.4770565550179737E-002
  -2.0875859108906880E-002   6.2930518447432138E-003   6.3936126593975351E-002
  -2.0215780198798713E-002   6.0388686965998500E-003   6.3343699500551492E-002
  -1.9555701288690532E-002   5.7798714508495407E-003   6.2993284269908148E-002
  -1.8895622378582368E-002   5.5160601074927262E-003   6.2884880902045304E-002
   1.0337709854812971E-011  -5.9903193516674946E-012   6.5215068137416288E-002
   9.6021073037189097E-012  -9.0516483197689013E-012   6.5221370159711523E-002
   8.8665082220718006E-012  -9.6710417452072761E-012   6.5429284004715926E-002
   8.1309126098716433E-012  -7.8489437171924692E-012   6.5838809672429638E-002
   7.3953065893306302E-012  -3.5850211688170930E-012   6.6449947162852574E-002
  -4.5783460527038314E-003   1.3790150223804698E-003   6.4732353224027706E-002
  -4.3700456678189489E-003   1.3112437045841863E-003   6.4647087404451520E-002
  -4.1617452829340700E-003   1.2410389536985367E-003   6.4776810533406809E-002
  -3.9534448980491944E-003   1.1684007697235210E-003   6.5121522610893948E-002
  -3.7451445131643155E-003   1.0933291526591393E-003   6.5681223636912756E-002
  -9.2537318052043523E-003   2.7580300507512034E-003   6.4183083713669820E-002
  -8.8237539088765402E-003   2.6224874182198543E-003   6.4003816616690828E-002
  -8.3937760125487263E-003   2.4820779170680596E-003   6.4052915594066021E-002
  -7.9637981162209125E-003   2.3368015472959303E-003   6.4330380645795326E-002
  -7.5338202198930865E-003   2.1866583089032443E-003   6.4836211771878899E-002
  -1.4026157247163861E-002   4.1370450791219926E-003   6.3567259606342297E-002
  -1.3361124713570644E-002   3.9337311318554391E-003   6.3291557796429657E-002
  -1.2696092179977449E-002   3.7231168804376658E-003   6.3257599186693769E-002
  -1.2031059646384245E-002   3.5052023248683117E-003   6.3465383777134246E-002
  -1.1366027112791034E-002   3.2799874651474881E-003   6.3914911567751503E-002
  -1.8895622378582368E-002   5.5160601074927262E-003   6.2884880902045304E-002
  -1.7982158081901296E-002   5.2449748454913292E-003   6.2510310943667879E-002
  -1.7068693785220242E-002   4.9641558438071748E-003   6.2390861311289542E-002
  -1.6155229488539181E-002   4.6736031024408632E-003   6.2526532004910304E-002
  -1.5241765191858117E-002   4.3733166213915653E-003   6.2917323024530181E-002
   7.3953065893306302E-012  -3.5850211688170930E-012   6.6449947162852574E-002
   5.2880234913121882E-012   1.1754486273218845E-012   6.6402365790405538E-002
   3.1807369238467942E-012   4.4874381988080358E-012   6.6584414612072373E-002
   1.0734503563814002E-012   6.3508989733840338E-012   6.6996093627853165E-002
  -1.0338327416370419E-012   6.7658101343681665E-012   6.7637402837747995E-002
  -3.7451445131643155E-003   1.0933291526591393E-003   6.5681223636912756E-002
  -3.5187125330959756E-003   1.0161046972013699E-003   6.5585976743785079E-002
  -3.2922805530276357E-003   9.3700799804613544E-004   6.5713963620894711E-002
  -3.0658485729592976E-003   8.5603905519361645E-004   6.6065184268241636E-002
  -2.8394165928909698E-003   7.7319786864360474E-004   6.6639638685825675E-002
  -7.5338202198930865E-003   2.1866583089032443E-003   6.4836211771878899E-002
  -7.0873526815258435E-003   2.0322093932273189E-003   6.4691427115821931E-002
  -6.6408851431586013E-003   1.8740159916050408E-003   6.4763479806125429E-002
  -6.1944176047913488E-003   1.7120781040363860E-003   6.5052369842789559E-002
  -5.7479500664241161E-003   1.5463957305213438E-003   6.5558097225814183E-002
  -1.1366027112791034E-002   3.2799874651474881E-003   6.3914911567751503E-002
  -1.0705920440001590E-002   3.0483140892532540E-003   6.3718716906516065E-002
  -1.0045813767212161E-002   2.8110239851638422E-003   6.3732963167764514E-002
  -9.3857070944227267E-003   2.5681171528791295E-003   6.3957650351496684E-002
  -8.7256004216332873E-003   2.3195935923989996E-003   6.4392778457712907E-002
  -1.5241765191858117E-002   4.3733166213915653E-003   6.2917323024530181E-002
  -1.4374415808523222E-002   4.0644187852791891E-003   6.2667846115867565E-002
  -1.3507066425188306E-002   3.7480319787226574E-003   6.2622413705812036E-002
  -1.2639717041853397E-002   3.4241562017218209E-003   6.2781025794363579E-002
  -1.1772367658518496E-002   3.0927914542768775E-003   6.3143682381522348E-002
  -1.0338327416370419E-012   6.7658101343681665E-012   6.7637402837747995E-002
  -3.5936531528335536E-013   6.2381211307638296E-012   6.7736225562363805E-002
   3.1511598885813896E-013   5.2734483446670311E-012   6.8062502196056363E-002
   9.8959035410572938E-013   3.8713754424435365E-012   6.8616232738825611E-002
   1.6640647193533198E-012   2.0323742688788116E-012   6.9397417190671384E-002
  -2.8394165928909698E-003   7.7319786864360474E-004   6.6639638685825675E-002
  -2.6081087056144328E-003   6.9159531110235539E-004   6.6675373256930071E-002
  -2.3768008183379097E-003   6.1434225527665087E-004   6.6946269692161720E-002
  -2.1454929310613744E-003   5.4143870116595688E-004   6.7452327991520789E-002
  -1.9141850437848634E-003   4.7288464877093261E-004   6.8193548155007444E-002
  -5.7479500664241161E-003   1.5463957305213438E-003   6.5558097225814183E-002
  -5.2776263374948000E-003   1.3831906159669227E-003   6.5535093145559192E-002
  -4.8073026085654951E-003   1.2286845052801865E-003   6.5754958884482378E-002
  -4.3369788796361886E-003   1.0828773984609269E-003   6.6217694442583727E-002
  -3.8666551507068742E-003   9.4576929550926891E-004   6.6923299819863169E-002
  -8.7256004216332873E-003   2.3195935923989996E-003   6.4392778457712907E-002
  -8.0085528960004738E-003   2.0747859208314900E-003   6.4315385228251004E-002
  -7.2915053703676586E-003   1.8430267552835000E-003   6.4488569773018103E-002
  -6.5744578447348477E-003   1.6243160957555916E-003   6.4912332092013941E-002
  -5.8574103191020299E-003   1.4186539422476607E-003   6.5586672185238920E-002
  -1.1772367658518496E-002   3.0927914542768775E-003   6.3143682381522348E-002
  -1.0800888381131440E-002   2.7663812256958353E-003   6.3016249505005950E-002
  -9.8294091037443854E-003   2.4573690052870356E-003   6.3147102357769158E-002
  -8.8579298263573233E-003   2.1657547930505616E-003   6.3536240939811889E-002
  -7.8864505489702683E-003   1.8915385889862746E-003   6.4183665251134281E-002
   1.6640647193533198E-012   2.0323742688788116E-012   6.9397417190671384E-002
   1.7532780782758550E-012   2.5612845178102361E-013   6.9225664146055355E-002
   1.8424914371983903E-012  -9.5687346934880679E-013   6.9271610608490020E-002
   1.9317030613974495E-012  -1.6069021113729320E-012   6.9535256577975685E-002
   2.0209181550434607E-012  -1.6936452240656763E-012   7.0016602054511989E-002
  -1.9141850437848634E-003   4.7288464877093261E-004   6.8193548155007444E-002
  -1.6926485996331848E-003   4.2026595515687326E-004   6.8001107594134802E-002
  -1.4711121554815063E-003   3.9516847738962912E-004   6.8034040414336361E-002
  -1.2495757113298294E-003   3.9759221546989409E-004   6.8292346615611732E-002
  -1.0280392671781630E-003   4.2753716939691877E-004   6.8776026197961415E-002
  -3.8666551507068742E-003   9.4576929550926891E-004   6.6923299819863169E-002
  -3.4159083884695322E-003   8.4053191005700745E-004   6.6737692958018263E-002
  -2.9651616262321703E-003   7.9033695573611784E-004   6.6785133351270579E-002
  -2.5144148639948114E-003   7.9518443254624274E-004   6.7065620999620351E-002
  -2.0636681017574526E-003   8.5507434048764930E-004   6.7579155903067262E-002
  -5.8574103191020299E-003   1.4186539422476607E-003   6.5586672185238920E-002
  -5.1697793647557605E-003   1.2607978649573359E-003   6.5435420237705655E-002
  -4.4821484104094981E-003   1.1855054340825025E-003   6.5524889419292937E-002
  -3.7945174560632283E-003   1.1927766496227041E-003   6.5855079730000793E-002
  -3.1068865017169658E-003   1.2826115115784631E-003   6.6425991169828974E-002
  -7.8864505489702683E-003   1.8915385889862746E-003   6.4183665251134281E-002
  -6.9542615284918854E-003   1.6810638198578864E-003   6.4094289433197060E-002
  -6.0220725080134783E-003   1.5806739124288871E-003   6.4253308618403393E-002
  -5.0898834875350817E-003   1.5903688666991656E-003   6.4660722806753612E-002
  -4.1576944670566884E-003   1.7101486826690548E-003   6.5316531998247385E-002
   2.0209181550434607E-012  -1.6936452240656763E-012   7.0016602054511989E-002
   1.7188958589819947E-012  -1.5671908215608710E-012   6.8677881660674789E-002
   1.4168666240266248E-012  -1.5761558724847191E-012   6.7484766425360998E-002
   1.1148391237947308E-012  -1.7206999713970106E-012   6.6437256348570978E-002
   8.1281509300978882E-013  -2.0015100687942322E-012   6.5535351430304090E-002
  -1.0280392671781630E-003   4.2753716939691877E-004   6.8776026197961415E-002
  -8.8568955398072788E-004   5.0037372881506226E-004   6.7455591791219183E-002
  -7.4333984078327718E-004   6.3147228336735139E-004   6.6274251652952310E-002
  -6.0099012758583863E-004   8.2083283305445232E-004   6.5232005783160962E-002
  -4.5864041438840528E-004   1.0684553778761430E-003   6.4328854181844752E-002
  -2.0636681017574526E-003   8.5507434048764930E-004   6.7579155903067262E-002
  -1.7854795651087666E-003   1.0007474591970933E-003   6.6335269478690478E-002
  -1.5072910284600824E-003   1.2629445683111779E-003   6.5223966432740574E-002
  -1.2291024918113908E-003   1.6416656678302673E-003   6.4245246765218256E-002
  -9.5091395516271222E-004   2.1369107577537960E-003   6.3399110476122511E-002
  -3.1068865017169658E-003   1.2826115115784631E-003   6.6425991169828974E-002
  -2.6993700316652433E-003   1.5011211895792353E-003   6.5316914723087940E-002
  -2.2918535616135143E-003   1.8944168532549002E-003   6.4333910764725555E-002
  -1.8843370915617923E-003   2.4624985026055288E-003   6.3476979294741970E-002
  -1.4768206215100628E-003   3.2053661376314491E-003   6.2746120313137671E-002
  -4.1576944670566884E-003   1.7101486826690548E-003   6.5316531998247385E-002
  -3.6273609536501550E-003   2.0014949199611554E-003   6.4400527524411944E-002
  -3.0970274402436077E-003   2.5258891381985393E-003   6.3604084648907155E-002
  -2.5666939268370586E-003   3.2833313373814080E-003   6.2927203371733215E-002
  -2.0363604134305269E-003   4.2738215175091021E-003   6.2369883692889871E-002
   8.1281509300978882E-013  -2.0015100687942322E-012   6.5535351430304090E-002
   8.9157153881913587E-013  -2.3834267892652861E-012   6.0797656882772055E-002
   9.7032451518153096E-013  -2.8321789358187743E-012   5.5940500021084527E-002
   1.0490844304378300E-012  -3.3478775307571595E-012   5.0963880845241505E-002
   1.1278339373532731E-012  -3.9310776855927543E-012   4.5867799355243211E-002
  -4.5864041438840528E-004   1.0684553778761430E-003   6.4328854181844752E-002
  -5.6385799886411389E-004   1.3942601955262424E-003   5.9620822513568095E-002
  -6.6907558333981383E-004   1.8181675636974592E-003   5.4821817990337807E-002
  -7.7429316781551898E-004   2.3401774823912369E-003   4.9931840612153250E-002
  -8.7951075229122239E-004   2.9602899516067982E-003   4.4950890379016339E-002
  -9.5091395516271222E-004   2.1369107577537960E-003   6.3399110476122511E-002
  -1.1328596649909928E-003   2.7885203934354674E-003   5.8818844237689877E-002
  -1.3148053748192811E-003   3.6363351302276525E-003   5.4176094603505615E-002
  -1.4967510846475730E-003   4.6803549681309620E-003   4.9470861573570182E-002
  -1.6786967944758500E-003   5.9205799071448961E-003   4.4703145147882095E-002
  -1.4768206215100628E-003   3.2053661376314491E-003   6.2746120313137671E-002
  -1.7070049974890703E-003   4.1827805913446925E-003   5.8391722055137915E-002
  -1.9371893734680711E-003   5.4545026967579013E-003   5.4003329860589019E-002
  -2.1673737494470719E-003   7.0205324538706038E-003   4.9580943729489652E-002
  -2.3975581254260794E-003   8.8808698626829941E-003   4.5124563661841199E-002
  -2.0363604134305269E-003   4.2738215175091021E-003   6.2369883692889871E-002
  -2.2862939963583725E-003   5.5770407892544727E-003   5.8339455965912390E-002
  -2.5362275792862043E-003   7.2726702632875950E-003   5.4303523761586869E-002
  -2.7861611622140309E-003   9.3607099396099402E-003   5.0262087079914086E-002
  -3.0360947451418818E-003   1.1841159818220870E-002   4.6215145920892819E-002
  -2.5804110021971936E-002   7.3462729642370661E-003   6.6860610516232488E-002
  -2.4737067021232718E-002   7.1798091853683688E-003   6.5730275942333050E-002
  -2.3670024020493497E-002   6.9903459142526270E-003   6.5005156923357954E-002
  -2.2602981019754276E-002   6.7778831508898268E-003   6.4685253459306813E-002
  -2.1535938019015058E-002   6.5424208952800100E-003   6.4770565550179737E-002
  -3.3033567735145562E-002   9.2258614835392661E-003   6.1219691329957304E-002
  -3.1601310648885918E-002   9.0188036028977236E-003   6.0576951124827499E-002
  -3.0169053562626270E-002   8.7801891556783945E-003   6.0259423535814233E-002
  -2.8736796476366636E-002   8.5100181418810462E-003   6.0267108562917809E-002
  -2.7304539390107001E-002   8.2082905615059598E-003   6.0600006206138091E-002
  -3.9708151580733583E-002   1.1105450002841466E-002   5.5542456579074945E-002
  -3.7990683347760922E-002   1.0857798020427162E-002   5.5378753668383615E-002
  -3.6273215114788204E-002   1.0570032397104134E-002   5.5460260435001574E-002
  -3.4555746881815508E-002   1.0242153132872432E-002   5.5786976878928932E-002
  -3.2838278648842797E-002   9.8741602277320206E-003   5.6358903000165800E-002
  -4.5827861558736235E-002   1.2985038522143666E-002   4.9828906263585090E-002
  -4.3905185117857785E-002   1.2696792437956614E-002   5.0135683573001369E-002
  -4.1982508676979322E-002   1.2359875638529999E-002   5.0607667620919776E-002
  -4.0059832236100858E-002   1.1974288123863735E-002   5.1244858407340180E-002
  -3.8137155795222408E-002   1.1540029893957998E-002   5.2047255932262698E-002
  -5.1392697669153331E-002   1.4864627041445866E-002   4.4079040383487866E-002
  -4.9344815959176447E-002   1.4535786855485955E-002   4.4847740838680983E-002
  -4.7296934249199604E-002   1.4149718879955697E-002   4.5701645093568943E-002
  -4.5249052539222741E-002   1.3706423114855024E-002   4.6640753148151609E-002
  -4.3201170829245863E-002   1.3205899560184087E-002   4.7665065002429008E-002
  -2.1535938019015058E-002   6.5424208952800100E-003   6.4770565550179737E-002
  -2.0875859108906880E-002   6.2930518447432138E-003   6.3936126593975351E-002
  -2.0215780198798713E-002   6.0388686965998500E-003   6.3343699500551492E-002
  -1.9555701288690532E-002   5.7798714508495407E-003   6.2993284269908148E-002
  -1.8895622378582368E-002   5.5160601074927262E-003   6.2884880902045304E-002
  -2.7304539390107001E-002   8.2082905615059598E-003   6.0600006206138091E-002
  -2.6420815271731707E-002   7.8900281868940630E-003   5.9978899148025303E-002
  -2.5537091153356437E-002   7.5702527903863809E-003   5.9563070643666199E-002
  -2.4653367034981156E-002   7.2489643719832776E-003   5.9352520693060892E-002
  -2.3769642916605872E-002   6.9261629316842432E-003   5.9347249296209131E-002
  -3.2838278648842797E-002   9.8741602277320206E-003   5.6358903000165800E-002
  -3.1767642631227194E-002   9.4870045290449123E-003   5.5954428915855656E-002
  -3.0697006613611622E-002   9.1016368841731407E-003   5.5718500076272319E-002
  -2.9626370595996016E-002   8.7180572931167943E-003   5.5651116481415935E-002
  -2.8555734578380412E-002   8.3362657558758158E-003   5.5752278131286345E-002
  -3.8137155795222408E-002   1.1540029893957998E-002   5.2047255932262698E-002
  -3.6916341187393308E-002   1.1083980871195623E-002   5.1862715897466244E-002
  -3.5695526579564207E-002   1.0633020977959842E-002   5.1809987798369754E-002
  -3.4474711971735135E-002   1.0187150214250422E-002   5.1889071634973465E-002
  -3.3253897363906007E-002   9.7463685800673605E-003   5.2099967407277334E-002
  -4.3201170829245863E-002   1.3205899560184087E-002   4.7665065002429008E-002
  -4.1866910940230082E-002   1.2680957213346555E-002   4.7703760092857150E-002
  -4.0532651051214265E-002   1.2164405071746473E-002   4.7837533809958643E-002
  -3.9198391162198448E-002   1.1656243135383920E-002   4.8066386153733431E-002
  -3.7864131273182652E-002   1.1156471404258961E-002   4.8390317124181514E-002
  -1.8895622378582368E-002   5.5160601074927262E-003   6.2884880902045304E-002
  -1.7982158081901296E-002   5.2449748454913292E-003   6.2510310943667879E-002
  -1.7068693785220242E-002   4.9641558438071748E-003   6.2390861311289542E-002
  -1.6155229488539181E-002   4.6736031024408632E-003   6.2526532004910304E-002
  -1.5241765191858117E-002   4.3733166213915653E-003   6.2917323024530181E-002
  -2.3769642916605872E-002   6.9261629316842432E-003   5.9347249296209131E-002
  -2.2612155029554826E-002   6.5965277246285148E-003   5.9038567352801385E-002
  -2.1454667142503783E-002   6.2547380059550656E-003   5.8962812264134593E-002
  -2.0297179255452741E-002   5.9007937756635660E-003   5.9119984030208718E-002
  -1.9139691368401671E-002   5.5346950337544221E-003   5.9510082651023588E-002
  -2.8555734578380412E-002   8.3362657558758158E-003   5.5752278131286345E-002
  -2.7176416572217584E-002   7.9480806037658808E-003   5.5507063430913120E-002
  -2.5797098566054714E-002   7.5453201681028939E-003   5.5472582114022485E-002
  -2.4417780559891872E-002   7.1279844488866557E-003   5.5648834180614615E-002
  -2.3038462553729017E-002   6.6960734461172511E-003   5.6035819630689390E-002
  -3.3253897363906007E-002   9.7463685800673605E-003   5.2099967407277334E-002
  -3.1674942709889534E-002   9.2996334829032398E-003   5.1915799178002930E-002
  -3.0095988055873060E-002   8.8359023302507812E-003   5.1920170860953130E-002
  -2.8517033401856608E-002   8.3551751221096066E-003   5.2113082456127932E-002
  -2.6938078747840113E-002   7.8574518584800940E-003   5.2494533963527129E-002
  -3.7864131273182652E-002   1.1156471404258961E-002   4.8390317124181514E-002
  -3.6107733442570719E-002   1.0651186362040488E-002   4.8264774594070858E-002
  -3.4351335611958821E-002   1.0126484492398585E-002   4.8305578504926672E-002
  -3.2594937781346908E-002   9.5823657953325522E-003   4.8512728856748677E-002
  -3.0838539950735003E-002   9.0188302708428814E-003   4.8886225649537096E-002
  -1.5241765191858117E-002   4.3733166213915653E-003   6.2917323024530181E-002
  -1.4374415808523222E-002   4.0644187852791891E-003   6.2667846115867565E-002
  -1.3507066425188306E-002   3.7480319787226574E-003   6.2622413705812036E-002
  -1.2639717041853397E-002   3.4241562017218209E-003   6.2781025794363579E-002
  -1.1772367658518496E-002   3.0927914542768775E-003   6.3143682381522348E-002
  -1.9139691368401671E-002   5.5346950337544221E-003   5.9510082651023588E-002
  -1.8070382396078815E-002   5.1592747240002124E-003   5.9250687026699972E-002
  -1.7001073423755991E-002   4.7773657901744732E-003   5.9191166081745239E-002
  -1.5931764451433152E-002   4.3889682322763753E-003   5.9331519816158973E-002
  -1.4862455479110311E-002   3.9940820503067131E-003   5.9671748229941812E-002
  -2.3038462553729017E-002   6.6960734461172511E-003   5.6035819630689390E-002
  -2.1771363811656584E-002   6.2541306627214022E-003   5.5767505637076928E-002
  -2.0504265069584145E-002   5.8066996016260600E-003   5.5694896503595083E-002
  -1.9237166327511698E-002   5.3537802628310389E-003   5.5817992230243640E-002
  -1.7970067585439273E-002   4.8953726463365488E-003   5.6136792817022385E-002
  -2.6938078747840113E-002   7.8574518584800940E-003   5.2494533963527129E-002
  -2.5477360055256436E-002   7.3489866014425087E-003   5.2218301946998447E-002
  -2.4016641362672782E-002   6.8360334130778168E-003   5.2133604971361755E-002
  -2.2555922670089146E-002   6.3185922933857034E-003   5.2240443036617221E-002
  -2.1095203977505451E-002   5.7966632423663844E-003   5.2538816142764788E-002
  -3.0838539950735003E-002   9.0188302708428814E-003   4.8886225649537096E-002
  -2.9188371126878457E-002   8.4438425401636708E-003   4.8603075956464292E-002
  -2.7538202303021890E-002   7.8653672245294487E-003   4.8507291485045206E-002
  -2.5888033479165327E-002   7.2834043239403644E-003   4.8598872235279852E-002
  -2.4237864655308777E-002   6.6979538383963311E-003   4.8877818207168300E-002
  -1.1772367658518496E-002   3.0927914542768775E-003   6.3143682381522348E-002
  -1.0800888381131440E-002   2.7663812256958353E-003   6.3016249505005950E-002
  -9.8294091037443854E-003   2.4573690052870356E-003   6.3147102357769158E-002
  -8.8579298263573233E-003   2.1657547930505616E-003   6.3536240939811889E-002
  -7.8864505489702683E-003   1.8915385889862746E-003   6.4183665251134281E-002
  -1.4862455479110311E-002   3.9940820503067131E-003   5.9671748229941812E-002
  -1.3645671925407610E-002   3.6011974256874857E-003   5.9527754488196971E-002
  -1.2428888371704923E-002   3.2188045398417187E-003   5.9616083569803857E-002
  -1.1212104818002222E-002   2.8469033927689472E-003   5.9936735474762276E-002
  -9.9953212642995351E-003   2.4854939844699553E-003   6.0489710203072589E-002
  -1.7970067585439273E-002   4.8953726463365488E-003   5.6136792817022385E-002
  -1.6533942661348902E-002   4.4360136256793026E-003   5.5969331940650208E-002
  -1.5097817737258518E-002   3.9802400743964017E-003   5.6008230981701851E-002
  -1.3661692813168152E-002   3.5280519924876658E-003   5.6253489940177301E-002
  -1.2225567889077790E-002   3.0794493799533584E-003   5.6705108816076322E-002
  -2.1095203977505451E-002   5.7966632423663844E-003   5.2538816142764788E-002
  -1.9465700588955304E-002   5.2708298256709807E-003   5.2340981862366194E-002
  -1.7836197200405187E-002   4.7416756089509737E-003   5.2323544593463500E-002
  -1.6206693811855053E-002   4.2092005922062734E-003   5.2486504336056450E-002
  -1.4577190423304917E-002   3.6734047754370669E-003   5.2829861090145369E-002
  -2.4237864655308777E-002   6.6979538383963311E-003   4.8877818207168300E-002
  -2.2440945708226856E-002   6.1056460256627698E-003   4.8642704253344382E-002
  -2.0644026761144907E-002   5.5031111435058788E-003   4.8562024405088389E-002
  -1.8847107814062958E-002   4.8903491919247977E-003   4.8635778662400181E-002
  -1.7050188866981036E-002   4.2673601709204423E-003   4.8863967025279953E-002
  -7.8864505489702683E-003   1.8915385889862746E-003   6.4183665251134281E-002
  -6.9542615284918854E-003   1.6810638198578864E-003   6.4094289433197060E-002
  -6.0220725080134783E-003   1.5806739124288871E-003   6.4253308618403393E-002
  -5.0898834875350817E-003   1.5903688666991656E-003   6.4660722806753612E-002
  -4.1576944670566884E-003   1.7101486826690548E-003   6.5316531998247385E-002
  -9.9953212642995351E-003   2.4854939844699553E-003   6.0489710203072589E-002
  -8.8138454574333558E-003   2.1854768328330443E-003   6.0391039077055841E-002
  -7.6323696505672320E-003   1.9977524557477366E-003   6.0542546520670759E-002
  -6.4508938437010926E-003   1.9223208532139213E-003   6.0944232533917314E-002
  -5.2694180368349289E-003   1.9591820252318204E-003   6.1596097116796145E-002
  -1.2225567889077790E-002   3.0794493799533584E-003   5.6705108816076322E-002
  -1.0793021729335823E-002   2.6898898458080911E-003   5.6599350294832151E-002
  -9.3604755695938825E-003   2.4148309990664751E-003   5.6745553909707980E-002
  -7.9279294098519391E-003   2.2542728397285661E-003   5.7143719660703404E-002
  -6.4953832501099765E-003   2.2082153677945304E-003   5.7793847547818938E-002
  -1.4577190423304917E-002   3.6734047754370669E-003   5.2829861090145369E-002
  -1.2891790344199138E-002   3.1943028587831934E-003   5.2719223086526143E-002
  -1.1206390265093374E-002   2.8319095423852692E-003   5.2862330785514930E-002
  -9.5209901859876246E-003   2.5862248262432663E-003   5.3259184187111203E-002
  -7.8355901068818314E-003   2.4572487103571017E-003   5.3909783291315606E-002
  -1.7050188866981036E-002   4.2673601709204423E-003   4.8863967025279953E-002
  -1.5110151302023395E-002   3.6987158717582957E-003   4.8750657452137913E-002
  -1.3170113737065767E-002   3.2489880857040909E-003   4.8892877148091540E-002
  -1.1230076172108118E-002   2.9181768127576960E-003   4.9290626113141056E-002
  -9.2900386071504970E-003   2.7062820529200060E-003   4.9943904347286572E-002
  -4.1576944670566884E-003   1.7101486826690548E-003   6.5316531998247385E-002
  -3.6273609536501550E-003   2.0014949199611554E-003   6.4400527524411944E-002
  -3.0970274402436077E-003   2.5258891381985393E-003   6.3604084648907155E-002
  -2.5666939268370586E-003   3.2833313373814080E-003   6.2927203371733215E-002
  -2.0363604134305269E-003   4.2738215175091021E-003   6.2369883692889871E-002
  -5.2694180368349289E-003   1.9591820252318204E-003   6.1596097116796145E-002
  -4.5937067408962293E-003   2.2153333530454677E-003   6.0871334942658117E-002
  -3.9179954449575019E-003   2.7977722178998687E-003   6.0317766735253797E-002
  -3.2422841490187919E-003   3.7064986197946279E-003   5.9935392494582962E-002
  -2.5665728530801062E-003   4.9415125587296549E-003   5.9724212220646056E-002
  -6.4953832501099765E-003   2.2082153677945304E-003   5.7793847547818938E-002
  -5.6226618032362008E-003   2.4291717861300022E-003   5.7353567229473490E-002
  -4.7499403563623999E-003   3.0696552976011843E-003   5.7136113246264844E-002
  -3.8772189094885968E-003   4.1296659022079553E-003   5.7141485598192425E-002
  -3.0044974626148250E-003   5.6092035999504297E-003   5.7369684285256906E-002
  -7.8355901068818314E-003   2.4572487103571017E-003   5.3909783291315606E-002
  -6.7142261406700696E-003   2.6430102192143701E-003   5.3847224384858290E-002
  -5.5928621744582938E-003   3.3415383773023957E-003   5.4059124181940393E-002
  -4.4714982082465042E-003   4.5528331846212289E-003   5.4545482682561791E-002
  -3.3501342420347567E-003   6.2768946411709825E-003   5.5306299886722907E-002
  -9.2900386071504970E-003   2.7062820529200060E-003   4.9943904347286572E-002
  -7.8683997531978356E-003   2.8568486522988490E-003   5.0352306408812164E-002
  -6.4467608992451603E-003   3.6134214570038570E-003   5.1086799542280237E-002
  -5.0251220452924711E-003   4.9760004670346761E-003   5.2147383747690707E-002
  -3.6034831913398235E-003   6.9445856823916463E-003   5.3534059025043379E-002
  -2.0363604134305269E-003   4.2738215175091021E-003   6.2369883692889871E-002
  -2.2862939963583725E-003   5.5770407892544727E-003   5.8339455965912390E-002
  -2.5362275792862043E-003   7.2726702632875950E-003   5.4303523761586869E-002
  -2.7861611622140309E-003   9.3607099396099402E-003   5.0262087079914086E-002
  -3.0360947451418818E-003   1.1841159818220870E-002   4.6215145920892819E-002
  -2.5665728530801062E-003   4.9415125587296549E-003   5.9724212220646056E-002
  -2.8394735285709252E-003   6.5663888371239043E-003   5.6191533380651582E-002
  -3.1123742040617304E-003   8.6447022573954146E-003   5.2618424832878485E-002
  -3.3852748795525096E-003   1.1176452819544429E-002   4.9004886577327766E-002
  -3.6581755550433442E-003   1.4161640523570718E-002   4.5350918613998870E-002
  -3.0044974626148250E-003   5.6092035999504297E-003   5.7369684285256906E-002
  -3.3352904610987402E-003   7.5557368849937245E-003   5.4395781271833921E-002
  -3.6660834595826823E-003   1.0016734251503012E-002   5.1346523320202675E-002
  -3.9968764580666089E-003   1.2992195699478584E-002   4.8221910430363210E-002
  -4.3276694565505397E-003   1.6482121228920565E-002   4.5021942602315512E-002
  -3.3501342420347567E-003   6.2768946411709825E-003   5.5306299886722907E-002
  -3.7737447939419299E-003   8.5450849328632394E-003   5.2952199639460192E-002
  -4.1973553458491174E-003   1.1388766245610943E-002   5.0487819223558841E-002
  -4.6209658977562637E-003   1.4807938579413128E-002   4.7913158639019120E-002
  -5.0445764496634795E-003   1.8802601934270413E-002   4.5228217885841360E-002
  -3.6034831913398235E-003   6.9445856823916463E-003   5.3534059025043379E-002
  -4.1548365271004417E-003   9.5344329807330874E-003   5.1860788483529596E-002
  -4.7061898628609905E-003   1.2760798239718513E-002   5.0042312542947387E-002
  -5.2575431986215670E-003   1.6623681459347249E-002   4.8078631203296945E-002
  -5.8088965343821575E-003   2.1123082639620261E-002   4.5969744464577467E-002
  -5.1392697669153331E-002   1.4864627041445866E-002   4.4079040383487866E-002
  -4.9344815959176447E-002   1.4535786855485955E-002   4.4847740838680983E-002
  -4.7296934249199604E-002   1.4149718879955697E-002   4.5701645093568943E-002
  -4.5249052539222741E-002   1.3706423114855024E-002   4.6640753148151609E-002
  -4.3201170829245863E-002   1.3205899560184087E-002   4.7665065002429008E-002
  -5.6974552107014451E-002   1.6802229888910891E-002   4.1642682065930858E-002
  -5.4789106937278384E-002   1.6368995723634178E-002   4.1825629655418861E-002
  -5.2603661767542338E-002   1.5894585341335934E-002   4.2198500364730607E-002
  -5.0418216597806334E-002   1.5378998742016221E-002   4.2761294193865901E-002
  -4.8232771428070281E-002   1.4822235925674832E-002   4.3514011142824799E-002
  -6.3145317067349133E-002   1.8739832736375917E-002   3.9093903982782507E-002
  -6.0717589117725054E-002   1.8202204591782400E-002   3.8707150279114408E-002
  -5.8289861168100934E-002   1.7639451802716227E-002   3.8615039015398700E-002
  -5.5862133218476849E-002   1.7051574369177307E-002   3.8817570191635523E-002
  -5.3434405268852708E-002   1.6438572291165715E-002   3.9314743807824917E-002
  -6.9904992550157488E-002   2.0677435583840942E-002   3.6432706134042925E-002
  -6.7130262500516430E-002   2.0035413459930679E-002   3.5492302709767415E-002
  -6.4355532450875330E-002   1.9384318264096492E-002   3.4951261045573244E-002
  -6.1580802401234251E-002   1.8724149996338420E-002   3.4809581141460322E-002
  -5.8806072351593151E-002   1.8054908656656557E-002   3.5067262997428947E-002
  -7.7253578555439406E-002   2.2615038431305967E-002   3.3659088519712277E-002
  -7.4027127085652400E-002   2.1868622328078846E-002   3.2181086947378035E-002
  -7.0800675615865505E-002   2.1129184725476757E-002   3.1207166455254232E-002
  -6.7574224146078596E-002   2.0396725623499562E-002   3.0737327043340562E-002
  -6.4347772676291659E-002   1.9671245022147399E-002   3.0771568711637276E-002
  -4.3201170829245863E-002   1.3205899560184087E-002   4.7665065002429008E-002
  -4.1866910940230082E-002   1.2680957213346555E-002   4.7703760092857150E-002
  -4.0532651051214265E-002   1.2164405071746473E-002   4.7837533809958643E-002
  -3.9198391162198448E-002   1.1656243135383920E-002   4.8066386153733431E-002
  -3.7864131273182652E-002   1.1156471404258961E-002   4.8390317124181514E-002
  -4.8232771428070281E-002   1.4822235925674832E-002   4.3514011142824799E-002
  -4.6792615805601741E-002   1.4248632058652483E-002   4.3401432258522943E-002
  -4.5352460183133221E-002   1.3682522307289890E-002   4.3405566214453045E-002
  -4.3912304560664708E-002   1.3123906671586597E-002   4.3526413010615356E-002
  -4.2472148938196216E-002   1.2572785151542865E-002   4.3763972647009819E-002
  -5.3434405268852708E-002   1.6438572291165715E-002   3.9314743807824917E-002
  -5.1866719699372649E-002   1.5816306903958605E-002   3.9049994859214898E-002
  -5.0299034129892617E-002   1.5200639542833037E-002   3.8923592964395841E-002
  -4.8731348560412550E-002   1.4591570207789220E-002   3.8935538123367586E-002
  -4.7163662990932526E-002   1.3989098898826963E-002   3.9085830336130473E-002
  -5.8806072351593151E-002   1.8054908656656557E-002   3.5067262997428947E-002
  -5.7089222621542791E-002   1.7383981749264546E-002   3.4649447894933030E-002
  -5.5372372891492425E-002   1.6718756778376403E-002   3.4391614059786822E-002
  -5.3655523161442037E-002   1.6059233743991760E-002   3.4293761491990329E-002
  -5.1938673431391698E-002   1.5405412646110936E-002   3.4355890191543580E-002
  -6.4347772676291659E-002   1.9671245022147399E-002   3.0771568711637276E-002
  -6.2460124572112127E-002   1.8951656594570598E-002   3.0199791365677325E-002
  -6.0572476467932623E-002   1.8236874013919574E-002   2.9809629500626211E-002
  -5.8684828363753119E-002   1.7526897280194402E-002   2.9601083116483407E-002
  -5.6797180259573588E-002   1.6821726393395020E-002   2.9574152213249216E-002
  -3.7864131273182652E-002   1.1156471404258961E-002   4.8390317124181514E-002
  -3.6107733442570719E-002   1.0651186362040488E-002   4.8264774594070858E-002
  -3.4351335611958821E-002   1.0126484492398585E-002   4.8305578504926672E-002
  -3.2594937781346908E-002   9.5823657953325522E-003   4.8512728856748677E-002
  -3.0838539950735003E-002   9.0188302708428814E-003   4.8886225649537096E-002
  -4.2472148938196216E-002   1.2572785151542865E-002   4.3763972647009819E-002
  -4.0542924454746457E-002   1.2017709619558725E-002   4.3544004457565622E-002
  -3.8613699971296732E-002   1.1447231948033959E-002   4.3503343132830719E-002
  -3.6684475487846979E-002   1.0861352136968420E-002   4.3641988672805138E-002
  -3.4755251004397261E-002   1.0260070186362269E-002   4.3959941077488907E-002
  -4.7163662990932526E-002   1.3989098898826963E-002   3.9085830336130473E-002
  -4.5048651430902018E-002   1.3384232877076768E-002   3.8775451175236009E-002
  -4.2933639870871489E-002   1.2767979403669236E-002   3.8657339302793706E-002
  -4.0818628310840939E-002   1.2140338478604237E-002   3.8731494718803765E-002
  -3.8703616750810452E-002   1.1501310101881906E-002   3.8997917423266040E-002
  -5.1938673431391698E-002   1.5405412646110936E-002   3.4355890191543580E-002
  -4.9624914371037408E-002   1.4750756134594908E-002   3.3959114747081943E-002
  -4.7311155310683153E-002   1.4088726859304561E-002   3.3767567014815522E-002
  -4.4997396250328899E-002   1.3419324820240245E-002   3.3781246994744357E-002
  -4.2683637189974616E-002   1.2742550017401474E-002   3.4000154686868525E-002
  -5.6797180259573588E-002   1.6821726393395020E-002   2.9574152213249216E-002
  -5.4271713275152622E-002   1.6117279392112993E-002   2.9094995173103710E-002
  -5.1746246290731657E-002   1.5409474314939872E-002   2.8834026268896362E-002
  -4.9220779306310691E-002   1.4698311161876001E-002   2.8791245500627241E-002
  -4.6695312321889726E-002   1.3983789932921042E-002   2.8966652868296139E-002
  -3.0838539950735003E-002   9.0188302708428814E-003   4.8886225649537096E-002
  -2.9188371126878457E-002   8.4438425401636708E-003   4.8603075956464292E-002
  -2.7538202303021890E-002   7.8653672245294487E-003   4.8507291485045206E-002
  -2.5888033479165327E-002   7.2834043239403644E-003   4.8598872235279852E-002
  -2.4237864655308777E-002   6.6979538383963311E-003   4.8877818207168300E-002
  -3.4755251004397261E-002   1.0260070186362269E-002   4.3959941077488907E-002
  -3.2925690287418492E-002   9.6473408175486997E-003   4.3631673222218920E-002
  -3.1096129570439723E-002   9.0271187518603385E-003   4.3474823931539536E-002
  -2.9266568853460954E-002   8.3994039892974180E-003   4.3489393205450880E-002
  -2.7437008136482199E-002   7.7641965298600457E-003   4.3675381043953021E-002
  -3.8703616750810452E-002   1.1501310101881906E-002   3.8997917423266040E-002
  -3.6710610797772505E-002   1.0850839094933701E-002   3.8620526293879173E-002
  -3.4717604844734531E-002   1.0188870279191235E-002   3.8398607072019954E-002
  -3.2724598891696578E-002   9.5154036546546954E-003   3.8332159757688444E-002
  -3.0731592938658611E-002   8.8304392213238159E-003   3.8421184350884707E-002
  -4.2683637189974616E-002   1.2742550017401474E-002   3.4000154686868525E-002
  -4.0543132657940496E-002   1.2054337372318827E-002   3.3569635171445067E-002
  -3.8402628125906287E-002   1.1350621806522184E-002   3.3278640906486384E-002
  -3.6262123593872132E-002   1.0631403320011751E-002   3.3127171891992380E-002
  -3.4121619061838027E-002   9.8966819127877248E-003   3.3115228127962998E-002
  -4.6695312321889726E-002   1.3983789932921042E-002   2.8966652868296139E-002
  -4.4423255867922395E-002   1.3257835649703842E-002   2.8478999854916642E-002
  -4.2151199413955065E-002   1.2512373333853105E-002   2.8114925434938931E-002
  -3.9879142959987735E-002   1.1747402985369075E-002   2.7874429608362783E-002
  -3.7607086506020404E-002   1.0962924604251412E-002   2.7757512375188309E-002
  -2.4237864655308777E-002   6.6979538383963311E-003   4.8877818207168300E-002
  -2.2440945708226856E-002   6.1056460256627698E-003   4.8642704253344382E-002
  -2.0644026761144907E-002   5.5031111435058788E-003   4.8562024405088389E-002
  -1.8847107814062958E-002   4.8903491919247977E-003   4.8635778662400181E-002
  -1.7050188866981036E-002   4.2673601709204423E-003   4.8863967025279953E-002
  -2.7437008136482199E-002   7.7641965298600457E-003   4.3675381043953021E-002
  -2.5487165735823970E-002   7.1250053387694745E-003   4.3337964199207213E-002
  -2.3537323335165734E-002   6.4853393812478177E-003   4.3151960156045943E-002
  -2.1587480934507550E-002   5.8451986572941247E-003   4.3117368914469545E-002
  -1.9637638533849269E-002   5.2045831669094156E-003   4.3234190474477907E-002
  -3.0731592938658611E-002   8.8304392213238159E-003   3.8421184350884707E-002
  -2.8631848388407193E-002   8.1443646518761792E-003   3.7991216918208781E-002
  -2.6532103838155748E-002   7.4675676189895346E-003   3.7709640983134729E-002
  -2.4432359287904260E-002   6.8000481226633408E-003   3.7576456545662162E-002
  -2.2332614737652891E-002   6.1418061628981668E-003   3.7591663605791387E-002
  -3.4121619061838027E-002   9.8966819127877248E-003   3.3115228127962998E-002
  -3.1874993665976480E-002   9.1637239649831059E-003   3.2602462410349607E-002
  -2.9628368270114912E-002   8.4497958567313625E-003   3.2235066886354719E-002
  -2.7381742874253386E-002   7.7548975880326124E-003   3.2013041555978491E-002
  -2.5135117478391859E-002   7.0790291588869181E-003   3.1936386419220718E-002
  -3.7607086506020404E-002   1.0962924604251412E-002   2.7757512375188309E-002
  -3.5216601568531875E-002   1.0183083278089589E-002   2.7171700675629462E-002
  -3.2826116631043262E-002   9.4320240944732459E-003   2.6728237865705884E-002
  -3.0435631693554649E-002   8.7097470534017868E-003   2.6427123945418018E-002
  -2.8045146756066119E-002   8.0162521548757804E-003   2.6268358914765533E-002
  -1.7050188866981036E-002   4.2673601709204423E-003   4.8863967025279953E-002
  -1.5110151302023395E-002   3.6987158717582957E-003   4.8750657452137913E-002
  -1.3170113737065767E-002   3.2489880857040909E-003   4.8892877148091540E-002
  -1.1230076172108118E-002   2.9181768127576960E-003   4.9290626113141056E-002
  -9.2900386071504970E-003   2.7062820529200060E-003   4.9943904347286572E-002
  -1.9637638533849269E-002   5.2045831669094156E-003   4.3234190474477907E-002
  -1.7480817889368519E-002   4.6006888597940332E-003   4.3071024997867080E-002
  -1.5323997244887692E-002   4.0707116856500691E-003   4.3085896411206803E-002
  -1.3167176600406848E-002   3.6146516444764618E-003   4.3278804714496938E-002
  -1.1010355955926115E-002   3.2325087362737870E-003   4.3649749907737512E-002
  -2.2332614737652891E-002   6.1418061628981668E-003   3.7591663605791387E-002
  -2.0036503392794343E-002   5.5026618478301037E-003   3.7333642845574666E-002
  -1.7740392047935764E-002   4.8924352855955894E-003   3.7176166596163226E-002
  -1.5444280703077242E-002   4.3111264761948910E-003   3.7119234857556700E-002
  -1.3148169358218637E-002   3.7587354196275680E-003   3.7162847629755108E-002
  -2.5135117478391859E-002   7.0790291588869181E-003   3.1936386419220718E-002
  -2.2777207812300918E-002   6.4046348358661187E-003   3.1538510995261025E-002
  -2.0419298146210053E-002   5.7141588855415051E-003   3.1163687702961015E-002
  -1.8061388480119123E-002   5.0076013079132665E-003   3.0811916542320593E-002
  -1.5703478814028247E-002   4.2849621029813489E-003   3.0483197513339839E-002
  -2.8045146756066119E-002   8.0162521548757804E-003   2.6268358914765533E-002
  -2.5702931147888297E-002   7.3066078239018006E-003   2.5685629446925540E-002
  -2.3360715539710475E-002   6.5358824854870601E-003   2.5048459731599970E-002
  -2.1018499931532625E-002   5.7040761396318015E-003   2.4356849768788380E-002
  -1.8676284323354830E-002   4.8111887863352409E-003   2.3610799558491102E-002
  -9.2900386071504970E-003   2.7062820529200060E-003   4.9943904347286572E-002
  -7.8683997531978356E-003   2.8568486522988490E-003   5.0352306408812164E-002
  -6.4467608992451603E-003   3.6134214570038570E-003   5.1086799542280237E-002
  -5.0251220452924711E-003   4.9760004670346761E-003   5.2147383747690707E-002
  -3.6034831913398235E-003   6.9445856823916463E-003   5.3534059025043379E-002
  -1.1010355955926115E-002   3.2325087362737870E-003   4.3649749907737512E-002
  -9.2440655329910082E-003   3.1621170735487980E-003   4.4237012194441483E-002
  -7.4777751100559980E-003   3.6413107688083313E-003   4.5187486547167866E-002
  -5.7114846871209116E-003   4.6700898220525464E-003   4.6501172965916632E-002
  -3.9451942641858806E-003   6.2484542332811310E-003   4.8178071450687643E-002
  -1.3148169358218637E-002   3.7587354196275680E-003   3.7162847629755108E-002
  -1.1000106372221187E-002   3.4673854947985250E-003   3.7872549294295982E-002
  -8.8520433862236785E-003   3.6692000806130137E-003   3.8982584018939295E-002
  -6.7039804002262254E-003   4.3641791770701911E-003   4.0492951803684958E-002
  -4.5559174142287204E-003   5.5523227841706713E-003   4.2403652648533269E-002
  -1.5703478814028247E-002   4.2849621029813489E-003   3.0483197513339839E-002
  -1.3136522270888233E-002   3.7726539160485295E-003   3.1258917708376126E-002
  -1.0569565727748306E-002   3.6970893924174811E-003   3.2472091957594873E-002
  -8.0026091846083051E-003   4.0582685320880597E-003   3.4122720260995977E-002
  -5.4356526414683620E-003   4.8561913350601837E-003   3.6210802618579889E-002
  -1.8676284323354830E-002   4.8111887863352409E-003   2.3610799558491102E-002
  -1.5653313228992327E-002   4.0779223372982010E-003   2.4396117436681353E-002
  -1.2630342134629796E-002   3.7249787042223925E-003   2.5656010363134085E-002
  -9.6073710402672513E-003   3.7523578871057062E-003   2.7390478337849272E-002
  -6.5843999459047620E-003   4.1600598859498072E-003   2.9599521360827219E-002
  -3.6034831913398235E-003   6.9445856823916463E-003   5.3534059025043379E-002
  -4.1548365271004417E-003   9.5344329807330874E-003   5.1860788483529596E-002
  -4.7061898628609905E-003   1.2760798239718513E-002   5.0042312542947387E-002
  -5.2575431986215670E-003   1.6623681459347249E-002   4.8078631203296945E-002
  -5.8088965343821575E-003   2.1123082639620261E-002   4.5969744464577467E-002
  -3.9451942641858806E-003   6.2484542332811310E-003   4.8178071450687643E-002
  -4.5379847316709410E-003   8.6864743994767846E-003   4.7242679155617973E-002
  -5.1307751991558764E-003   1.2294220717622373E-002   4.6369617996167900E-002
  -5.7235656666409507E-003   1.7071693187717826E-002   4.5558887972337703E-002
  -6.3163561341259278E-003   2.3018891809763353E-002   4.4810489084126326E-002
  -4.5559174142287204E-003   5.5523227841706713E-003   4.2403652648533269E-002
  -4.9826084787500599E-003   7.8385158182204262E-003   4.2739346791213578E-002
  -5.4092995432714515E-003   1.1827643195526691E-002   4.3344908604201801E-002
  -5.8359906077927112E-003   1.7519704916088463E-002   4.4220338087497417E-002
  -6.2626816723141271E-003   2.4914700979906446E-002   4.5365635241101154E-002
  -5.4356526414683620E-003   4.8561913350601837E-003   3.6210802618579889E-002
  -5.4887077683380050E-003   6.9905572369639846E-003   3.8350791390316399E-002
  -5.5417628952075908E-003   1.1361065673430447E-002   4.0968184367048868E-002
  -5.5948180220772078E-003   1.7967716644459071E-002   4.4062981548777129E-002
  -5.6478731489467658E-003   2.6810510150049427E-002   4.7635182935501064E-002
  -6.5843999459047620E-003   4.1600598859498072E-003   2.9599521360827219E-002
  -6.0562826004345593E-003   6.1425986557076540E-003   3.4077012952926533E-002
  -5.5281652549643012E-003   1.0894488151334675E-002   3.9239445284709518E-002
  -5.0000479094940570E-003   1.8415728372829406E-002   4.5086818356176367E-002
  -4.4719305640238405E-003   2.8706319320192630E-002   5.1619132167327386E-002
  -7.7253578555439406E-002   2.2615038431305967E-002   3.3659088519712277E-002
  -7.4027127085652400E-002   2.1868622328078846E-002   3.2181086947378035E-002
  -7.0800675615865505E-002   2.1129184725476757E-002   3.1207166455254232E-002
  -6.7574224146078596E-002   2.0396725623499562E-002   3.0737327043340562E-002
  -6.4347772676291659E-002   1.9671245022147399E-002   3.0771568711637276E-002
  -8.4340932064163987E-002   2.4372697105912611E-002   2.3502154546151677E-002
  -8.0736545562802187E-002   2.3638014524335754E-002   2.3003481538492132E-002
  -7.7132159061440497E-002   2.2884551637577549E-002   2.2756597513771848E-002
  -7.3527772560078780E-002   2.2112308445638142E-002   2.2761502471990810E-002
  -6.9923386058717119E-002   2.1321284948517566E-002   2.3018196413149006E-002
  -9.0316910057300151E-002   2.6130355780519254E-002   1.3369833497144573E-002
  -8.6586880621634721E-002   2.5407406720592662E-002   1.3824730248353373E-002
  -8.2856851185969305E-002   2.4639918549678452E-002   1.4279123885230477E-002
  -7.9126821750303902E-002   2.3827891267776888E-002   1.4733014407775691E-002
  -7.5396792314638514E-002   2.2971324874887816E-002   1.5186401815989223E-002
  -9.5181512534848009E-002   2.7888014455126009E-002   3.2621253726905497E-003
  -9.1578132262149989E-002   2.7176798916849543E-002   4.6448330769615631E-003
  -8.7974751989451844E-002   2.6395285461779355E-002   5.7747455696299591E-003
  -8.4371371716753796E-002   2.5543474089915384E-002   6.6518628506953177E-003
  -8.0767991444055720E-002   2.4621364801258053E-002   7.2761849201578403E-003
  -9.8934739496807644E-002   2.9645673129732542E-002  -6.8209698272099217E-003
  -9.5710300484347921E-002   2.8946191113106590E-002  -4.5362099756829921E-003
  -9.2485861471888198E-002   2.8150652373880036E-002  -2.7565374330296710E-003
  -8.9261422459428530E-002   2.7259056912054075E-002  -1.4819521992504997E-003
  -8.6036983446968862E-002   2.6271404727628234E-002  -7.1245427434518671E-004
  -6.4347772676291659E-002   1.9671245022147399E-002   3.0771568711637276E-002
  -6.2460124572112127E-002   1.8951656594570598E-002   3.0199791365677325E-002
  -6.0572476467932623E-002   1.8236874013919574E-002   2.9809629500626211E-002
  -5.8684828363753119E-002   1.7526897280194402E-002   2.9601083116483407E-002
  -5.6797180259573588E-002   1.6821726393395020E-002   2.9574152213249216E-002
  -6.9923386058717119E-002   2.1321284948517566E-002   2.3018196413149006E-002
  -6.7854639517335058E-002   2.0528608749791968E-002   2.2558249524435595E-002
  -6.5785892975953053E-002   1.9751407453037252E-002   2.2278884029218862E-002
  -6.3717146434571020E-002   1.8989681058253875E-002   2.2180099927498378E-002
  -6.1648399893189043E-002   1.8243429565441394E-002   2.2261897219274601E-002
  -7.5396792314638514E-002   2.2971324874887816E-002   1.5186401815989223E-002
  -7.3147981423465958E-002   2.2105560905013172E-002   1.4848954439567831E-002
  -7.0899170532293526E-002   2.1265940892155097E-002   1.4691054369230704E-002
  -6.8650359641121067E-002   2.0452464836313296E-002   1.4712701604977910E-002
  -6.6401548749948608E-002   1.9665132737487795E-002   1.4913896146809671E-002
  -8.0767991444055720E-002   2.4621364801258053E-002   7.2761849201578403E-003
  -7.8340150290504909E-002   2.3682513060234403E-002   7.0719061110735160E-003
  -7.5912309136954043E-002   2.2780474331272803E-002   7.0461405206615410E-003
  -7.3484467983403176E-002   2.1915248614372468E-002   7.1988881489218354E-003
  -7.1056626829852365E-002   2.1086835909534266E-002   7.5301489958544722E-003
  -8.6036983446968862E-002   2.6271404727628234E-002  -7.1245427434518671E-004
  -8.3431146118451649E-002   2.5259465215455856E-002  -7.7289546104719609E-004
  -8.0825308789934547E-002   2.4295007770390509E-002  -6.5585751648863932E-004
  -7.8219471461417389E-002   2.3378032392432191E-002  -3.6134044066998133E-004
  -7.5613634132900231E-002   2.2508539081580570E-002   1.1065576640878483E-004
  -5.6797180259573588E-002   1.6821726393395020E-002   2.9574152213249216E-002
  -5.4271713275152622E-002   1.6117279392112993E-002   2.9094995173103710E-002
  -5.1746246290731657E-002   1.5409474314939872E-002   2.8834026268896362E-002
  -4.9220779306310691E-002   1.4698311161876001E-002   2.8791245500627241E-002
  -4.6695312321889726E-002   1.3983789932921042E-002   2.8966652868296139E-002
  -6.1648399893189043E-002   1.8243429565441394E-002   2.2261897219274601E-002
  -5.8911242383156384E-002   1.7499816406273266E-002   2.1867535190371684E-002
  -5.6174084873123711E-002   1.6746005012422974E-002   2.1678366076754024E-002
  -5.3436927363091059E-002   1.5981995383890283E-002   2.1694389878421552E-002
  -5.0699769853058435E-002   1.5207787520675253E-002   2.1915606595374171E-002
  -6.6401548749948608E-002   1.9665132737487795E-002   1.4913896146809671E-002
  -6.3465695934957267E-002   1.8882353420433790E-002   1.4597488970358188E-002
  -6.0529843119966009E-002   1.8082535709905971E-002   1.4473279488538666E-002
  -5.7593990304974703E-002   1.7265679605904569E-002   1.4541267701351373E-002
  -5.4658137489983410E-002   1.6431785108429631E-002   1.4801453608796228E-002
  -7.1056626829852365E-002   2.1086835909534266E-002   7.5301489958544722E-003
  -6.7935073930555437E-002   2.0264890434594215E-002   7.2848565130626264E-003
  -6.4813521031258467E-002   1.9419066407389243E-002   7.2187665042503010E-003
  -6.1691968131961546E-002   1.8549363827918795E-002   7.3318789694169989E-003
  -5.8570415232664569E-002   1.7655782696183869E-002   7.6241939085626778E-003
  -7.5613634132900231E-002   2.2508539081580570E-002   1.1065576640878483E-004
  -7.2319376369950672E-002   2.1647427448754364E-002  -7.0362181514349587E-005
  -6.9025118607001168E-002   2.0755597104872126E-002  -8.5172876111205831E-005
  -6.5730860844051692E-002   1.9833048049933258E-002   6.6223682618132829E-005
  -6.2436603081102104E-002   1.8879780283938108E-002   3.8382749467347210E-004
  -4.6695312321889726E-002   1.3983789932921042E-002   2.8966652868296139E-002
  -4.4423255867922395E-002   1.3257835649703842E-002   2.8478999854916642E-002
  -4.2151199413955065E-002   1.2512373333853105E-002   2.8114925434938931E-002
  -3.9879142959987735E-002   1.1747402985369075E-002   2.7874429608362783E-002
  -3.7607086506020404E-002   1.0962924604251412E-002   2.7757512375188309E-002
  -5.0699769853058435E-002   1.5207787520675253E-002   2.1915606595374171E-002
  -4.8295990593417437E-002   1.4427155110590395E-002   2.1471108242664960E-002
  -4.5892211333776467E-002   1.3643871841447802E-002   2.1166476907901216E-002
  -4.3488432074135518E-002   1.2857937713247926E-002   2.1001712591083244E-002
  -4.1084652814494554E-002   1.2069352725990357E-002   2.0976815292210738E-002
  -5.4658137489983410E-002   1.6431785108429631E-002   1.4801453608796228E-002
  -5.2106347000124856E-002   1.5596474571476893E-002   1.4416967090333230E-002
  -4.9554556510266329E-002   1.4775370349042347E-002   1.4188636014359560E-002
  -4.7002766020407816E-002   1.3968472441126780E-002   1.4116460380875863E-002
  -4.4450975530549247E-002   1.3175780847729579E-002   1.4200440189881341E-002
  -5.8570415232664569E-002   1.7655782696183869E-002   7.6241939085626778E-003
  -5.5854325088044575E-002   1.6765794032363251E-002   7.3165763979217771E-003
  -5.3138234943424512E-002   1.5906868856637356E-002   7.1814027543143054E-003
  -5.0422144798804532E-002   1.5079007169005522E-002   7.2186729777404587E-003
  -4.7706054654184447E-002   1.4282208969468441E-002   7.4283870681997530E-003
  -6.2436603081102104E-002   1.8879780283938108E-002   3.8382749467347210E-004
  -5.9539924857176629E-002   1.7935113493249832E-002   1.6993616543070633E-004
  -5.6643246633251154E-002   1.7038367364231671E-002   1.4477712776506113E-004
  -5.3746568409325679E-002   1.6189541896884672E-002   3.0835038167750795E-004
  -5.0849890185400204E-002   1.5388637091207524E-002   6.6065592716668675E-004
  -3.7607086506020404E-002   1.0962924604251412E-002   2.7757512375188309E-002
  -3.5216601568531875E-002   1.0183083278089589E-002   2.7171700675629462E-002
  -3.2826116631043262E-002   9.4320240944732459E-003   2.6728237865705884E-002
  -3.0435631693554649E-002   8.7097470534017868E-003   2.6427123945418018E-002
  -2.8045146756066119E-002   8.0162521548757804E-003   2.6268358914765533E-002
  -4.1084652814494554E-002   1.2069352725990357E-002   2.0976815292210738E-002
  -3.8565490201158029E-002   1.1285554473214499E-002   2.0509079206566638E-002
  -3.6046327587821503E-002   1.0513980548459242E-002   2.0156349582982985E-002
  -3.3527164974484991E-002   9.7546309517244460E-003   1.9918626421459751E-002
  -3.1008002361148451E-002   9.0075056830102307E-003   1.9795909721996852E-002
  -4.4450975530549247E-002   1.3175780847729579E-002   1.4200440189881341E-002
  -4.1830477668939846E-002   1.2388025668339409E-002   1.3834221903627361E-002
  -3.9209979807330445E-002   1.1595937002445128E-002   1.3555667651858963E-002
  -3.6589481945721029E-002   1.0799514850046661E-002   1.3364777434575814E-002
  -3.3968984084111684E-002   9.9987592111447365E-003   1.3261551251777914E-002
  -4.7706054654184447E-002   1.4282208969468441E-002   7.4283870681997530E-003
  -4.5011563971877194E-002   1.3490496863463874E-002   7.1471287668114884E-003
  -4.2317073289570004E-002   1.2677893456430958E-002   6.9261920723339421E-003
  -3.9622582607262868E-002   1.1844398748369765E-002   6.7655769847660176E-003
  -3.6928091924955567E-002   1.0990012739279326E-002   6.6652835041087558E-003
  -5.0849890185400204E-002   1.5388637091207524E-002   6.6065592716668675E-004
  -4.8108749109970206E-002   1.4592968058589006E-002   4.4779979611930809E-004
  -4.5367608034540263E-002   1.3759849910416955E-002   2.6792284440757541E-004
  -4.2626466959110265E-002   1.2889282646691633E-002   1.2102507203060053E-004
  -3.9885325883680323E-002   1.1981266267413471E-002   7.1064789890495916E-006
  -2.8045146756066119E-002   8.0162521548757804E-003   2.6268358914765533E-002
  -2.5702931147888297E-002   7.3066078239018006E-003   2.5685629446925540E-002
  -2.3360715539710475E-002   6.5358824854870601E-003   2.5048459731599970E-002
  -2.1018499931532625E-002   5.7040761396318015E-003   2.4356849768788380E-002
  -1.8676284323354830E-002   4.8111887863352409E-003   2.3610799558491102E-002
  -3.1008002361148451E-002   9.0075056830102307E-003   1.9795909721996852E-002
  -2.8701885303017510E-002   8.2643315866592348E-003   1.9200694338347368E-002
  -2.6395768244886639E-002   7.5168355070136805E-003   1.8587722102089949E-002
  -2.4089651186755705E-002   6.7650174440737690E-003   1.7956993013224481E-002
  -2.1783534128624771E-002   6.0088773978396182E-003   1.7308507071751078E-002
  -3.3968984084111684E-002   9.9987592111447365E-003   1.3261551251777914E-002
  -3.1662282181149776E-002   9.2220553494163915E-003   1.2710608976465337E-002
  -2.9355580278187958E-002   8.4977885285400928E-003   1.2178593243422714E-002
  -2.7048878375226119E-002   7.8259587485161840E-003   1.1665504052649607E-002
  -2.4742176472264288E-002   7.2065660093437178E-003   1.1171341404146357E-002
  -3.6928091924955567E-002   1.0990012739279326E-002   6.6652835041087558E-003
  -3.4584121782285045E-002   1.0179779112174020E-002   6.2153733612791834E-003
  -3.2240151639614550E-002   9.4787415500663316E-003   5.8210731555976801E-003
  -2.9896181496944021E-002   8.8869000529587083E-003   5.4823828870633872E-003
  -2.7552211354273538E-002   8.4042546208480673E-003   5.1993025556768754E-003
  -3.9885325883680323E-002   1.1981266267413471E-002   7.1064789890495916E-006
  -3.7467404106423352E-002   1.1137502874931204E-002  -2.8501250721085780E-004
  -3.5049482329166326E-002   1.0459694571593070E-002  -4.8483816138489289E-004
  -3.2631560551909355E-002   9.9478413574011076E-003  -5.9237048353372179E-004
  -3.0213638774652329E-002   9.6019432323524168E-003  -6.0760947365723350E-004
  -1.8676284323354830E-002   4.8111887863352409E-003   2.3610799558491102E-002
  -1.5653313228992327E-002   4.0779223372982010E-003   2.4396117436681353E-002
  -1.2630342134629796E-002   3.7249787042223925E-003   2.5656010363134085E-002
  -9.6073710402672513E-003   3.7523578871057062E-003   2.7390478337849272E-002
  -6.5843999459047620E-003   4.1600598859498072E-003   2.9599521360827219E-002
  -2.1783534128624771E-002   6.0088773978396182E-003   1.7308507071751078E-002
  -1.8555572773671675E-002   5.3422164659018279E-003   1.8254649137823376E-002
  -1.5327611418718690E-002   4.8588357458512199E-003   1.9136196676814154E-002
  -1.2099650063765621E-002   4.5587352376879053E-003   1.9953149688723248E-002
  -8.8716887088126084E-003   4.4419149414118841E-003   2.0705508173551213E-002
  -2.4742176472264288E-002   7.2065660093437178E-003   1.1171341404146357E-002
  -2.1848394432064849E-002   6.6065105945047886E-003   1.2081265054027901E-002
  -1.8954612391865328E-002   5.9926927874799363E-003   1.2387424601483704E-002
  -1.6060830351665844E-002   5.3651125882701045E-003   1.2089820046514238E-002
  -1.3167048311466312E-002   4.7237699968743496E-003   1.1188451389118920E-002
  -2.7552211354273538E-002   8.4042546208480673E-003   5.1993025556768754E-003
  -2.5531778204171580E-002   7.8708047231075828E-003   5.8759651852946931E-003
  -2.3511345054069814E-002   7.1265498291091522E-003   5.4096941371429008E-003
  -2.1490911903967933E-002   6.1714899388518596E-003   3.8004894112213458E-003
  -1.9470478753866097E-002   5.0056250523366208E-003   1.0483510075300420E-003
  -3.0213638774652329E-002   9.6019432323524168E-003  -6.0760947365723350E-004
  -2.9605724089992291E-002   9.1350988517117093E-003  -3.6125046837554020E-004
  -2.8997809405332087E-002   8.2604068707380907E-003  -1.7969947162084776E-003
  -2.8389894720671965E-002   6.9778672894345445E-003  -4.9148422171550049E-003
  -2.7781980036011844E-002   5.2874801077993361E-003  -9.7147929712149139E-003
  -6.5843999459047620E-003   4.1600598859498072E-003   2.9599521360827219E-002
  -6.0562826004345593E-003   6.1425986557076540E-003   3.4077012952926533E-002
  -5.5281652549643012E-003   1.0894488151334675E-002   3.9239445284709518E-002
  -5.0000479094940570E-003   1.8415728372829406E-002   4.5086818356176367E-002
  -4.4719305640238405E-003   2.8706319320192630E-002   5.1619132167327386E-002
  -8.8716887088126084E-003   4.4419149414118841E-003   2.0705508173551213E-002
  -7.5861745522204926E-003   5.6585756465655224E-003   2.5873901255762499E-002
  -6.3006603956283769E-003   9.3589181426911583E-003   3.1872147220533664E-002
  -5.0151462390363444E-003   1.5542942429788147E-002   3.8700246067864430E-002
  -3.7296320824442564E-003   2.4210648507856813E-002   4.6358197797755407E-002
  -1.3167048311466312E-002   4.7237699968743496E-003   1.1188451389118920E-002
  -1.0979225200876380E-002   5.1745526374235573E-003   1.6762077026545613E-002
  -8.7914020902864903E-003   7.8233481340478500E-003   2.3310467689407935E-002
  -6.6035789796965762E-003   1.2670156486746940E-002   3.0833623377706086E-002
  -4.4157558691065579E-003   1.9714977695520775E-002   3.9331544091440018E-002
  -1.9470478753866097E-002   5.0056250523366208E-003   1.0483510075300420E-003
  -1.6235434546402298E-002   4.6905296282811759E-003   6.7415402652751671E-003
  -1.3000390338938609E-002   6.2877781254042156E-003   1.3554406691332527E-002
  -9.7653461314749952E-003   9.7973705437050407E-003   2.1486950285701488E-002
  -6.5303019240111268E-003   1.5219306883184736E-002   3.0539171048381997E-002
  -2.7781980036011844E-002   5.2874801077993361E-003  -9.7147929712149139E-003
  -2.3354802588798296E-002   4.2065066191392386E-003  -4.1877090280475482E-003
  -1.8927625141584803E-002   4.7522081167609143E-003   2.6039642263080143E-003
  -1.4500447694371504E-002   6.9245846006644463E-003   1.0660226791850490E-002
  -1.0073270247157762E-002   1.0723636070848919E-002   1.9981078668581231E-002
 </DataArray>
 </PointData>
 </Piece>
 </UnstructuredGrid>
 </VTKFile>
