 <VTKFile type="UnstructuredGrid"  version="0.1"   >
 <UnstructuredGrid>
 <Piece  NumberOfPoints="           100 "  NumberOfCells="           64 ">
 <Points>
 <DataArray  type="Float64" NumberOfComponents="3"  format="ascii" >
   0.0000000000000000        0.0000000000000000        0.0000000000000000     
  0.12500000000000000        0.0000000000000000        0.0000000000000000     
  0.25000000000000000        0.0000000000000000        0.0000000000000000     
  0.37500000000000000        0.0000000000000000        0.0000000000000000     
  0.50000000000000000        0.0000000000000000        0.0000000000000000     
   0.0000000000000000       0.12500000000000000        0.0000000000000000     
  0.12500000000000000       0.12500000000000000        0.0000000000000000     
  0.25000000000000000       0.12500000000000000        0.0000000000000000     
  0.37500000000000000       0.12500000000000000        0.0000000000000000     
  0.50000000000000000       0.12500000000000000        0.0000000000000000     
   0.0000000000000000       0.25000000000000000        0.0000000000000000     
  0.12500000000000000       0.25000000000000000        0.0000000000000000     
  0.25000000000000000       0.25000000000000000        0.0000000000000000     
  0.37500000000000000       0.25000000000000000        0.0000000000000000     
  0.50000000000000000       0.25000000000000000        0.0000000000000000     
   0.0000000000000000       0.37500000000000000        0.0000000000000000     
  0.12500000000000000       0.37500000000000000        0.0000000000000000     
  0.25000000000000000       0.37500000000000000        0.0000000000000000     
  0.37500000000000000       0.37500000000000000        0.0000000000000000     
  0.50000000000000000       0.37500000000000000        0.0000000000000000     
   0.0000000000000000       0.50000000000000000        0.0000000000000000     
  0.12500000000000000       0.50000000000000000        0.0000000000000000     
  0.25000000000000000       0.50000000000000000        0.0000000000000000     
  0.37500000000000000       0.50000000000000000        0.0000000000000000     
  0.50000000000000000       0.50000000000000000        0.0000000000000000     
  0.50000000000000000        0.0000000000000000        0.0000000000000000     
  0.62500000000000000        0.0000000000000000        0.0000000000000000     
  0.75000000000000000        0.0000000000000000        0.0000000000000000     
  0.87500000000000000        0.0000000000000000        0.0000000000000000     
   1.0000000000000000        0.0000000000000000        0.0000000000000000     
  0.50000000000000000       0.12500000000000000        0.0000000000000000     
  0.62500000000000000       0.12500000000000000        0.0000000000000000     
  0.75000000000000000       0.12500000000000000        0.0000000000000000     
  0.87500000000000000       0.12500000000000000        0.0000000000000000     
   1.0000000000000000       0.12500000000000000        0.0000000000000000     
  0.50000000000000000       0.25000000000000000        0.0000000000000000     
  0.62500000000000000       0.25000000000000000        0.0000000000000000     
  0.75000000000000000       0.25000000000000000        0.0000000000000000     
  0.87500000000000000       0.25000000000000000        0.0000000000000000     
   1.0000000000000000       0.25000000000000000        0.0000000000000000     
  0.50000000000000000       0.37500000000000000        0.0000000000000000     
  0.62500000000000000       0.37500000000000000        0.0000000000000000     
  0.75000000000000000       0.37500000000000000        0.0000000000000000     
  0.87500000000000000       0.37500000000000000        0.0000000000000000     
   1.0000000000000000       0.37500000000000000        0.0000000000000000     
  0.50000000000000000       0.50000000000000000        0.0000000000000000     
  0.62500000000000000       0.50000000000000000        0.0000000000000000     
  0.75000000000000000       0.50000000000000000        0.0000000000000000     
  0.87500000000000000       0.50000000000000000        0.0000000000000000     
   1.0000000000000000       0.50000000000000000        0.0000000000000000     
   0.0000000000000000       0.50000000000000000        0.0000000000000000     
  0.12500000000000000       0.50000000000000000        0.0000000000000000     
  0.25000000000000000       0.50000000000000000        0.0000000000000000     
  0.37500000000000000       0.50000000000000000        0.0000000000000000     
  0.50000000000000000       0.50000000000000000        0.0000000000000000     
   0.0000000000000000       0.62500000000000000        0.0000000000000000     
  0.12500000000000000       0.62500000000000000        0.0000000000000000     
  0.25000000000000000       0.62500000000000000        0.0000000000000000     
  0.37500000000000000       0.62500000000000000        0.0000000000000000     
  0.50000000000000000       0.62500000000000000        0.0000000000000000     
   0.0000000000000000       0.75000000000000000        0.0000000000000000     
  0.12500000000000000       0.75000000000000000        0.0000000000000000     
  0.25000000000000000       0.75000000000000000        0.0000000000000000     
  0.37500000000000000       0.75000000000000000        0.0000000000000000     
  0.50000000000000000       0.75000000000000000        0.0000000000000000     
   0.0000000000000000       0.87500000000000000        0.0000000000000000     
  0.12500000000000000       0.87500000000000000        0.0000000000000000     
  0.25000000000000000       0.87500000000000000        0.0000000000000000     
  0.37500000000000000       0.87500000000000000        0.0000000000000000     
  0.50000000000000000       0.87500000000000000        0.0000000000000000     
   0.0000000000000000        1.0000000000000000        0.0000000000000000     
  0.12500000000000000        1.0000000000000000        0.0000000000000000     
  0.25000000000000000        1.0000000000000000        0.0000000000000000     
  0.37500000000000000        1.0000000000000000        0.0000000000000000     
  0.50000000000000000        1.0000000000000000        0.0000000000000000     
  0.50000000000000000       0.50000000000000000        0.0000000000000000     
  0.62500000000000000       0.50000000000000000        0.0000000000000000     
  0.75000000000000000       0.50000000000000000        0.0000000000000000     
  0.87500000000000000       0.50000000000000000        0.0000000000000000     
   1.0000000000000000       0.50000000000000000        0.0000000000000000     
  0.50000000000000000       0.62500000000000000        0.0000000000000000     
  0.62500000000000000       0.62500000000000000        0.0000000000000000     
  0.75000000000000000       0.62500000000000000        0.0000000000000000     
  0.87500000000000000       0.62500000000000000        0.0000000000000000     
   1.0000000000000000       0.62500000000000000        0.0000000000000000     
  0.50000000000000000       0.75000000000000000        0.0000000000000000     
  0.62500000000000000       0.75000000000000000        0.0000000000000000     
  0.75000000000000000       0.75000000000000000        0.0000000000000000     
  0.87500000000000000       0.75000000000000000        0.0000000000000000     
   1.0000000000000000       0.75000000000000000        0.0000000000000000     
  0.50000000000000000       0.87500000000000000        0.0000000000000000     
  0.62500000000000000       0.87500000000000000        0.0000000000000000     
  0.75000000000000000       0.87500000000000000        0.0000000000000000     
  0.87500000000000000       0.87500000000000000        0.0000000000000000     
   1.0000000000000000       0.87500000000000000        0.0000000000000000     
  0.50000000000000000        1.0000000000000000        0.0000000000000000     
  0.62500000000000000        1.0000000000000000        0.0000000000000000     
  0.75000000000000000        1.0000000000000000        0.0000000000000000     
  0.87500000000000000        1.0000000000000000        0.0000000000000000     
   1.0000000000000000        1.0000000000000000        0.0000000000000000     
 </DataArray>
 </Points>
 <Cells>
 <DataArray  type="Int32"  Name="connectivity"  format="ascii">
           0           1           6           5
           1           2           7           6
           2           3           8           7
           3           4           9           8
           5           6          11          10
           6           7          12          11
           7           8          13          12
           8           9          14          13
          10          11          16          15
          11          12          17          16
          12          13          18          17
          13          14          19          18
          15          16          21          20
          16          17          22          21
          17          18          23          22
          18          19          24          23
          25          26          31          30
          26          27          32          31
          27          28          33          32
          28          29          34          33
          30          31          36          35
          31          32          37          36
          32          33          38          37
          33          34          39          38
          35          36          41          40
          36          37          42          41
          37          38          43          42
          38          39          44          43
          40          41          46          45
          41          42          47          46
          42          43          48          47
          43          44          49          48
          50          51          56          55
          51          52          57          56
          52          53          58          57
          53          54          59          58
          55          56          61          60
          56          57          62          61
          57          58          63          62
          58          59          64          63
          60          61          66          65
          61          62          67          66
          62          63          68          67
          63          64          69          68
          65          66          71          70
          66          67          72          71
          67          68          73          72
          68          69          74          73
          75          76          81          80
          76          77          82          81
          77          78          83          82
          78          79          84          83
          80          81          86          85
          81          82          87          86
          82          83          88          87
          83          84          89          88
          85          86          91          90
          86          87          92          91
          87          88          93          92
          88          89          94          93
          90          91          96          95
          91          92          97          96
          92          93          98          97
          93          94          99          98
 </DataArray>
 <DataArray  type="Int32"  Name="offsets"  format="ascii"> 
           4
           8
          12
          16
          20
          24
          28
          32
          36
          40
          44
          48
          52
          56
          60
          64
          68
          72
          76
          80
          84
          88
          92
          96
         100
         104
         108
         112
         116
         120
         124
         128
         132
         136
         140
         144
         148
         152
         156
         160
         164
         168
         172
         176
         180
         184
         188
         192
         196
         200
         204
         208
         212
         216
         220
         224
         228
         232
         236
         240
         244
         248
         252
         256
 </DataArray>
 <DataArray  type="UInt8"  Name="types"  format="ascii">
 9
 9
 9
 9
 9
 9
 9
 9
 9
 9
 9
 9
 9
 9
 9
 9
 9
 9
 9
 9
 9
 9
 9
 9
 9
 9
 9
 9
 9
 9
 9
 9
 9
 9
 9
 9
 9
 9
 9
 9
 9
 9
 9
 9
 9
 9
 9
 9
 9
 9
 9
 9
 9
 9
 9
 9
 9
 9
 9
 9
 9
 9
 9
 9
 </DataArray>
 </Cells> 
 <PointData>
 <DataArray  type="Float64" Name="disp" NumberOfComponents="3" format="ascii">
   0.0000000000000000        0.0000000000000000        0.0000000000000000     
   1.9129982290755829E-002   1.1550697124557370E-002   0.0000000000000000     
   3.6351609995909986E-002   2.5735306692794818E-002   0.0000000000000000     
   5.1664883115462468E-002   4.2553828704712339E-002   0.0000000000000000     
   6.5069801649413270E-002   6.2006263160309938E-002   0.0000000000000000     
   0.0000000000000000        0.0000000000000000        0.0000000000000000     
   1.2713915370235461E-002   9.3216371953178823E-003   0.0000000000000000     
   2.4527186699460912E-002   2.2164153534612423E-002   0.0000000000000000     
   3.5439813987676351E-002   3.8527549017883626E-002   0.0000000000000000     
   4.5451797234881776E-002   5.8411823645131492E-002   0.0000000000000000     
   0.0000000000000000        0.0000000000000000        0.0000000000000000     
   7.3868960149360372E-003   7.7294515315753905E-003   0.0000000000000000     
   1.4527110601326228E-002   1.9613329850196433E-002   0.0000000000000000     
   2.1420643759170573E-002   3.5651634955863126E-002   0.0000000000000000     
   2.8067495488469069E-002   5.5844366848575466E-002   0.0000000000000000     
   0.0000000000000000        0.0000000000000000        0.0000000000000000     
   3.1489242248575570E-003   6.7741401333298954E-003   0.0000000000000000     
   6.3513817015059346E-003   1.8082835639546838E-002   0.0000000000000000     
   9.6073724299451345E-003   3.3926086518650811E-002   0.0000000000000000     
   1.2916896410175153E-002   5.4303892770641848E-002   0.0000000000000000     
   0.0000000000000000        0.0000000000000000        0.0000000000000000     
   1.9949319973733282E-017   6.4557030005813979E-003   0.0000000000000000     
   3.0791341698588326E-017   1.7572670902663637E-002   0.0000000000000000     
   3.2959746043559335E-017   3.3350903706246722E-002   0.0000000000000000     
   2.6020852139652106E-017   5.3790401411330645E-002   0.0000000000000000     
   6.5069801649413270E-002   6.2006263160309938E-002   0.0000000000000000     
   7.6963689584537642E-002   8.4569989937889667E-002   0.0000000000000000     
   8.7743870907610849E-002  0.11072238891575359        0.0000000000000000     
   9.7410345618632863E-002  0.14046346009390170        0.0000000000000000     
  0.10596311371760370       0.17379320347233401        0.0000000000000000     
   4.5451797234881776E-002   5.8411823645131492E-002   0.0000000000000000     
   5.4408207670343156E-002   8.1487375430720529E-002   0.0000000000000000     
   6.2154116523326454E-002  0.10742460238901523        0.0000000000000000     
   6.8689523793831669E-002  0.13622350452001564        0.0000000000000000     
   7.4014429481858823E-002  0.16788408182372172        0.0000000000000000     
   2.8067495488469069E-002   5.5844366848575466E-002   0.0000000000000000     
   3.4062432101522051E-002   7.9285507925599713E-002   0.0000000000000000     
   3.9000219910629859E-002  0.10506904058420213        0.0000000000000000     
   4.2880858915792491E-002  0.13319496482438273        0.0000000000000000     
   4.5704349117009935E-002  0.16366328064614150        0.0000000000000000     
   1.2916896410175153E-002   5.4303892770641848E-002   0.0000000000000000     
   1.5926362878074345E-002   7.7964387422527245E-002   0.0000000000000000     
   1.8282181069521057E-002  0.10365570350131427        0.0000000000000000     
   1.9984350984515297E-002  0.13137784100700303        0.0000000000000000     
   2.1032872623057058E-002  0.16113079993959339        0.0000000000000000     
   2.6020852139652106E-017   5.3790401411330645E-002   0.0000000000000000     
   2.8622937353617317E-017   7.7524013921503085E-002   0.0000000000000000     
   5.0306980803327406E-017  0.10318459114035167        0.0000000000000000     
   1.0148132334464322E-016  0.13077213306787644        0.0000000000000000     
   1.7347234759768071E-016  0.16028663970407736        0.0000000000000000     
   0.0000000000000000        0.0000000000000000        0.0000000000000000     
   1.9949319973733282E-017   6.4557030005813979E-003   0.0000000000000000     
   3.0791341698588326E-017   1.7572670902663637E-002   0.0000000000000000     
   3.2959746043559335E-017   3.3350903706246722E-002   0.0000000000000000     
   2.6020852139652106E-017   5.3790401411330645E-002   0.0000000000000000     
   0.0000000000000000        0.0000000000000000        0.0000000000000000     
  -3.1489242248575180E-003   6.7741401333298954E-003   0.0000000000000000     
  -6.3513817015058757E-003   1.8082835639546838E-002   0.0000000000000000     
  -9.6073724299450720E-003   3.3926086518650825E-002   0.0000000000000000     
  -1.2916896410175106E-002   5.4303892770641862E-002   0.0000000000000000     
   0.0000000000000000        0.0000000000000000        0.0000000000000000     
  -7.3868960149360060E-003   7.7294515315753905E-003   0.0000000000000000     
  -1.4527110601326179E-002   1.9613329850196433E-002   0.0000000000000000     
  -2.1420643759170525E-002   3.5651634955863133E-002   0.0000000000000000     
  -2.8067495488469041E-002   5.5844366848575494E-002   0.0000000000000000     
   0.0000000000000000        0.0000000000000000        0.0000000000000000     
  -1.2713915370235439E-002   9.3216371953178823E-003   0.0000000000000000     
  -2.4527186699460884E-002   2.2164153534612426E-002   0.0000000000000000     
  -3.5439813987676330E-002   3.8527549017883654E-002   0.0000000000000000     
  -4.5451797234881776E-002   5.8411823645131533E-002   0.0000000000000000     
   0.0000000000000000        0.0000000000000000        0.0000000000000000     
  -1.9129982290755822E-002   1.1550697124557367E-002   0.0000000000000000     
  -3.6351609995909986E-002   2.5735306692794821E-002   0.0000000000000000     
  -5.1664883115462482E-002   4.2553828704712367E-002   0.0000000000000000     
  -6.5069801649413311E-002   6.2006263160309993E-002   0.0000000000000000     
   2.6020852139652106E-017   5.3790401411330645E-002   0.0000000000000000     
   2.8622937353617317E-017   7.7524013921503085E-002   0.0000000000000000     
   5.0306980803327406E-017  0.10318459114035167        0.0000000000000000     
   1.0148132334464322E-016  0.13077213306787644        0.0000000000000000     
   1.7347234759768071E-016  0.16028663970407736        0.0000000000000000     
  -1.2916896410175106E-002   5.4303892770641862E-002   0.0000000000000000     
  -1.5926362878074304E-002   7.7964387422527245E-002   0.0000000000000000     
  -1.8282181069520967E-002  0.10365570350131431        0.0000000000000000     
  -1.9984350984515110E-002  0.13137784100700303        0.0000000000000000     
  -2.1032872623056725E-002  0.16113079993959345        0.0000000000000000     
  -2.8067495488469041E-002   5.5844366848575494E-002   0.0000000000000000     
  -3.4062432101522030E-002   7.9285507925599769E-002   0.0000000000000000     
  -3.9000219910629789E-002  0.10506904058420220        0.0000000000000000     
  -4.2880858915792353E-002  0.13319496482438284        0.0000000000000000     
  -4.5704349117009671E-002  0.16366328064614166        0.0000000000000000     
  -4.5451797234881776E-002   5.8411823645131533E-002   0.0000000000000000     
  -5.4408207670343170E-002   8.1487375430720613E-002   0.0000000000000000     
  -6.2154116523326454E-002  0.10742460238901537        0.0000000000000000     
  -6.8689523793831614E-002  0.13622350452001586        0.0000000000000000     
  -7.4014429481858657E-002  0.16788408182372200        0.0000000000000000     
  -6.5069801649413311E-002   6.2006263160309993E-002   0.0000000000000000     
  -7.6963689584537712E-002   8.4569989937889778E-002   0.0000000000000000     
  -8.7743870907610891E-002  0.11072238891575378        0.0000000000000000     
  -9.7410345618632890E-002  0.14046346009390204        0.0000000000000000     
 -0.10596311371760367       0.17379320347233448        0.0000000000000000     
 </DataArray>
 <DataArray  type="Float64" Name="stress" NumberOfComponents="3" format="ascii">
   10593842417.700220        3178152725.3100662        1889306012.8093538     
   9184117386.9144249        1532436626.3200941        1090534641.8338280     
   7934798264.8792830        421406889.83230162        510455795.90237808     
   6845885051.5947971       -154936484.15331030        149069475.01500419     
   5917377747.0609608       -196593495.63674450        6375679.1717065051     
   6943773568.7422247        2083132070.6226676        1395913407.3839173     
   6166368269.4240837        932811538.51154983        961944670.04239655     
   5509267401.6689329        183505778.27706718        681361147.19833684     
   4972470965.4767733       -164785210.08077884        554162838.85173857     
   4555978960.8476038       -112061426.56199145        580349745.00260115     
   3961443549.4728584        1188433064.8418574        1043490117.7943197     
   3629765665.7749009        477530404.85535347        927538957.36786401     
   3378290736.4522700        33970926.119939566        899665700.89225435     
   3207018761.5049667       -142245371.36438370        959870348.36749029     
   3115949740.9329910       -51118487.597617388        1108152899.7935729     
   1646852359.8921208        494055707.96763629        832036144.04056108     
   1574309575.9668758        166593225.35150439        987317503.81022918     
   1541868269.2292936       -27197666.639082611        1165369456.9841290     
   1549528439.6793754       -87316968.004123807        1366192003.5622590     
   1597290087.3171210       -13764678.743619442        1589785143.5446210     
   1.3039020412836660E-005   3.9117061238509975E-006   761551486.12264168     
   8.1551066266250343E-006   2.5506153965461187E-006   1141280309.3694932     
   3.6372004309491734E-006   1.7156605806364026E-006   1478472415.4739604     
  -7.5489065548001722E-007   1.6470341574109465E-006   1773127804.4360445     
  -4.9525402094370826E-006   1.5326567853685197E-006   2025246476.2557445     
   5917377747.0609608       -196593495.63674450        6375679.1717065051     
   5422490493.1731663       -64287095.980836153        128811284.46288729     
   4796127481.7075958       -370233221.58418584        210286487.61742720     
   4038288712.6642461       -1114431872.4467964        250801288.63532984     
   3148974186.0431166       -2296883048.5686684        250355687.51658934     
   4555978960.8476038       -112061426.56199145        580349745.00260115     
   3986894422.3536773       -72207356.243485212        564140424.08013737     
   3319203065.6764169       -361042679.86942410        553151823.90591919     
   2552904890.8158250       -978567397.43980515        547383944.47994876     
   1687999897.7718987       -1924781508.9546344        546836785.80222356     
   3115949740.9329910       -51118487.597617388        1108152899.7935729     
   2604613983.2183218       -64132927.000893116        991645748.61764896     
   2027540346.7147641       -296273629.03380144        926540441.07485795     
   1384728831.4223166       -747540593.69633675        912836977.16519868     
   676179437.34098029       -1417933820.9885042        950535356.88867176     
   1597290087.3171210       -13764678.743619442        1589785143.5446210     
   1275649175.7670982       -40063808.253063679        1411327258.0754220     
   921139324.82263136       -175926069.07732421        1330452339.1242416     
   533760534.48372066       -421351461.21639639        1347160386.6910827     
   113512804.75036418       -776339984.67028654        1461451400.7759395     
  -4.9525402094370826E-006   1.5326567853685197E-006   2025246476.2557445     
   8.3266726846886741E-006   7.2858385991025898E-006   1823184952.4534564     
   2.1545837458492156E-005   1.2838860011762413E-005   1764887518.0540736     
   3.4792881716730981E-005   1.7443978953620623E-005   1850354173.0575962     
   4.7031975383845921E-005   2.0770930762904713E-005   2079584917.4640229     
   1.3039020412836660E-005   3.9117061238509975E-006   761551486.12264168     
   8.1551066266250343E-006   2.5506153965461187E-006   1141280309.3694932     
   3.6372004309491734E-006   1.7156605806364026E-006   1478472415.4739604     
  -7.5489065548001722E-007   1.6470341574109465E-006   1773127804.4360445     
  -4.9525402094370826E-006   1.5326567853685197E-006   2025246476.2557445     
  -1646852359.8920963       -494055707.96762884        832036144.04056096     
  -1574309575.9668601       -166593225.35149974        987317503.81022894     
  -1541868269.2292871        27197666.639085531        1165369456.9841278     
  -1549528439.6793780        87316968.004126132        1366192003.5622582     
  -1597290087.3171313        13764678.743622780        1589785143.5446200     
  -3961443549.4728374       -1188433064.8418512        1043490117.7943192     
  -3629765665.7748880       -477530404.85535014        927538957.36786294     
  -3378290736.4522667       -33970926.119937897        899665700.89225256     
  -3207018761.5049710        142245371.36438620        959870348.36748898     
  -3115949740.9330025        51118487.597620487        1108152899.7935715     
  -6943773568.7422094       -2083132070.6226628        1395913407.3839161     
  -6166368269.4240761       -932811538.51154816        961944670.04239488     
  -5509267401.6689329       -183505778.27706623        681361147.19833481     
  -4972470965.4767809        164785210.08078218        554162838.85173690     
  -4555978960.8476171        112061426.56199741        580349745.00259984     
  -10593842417.700214       -3178152725.3100638        1889306012.8093522     
  -9184117386.9144249       -1532436626.3200953        1090534641.8338256     
  -7934798264.8792887       -421406889.83230352        510455795.90237534     
  -6845885051.5948067        154936484.15331125        149069475.01500210     
  -5917377747.0609760        196593495.63674712        6375679.1717048241     
  -4.9525402094370826E-006   1.5326567853685197E-006   2025246476.2557445     
   8.3266726846886741E-006   7.2858385991025898E-006   1823184952.4534564     
   2.1545837458492156E-005   1.2838860011762413E-005   1764887518.0540736     
   3.4792881716730981E-005   1.7443978953620623E-005   1850354173.0575962     
   4.7031975383845921E-005   2.0770930762904713E-005   2079584917.4640229     
  -1597290087.3171313        13764678.743622780        1589785143.5446200     
  -1275649175.7670829        40063808.253078997        1411327258.0754211     
  -921139324.82258856        175926069.07735312        1330452339.1242409     
  -533760534.48364830        421351461.21644664        1347160386.6910782     
  -113512804.75026622        776339984.67034912        1461451400.7759356     
  -3115949740.9330025        51118487.597620487        1108152899.7935715     
  -2604613983.2183075        64132927.000911593        991645748.61764765     
  -2027540346.7147245        296273629.03383470        926540441.07485592     
  -1384728831.4222498        747540593.69639540        912836977.16519535     
  -676179437.34088469        1417933820.9885895        950535356.88866568     
  -4555978960.8476171        112061426.56199741        580349745.00259984     
  -3986894422.3536701        72207356.243503094        564140424.08013690     
  -3319203065.6763854        361042679.86946273        553151823.90591860     
  -2552904890.8157663        978567397.43987536        547383944.47994578     
  -1687999897.7718143        1924781508.9547322        546836785.80221748     
  -5917377747.0609760        196593495.63674712        6375679.1717048241     
  -5422490493.1731663        64287095.980852842        128811284.46288881     
  -4796127481.7075748        370233221.58422661        210286487.61743209     
  -4038288712.6641989        1114431872.4468780        250801288.63533154     
  -3148974186.0430470        2296883048.5687885        250355687.51659063     
 </DataArray>
 <DataArray  type="Float64" Name="VM" NumberOfComponents="1" format="ascii">
   9968436908.3248768     
   8728693701.8834152     
   7783092185.7312527     
   6929465342.9919424     
   6018093413.0413284     
   6628450490.7386465     
   5993178469.9589157     
   5546843995.4813576     
   5147164335.4890270     
   4721278326.5045786     
   3957791369.4856005     
   3775035915.1135597     
   3705055165.4309855     
   3677694918.5661993     
   3681717951.4384360     
   2054124963.1516171     
   2273394421.0677843     
   2548389806.4717407     
   2853665105.6593823     
   3186810581.4811640     
   1319045866.5440001     
   1976755481.5058889     
   2560789341.1899819     
   3071147445.5962811     
   3507829794.7247853     
   6018093413.0413284     
   5459478838.4119358     
   5004823514.2170525     
   4715806997.3054800     
   4755267553.1757908     
   4721278326.5045786     
   4140433237.8864102     
   3641945304.1770105     
   3297270776.8431377     
   3271123646.9078641     
   3681717951.4384360     
   3147261098.8934064     
   2715664969.0623283     
   2451784233.8154984     
   2477314077.6928144     
   3186810581.4811640     
   2766862334.9388371     
   2520279813.4428992     
   2476259571.5301943     
   2666689717.2767963     
   3507829794.7247853     
   3157848969.2444344     
   3056874850.9137893     
   3204907439.7328515     
   3601946735.7016177     
   1319045866.5440001     
   1976755481.5058889     
   2560789341.1899819     
   3071147445.5962811     
   3507829794.7247853     
   2054124963.1516013     
   2273394421.0677748     
   2548389806.4717360     
   2853665105.6593838     
   3186810581.4811683     
   3957791369.4855833     
   3775035915.1135488     
   3705055165.4309816     
   3677694918.5662031     
   3681717951.4384460     
   6628450490.7386341     
   5993178469.9589090     
   5546843995.4813576     
   5147164335.4890356     
   4721278326.5045948     
   9968436908.3248730     
   8728693701.8834152     
   7783092185.7312574     
   6929465342.9919519     
   6018093413.0413456     
   3507829794.7247853     
   3157848969.2444344     
   3056874850.9137893     
   3204907439.7328515     
   3601946735.7016177     
   3186810581.4811683     
   2766862334.9388323     
   2520279813.4428887     
   2476259571.5301795     
   2666689717.2767916     
   3681717951.4384460     
   3147261098.8934011     
   2715664969.0623107     
   2451784233.8154817     
   2477314077.6928148     
   4721278326.5045948     
   4140433237.8864121     
   3641945304.1770015     
   3297270776.8431301     
   3271123646.9078751     
   6018093413.0413456     
   5459478838.4119453     
   5004823514.2170544     
   4715806997.3054886     
   4755267553.1758261     
 </DataArray>
 <DataArray  type="Float64" Name="strain" NumberOfComponents="3" format="ascii">
  0.16067327666845335        0.0000000000000000        8.1869927221738664E-002
  0.14540643998363995       -2.0379976495903892E-002   4.7256501146132543E-002
  0.13013960329882654       -3.2650543160524723E-002   2.2119751155769717E-002
  0.11487276661401316       -3.6811699993862489E-002   6.4596772506501816E-003
   9.9605929929199741E-002  -3.2863446995917214E-002   2.7627943077394856E-004
  0.10531389912592375        0.0000000000000000        6.0489580986636420E-002
   9.8108746797843649E-002  -1.5284982371927922E-002   4.1684269035170515E-002
   9.0903594469763552E-002  -2.4487907370393545E-002   2.9525649711927931E-002
   8.3698442141683455E-002  -2.7608774995396851E-002   2.4013723016908670E-002
   7.6493289813603357E-002  -2.4647585246937876E-002   2.5148488950112714E-002
   6.0081893833671685E-002   0.0000000000000000        4.5217905104420524E-002
   5.8108442405304911E-002  -1.0189988247951944E-002   4.0193354819274107E-002
   5.6134990976938137E-002  -1.6325271580262361E-002   3.8985513705331022E-002
   5.4161539548571370E-002  -1.8405849996931230E-002   4.1594381762591247E-002
   5.2188088120204604E-002  -1.6431723497958579E-002   4.8019958991054823E-002
   2.4977260791697167E-002   0.0000000000000000        3.6054899575090983E-002
   2.5405526806023739E-002  -5.0949941239759721E-003   4.2783758498443264E-002
   2.5833792820350306E-002  -8.1626357901311772E-003   5.0499343135978925E-002
   2.6262058834676878E-002  -9.2029249984656083E-003   5.9201653487697889E-002
   2.6690324849003445E-002  -8.2158617489792619E-003   6.8890689553600240E-002
   1.9775847626135601E-016   0.0000000000000000        3.3000564398647805E-002
   1.2316536679435330E-016   1.7347234759768071E-018   4.9455480072678040E-002
   5.2041704279304213E-017   1.0408340855860843E-017   6.4067138003871621E-002
  -2.0816681711721685E-017   3.1225022567582528E-017   7.6835538192228589E-002
  -9.0205620750793969E-017   5.0306980803327406E-017   8.7760680637748931E-002
   9.9605929929199741E-002  -3.2863446995917214E-002   2.7627943077394856E-004
   9.0696277032790276E-002  -2.8183904065546432E-002   5.5818223267251159E-003
   8.1786624136380853E-002  -3.0151191101607740E-002   9.1124144634218453E-003
   7.2876971239971416E-002  -3.8765308104101170E-002   1.0868055840864293E-002
   6.3967318343561952E-002  -5.4026255073026719E-002   1.0848746459052205E-002
   7.6493289813603357E-002  -2.4647585246937876E-002   2.5148488950112714E-002
   6.6809277153778712E-002  -2.1137928049159808E-002   2.4446085043472621E-002
   5.7125264493954067E-002  -2.2613393326205818E-002   2.3969912369256500E-002
   4.7441251834129443E-002  -2.9073981078075878E-002   2.3719970927464445E-002
   3.7757239174304819E-002  -4.0519691304770067E-002   2.3696260718096357E-002
   5.2188088120204604E-002  -1.6431723497958579E-002   4.8019958991054823E-002
   4.3730897688643161E-002  -1.4091952032773161E-002   4.2971315773431454E-002
   3.5273707257081739E-002  -1.5075595550803842E-002   4.0150085779910513E-002
   2.6816516825520297E-002  -1.9382654052050530E-002   3.9556269010491946E-002
   1.8359326393958861E-002  -2.7013127536513304E-002   4.1189865465175779E-002
   2.6690324849003445E-002  -8.2158617489792619E-003   6.8890689553600240E-002
   2.1461138637383623E-002  -7.0459760163865525E-003   6.1157514516601619E-002
   1.6231952425763811E-002  -7.5377977754018935E-003   5.7652934695383802E-002
   1.1002766214143993E-002  -9.6913270260252093E-003   5.8376950089946915E-002
   5.7735800025241688E-003  -1.3506563768256596E-002   6.3329560700290707E-002
  -9.0205620750793969E-017   5.0306980803327406E-017   8.7760680637748931E-002
   1.0234868508263162E-016   7.9797279894933126E-017   7.9004681272983115E-002
   2.9490299091605721E-016   1.0625181290357943E-016   7.6478459115676523E-002
   4.9266146717741321E-016   1.1676857397668883E-016   8.0182014165829166E-002
   6.8001160258290838E-016   1.1102230246251565E-016   9.0115346423440990E-002
   1.9775847626135601E-016   0.0000000000000000        3.3000564398647805E-002
   1.2316536679435330E-016   1.7347234759768071E-018   4.9455480072678040E-002
   5.2041704279304213E-017   1.0408340855860843E-017   6.4067138003871621E-002
  -2.0816681711721685E-017   3.1225022567582528E-017   7.6835538192228589E-002
  -9.0205620750793969E-017   5.0306980803327406E-017   8.7760680637748931E-002
  -2.4977260791696793E-002   0.0000000000000000        3.6054899575090976E-002
  -2.5405526806023503E-002   5.0949941239759712E-003   4.2783758498443257E-002
  -2.5833792820350213E-002   8.1626357901311945E-003   5.0499343135978869E-002
  -2.6262058834676930E-002   9.2029249984656586E-003   5.9201653487697861E-002
  -2.6690324849003633E-002   8.2158617489793695E-003   6.8890689553600198E-002
  -6.0081893833671365E-002   0.0000000000000000        4.5217905104420496E-002
  -5.8108442405304717E-002   1.0189988247951937E-002   4.0193354819274059E-002
  -5.6134990976938082E-002   1.6325271580262368E-002   3.8985513705330946E-002
  -5.4161539548571447E-002   1.8405849996931289E-002   4.1594381762591191E-002
  -5.2188088120204812E-002   1.6431723497958687E-002   4.8019958991054761E-002
 -0.10531389912592351        0.0000000000000000        6.0489580986636371E-002
  -9.8108746797843538E-002   1.5284982371927913E-002   4.1684269035170446E-002
  -9.0903594469763552E-002   2.4487907370393559E-002   2.9525649711927844E-002
  -8.3698442141683579E-002   2.7608774995396938E-002   2.4013723016908600E-002
  -7.6493289813603607E-002   2.4647585246938043E-002   2.5148488950112659E-002
 -0.16067327666845324        0.0000000000000000        8.1869927221738595E-002
 -0.14540643998363995        2.0379976495903875E-002   4.7256501146132439E-002
 -0.13013960329882662        3.2650543160524723E-002   2.2119751155769599E-002
 -0.11487276661401334        3.6811699993862551E-002   6.4596772506500914E-003
  -9.9605929929200018E-002   3.2863446995917339E-002   2.7627943077387571E-004
  -9.0205620750793969E-017   5.0306980803327406E-017   8.7760680637748931E-002
   1.0234868508263162E-016   7.9797279894933126E-017   7.9004681272983115E-002
   2.9490299091605721E-016   1.0625181290357943E-016   7.6478459115676523E-002
   4.9266146717741321E-016   1.1676857397668883E-016   8.0182014165829166E-002
   6.8001160258290838E-016   1.1102230246251565E-016   9.0115346423440990E-002
  -2.6690324849003633E-002   8.2158617489793695E-003   6.8890689553600198E-002
  -2.1461138637383442E-002   7.0459760163867312E-003   6.1157514516601577E-002
  -1.6231952425763242E-002   7.5377977754021615E-003   5.7652934695383767E-002
  -1.1002766214143037E-002   9.6913270260256847E-003   5.8376950089946721E-002
  -5.7735800025228504E-003   1.3506563768257152E-002   6.3329560700290541E-002
  -5.2188088120204812E-002   1.6431723497958687E-002   4.8019958991054761E-002
  -4.3730897688643022E-002   1.4091952032773398E-002   4.2971315773431398E-002
  -3.5273707257081253E-002   1.5075595550804203E-002   4.0150085779910423E-002
  -2.6816516825519474E-002   1.9382654052051172E-002   3.9556269010491800E-002
  -1.8359326393957692E-002   2.7013127536514248E-002   4.1189865465175515E-002
  -7.6493289813603607E-002   2.4647585246938043E-002   2.5148488950112659E-002
  -6.6809277153778684E-002   2.1137928049160072E-002   2.4446085043472600E-002
  -5.7125264493953741E-002   2.2613393326206307E-002   2.3969912369256472E-002
  -4.7441251834128811E-002   2.9073981078076752E-002   2.3719970927464317E-002
  -3.7757239174303903E-002   4.0519691304771274E-002   2.3696260718096093E-002
  -9.9605929929200018E-002   3.2863446995917339E-002   2.7627943077387571E-004
  -9.0696277032790373E-002   2.8183904065546713E-002   5.5818223267251818E-003
  -8.1786624136380714E-002   3.0151191101608320E-002   9.1124144634220569E-003
  -7.2876971239971042E-002   3.8765308104102295E-002   1.0868055840864367E-002
  -6.3967318343561397E-002   5.4026255073028384E-002   1.0848746459052261E-002
 </DataArray>
 </PointData>
 </Piece>
 <Piece  NumberOfPoints="           100 "  NumberOfCells="           64 ">
 <Points>
 <DataArray  type="Float64" NumberOfComponents="3"  format="ascii" >
  0.50000000000000000        0.0000000000000000        0.0000000000000000     
  0.62500000000000000        0.0000000000000000        0.0000000000000000     
  0.75000000000000000        0.0000000000000000        0.0000000000000000     
  0.87500000000000000        0.0000000000000000        0.0000000000000000     
   1.0000000000000000        0.0000000000000000        0.0000000000000000     
  0.50000000000000000       0.12500000000000000        0.0000000000000000     
  0.62500000000000000       0.12500000000000000        0.0000000000000000     
  0.75000000000000000       0.12500000000000000        0.0000000000000000     
  0.87500000000000000       0.12500000000000000        0.0000000000000000     
   1.0000000000000000       0.12500000000000000        0.0000000000000000     
  0.50000000000000000       0.25000000000000000        0.0000000000000000     
  0.62500000000000000       0.25000000000000000        0.0000000000000000     
  0.75000000000000000       0.25000000000000000        0.0000000000000000     
  0.87500000000000000       0.25000000000000000        0.0000000000000000     
   1.0000000000000000       0.25000000000000000        0.0000000000000000     
  0.50000000000000000       0.37500000000000000        0.0000000000000000     
  0.62500000000000000       0.37500000000000000        0.0000000000000000     
  0.75000000000000000       0.37500000000000000        0.0000000000000000     
  0.87500000000000000       0.37500000000000000        0.0000000000000000     
   1.0000000000000000       0.37500000000000000        0.0000000000000000     
  0.50000000000000000       0.50000000000000000        0.0000000000000000     
  0.62500000000000000       0.50000000000000000        0.0000000000000000     
  0.75000000000000000       0.50000000000000000        0.0000000000000000     
  0.87500000000000000       0.50000000000000000        0.0000000000000000     
   1.0000000000000000       0.50000000000000000        0.0000000000000000     
   1.0000000000000000        0.0000000000000000        0.0000000000000000     
   1.1250000000000000        0.0000000000000000        0.0000000000000000     
   1.2500000000000000        0.0000000000000000        0.0000000000000000     
   1.3750000000000000        0.0000000000000000        0.0000000000000000     
   1.5000000000000000        0.0000000000000000        0.0000000000000000     
   1.0000000000000000       0.12500000000000000        0.0000000000000000     
   1.1250000000000000       0.12500000000000000        0.0000000000000000     
   1.2500000000000000       0.12500000000000000        0.0000000000000000     
   1.3750000000000000       0.12500000000000000        0.0000000000000000     
   1.5000000000000000       0.12500000000000000        0.0000000000000000     
   1.0000000000000000       0.25000000000000000        0.0000000000000000     
   1.1250000000000000       0.25000000000000000        0.0000000000000000     
   1.2500000000000000       0.25000000000000000        0.0000000000000000     
   1.3750000000000000       0.25000000000000000        0.0000000000000000     
   1.5000000000000000       0.25000000000000000        0.0000000000000000     
   1.0000000000000000       0.37500000000000000        0.0000000000000000     
   1.1250000000000000       0.37500000000000000        0.0000000000000000     
   1.2500000000000000       0.37500000000000000        0.0000000000000000     
   1.3750000000000000       0.37500000000000000        0.0000000000000000     
   1.5000000000000000       0.37500000000000000        0.0000000000000000     
   1.0000000000000000       0.50000000000000000        0.0000000000000000     
   1.1250000000000000       0.50000000000000000        0.0000000000000000     
   1.2500000000000000       0.50000000000000000        0.0000000000000000     
   1.3750000000000000       0.50000000000000000        0.0000000000000000     
   1.5000000000000000       0.50000000000000000        0.0000000000000000     
  0.50000000000000000       0.50000000000000000        0.0000000000000000     
  0.62500000000000000       0.50000000000000000        0.0000000000000000     
  0.75000000000000000       0.50000000000000000        0.0000000000000000     
  0.87500000000000000       0.50000000000000000        0.0000000000000000     
   1.0000000000000000       0.50000000000000000        0.0000000000000000     
  0.50000000000000000       0.62500000000000000        0.0000000000000000     
  0.62500000000000000       0.62500000000000000        0.0000000000000000     
  0.75000000000000000       0.62500000000000000        0.0000000000000000     
  0.87500000000000000       0.62500000000000000        0.0000000000000000     
   1.0000000000000000       0.62500000000000000        0.0000000000000000     
  0.50000000000000000       0.75000000000000000        0.0000000000000000     
  0.62500000000000000       0.75000000000000000        0.0000000000000000     
  0.75000000000000000       0.75000000000000000        0.0000000000000000     
  0.87500000000000000       0.75000000000000000        0.0000000000000000     
   1.0000000000000000       0.75000000000000000        0.0000000000000000     
  0.50000000000000000       0.87500000000000000        0.0000000000000000     
  0.62500000000000000       0.87500000000000000        0.0000000000000000     
  0.75000000000000000       0.87500000000000000        0.0000000000000000     
  0.87500000000000000       0.87500000000000000        0.0000000000000000     
   1.0000000000000000       0.87500000000000000        0.0000000000000000     
  0.50000000000000000        1.0000000000000000        0.0000000000000000     
  0.62500000000000000        1.0000000000000000        0.0000000000000000     
  0.75000000000000000        1.0000000000000000        0.0000000000000000     
  0.87500000000000000        1.0000000000000000        0.0000000000000000     
   1.0000000000000000        1.0000000000000000        0.0000000000000000     
   1.0000000000000000       0.50000000000000000        0.0000000000000000     
   1.1250000000000000       0.50000000000000000        0.0000000000000000     
   1.2500000000000000       0.50000000000000000        0.0000000000000000     
   1.3750000000000000       0.50000000000000000        0.0000000000000000     
   1.5000000000000000       0.50000000000000000        0.0000000000000000     
   1.0000000000000000       0.62500000000000000        0.0000000000000000     
   1.1250000000000000       0.62500000000000000        0.0000000000000000     
   1.2500000000000000       0.62500000000000000        0.0000000000000000     
   1.3750000000000000       0.62500000000000000        0.0000000000000000     
   1.5000000000000000       0.62500000000000000        0.0000000000000000     
   1.0000000000000000       0.75000000000000000        0.0000000000000000     
   1.1250000000000000       0.75000000000000000        0.0000000000000000     
   1.2500000000000000       0.75000000000000000        0.0000000000000000     
   1.3750000000000000       0.75000000000000000        0.0000000000000000     
   1.5000000000000000       0.75000000000000000        0.0000000000000000     
   1.0000000000000000       0.87500000000000000        0.0000000000000000     
   1.1250000000000000       0.87500000000000000        0.0000000000000000     
   1.2500000000000000       0.87500000000000000        0.0000000000000000     
   1.3750000000000000       0.87500000000000000        0.0000000000000000     
   1.5000000000000000       0.87500000000000000        0.0000000000000000     
   1.0000000000000000        1.0000000000000000        0.0000000000000000     
   1.1250000000000000        1.0000000000000000        0.0000000000000000     
   1.2500000000000000        1.0000000000000000        0.0000000000000000     
   1.3750000000000000        1.0000000000000000        0.0000000000000000     
   1.5000000000000000        1.0000000000000000        0.0000000000000000     
 </DataArray>
 </Points>
 <Cells>
 <DataArray  type="Int32"  Name="connectivity"  format="ascii">
           0           1           6           5
           1           2           7           6
           2           3           8           7
           3           4           9           8
           5           6          11          10
           6           7          12          11
           7           8          13          12
           8           9          14          13
          10          11          16          15
          11          12          17          16
          12          13          18          17
          13          14          19          18
          15          16          21          20
          16          17          22          21
          17          18          23          22
          18          19          24          23
          25          26          31          30
          26          27          32          31
          27          28          33          32
          28          29          34          33
          30          31          36          35
          31          32          37          36
          32          33          38          37
          33          34          39          38
          35          36          41          40
          36          37          42          41
          37          38          43          42
          38          39          44          43
          40          41          46          45
          41          42          47          46
          42          43          48          47
          43          44          49          48
          50          51          56          55
          51          52          57          56
          52          53          58          57
          53          54          59          58
          55          56          61          60
          56          57          62          61
          57          58          63          62
          58          59          64          63
          60          61          66          65
          61          62          67          66
          62          63          68          67
          63          64          69          68
          65          66          71          70
          66          67          72          71
          67          68          73          72
          68          69          74          73
          75          76          81          80
          76          77          82          81
          77          78          83          82
          78          79          84          83
          80          81          86          85
          81          82          87          86
          82          83          88          87
          83          84          89          88
          85          86          91          90
          86          87          92          91
          87          88          93          92
          88          89          94          93
          90          91          96          95
          91          92          97          96
          92          93          98          97
          93          94          99          98
 </DataArray>
 <DataArray  type="Int32"  Name="offsets"  format="ascii"> 
           4
           8
          12
          16
          20
          24
          28
          32
          36
          40
          44
          48
          52
          56
          60
          64
          68
          72
          76
          80
          84
          88
          92
          96
         100
         104
         108
         112
         116
         120
         124
         128
         132
         136
         140
         144
         148
         152
         156
         160
         164
         168
         172
         176
         180
         184
         188
         192
         196
         200
         204
         208
         212
         216
         220
         224
         228
         232
         236
         240
         244
         248
         252
         256
 </DataArray>
 <DataArray  type="UInt8"  Name="types"  format="ascii">
 9
 9
 9
 9
 9
 9
 9
 9
 9
 9
 9
 9
 9
 9
 9
 9
 9
 9
 9
 9
 9
 9
 9
 9
 9
 9
 9
 9
 9
 9
 9
 9
 9
 9
 9
 9
 9
 9
 9
 9
 9
 9
 9
 9
 9
 9
 9
 9
 9
 9
 9
 9
 9
 9
 9
 9
 9
 9
 9
 9
 9
 9
 9
 9
 </DataArray>
 </Cells> 
 <PointData>
 <DataArray  type="Float64" Name="disp" NumberOfComponents="3" format="ascii">
   6.2509046437622062E-002   5.7657256202647555E-002   0.0000000000000000     
   7.5306299145345687E-002   8.2398995406735870E-002   0.0000000000000000     
   8.6205979771778796E-002  0.10876068858588783        0.0000000000000000     
   9.5208088316921430E-002  0.13674233574010347        0.0000000000000000     
  0.10231262478077353       0.16634393686938281        0.0000000000000000     
   4.5362149030279977E-002   5.6652625401072132E-002   0.0000000000000000     
   5.4562055358624489E-002   8.0826821974351815E-002   0.0000000000000000     
   6.2401414311416388E-002  0.10696092850570052        0.0000000000000000     
   6.8880225888655680E-002  0.13505494499511816        0.0000000000000000     
   7.3998490090342373E-002  0.16510887144260486        0.0000000000000000     
   2.9228342154895583E-002   5.5935031971375331E-002   0.0000000000000000     
   3.5096257572159811E-002   7.9703840951220351E-002   0.0000000000000000     
   4.0098895862665809E-002  0.10567538559128099        0.0000000000000000     
   4.4236257026413560E-002  0.13384966589155728        0.0000000000000000     
   4.7508341063403084E-002  0.16422668185204925        0.0000000000000000     
   1.4107625811468877E-002   5.5504475913557172E-002   0.0000000000000000     
   1.6908905785951653E-002   7.9030052337341436E-002   0.0000000000000000     
   1.9298424425527046E-002  0.10490405984262928        0.0000000000000000     
   2.1276181730195055E-002  0.13312649842942076        0.0000000000000000     
   2.2842177699955675E-002  0.16369736809771582        0.0000000000000000     
  -1.3877787807814457E-016   5.5360957227617642E-002   0.0000000000000000     
   1.9081958235744878E-017   7.8805456132715085E-002   0.0000000000000000     
   1.2359904766334751E-016  0.10464695125974539        0.0000000000000000     
   1.6750923564901044E-016  0.13288544260870860        0.0000000000000000     
   1.6132928326584306E-016  0.16352093017960467        0.0000000000000000     
  0.10231262478077353       0.16634393686938281        0.0000000000000000     
  0.10780615338593617       0.19752450374846300        0.0000000000000000     
  0.11197523835501036       0.23024304815208138        0.0000000000000000     
  0.11481987968799609       0.26449957008023789        0.0000000000000000     
  0.11634007738489338       0.30029406953293253        0.0000000000000000     
   7.3998490090342373E-002  0.16510887144260486        0.0000000000000000     
   7.7933201953693063E-002  0.19670417258019324        0.0000000000000000     
   8.0861356515924410E-002  0.22942231313991590        0.0000000000000000     
   8.2782953777036400E-002  0.26326329312177288        0.0000000000000000     
   8.3697993737029006E-002  0.29822711252576417        0.0000000000000000     
   4.7508341063403084E-002  0.16422668185204925        0.0000000000000000     
   5.0007859245289360E-002  0.19611822174571475        0.0000000000000000     
   5.1827522843727387E-002  0.22883607384551191        0.0000000000000000     
   5.2967331858717166E-002  0.26238023815144063        0.0000000000000000     
   5.3427286290258696E-002  0.29675071466350100        0.0000000000000000     
   2.2842177699955675E-002  0.16369736809771582        0.0000000000000000     
   2.4030125260725045E-002  0.19576665124502768        0.0000000000000000     
   2.4873737338419293E-002  0.22848433026886952        0.0000000000000000     
   2.5373013933038414E-002  0.26185040516924135        0.0000000000000000     
   2.5527955044582412E-002  0.29586487594614314        0.0000000000000000     
   1.6132928326584306E-016  0.16352093017960467        0.0000000000000000     
   1.2663481374630692E-016  0.19564946107813189        0.0000000000000000     
   1.2490009027033011E-016  0.22836708240998865        0.0000000000000000     
   1.3574211199518516E-016  0.26167379417517489        0.0000000000000000     
   1.7000290064572710E-016  0.29556959637369057        0.0000000000000000     
  -1.3877787807814457E-016   5.5360957227617642E-002   0.0000000000000000     
   1.9081958235744878E-017   7.8805456132715085E-002   0.0000000000000000     
   1.2359904766334751E-016  0.10464695125974539        0.0000000000000000     
   1.6750923564901044E-016  0.13288544260870860        0.0000000000000000     
   1.6132928326584306E-016  0.16352093017960467        0.0000000000000000     
  -1.4107625811469149E-002   5.5504475913556804E-002   0.0000000000000000     
  -1.6908905785951618E-002   7.9030052337341283E-002   0.0000000000000000     
  -1.9298424425526817E-002  0.10490405984262929        0.0000000000000000     
  -2.1276181730194740E-002  0.13312649842942076        0.0000000000000000     
  -2.2842177699955377E-002  0.16369736809771576        0.0000000000000000     
  -2.9228342154895840E-002   5.5935031971374692E-002   0.0000000000000000     
  -3.5096257572159797E-002   7.9703840951220073E-002   0.0000000000000000     
  -4.0098895862665629E-002  0.10567538559128092        0.0000000000000000     
  -4.4236257026413303E-002  0.13384966589155725        0.0000000000000000     
  -4.7508341063402834E-002  0.16422668185204914        0.0000000000000000     
  -4.5362149030280206E-002   5.6652625401071320E-002   0.0000000000000000     
  -5.4562055358624524E-002   8.0826821974351412E-002   0.0000000000000000     
  -6.2401414311416305E-002  0.10696092850570037        0.0000000000000000     
  -6.8880225888655514E-002  0.13505494499511814        0.0000000000000000     
  -7.3998490090342220E-002  0.16510887144260475        0.0000000000000000     
  -6.2509046437622257E-002   5.7657256202646674E-002   0.0000000000000000     
  -7.5306299145345756E-002   8.2398995406735343E-002   0.0000000000000000     
  -8.6205979771778823E-002  0.10876068858588754        0.0000000000000000     
  -9.5208088316921402E-002  0.13674233574010330        0.0000000000000000     
 -0.10231262478077351       0.16634393686938259        0.0000000000000000     
   1.6132928326584306E-016  0.16352093017960467        0.0000000000000000     
   1.2663481374630692E-016  0.19564946107813189        0.0000000000000000     
   1.2490009027033011E-016  0.22836708240998865        0.0000000000000000     
   1.3574211199518516E-016  0.26167379417517489        0.0000000000000000     
   1.7000290064572710E-016  0.29556959637369057        0.0000000000000000     
  -2.2842177699955377E-002  0.16369736809771576        0.0000000000000000     
  -2.4030125260724795E-002  0.19576665124502751        0.0000000000000000     
  -2.4873737338419060E-002  0.22848433026886938        0.0000000000000000     
  -2.5373013933038164E-002  0.26185040516924124        0.0000000000000000     
  -2.5527955044582100E-002  0.29586487594614319        0.0000000000000000     
  -4.7508341063402834E-002  0.16422668185204914        0.0000000000000000     
  -5.0007859245289159E-002  0.19611822174571458        0.0000000000000000     
  -5.1827522843727207E-002  0.22883607384551172        0.0000000000000000     
  -5.2967331858716972E-002  0.26238023815144057        0.0000000000000000     
  -5.3427286290258461E-002  0.29675071466350117        0.0000000000000000     
  -7.3998490090342220E-002  0.16510887144260475        0.0000000000000000     
  -7.7933201953692938E-002  0.19670417258019296        0.0000000000000000     
  -8.0861356515924313E-002  0.22942231313991568        0.0000000000000000     
  -8.2782953777036303E-002  0.26326329312177277        0.0000000000000000     
  -8.3697993737028908E-002  0.29822711252576434        0.0000000000000000     
 -0.10231262478077351       0.16634393686938259        0.0000000000000000     
 -0.10780615338593617       0.19752450374846281        0.0000000000000000     
 -0.11197523835501039       0.23024304815208127        0.0000000000000000     
 -0.11481987968799615       0.26449957008023794        0.0000000000000000     
 -0.11634007738489348       0.30029406953293286        0.0000000000000000     
 </DataArray>
 <DataArray  type="Float64" Name="stress" NumberOfComponents="3" format="ascii">
   7068972607.7087173        1569580028.3055360        1159074377.2127132     
   5965416673.0419016        927175576.14761865        769522967.03458726     
   4923341004.0614519        489705342.94425035        482968837.01824343     
   3942745600.7673626        257169328.69541812        299411987.16368091     
   3023630463.1596403        229567533.40114856        218852417.47090116     
   5075259629.7652617        1109244073.4242444        1209948822.0705147     
   4280629172.1710148        637351682.32758296        932147218.28700113     
   3532108913.8415332        319159955.44681931        749634379.53723514     
   2829698854.7768226        154668892.78196061        662410305.82121646     
   2173398994.9768872        143878494.33300912        670474997.13894463     
   3232526535.8326688        694202083.74621105        1299725453.5996895     
   2724797226.3737416        386214455.02962995        1115741912.0522611     
   2247808049.7579908        180693935.79030466        1019338620.4105474     
   1801559005.9854188        77640526.028240323        1010515578.6745466     
   1386050095.0560234        77054225.743431807        1089272786.8442595     
   1540773325.9109366        324454059.27143669        1428404271.8002350     
   1297920835.6500890        173763894.25376207        1320307048.3303683     
   1070438411.8108263        74307283.974701583        1292081559.6381822     
   858326054.39314747        26084228.434253216        1343727805.7236736     
   661583763.39705205        29094727.632419676        1475245786.5868425     
   6.5881366296437872E-005  -8.0155662327332730E-005   1595985276.6721518     
   5.7554693611749184E-005  -1.7705617192167671E-005   1545842627.1213231     
   3.9780449996356057E-005   1.2558635450258467E-005   1567863197.2201378     
   1.2976112858213325E-005   1.4457299826162752E-005   1662046986.9685948     
  -2.3424485794289017E-005  -1.7019352959913115E-005   1828393996.3666961     
   3023630463.1596403        229567533.40114856        218852417.47090116     
   2400026577.5307794        269997732.37980384        203593817.94212043     
   1701345911.0590281        60171995.215488851        246208106.46591151     
   927588463.74438810       -399909678.09178799        346695283.04226798     
   78754235.586859465       -1110247287.5420258        505055347.67119819     
   2173398994.9768872        143878494.33300912        670474997.13894463     
   1698720481.2547410        172108463.71683192        601398235.99977064     
   1167734381.9004323        12646480.993453264        591822002.79661536     
   580440696.91396177       -334507453.83714646        641746297.52947688     
  -63160573.704680651       -869353340.77496362        751171120.19835818     
   1386050095.0560234        77054225.743431807        1089272786.8442595     
   1064947352.9075968        94479085.432544172        988275258.50720096     
   706306220.33773077       -13224022.949810624        948405897.98961020     
   310126697.34642357       -246055099.40363181        969664705.29149020     
  -123591216.06632589       -604014143.92893291        1052051680.4128344     
   661583763.39705205        29094727.632419676        1475245786.5868425     
   498707192.48934388        37109597.526922375        1364224885.4644129     
   317061426.37091529       -17439516.614310324        1315959792.0448999     
   116646465.04176968       -134552614.79126185        1330450506.3283045     
  -102537691.49809173       -314229697.00393844        1407697028.3146253     
  -2.3424485794289017E-005  -1.7019352959913115E-005   1828393996.3666961     
  -2.0953934558172597E-005  -4.2090872911613074E-005   1729247116.8714056     
  -1.1437737204242685E-005  -4.2983016413544004E-005   1694483684.9624808     
   3.8773929122382704E-006  -2.0382047697960462E-005   1724103700.6399233     
   2.7267565494914562E-005   2.1502945943976244E-005   1818107163.9037333     
   6.5881366296437872E-005  -8.0155662327332730E-005   1595985276.6721518     
   5.7554693611749184E-005  -1.7705617192167671E-005   1545842627.1213231     
   3.9780449996356057E-005   1.2558635450258467E-005   1567863197.2201378     
   1.2976112858213325E-005   1.4457299826162752E-005   1662046986.9685948     
  -2.3424485794289017E-005  -1.7019352959913115E-005   1828393996.3666961     
  -1540773325.9107983       -324454059.27154756        1428404271.8002865     
  -1297920835.6499789       -173763894.25379485        1320307048.3303986     
  -1070438411.8107569       -74307283.974696517        1292081559.6381903     
  -858326054.39312911       -26084228.434249222        1343727805.7236631     
  -661583763.39709854       -29094727.632457823        1475245786.5868139     
  -3232526535.8325391       -694202083.74627781        1299725453.5997727     
  -2724797226.3736472       -386214455.02966321        1115741912.0523083     
  -2247808049.7579360       -180693935.79032218        1019338620.4105618     
  -1801559005.9854076       -77640526.028256118        1010515578.6745301     
  -1386050095.0560637       -77054225.743467212        1089272786.8442152     
  -5075259629.7651596       -1109244073.4242716        1209948822.0706105     
  -4280629172.1709442       -637351682.32761800        932147218.28705359     
  -3532108913.8415008       -319159955.44686472        749634379.53724718     
  -2829698854.7768221       -154668892.78199947        662410305.82119548     
  -2173398994.9769158       -143878494.33303773        670474997.13889694     
  -7068972607.7086563       -1569580028.3055291        1159074377.2128000     
  -5965416673.0418730       -927175576.14766264        769522967.03463054     
  -4923341004.0614452       -489705342.94431877        482968837.01825058     
  -3942745600.7673726       -257169328.69548988        299411987.16365957     
  -3023630463.1596575       -229567533.40118182        218852417.47085920     
  -2.3424485794289017E-005  -1.7019352959913115E-005   1828393996.3666961     
  -2.0953934558172597E-005  -4.2090872911613074E-005   1729247116.8714056     
  -1.1437737204242685E-005  -4.2983016413544004E-005   1694483684.9624808     
   3.8773929122382704E-006  -2.0382047697960462E-005   1724103700.6399233     
   2.7267565494914562E-005   2.1502945943976244E-005   1818107163.9037333     
  -661583763.39709854       -29094727.632457823        1475245786.5868139     
  -498707192.48937714       -37109597.526976079        1364224885.4643986     
  -317061426.37092841        17439516.614260569        1315959792.0448985     
  -116646465.04175445        134552614.79124790        1330450506.3283138     
   102537691.49814434        314229697.00398749        1407697028.3146482     
  -1386050095.0560637       -77054225.743467212        1089272786.8442152     
  -1064947352.9076226       -94479085.432577282        988275258.50717950     
  -706306220.33773768        13224022.949792892        948405897.98960984     
  -310126697.34640718        246055099.40364701        969664705.29150677     
   123591216.06636788        604014143.92898560        1052051680.4128667     
  -2173398994.9769158       -143878494.33303773        670474997.13889694     
  -1698720481.2547584       -172108463.71684700        601398235.99974775     
  -1167734381.9004388       -12646480.993447185        591822002.79661322     
  -580440696.91395354        334507453.83717847        641746297.52949333     
   63160573.704701394        869353340.77501976        751171120.19838917     
  -3023630463.1596575       -229567533.40118182        218852417.47085920     
  -2400026577.5307851       -269997732.37977809        203593817.94210154     
  -1701345911.0590289       -60171995.215441108        246208106.46591023     
  -927588463.74438775        399909678.09185004        346695283.04228562     
  -78754235.586867511        1110247287.5420766        505055347.67122000     
 </DataArray>
 <DataArray  type="Float64" Name="VM" NumberOfComponents="1" format="ascii">
   6735651208.5934496     
   5717635768.5326443     
   4771570838.0938692     
   3855692974.1354923     
   2940170774.7498798     
   5074535398.8946486     
   4313749225.6718130     
   3624390133.7710848     
   2984931142.6093931     
   2404219000.6073346     
   3708770206.5785542     
   3202493637.3407197     
   2792181891.0589881     
   2484993786.4440126     
   2319443212.3404012     
   2846112964.9925852     
   2592082698.0128837     
   2465814848.1098571     
   2476252910.6240606     
   2635970669.8465438     
   2764327587.3280387     
   2677477970.6798825     
   2715618716.9026618     
   2878749825.9963737     
   3166871297.9610229     
   2940170774.7498798     
   2304208311.5188432     
   1725595692.8359382     
   1323590786.6452155     
   1446212521.7940402     
   2404219000.6073346     
   1925603266.3025744     
   1549114469.1307960     
   1370577728.5922532     
   1548428167.1721280     
   2319443212.3404012     
   1993110099.7799830     
   1790755372.2835860     
   1747506468.5880058     
   1904178365.3229344     
   2635970669.8465438     
   2411411988.2826586     
   2302522965.2886462     
   2314670935.6189618     
   2453949197.4169917     
   3166871297.9610229     
   2995143865.2632709     
   2934931834.9515519     
   2986235207.0258694     
   3149053981.4862223     
   2764327587.3280387     
   2677477970.6798825     
   2715618716.9026618     
   2878749825.9963737     
   3166871297.9610229     
   2846112964.9925785     
   2592082698.0128722     
   2465814848.1098418     
   2476252910.6240377     
   2635970669.8465033     
   3708770206.5785241     
   3202493637.3406844     
   2792181891.0589557     
   2484993786.4439797     
   2319443212.3403525     
   5074535398.8946180     
   4313749225.6717701     
   3624390133.7710438     
   2984931142.6093621     
   2404219000.6073084     
   6735651208.5934401     
   5717635768.5326185     
   4771570838.0938368     
   3855692974.1354661     
   2940170774.7498732     
   3166871297.9610229     
   2995143865.2632709     
   2934931834.9515519     
   2986235207.0258694     
   3149053981.4862223     
   2635970669.8465033     
   2411411988.2826362     
   2302522965.2886419     
   2314670935.6189756     
   2453949197.4170351     
   2319443212.3403525     
   1993110099.7799568     
   1790755372.2835846     
   1747506468.5880330     
   1904178365.3229992     
   2404219000.6073084     
   1925603266.3025622     
   1549114469.1308005     
   1370577728.5922863     
   1548428167.1721985     
   2940170774.7498732     
   2304208311.5188541     
   1725595692.8359601     
   1323590786.6452696     
   1446212521.7941070     
 </DataArray>
 <DataArray  type="Float64" Name="strain" NumberOfComponents="3" format="ascii">
  0.10996830998695095       -9.1851959001179873E-003   5.0226556345884243E-002
   9.4787733336626934E-002  -1.4374157096082529E-002   3.3345995238165449E-002
   7.9607156686302943E-002  -1.6454949304569755E-002   2.0928649604123883E-002
   6.4426580035978953E-002  -1.5427572525579844E-002   1.2974519443759505E-002
   4.9246003385654935E-002  -1.1292026759112395E-002   9.4836047570723836E-003
   7.9041440128966467E-002  -6.8888969250888998E-003   5.2431115623055635E-002
   6.8157061124545656E-002  -1.0780617822062022E-002   4.0393046125770049E-002
   5.7272682120124790E-002  -1.2341211978427344E-002   3.2484156446613524E-002
   4.6388303115703911E-002  -1.1570679394184772E-002   2.8704446585586046E-002
   3.5503924111283072E-002  -8.4690200693342821E-003   2.9053916542687602E-002
   5.0404431845146758E-002  -4.5925979500598263E-003   5.6321436322653212E-002
   4.3482214831080876E-002  -7.1870785480415422E-003   4.8348816188931318E-002
   3.6559997817014994E-002  -8.2274746522848774E-003   4.4171340217790386E-002
   2.9637780802949112E-002  -7.7137862627897555E-003   4.3789008409230355E-002
   2.2715563788883231E-002  -5.6460133795562528E-003   4.7201820763251245E-002
   2.4057285135491761E-002  -2.2962989750307389E-003   6.1897518444676849E-002
   2.0763194456232672E-002  -3.5935392740210764E-003   5.7213305427649297E-002
   1.7469103776973596E-002  -4.1137373261424387E-003   5.5990200917654560E-002
   1.4175013097714524E-002  -3.8568931313948500E-003   5.8228204914692522E-002
   1.0880922418455435E-002  -2.8230066897782652E-003   6.3927317418763174E-002
   1.4988010832439613E-015  -1.6653345369377348E-015   6.9159361989126575E-002
   1.0477729794899915E-015  -5.8286708792820718E-016   6.6986513841924000E-002
   6.0021432268797525E-016   1.0408340855860843E-017   6.7940738546205970E-002
   1.4398204850607499E-016   1.7607443281164592E-016   7.2022036101972442E-002
  -3.0531133177191805E-016  -1.6653345369377348E-016   7.9230406509223500E-002
   4.9246003385654935E-002  -1.1292026759112395E-002   9.4836047570723836E-003
   3.8650454296947301E-002  -7.5001706813238311E-003   8.8223987774918855E-003
   2.8054905208239694E-002  -7.5038629683703284E-003   1.0669017946856166E-002
   1.7459356119532074E-002  -1.1303103620251741E-002   1.5023462265164947E-002
   6.8638070308244536E-003  -1.8897892636968061E-002   2.1885731732418590E-002
   3.5503924111283072E-002  -8.4690200693342821E-003   2.9053916542687602E-002
   2.7451465702328190E-002  -5.6251280109931717E-003   2.6060590226656730E-002
   1.9399007293373273E-002  -5.6278972262779406E-003   2.5645620121186666E-002
   1.1346548884418429E-002  -8.4773277151889165E-003   2.7809006226277334E-002
   3.2940904754634737E-003  -1.4173419477725990E-002   3.2550748541928853E-002
   2.2715563788883231E-002  -5.6460133795562528E-003   4.7201820763251245E-002
   1.7276727121297228E-002  -3.7500853406622486E-003   4.2825261201978708E-002
   1.1837890453711232E-002  -3.7519314841854973E-003   4.1097588912883107E-002
   6.3990537861252188E-003  -5.6515518101259814E-003   4.2018803895964574E-002
   9.6021711853923331E-004  -9.4489463184839195E-003   4.5588906151222824E-002
   1.0880922418455435E-002  -2.8230066897782652E-003   6.3927317418763174E-002
   8.1262385538544528E-003  -1.8750426703313464E-003   5.9116411703457897E-002
   5.3715546892534726E-003  -1.8759657420930817E-003   5.7024924321945669E-002
   2.6168708246524707E-003  -2.8257759050632127E-003   5.7652855274226533E-002
  -1.3781303994850336E-004  -4.7244731592418487E-003   6.1000204560300426E-002
  -3.0531133177191805E-016  -1.6653345369377348E-016   7.9230406509223500E-002
  -1.3877787807814457E-016  -5.9674487573602164E-016   7.4934041731094247E-002
   2.4286128663675299E-017  -6.5919492087118670E-016   7.3427626348374173E-002
   1.6653345369377348E-016  -3.5908775952719907E-016   7.4711160361063345E-002
   3.4694469519536142E-016   2.2204460492503131E-016   7.8784643769161777E-002
   1.4988010832439613E-015  -1.6653345369377348E-015   6.9159361989126575E-002
   1.0477729794899915E-015  -5.8286708792820718E-016   6.6986513841924000E-002
   6.0021432268797525E-016   1.0408340855860843E-017   6.7940738546205970E-002
   1.4398204850607499E-016   1.7607443281164592E-016   7.2022036101972442E-002
  -3.0531133177191805E-016  -1.6653345369377348E-016   7.9230406509223500E-002
  -2.4057285135488903E-002   2.2962989750281992E-003   6.1897518444679084E-002
  -2.0763194456230673E-002   3.5935392740199801E-003   5.7213305427650601E-002
  -1.7469103776972465E-002   4.1137373261421750E-003   5.5990200917654914E-002
  -1.4175013097714240E-002   3.8568931313948257E-003   5.8228204914692064E-002
  -1.0880922418456021E-002   2.8230066897778627E-003   6.3927317418761939E-002
  -5.0404431845144260E-002   4.5925979500580638E-003   5.6321436322656820E-002
  -4.3482214831079134E-002   7.1870785480405153E-003   4.8348816188933358E-002
  -3.6559997817013995E-002   8.2274746522843136E-003   4.4171340217791011E-002
  -2.9637780802948845E-002   7.7137862627894346E-003   4.3789008409229641E-002
  -2.2715563788883723E-002   5.6460133795558642E-003   4.7201820763249323E-002
  -7.9041440128964635E-002   6.8888969250879388E-003   5.2431115623059792E-002
  -6.8157061124544324E-002   1.0780617822061092E-002   4.0393046125772325E-002
  -5.7272682120124020E-002   1.2341211978426424E-002   3.2484156446614044E-002
  -4.6388303115703702E-002   1.1570679394184118E-002   2.8704446585585137E-002
  -3.5503924111283405E-002   8.4690200693339490E-003   2.9053916542685534E-002
 -0.10996830998694995        9.1851959001177930E-003   5.0226556345888004E-002
  -9.4787733336626240E-002   1.4374157096081655E-002   3.3345995238167322E-002
  -7.9607156686302499E-002   1.6454949304568582E-002   2.0928649604124192E-002
  -6.4426580035978759E-002   1.5427572525578697E-002   1.2974519443758582E-002
  -4.9246003385655046E-002   1.1292026759111923E-002   9.4836047570705656E-003
  -3.0531133177191805E-016  -1.6653345369377348E-016   7.9230406509223500E-002
  -1.3877787807814457E-016  -5.9674487573602164E-016   7.4934041731094247E-002
   2.4286128663675299E-017  -6.5919492087118670E-016   7.3427626348374173E-002
   1.6653345369377348E-016  -3.5908775952719907E-016   7.4711160361063345E-002
   3.4694469519536142E-016   2.2204460492503131E-016   7.8784643769161777E-002
  -1.0880922418456021E-002   2.8230066897778627E-003   6.3927317418761939E-002
  -8.1262385538547390E-003   1.8750426703306178E-003   5.9116411703457272E-002
  -5.3715546892534431E-003   1.8759657420923184E-003   5.7024924321945607E-002
  -2.6168708246521472E-003   2.8257759050629040E-003   5.7652855274226936E-002
   1.3781303994913480E-004   4.7244731592424039E-003   6.1000204560301419E-002
  -2.2715563788883723E-002   5.6460133795558642E-003   4.7201820763249323E-002
  -1.7276727121297492E-002   3.7500853406618254E-003   4.2825261201977778E-002
  -1.1837890453711260E-002   3.7519314841852371E-003   4.1097588912883093E-002
  -6.3990537861250210E-003   5.6515518101261522E-003   4.2018803895965295E-002
  -9.6021711853879615E-004   9.4489463184845857E-003   4.5588906151224226E-002
  -3.5503924111283405E-002   8.4690200693339490E-003   2.9053916542685534E-002
  -2.7451465702328405E-002   5.6251280109930087E-003   2.6060590226655737E-002
  -1.9399007293373412E-002   5.6278972262780742E-003   2.5645620121186576E-002
  -1.1346548884418451E-002   8.4773277151894075E-003   2.7809006226278046E-002
  -3.2940904754634095E-003   1.4173419477726823E-002   3.2550748541930200E-002
  -4.9246003385655046E-002   1.1292026759111923E-002   9.4836047570705656E-003
  -3.8650454296947523E-002   7.5001706813242891E-003   8.8223987774910667E-003
  -2.8054905208239944E-002   7.5038629683711264E-003   1.0669017946856110E-002
  -1.7459356119532379E-002   1.1303103620252773E-002   1.5023462265165710E-002
  -6.8638070308248422E-003   1.8897892636968949E-002   2.1885731732419533E-002
 </DataArray>
 </PointData>
 </Piece>
 </UnstructuredGrid>
 </VTKFile>
