 <VTKFile type="UnstructuredGrid"  version="0.1"   >
 <UnstructuredGrid>
 <Piece  NumberOfPoints="          1600 "  NumberOfCells="         1024 ">
 <Points>
 <DataArray  type="Float64" NumberOfComponents="3"  format="ascii" >
   0.0000000000000000        0.0000000000000000        0.0000000000000000     
   3.1250000000000000E-002   0.0000000000000000        0.0000000000000000     
   6.2500000000000000E-002   0.0000000000000000        0.0000000000000000     
   9.3750000000000000E-002   0.0000000000000000        0.0000000000000000     
  0.12500000000000000        0.0000000000000000        0.0000000000000000     
   0.0000000000000000        3.1250000000000000E-002   0.0000000000000000     
   3.1250000000000000E-002   3.1250000000000000E-002   0.0000000000000000     
   6.2500000000000000E-002   3.1250000000000000E-002   0.0000000000000000     
   9.3750000000000000E-002   3.1250000000000000E-002   0.0000000000000000     
  0.12500000000000000        3.1250000000000000E-002   0.0000000000000000     
   0.0000000000000000        6.2500000000000000E-002   0.0000000000000000     
   3.1250000000000000E-002   6.2500000000000000E-002   0.0000000000000000     
   6.2500000000000000E-002   6.2500000000000000E-002   0.0000000000000000     
   9.3750000000000000E-002   6.2500000000000000E-002   0.0000000000000000     
  0.12500000000000000        6.2500000000000000E-002   0.0000000000000000     
   0.0000000000000000        9.3750000000000000E-002   0.0000000000000000     
   3.1250000000000000E-002   9.3750000000000000E-002   0.0000000000000000     
   6.2500000000000000E-002   9.3750000000000000E-002   0.0000000000000000     
   9.3750000000000000E-002   9.3750000000000000E-002   0.0000000000000000     
  0.12500000000000000        9.3750000000000000E-002   0.0000000000000000     
   0.0000000000000000       0.12500000000000000        0.0000000000000000     
   3.1250000000000000E-002  0.12500000000000000        0.0000000000000000     
   6.2500000000000000E-002  0.12500000000000000        0.0000000000000000     
   9.3750000000000000E-002  0.12500000000000000        0.0000000000000000     
  0.12500000000000000       0.12500000000000000        0.0000000000000000     
  0.12500000000000000        0.0000000000000000        0.0000000000000000     
  0.15625000000000000        0.0000000000000000        0.0000000000000000     
  0.18750000000000000        0.0000000000000000        0.0000000000000000     
  0.21875000000000000        0.0000000000000000        0.0000000000000000     
  0.25000000000000000        0.0000000000000000        0.0000000000000000     
  0.12500000000000000        3.1250000000000000E-002   0.0000000000000000     
  0.15625000000000000        3.1250000000000000E-002   0.0000000000000000     
  0.18750000000000000        3.1250000000000000E-002   0.0000000000000000     
  0.21875000000000000        3.1250000000000000E-002   0.0000000000000000     
  0.25000000000000000        3.1250000000000000E-002   0.0000000000000000     
  0.12500000000000000        6.2500000000000000E-002   0.0000000000000000     
  0.15625000000000000        6.2500000000000000E-002   0.0000000000000000     
  0.18750000000000000        6.2500000000000000E-002   0.0000000000000000     
  0.21875000000000000        6.2500000000000000E-002   0.0000000000000000     
  0.25000000000000000        6.2500000000000000E-002   0.0000000000000000     
  0.12500000000000000        9.3750000000000000E-002   0.0000000000000000     
  0.15625000000000000        9.3750000000000000E-002   0.0000000000000000     
  0.18750000000000000        9.3750000000000000E-002   0.0000000000000000     
  0.21875000000000000        9.3750000000000000E-002   0.0000000000000000     
  0.25000000000000000        9.3750000000000000E-002   0.0000000000000000     
  0.12500000000000000       0.12500000000000000        0.0000000000000000     
  0.15625000000000000       0.12500000000000000        0.0000000000000000     
  0.18750000000000000       0.12500000000000000        0.0000000000000000     
  0.21875000000000000       0.12500000000000000        0.0000000000000000     
  0.25000000000000000       0.12500000000000000        0.0000000000000000     
  0.25000000000000000        0.0000000000000000        0.0000000000000000     
  0.28125000000000000        0.0000000000000000        0.0000000000000000     
  0.31250000000000000        0.0000000000000000        0.0000000000000000     
  0.34375000000000000        0.0000000000000000        0.0000000000000000     
  0.37500000000000000        0.0000000000000000        0.0000000000000000     
  0.25000000000000000        3.1250000000000000E-002   0.0000000000000000     
  0.28125000000000000        3.1250000000000000E-002   0.0000000000000000     
  0.31250000000000000        3.1250000000000000E-002   0.0000000000000000     
  0.34375000000000000        3.1250000000000000E-002   0.0000000000000000     
  0.37500000000000000        3.1250000000000000E-002   0.0000000000000000     
  0.25000000000000000        6.2500000000000000E-002   0.0000000000000000     
  0.28125000000000000        6.2500000000000000E-002   0.0000000000000000     
  0.31250000000000000        6.2500000000000000E-002   0.0000000000000000     
  0.34375000000000000        6.2500000000000000E-002   0.0000000000000000     
  0.37500000000000000        6.2500000000000000E-002   0.0000000000000000     
  0.25000000000000000        9.3750000000000000E-002   0.0000000000000000     
  0.28125000000000000        9.3750000000000000E-002   0.0000000000000000     
  0.31250000000000000        9.3750000000000000E-002   0.0000000000000000     
  0.34375000000000000        9.3750000000000000E-002   0.0000000000000000     
  0.37500000000000000        9.3750000000000000E-002   0.0000000000000000     
  0.25000000000000000       0.12500000000000000        0.0000000000000000     
  0.28125000000000000       0.12500000000000000        0.0000000000000000     
  0.31250000000000000       0.12500000000000000        0.0000000000000000     
  0.34375000000000000       0.12500000000000000        0.0000000000000000     
  0.37500000000000000       0.12500000000000000        0.0000000000000000     
  0.37500000000000000        0.0000000000000000        0.0000000000000000     
  0.40625000000000000        0.0000000000000000        0.0000000000000000     
  0.43750000000000000        0.0000000000000000        0.0000000000000000     
  0.46875000000000000        0.0000000000000000        0.0000000000000000     
  0.50000000000000000        0.0000000000000000        0.0000000000000000     
  0.37500000000000000        3.1250000000000000E-002   0.0000000000000000     
  0.40625000000000000        3.1250000000000000E-002   0.0000000000000000     
  0.43750000000000000        3.1250000000000000E-002   0.0000000000000000     
  0.46875000000000000        3.1250000000000000E-002   0.0000000000000000     
  0.50000000000000000        3.1250000000000000E-002   0.0000000000000000     
  0.37500000000000000        6.2500000000000000E-002   0.0000000000000000     
  0.40625000000000000        6.2500000000000000E-002   0.0000000000000000     
  0.43750000000000000        6.2500000000000000E-002   0.0000000000000000     
  0.46875000000000000        6.2500000000000000E-002   0.0000000000000000     
  0.50000000000000000        6.2500000000000000E-002   0.0000000000000000     
  0.37500000000000000        9.3750000000000000E-002   0.0000000000000000     
  0.40625000000000000        9.3750000000000000E-002   0.0000000000000000     
  0.43750000000000000        9.3750000000000000E-002   0.0000000000000000     
  0.46875000000000000        9.3750000000000000E-002   0.0000000000000000     
  0.50000000000000000        9.3750000000000000E-002   0.0000000000000000     
  0.37500000000000000       0.12500000000000000        0.0000000000000000     
  0.40625000000000000       0.12500000000000000        0.0000000000000000     
  0.43750000000000000       0.12500000000000000        0.0000000000000000     
  0.46875000000000000       0.12500000000000000        0.0000000000000000     
  0.50000000000000000       0.12500000000000000        0.0000000000000000     
  0.50000000000000000        0.0000000000000000        0.0000000000000000     
  0.53125000000000000        0.0000000000000000        0.0000000000000000     
  0.56250000000000000        0.0000000000000000        0.0000000000000000     
  0.59375000000000000        0.0000000000000000        0.0000000000000000     
  0.62500000000000000        0.0000000000000000        0.0000000000000000     
  0.50000000000000000        3.1250000000000000E-002   0.0000000000000000     
  0.53125000000000000        3.1250000000000000E-002   0.0000000000000000     
  0.56250000000000000        3.1250000000000000E-002   0.0000000000000000     
  0.59375000000000000        3.1250000000000000E-002   0.0000000000000000     
  0.62500000000000000        3.1250000000000000E-002   0.0000000000000000     
  0.50000000000000000        6.2500000000000000E-002   0.0000000000000000     
  0.53125000000000000        6.2500000000000000E-002   0.0000000000000000     
  0.56250000000000000        6.2500000000000000E-002   0.0000000000000000     
  0.59375000000000000        6.2500000000000000E-002   0.0000000000000000     
  0.62500000000000000        6.2500000000000000E-002   0.0000000000000000     
  0.50000000000000000        9.3750000000000000E-002   0.0000000000000000     
  0.53125000000000000        9.3750000000000000E-002   0.0000000000000000     
  0.56250000000000000        9.3750000000000000E-002   0.0000000000000000     
  0.59375000000000000        9.3750000000000000E-002   0.0000000000000000     
  0.62500000000000000        9.3750000000000000E-002   0.0000000000000000     
  0.50000000000000000       0.12500000000000000        0.0000000000000000     
  0.53125000000000000       0.12500000000000000        0.0000000000000000     
  0.56250000000000000       0.12500000000000000        0.0000000000000000     
  0.59375000000000000       0.12500000000000000        0.0000000000000000     
  0.62500000000000000       0.12500000000000000        0.0000000000000000     
  0.62500000000000000        0.0000000000000000        0.0000000000000000     
  0.65625000000000000        0.0000000000000000        0.0000000000000000     
  0.68750000000000000        0.0000000000000000        0.0000000000000000     
  0.71875000000000000        0.0000000000000000        0.0000000000000000     
  0.75000000000000000        0.0000000000000000        0.0000000000000000     
  0.62500000000000000        3.1250000000000000E-002   0.0000000000000000     
  0.65625000000000000        3.1250000000000000E-002   0.0000000000000000     
  0.68750000000000000        3.1250000000000000E-002   0.0000000000000000     
  0.71875000000000000        3.1250000000000000E-002   0.0000000000000000     
  0.75000000000000000        3.1250000000000000E-002   0.0000000000000000     
  0.62500000000000000        6.2500000000000000E-002   0.0000000000000000     
  0.65625000000000000        6.2500000000000000E-002   0.0000000000000000     
  0.68750000000000000        6.2500000000000000E-002   0.0000000000000000     
  0.71875000000000000        6.2500000000000000E-002   0.0000000000000000     
  0.75000000000000000        6.2500000000000000E-002   0.0000000000000000     
  0.62500000000000000        9.3750000000000000E-002   0.0000000000000000     
  0.65625000000000000        9.3750000000000000E-002   0.0000000000000000     
  0.68750000000000000        9.3750000000000000E-002   0.0000000000000000     
  0.71875000000000000        9.3750000000000000E-002   0.0000000000000000     
  0.75000000000000000        9.3750000000000000E-002   0.0000000000000000     
  0.62500000000000000       0.12500000000000000        0.0000000000000000     
  0.65625000000000000       0.12500000000000000        0.0000000000000000     
  0.68750000000000000       0.12500000000000000        0.0000000000000000     
  0.71875000000000000       0.12500000000000000        0.0000000000000000     
  0.75000000000000000       0.12500000000000000        0.0000000000000000     
  0.75000000000000000        0.0000000000000000        0.0000000000000000     
  0.78125000000000000        0.0000000000000000        0.0000000000000000     
  0.81250000000000000        0.0000000000000000        0.0000000000000000     
  0.84375000000000000        0.0000000000000000        0.0000000000000000     
  0.87500000000000000        0.0000000000000000        0.0000000000000000     
  0.75000000000000000        3.1250000000000000E-002   0.0000000000000000     
  0.78125000000000000        3.1250000000000000E-002   0.0000000000000000     
  0.81250000000000000        3.1250000000000000E-002   0.0000000000000000     
  0.84375000000000000        3.1250000000000000E-002   0.0000000000000000     
  0.87500000000000000        3.1250000000000000E-002   0.0000000000000000     
  0.75000000000000000        6.2500000000000000E-002   0.0000000000000000     
  0.78125000000000000        6.2500000000000000E-002   0.0000000000000000     
  0.81250000000000000        6.2500000000000000E-002   0.0000000000000000     
  0.84375000000000000        6.2500000000000000E-002   0.0000000000000000     
  0.87500000000000000        6.2500000000000000E-002   0.0000000000000000     
  0.75000000000000000        9.3750000000000000E-002   0.0000000000000000     
  0.78125000000000000        9.3750000000000000E-002   0.0000000000000000     
  0.81250000000000000        9.3750000000000000E-002   0.0000000000000000     
  0.84375000000000000        9.3750000000000000E-002   0.0000000000000000     
  0.87500000000000000        9.3750000000000000E-002   0.0000000000000000     
  0.75000000000000000       0.12500000000000000        0.0000000000000000     
  0.78125000000000000       0.12500000000000000        0.0000000000000000     
  0.81250000000000000       0.12500000000000000        0.0000000000000000     
  0.84375000000000000       0.12500000000000000        0.0000000000000000     
  0.87500000000000000       0.12500000000000000        0.0000000000000000     
  0.87500000000000000        0.0000000000000000        0.0000000000000000     
  0.90625000000000000        0.0000000000000000        0.0000000000000000     
  0.93750000000000000        0.0000000000000000        0.0000000000000000     
  0.96875000000000000        0.0000000000000000        0.0000000000000000     
   1.0000000000000000        0.0000000000000000        0.0000000000000000     
  0.87500000000000000        3.1250000000000000E-002   0.0000000000000000     
  0.90625000000000000        3.1250000000000000E-002   0.0000000000000000     
  0.93750000000000000        3.1250000000000000E-002   0.0000000000000000     
  0.96875000000000000        3.1250000000000000E-002   0.0000000000000000     
   1.0000000000000000        3.1250000000000000E-002   0.0000000000000000     
  0.87500000000000000        6.2500000000000000E-002   0.0000000000000000     
  0.90625000000000000        6.2500000000000000E-002   0.0000000000000000     
  0.93750000000000000        6.2500000000000000E-002   0.0000000000000000     
  0.96875000000000000        6.2500000000000000E-002   0.0000000000000000     
   1.0000000000000000        6.2500000000000000E-002   0.0000000000000000     
  0.87500000000000000        9.3750000000000000E-002   0.0000000000000000     
  0.90625000000000000        9.3750000000000000E-002   0.0000000000000000     
  0.93750000000000000        9.3750000000000000E-002   0.0000000000000000     
  0.96875000000000000        9.3750000000000000E-002   0.0000000000000000     
   1.0000000000000000        9.3750000000000000E-002   0.0000000000000000     
  0.87500000000000000       0.12500000000000000        0.0000000000000000     
  0.90625000000000000       0.12500000000000000        0.0000000000000000     
  0.93750000000000000       0.12500000000000000        0.0000000000000000     
  0.96875000000000000       0.12500000000000000        0.0000000000000000     
   1.0000000000000000       0.12500000000000000        0.0000000000000000     
   0.0000000000000000       0.12500000000000000        0.0000000000000000     
   3.1250000000000000E-002  0.12500000000000000        0.0000000000000000     
   6.2500000000000000E-002  0.12500000000000000        0.0000000000000000     
   9.3750000000000000E-002  0.12500000000000000        0.0000000000000000     
  0.12500000000000000       0.12500000000000000        0.0000000000000000     
   0.0000000000000000       0.15625000000000000        0.0000000000000000     
   3.1250000000000000E-002  0.15625000000000000        0.0000000000000000     
   6.2500000000000000E-002  0.15625000000000000        0.0000000000000000     
   9.3750000000000000E-002  0.15625000000000000        0.0000000000000000     
  0.12500000000000000       0.15625000000000000        0.0000000000000000     
   0.0000000000000000       0.18750000000000000        0.0000000000000000     
   3.1250000000000000E-002  0.18750000000000000        0.0000000000000000     
   6.2500000000000000E-002  0.18750000000000000        0.0000000000000000     
   9.3750000000000000E-002  0.18750000000000000        0.0000000000000000     
  0.12500000000000000       0.18750000000000000        0.0000000000000000     
   0.0000000000000000       0.21875000000000000        0.0000000000000000     
   3.1250000000000000E-002  0.21875000000000000        0.0000000000000000     
   6.2500000000000000E-002  0.21875000000000000        0.0000000000000000     
   9.3750000000000000E-002  0.21875000000000000        0.0000000000000000     
  0.12500000000000000       0.21875000000000000        0.0000000000000000     
   0.0000000000000000       0.25000000000000000        0.0000000000000000     
   3.1250000000000000E-002  0.25000000000000000        0.0000000000000000     
   6.2500000000000000E-002  0.25000000000000000        0.0000000000000000     
   9.3750000000000000E-002  0.25000000000000000        0.0000000000000000     
  0.12500000000000000       0.25000000000000000        0.0000000000000000     
  0.12500000000000000       0.12500000000000000        0.0000000000000000     
  0.15625000000000000       0.12500000000000000        0.0000000000000000     
  0.18750000000000000       0.12500000000000000        0.0000000000000000     
  0.21875000000000000       0.12500000000000000        0.0000000000000000     
  0.25000000000000000       0.12500000000000000        0.0000000000000000     
  0.12500000000000000       0.15625000000000000        0.0000000000000000     
  0.15625000000000000       0.15625000000000000        0.0000000000000000     
  0.18750000000000000       0.15625000000000000        0.0000000000000000     
  0.21875000000000000       0.15625000000000000        0.0000000000000000     
  0.25000000000000000       0.15625000000000000        0.0000000000000000     
  0.12500000000000000       0.18750000000000000        0.0000000000000000     
  0.15625000000000000       0.18750000000000000        0.0000000000000000     
  0.18750000000000000       0.18750000000000000        0.0000000000000000     
  0.21875000000000000       0.18750000000000000        0.0000000000000000     
  0.25000000000000000       0.18750000000000000        0.0000000000000000     
  0.12500000000000000       0.21875000000000000        0.0000000000000000     
  0.15625000000000000       0.21875000000000000        0.0000000000000000     
  0.18750000000000000       0.21875000000000000        0.0000000000000000     
  0.21875000000000000       0.21875000000000000        0.0000000000000000     
  0.25000000000000000       0.21875000000000000        0.0000000000000000     
  0.12500000000000000       0.25000000000000000        0.0000000000000000     
  0.15625000000000000       0.25000000000000000        0.0000000000000000     
  0.18750000000000000       0.25000000000000000        0.0000000000000000     
  0.21875000000000000       0.25000000000000000        0.0000000000000000     
  0.25000000000000000       0.25000000000000000        0.0000000000000000     
  0.25000000000000000       0.12500000000000000        0.0000000000000000     
  0.28125000000000000       0.12500000000000000        0.0000000000000000     
  0.31250000000000000       0.12500000000000000        0.0000000000000000     
  0.34375000000000000       0.12500000000000000        0.0000000000000000     
  0.37500000000000000       0.12500000000000000        0.0000000000000000     
  0.25000000000000000       0.15625000000000000        0.0000000000000000     
  0.28125000000000000       0.15625000000000000        0.0000000000000000     
  0.31250000000000000       0.15625000000000000        0.0000000000000000     
  0.34375000000000000       0.15625000000000000        0.0000000000000000     
  0.37500000000000000       0.15625000000000000        0.0000000000000000     
  0.25000000000000000       0.18750000000000000        0.0000000000000000     
  0.28125000000000000       0.18750000000000000        0.0000000000000000     
  0.31250000000000000       0.18750000000000000        0.0000000000000000     
  0.34375000000000000       0.18750000000000000        0.0000000000000000     
  0.37500000000000000       0.18750000000000000        0.0000000000000000     
  0.25000000000000000       0.21875000000000000        0.0000000000000000     
  0.28125000000000000       0.21875000000000000        0.0000000000000000     
  0.31250000000000000       0.21875000000000000        0.0000000000000000     
  0.34375000000000000       0.21875000000000000        0.0000000000000000     
  0.37500000000000000       0.21875000000000000        0.0000000000000000     
  0.25000000000000000       0.25000000000000000        0.0000000000000000     
  0.28125000000000000       0.25000000000000000        0.0000000000000000     
  0.31250000000000000       0.25000000000000000        0.0000000000000000     
  0.34375000000000000       0.25000000000000000        0.0000000000000000     
  0.37500000000000000       0.25000000000000000        0.0000000000000000     
  0.37500000000000000       0.12500000000000000        0.0000000000000000     
  0.40625000000000000       0.12500000000000000        0.0000000000000000     
  0.43750000000000000       0.12500000000000000        0.0000000000000000     
  0.46875000000000000       0.12500000000000000        0.0000000000000000     
  0.50000000000000000       0.12500000000000000        0.0000000000000000     
  0.37500000000000000       0.15625000000000000        0.0000000000000000     
  0.40625000000000000       0.15625000000000000        0.0000000000000000     
  0.43750000000000000       0.15625000000000000        0.0000000000000000     
  0.46875000000000000       0.15625000000000000        0.0000000000000000     
  0.50000000000000000       0.15625000000000000        0.0000000000000000     
  0.37500000000000000       0.18750000000000000        0.0000000000000000     
  0.40625000000000000       0.18750000000000000        0.0000000000000000     
  0.43750000000000000       0.18750000000000000        0.0000000000000000     
  0.46875000000000000       0.18750000000000000        0.0000000000000000     
  0.50000000000000000       0.18750000000000000        0.0000000000000000     
  0.37500000000000000       0.21875000000000000        0.0000000000000000     
  0.40625000000000000       0.21875000000000000        0.0000000000000000     
  0.43750000000000000       0.21875000000000000        0.0000000000000000     
  0.46875000000000000       0.21875000000000000        0.0000000000000000     
  0.50000000000000000       0.21875000000000000        0.0000000000000000     
  0.37500000000000000       0.25000000000000000        0.0000000000000000     
  0.40625000000000000       0.25000000000000000        0.0000000000000000     
  0.43750000000000000       0.25000000000000000        0.0000000000000000     
  0.46875000000000000       0.25000000000000000        0.0000000000000000     
  0.50000000000000000       0.25000000000000000        0.0000000000000000     
  0.50000000000000000       0.12500000000000000        0.0000000000000000     
  0.53125000000000000       0.12500000000000000        0.0000000000000000     
  0.56250000000000000       0.12500000000000000        0.0000000000000000     
  0.59375000000000000       0.12500000000000000        0.0000000000000000     
  0.62500000000000000       0.12500000000000000        0.0000000000000000     
  0.50000000000000000       0.15625000000000000        0.0000000000000000     
  0.53125000000000000       0.15625000000000000        0.0000000000000000     
  0.56250000000000000       0.15625000000000000        0.0000000000000000     
  0.59375000000000000       0.15625000000000000        0.0000000000000000     
  0.62500000000000000       0.15625000000000000        0.0000000000000000     
  0.50000000000000000       0.18750000000000000        0.0000000000000000     
  0.53125000000000000       0.18750000000000000        0.0000000000000000     
  0.56250000000000000       0.18750000000000000        0.0000000000000000     
  0.59375000000000000       0.18750000000000000        0.0000000000000000     
  0.62500000000000000       0.18750000000000000        0.0000000000000000     
  0.50000000000000000       0.21875000000000000        0.0000000000000000     
  0.53125000000000000       0.21875000000000000        0.0000000000000000     
  0.56250000000000000       0.21875000000000000        0.0000000000000000     
  0.59375000000000000       0.21875000000000000        0.0000000000000000     
  0.62500000000000000       0.21875000000000000        0.0000000000000000     
  0.50000000000000000       0.25000000000000000        0.0000000000000000     
  0.53125000000000000       0.25000000000000000        0.0000000000000000     
  0.56250000000000000       0.25000000000000000        0.0000000000000000     
  0.59375000000000000       0.25000000000000000        0.0000000000000000     
  0.62500000000000000       0.25000000000000000        0.0000000000000000     
  0.62500000000000000       0.12500000000000000        0.0000000000000000     
  0.65625000000000000       0.12500000000000000        0.0000000000000000     
  0.68750000000000000       0.12500000000000000        0.0000000000000000     
  0.71875000000000000       0.12500000000000000        0.0000000000000000     
  0.75000000000000000       0.12500000000000000        0.0000000000000000     
  0.62500000000000000       0.15625000000000000        0.0000000000000000     
  0.65625000000000000       0.15625000000000000        0.0000000000000000     
  0.68750000000000000       0.15625000000000000        0.0000000000000000     
  0.71875000000000000       0.15625000000000000        0.0000000000000000     
  0.75000000000000000       0.15625000000000000        0.0000000000000000     
  0.62500000000000000       0.18750000000000000        0.0000000000000000     
  0.65625000000000000       0.18750000000000000        0.0000000000000000     
  0.68750000000000000       0.18750000000000000        0.0000000000000000     
  0.71875000000000000       0.18750000000000000        0.0000000000000000     
  0.75000000000000000       0.18750000000000000        0.0000000000000000     
  0.62500000000000000       0.21875000000000000        0.0000000000000000     
  0.65625000000000000       0.21875000000000000        0.0000000000000000     
  0.68750000000000000       0.21875000000000000        0.0000000000000000     
  0.71875000000000000       0.21875000000000000        0.0000000000000000     
  0.75000000000000000       0.21875000000000000        0.0000000000000000     
  0.62500000000000000       0.25000000000000000        0.0000000000000000     
  0.65625000000000000       0.25000000000000000        0.0000000000000000     
  0.68750000000000000       0.25000000000000000        0.0000000000000000     
  0.71875000000000000       0.25000000000000000        0.0000000000000000     
  0.75000000000000000       0.25000000000000000        0.0000000000000000     
  0.75000000000000000       0.12500000000000000        0.0000000000000000     
  0.78125000000000000       0.12500000000000000        0.0000000000000000     
  0.81250000000000000       0.12500000000000000        0.0000000000000000     
  0.84375000000000000       0.12500000000000000        0.0000000000000000     
  0.87500000000000000       0.12500000000000000        0.0000000000000000     
  0.75000000000000000       0.15625000000000000        0.0000000000000000     
  0.78125000000000000       0.15625000000000000        0.0000000000000000     
  0.81250000000000000       0.15625000000000000        0.0000000000000000     
  0.84375000000000000       0.15625000000000000        0.0000000000000000     
  0.87500000000000000       0.15625000000000000        0.0000000000000000     
  0.75000000000000000       0.18750000000000000        0.0000000000000000     
  0.78125000000000000       0.18750000000000000        0.0000000000000000     
  0.81250000000000000       0.18750000000000000        0.0000000000000000     
  0.84375000000000000       0.18750000000000000        0.0000000000000000     
  0.87500000000000000       0.18750000000000000        0.0000000000000000     
  0.75000000000000000       0.21875000000000000        0.0000000000000000     
  0.78125000000000000       0.21875000000000000        0.0000000000000000     
  0.81250000000000000       0.21875000000000000        0.0000000000000000     
  0.84375000000000000       0.21875000000000000        0.0000000000000000     
  0.87500000000000000       0.21875000000000000        0.0000000000000000     
  0.75000000000000000       0.25000000000000000        0.0000000000000000     
  0.78125000000000000       0.25000000000000000        0.0000000000000000     
  0.81250000000000000       0.25000000000000000        0.0000000000000000     
  0.84375000000000000       0.25000000000000000        0.0000000000000000     
  0.87500000000000000       0.25000000000000000        0.0000000000000000     
  0.87500000000000000       0.12500000000000000        0.0000000000000000     
  0.90625000000000000       0.12500000000000000        0.0000000000000000     
  0.93750000000000000       0.12500000000000000        0.0000000000000000     
  0.96875000000000000       0.12500000000000000        0.0000000000000000     
   1.0000000000000000       0.12500000000000000        0.0000000000000000     
  0.87500000000000000       0.15625000000000000        0.0000000000000000     
  0.90625000000000000       0.15625000000000000        0.0000000000000000     
  0.93750000000000000       0.15625000000000000        0.0000000000000000     
  0.96875000000000000       0.15625000000000000        0.0000000000000000     
   1.0000000000000000       0.15625000000000000        0.0000000000000000     
  0.87500000000000000       0.18750000000000000        0.0000000000000000     
  0.90625000000000000       0.18750000000000000        0.0000000000000000     
  0.93750000000000000       0.18750000000000000        0.0000000000000000     
  0.96875000000000000       0.18750000000000000        0.0000000000000000     
   1.0000000000000000       0.18750000000000000        0.0000000000000000     
  0.87500000000000000       0.21875000000000000        0.0000000000000000     
  0.90625000000000000       0.21875000000000000        0.0000000000000000     
  0.93750000000000000       0.21875000000000000        0.0000000000000000     
  0.96875000000000000       0.21875000000000000        0.0000000000000000     
   1.0000000000000000       0.21875000000000000        0.0000000000000000     
  0.87500000000000000       0.25000000000000000        0.0000000000000000     
  0.90625000000000000       0.25000000000000000        0.0000000000000000     
  0.93750000000000000       0.25000000000000000        0.0000000000000000     
  0.96875000000000000       0.25000000000000000        0.0000000000000000     
   1.0000000000000000       0.25000000000000000        0.0000000000000000     
   0.0000000000000000       0.25000000000000000        0.0000000000000000     
   3.1250000000000000E-002  0.25000000000000000        0.0000000000000000     
   6.2500000000000000E-002  0.25000000000000000        0.0000000000000000     
   9.3750000000000000E-002  0.25000000000000000        0.0000000000000000     
  0.12500000000000000       0.25000000000000000        0.0000000000000000     
   0.0000000000000000       0.28125000000000000        0.0000000000000000     
   3.1250000000000000E-002  0.28125000000000000        0.0000000000000000     
   6.2500000000000000E-002  0.28125000000000000        0.0000000000000000     
   9.3750000000000000E-002  0.28125000000000000        0.0000000000000000     
  0.12500000000000000       0.28125000000000000        0.0000000000000000     
   0.0000000000000000       0.31250000000000000        0.0000000000000000     
   3.1250000000000000E-002  0.31250000000000000        0.0000000000000000     
   6.2500000000000000E-002  0.31250000000000000        0.0000000000000000     
   9.3750000000000000E-002  0.31250000000000000        0.0000000000000000     
  0.12500000000000000       0.31250000000000000        0.0000000000000000     
   0.0000000000000000       0.34375000000000000        0.0000000000000000     
   3.1250000000000000E-002  0.34375000000000000        0.0000000000000000     
   6.2500000000000000E-002  0.34375000000000000        0.0000000000000000     
   9.3750000000000000E-002  0.34375000000000000        0.0000000000000000     
  0.12500000000000000       0.34375000000000000        0.0000000000000000     
   0.0000000000000000       0.37500000000000000        0.0000000000000000     
   3.1250000000000000E-002  0.37500000000000000        0.0000000000000000     
   6.2500000000000000E-002  0.37500000000000000        0.0000000000000000     
   9.3750000000000000E-002  0.37500000000000000        0.0000000000000000     
  0.12500000000000000       0.37500000000000000        0.0000000000000000     
  0.12500000000000000       0.25000000000000000        0.0000000000000000     
  0.15625000000000000       0.25000000000000000        0.0000000000000000     
  0.18750000000000000       0.25000000000000000        0.0000000000000000     
  0.21875000000000000       0.25000000000000000        0.0000000000000000     
  0.25000000000000000       0.25000000000000000        0.0000000000000000     
  0.12500000000000000       0.28125000000000000        0.0000000000000000     
  0.15625000000000000       0.28125000000000000        0.0000000000000000     
  0.18750000000000000       0.28125000000000000        0.0000000000000000     
  0.21875000000000000       0.28125000000000000        0.0000000000000000     
  0.25000000000000000       0.28125000000000000        0.0000000000000000     
  0.12500000000000000       0.31250000000000000        0.0000000000000000     
  0.15625000000000000       0.31250000000000000        0.0000000000000000     
  0.18750000000000000       0.31250000000000000        0.0000000000000000     
  0.21875000000000000       0.31250000000000000        0.0000000000000000     
  0.25000000000000000       0.31250000000000000        0.0000000000000000     
  0.12500000000000000       0.34375000000000000        0.0000000000000000     
  0.15625000000000000       0.34375000000000000        0.0000000000000000     
  0.18750000000000000       0.34375000000000000        0.0000000000000000     
  0.21875000000000000       0.34375000000000000        0.0000000000000000     
  0.25000000000000000       0.34375000000000000        0.0000000000000000     
  0.12500000000000000       0.37500000000000000        0.0000000000000000     
  0.15625000000000000       0.37500000000000000        0.0000000000000000     
  0.18750000000000000       0.37500000000000000        0.0000000000000000     
  0.21875000000000000       0.37500000000000000        0.0000000000000000     
  0.25000000000000000       0.37500000000000000        0.0000000000000000     
  0.25000000000000000       0.25000000000000000        0.0000000000000000     
  0.28125000000000000       0.25000000000000000        0.0000000000000000     
  0.31250000000000000       0.25000000000000000        0.0000000000000000     
  0.34375000000000000       0.25000000000000000        0.0000000000000000     
  0.37500000000000000       0.25000000000000000        0.0000000000000000     
  0.25000000000000000       0.28125000000000000        0.0000000000000000     
  0.28125000000000000       0.28125000000000000        0.0000000000000000     
  0.31250000000000000       0.28125000000000000        0.0000000000000000     
  0.34375000000000000       0.28125000000000000        0.0000000000000000     
  0.37500000000000000       0.28125000000000000        0.0000000000000000     
  0.25000000000000000       0.31250000000000000        0.0000000000000000     
  0.28125000000000000       0.31250000000000000        0.0000000000000000     
  0.31250000000000000       0.31250000000000000        0.0000000000000000     
  0.34375000000000000       0.31250000000000000        0.0000000000000000     
  0.37500000000000000       0.31250000000000000        0.0000000000000000     
  0.25000000000000000       0.34375000000000000        0.0000000000000000     
  0.28125000000000000       0.34375000000000000        0.0000000000000000     
  0.31250000000000000       0.34375000000000000        0.0000000000000000     
  0.34375000000000000       0.34375000000000000        0.0000000000000000     
  0.37500000000000000       0.34375000000000000        0.0000000000000000     
  0.25000000000000000       0.37500000000000000        0.0000000000000000     
  0.28125000000000000       0.37500000000000000        0.0000000000000000     
  0.31250000000000000       0.37500000000000000        0.0000000000000000     
  0.34375000000000000       0.37500000000000000        0.0000000000000000     
  0.37500000000000000       0.37500000000000000        0.0000000000000000     
  0.37500000000000000       0.25000000000000000        0.0000000000000000     
  0.40625000000000000       0.25000000000000000        0.0000000000000000     
  0.43750000000000000       0.25000000000000000        0.0000000000000000     
  0.46875000000000000       0.25000000000000000        0.0000000000000000     
  0.50000000000000000       0.25000000000000000        0.0000000000000000     
  0.37500000000000000       0.28125000000000000        0.0000000000000000     
  0.40625000000000000       0.28125000000000000        0.0000000000000000     
  0.43750000000000000       0.28125000000000000        0.0000000000000000     
  0.46875000000000000       0.28125000000000000        0.0000000000000000     
  0.50000000000000000       0.28125000000000000        0.0000000000000000     
  0.37500000000000000       0.31250000000000000        0.0000000000000000     
  0.40625000000000000       0.31250000000000000        0.0000000000000000     
  0.43750000000000000       0.31250000000000000        0.0000000000000000     
  0.46875000000000000       0.31250000000000000        0.0000000000000000     
  0.50000000000000000       0.31250000000000000        0.0000000000000000     
  0.37500000000000000       0.34375000000000000        0.0000000000000000     
  0.40625000000000000       0.34375000000000000        0.0000000000000000     
  0.43750000000000000       0.34375000000000000        0.0000000000000000     
  0.46875000000000000       0.34375000000000000        0.0000000000000000     
  0.50000000000000000       0.34375000000000000        0.0000000000000000     
  0.37500000000000000       0.37500000000000000        0.0000000000000000     
  0.40625000000000000       0.37500000000000000        0.0000000000000000     
  0.43750000000000000       0.37500000000000000        0.0000000000000000     
  0.46875000000000000       0.37500000000000000        0.0000000000000000     
  0.50000000000000000       0.37500000000000000        0.0000000000000000     
  0.50000000000000000       0.25000000000000000        0.0000000000000000     
  0.53125000000000000       0.25000000000000000        0.0000000000000000     
  0.56250000000000000       0.25000000000000000        0.0000000000000000     
  0.59375000000000000       0.25000000000000000        0.0000000000000000     
  0.62500000000000000       0.25000000000000000        0.0000000000000000     
  0.50000000000000000       0.28125000000000000        0.0000000000000000     
  0.53125000000000000       0.28125000000000000        0.0000000000000000     
  0.56250000000000000       0.28125000000000000        0.0000000000000000     
  0.59375000000000000       0.28125000000000000        0.0000000000000000     
  0.62500000000000000       0.28125000000000000        0.0000000000000000     
  0.50000000000000000       0.31250000000000000        0.0000000000000000     
  0.53125000000000000       0.31250000000000000        0.0000000000000000     
  0.56250000000000000       0.31250000000000000        0.0000000000000000     
  0.59375000000000000       0.31250000000000000        0.0000000000000000     
  0.62500000000000000       0.31250000000000000        0.0000000000000000     
  0.50000000000000000       0.34375000000000000        0.0000000000000000     
  0.53125000000000000       0.34375000000000000        0.0000000000000000     
  0.56250000000000000       0.34375000000000000        0.0000000000000000     
  0.59375000000000000       0.34375000000000000        0.0000000000000000     
  0.62500000000000000       0.34375000000000000        0.0000000000000000     
  0.50000000000000000       0.37500000000000000        0.0000000000000000     
  0.53125000000000000       0.37500000000000000        0.0000000000000000     
  0.56250000000000000       0.37500000000000000        0.0000000000000000     
  0.59375000000000000       0.37500000000000000        0.0000000000000000     
  0.62500000000000000       0.37500000000000000        0.0000000000000000     
  0.62500000000000000       0.25000000000000000        0.0000000000000000     
  0.65625000000000000       0.25000000000000000        0.0000000000000000     
  0.68750000000000000       0.25000000000000000        0.0000000000000000     
  0.71875000000000000       0.25000000000000000        0.0000000000000000     
  0.75000000000000000       0.25000000000000000        0.0000000000000000     
  0.62500000000000000       0.28125000000000000        0.0000000000000000     
  0.65625000000000000       0.28125000000000000        0.0000000000000000     
  0.68750000000000000       0.28125000000000000        0.0000000000000000     
  0.71875000000000000       0.28125000000000000        0.0000000000000000     
  0.75000000000000000       0.28125000000000000        0.0000000000000000     
  0.62500000000000000       0.31250000000000000        0.0000000000000000     
  0.65625000000000000       0.31250000000000000        0.0000000000000000     
  0.68750000000000000       0.31250000000000000        0.0000000000000000     
  0.71875000000000000       0.31250000000000000        0.0000000000000000     
  0.75000000000000000       0.31250000000000000        0.0000000000000000     
  0.62500000000000000       0.34375000000000000        0.0000000000000000     
  0.65625000000000000       0.34375000000000000        0.0000000000000000     
  0.68750000000000000       0.34375000000000000        0.0000000000000000     
  0.71875000000000000       0.34375000000000000        0.0000000000000000     
  0.75000000000000000       0.34375000000000000        0.0000000000000000     
  0.62500000000000000       0.37500000000000000        0.0000000000000000     
  0.65625000000000000       0.37500000000000000        0.0000000000000000     
  0.68750000000000000       0.37500000000000000        0.0000000000000000     
  0.71875000000000000       0.37500000000000000        0.0000000000000000     
  0.75000000000000000       0.37500000000000000        0.0000000000000000     
  0.75000000000000000       0.25000000000000000        0.0000000000000000     
  0.78125000000000000       0.25000000000000000        0.0000000000000000     
  0.81250000000000000       0.25000000000000000        0.0000000000000000     
  0.84375000000000000       0.25000000000000000        0.0000000000000000     
  0.87500000000000000       0.25000000000000000        0.0000000000000000     
  0.75000000000000000       0.28125000000000000        0.0000000000000000     
  0.78125000000000000       0.28125000000000000        0.0000000000000000     
  0.81250000000000000       0.28125000000000000        0.0000000000000000     
  0.84375000000000000       0.28125000000000000        0.0000000000000000     
  0.87500000000000000       0.28125000000000000        0.0000000000000000     
  0.75000000000000000       0.31250000000000000        0.0000000000000000     
  0.78125000000000000       0.31250000000000000        0.0000000000000000     
  0.81250000000000000       0.31250000000000000        0.0000000000000000     
  0.84375000000000000       0.31250000000000000        0.0000000000000000     
  0.87500000000000000       0.31250000000000000        0.0000000000000000     
  0.75000000000000000       0.34375000000000000        0.0000000000000000     
  0.78125000000000000       0.34375000000000000        0.0000000000000000     
  0.81250000000000000       0.34375000000000000        0.0000000000000000     
  0.84375000000000000       0.34375000000000000        0.0000000000000000     
  0.87500000000000000       0.34375000000000000        0.0000000000000000     
  0.75000000000000000       0.37500000000000000        0.0000000000000000     
  0.78125000000000000       0.37500000000000000        0.0000000000000000     
  0.81250000000000000       0.37500000000000000        0.0000000000000000     
  0.84375000000000000       0.37500000000000000        0.0000000000000000     
  0.87500000000000000       0.37500000000000000        0.0000000000000000     
  0.87500000000000000       0.25000000000000000        0.0000000000000000     
  0.90625000000000000       0.25000000000000000        0.0000000000000000     
  0.93750000000000000       0.25000000000000000        0.0000000000000000     
  0.96875000000000000       0.25000000000000000        0.0000000000000000     
   1.0000000000000000       0.25000000000000000        0.0000000000000000     
  0.87500000000000000       0.28125000000000000        0.0000000000000000     
  0.90625000000000000       0.28125000000000000        0.0000000000000000     
  0.93750000000000000       0.28125000000000000        0.0000000000000000     
  0.96875000000000000       0.28125000000000000        0.0000000000000000     
   1.0000000000000000       0.28125000000000000        0.0000000000000000     
  0.87500000000000000       0.31250000000000000        0.0000000000000000     
  0.90625000000000000       0.31250000000000000        0.0000000000000000     
  0.93750000000000000       0.31250000000000000        0.0000000000000000     
  0.96875000000000000       0.31250000000000000        0.0000000000000000     
   1.0000000000000000       0.31250000000000000        0.0000000000000000     
  0.87500000000000000       0.34375000000000000        0.0000000000000000     
  0.90625000000000000       0.34375000000000000        0.0000000000000000     
  0.93750000000000000       0.34375000000000000        0.0000000000000000     
  0.96875000000000000       0.34375000000000000        0.0000000000000000     
   1.0000000000000000       0.34375000000000000        0.0000000000000000     
  0.87500000000000000       0.37500000000000000        0.0000000000000000     
  0.90625000000000000       0.37500000000000000        0.0000000000000000     
  0.93750000000000000       0.37500000000000000        0.0000000000000000     
  0.96875000000000000       0.37500000000000000        0.0000000000000000     
   1.0000000000000000       0.37500000000000000        0.0000000000000000     
   0.0000000000000000       0.37500000000000000        0.0000000000000000     
   3.1250000000000000E-002  0.37500000000000000        0.0000000000000000     
   6.2500000000000000E-002  0.37500000000000000        0.0000000000000000     
   9.3750000000000000E-002  0.37500000000000000        0.0000000000000000     
  0.12500000000000000       0.37500000000000000        0.0000000000000000     
   0.0000000000000000       0.40625000000000000        0.0000000000000000     
   3.1250000000000000E-002  0.40625000000000000        0.0000000000000000     
   6.2500000000000000E-002  0.40625000000000000        0.0000000000000000     
   9.3750000000000000E-002  0.40625000000000000        0.0000000000000000     
  0.12500000000000000       0.40625000000000000        0.0000000000000000     
   0.0000000000000000       0.43750000000000000        0.0000000000000000     
   3.1250000000000000E-002  0.43750000000000000        0.0000000000000000     
   6.2500000000000000E-002  0.43750000000000000        0.0000000000000000     
   9.3750000000000000E-002  0.43750000000000000        0.0000000000000000     
  0.12500000000000000       0.43750000000000000        0.0000000000000000     
   0.0000000000000000       0.46875000000000000        0.0000000000000000     
   3.1250000000000000E-002  0.46875000000000000        0.0000000000000000     
   6.2500000000000000E-002  0.46875000000000000        0.0000000000000000     
   9.3750000000000000E-002  0.46875000000000000        0.0000000000000000     
  0.12500000000000000       0.46875000000000000        0.0000000000000000     
   0.0000000000000000       0.50000000000000000        0.0000000000000000     
   3.1250000000000000E-002  0.50000000000000000        0.0000000000000000     
   6.2500000000000000E-002  0.50000000000000000        0.0000000000000000     
   9.3750000000000000E-002  0.50000000000000000        0.0000000000000000     
  0.12500000000000000       0.50000000000000000        0.0000000000000000     
  0.12500000000000000       0.37500000000000000        0.0000000000000000     
  0.15625000000000000       0.37500000000000000        0.0000000000000000     
  0.18750000000000000       0.37500000000000000        0.0000000000000000     
  0.21875000000000000       0.37500000000000000        0.0000000000000000     
  0.25000000000000000       0.37500000000000000        0.0000000000000000     
  0.12500000000000000       0.40625000000000000        0.0000000000000000     
  0.15625000000000000       0.40625000000000000        0.0000000000000000     
  0.18750000000000000       0.40625000000000000        0.0000000000000000     
  0.21875000000000000       0.40625000000000000        0.0000000000000000     
  0.25000000000000000       0.40625000000000000        0.0000000000000000     
  0.12500000000000000       0.43750000000000000        0.0000000000000000     
  0.15625000000000000       0.43750000000000000        0.0000000000000000     
  0.18750000000000000       0.43750000000000000        0.0000000000000000     
  0.21875000000000000       0.43750000000000000        0.0000000000000000     
  0.25000000000000000       0.43750000000000000        0.0000000000000000     
  0.12500000000000000       0.46875000000000000        0.0000000000000000     
  0.15625000000000000       0.46875000000000000        0.0000000000000000     
  0.18750000000000000       0.46875000000000000        0.0000000000000000     
  0.21875000000000000       0.46875000000000000        0.0000000000000000     
  0.25000000000000000       0.46875000000000000        0.0000000000000000     
  0.12500000000000000       0.50000000000000000        0.0000000000000000     
  0.15625000000000000       0.50000000000000000        0.0000000000000000     
  0.18750000000000000       0.50000000000000000        0.0000000000000000     
  0.21875000000000000       0.50000000000000000        0.0000000000000000     
  0.25000000000000000       0.50000000000000000        0.0000000000000000     
  0.25000000000000000       0.37500000000000000        0.0000000000000000     
  0.28125000000000000       0.37500000000000000        0.0000000000000000     
  0.31250000000000000       0.37500000000000000        0.0000000000000000     
  0.34375000000000000       0.37500000000000000        0.0000000000000000     
  0.37500000000000000       0.37500000000000000        0.0000000000000000     
  0.25000000000000000       0.40625000000000000        0.0000000000000000     
  0.28125000000000000       0.40625000000000000        0.0000000000000000     
  0.31250000000000000       0.40625000000000000        0.0000000000000000     
  0.34375000000000000       0.40625000000000000        0.0000000000000000     
  0.37500000000000000       0.40625000000000000        0.0000000000000000     
  0.25000000000000000       0.43750000000000000        0.0000000000000000     
  0.28125000000000000       0.43750000000000000        0.0000000000000000     
  0.31250000000000000       0.43750000000000000        0.0000000000000000     
  0.34375000000000000       0.43750000000000000        0.0000000000000000     
  0.37500000000000000       0.43750000000000000        0.0000000000000000     
  0.25000000000000000       0.46875000000000000        0.0000000000000000     
  0.28125000000000000       0.46875000000000000        0.0000000000000000     
  0.31250000000000000       0.46875000000000000        0.0000000000000000     
  0.34375000000000000       0.46875000000000000        0.0000000000000000     
  0.37500000000000000       0.46875000000000000        0.0000000000000000     
  0.25000000000000000       0.50000000000000000        0.0000000000000000     
  0.28125000000000000       0.50000000000000000        0.0000000000000000     
  0.31250000000000000       0.50000000000000000        0.0000000000000000     
  0.34375000000000000       0.50000000000000000        0.0000000000000000     
  0.37500000000000000       0.50000000000000000        0.0000000000000000     
  0.37500000000000000       0.37500000000000000        0.0000000000000000     
  0.40625000000000000       0.37500000000000000        0.0000000000000000     
  0.43750000000000000       0.37500000000000000        0.0000000000000000     
  0.46875000000000000       0.37500000000000000        0.0000000000000000     
  0.50000000000000000       0.37500000000000000        0.0000000000000000     
  0.37500000000000000       0.40625000000000000        0.0000000000000000     
  0.40625000000000000       0.40625000000000000        0.0000000000000000     
  0.43750000000000000       0.40625000000000000        0.0000000000000000     
  0.46875000000000000       0.40625000000000000        0.0000000000000000     
  0.50000000000000000       0.40625000000000000        0.0000000000000000     
  0.37500000000000000       0.43750000000000000        0.0000000000000000     
  0.40625000000000000       0.43750000000000000        0.0000000000000000     
  0.43750000000000000       0.43750000000000000        0.0000000000000000     
  0.46875000000000000       0.43750000000000000        0.0000000000000000     
  0.50000000000000000       0.43750000000000000        0.0000000000000000     
  0.37500000000000000       0.46875000000000000        0.0000000000000000     
  0.40625000000000000       0.46875000000000000        0.0000000000000000     
  0.43750000000000000       0.46875000000000000        0.0000000000000000     
  0.46875000000000000       0.46875000000000000        0.0000000000000000     
  0.50000000000000000       0.46875000000000000        0.0000000000000000     
  0.37500000000000000       0.50000000000000000        0.0000000000000000     
  0.40625000000000000       0.50000000000000000        0.0000000000000000     
  0.43750000000000000       0.50000000000000000        0.0000000000000000     
  0.46875000000000000       0.50000000000000000        0.0000000000000000     
  0.50000000000000000       0.50000000000000000        0.0000000000000000     
  0.50000000000000000       0.37500000000000000        0.0000000000000000     
  0.53125000000000000       0.37500000000000000        0.0000000000000000     
  0.56250000000000000       0.37500000000000000        0.0000000000000000     
  0.59375000000000000       0.37500000000000000        0.0000000000000000     
  0.62500000000000000       0.37500000000000000        0.0000000000000000     
  0.50000000000000000       0.40625000000000000        0.0000000000000000     
  0.53125000000000000       0.40625000000000000        0.0000000000000000     
  0.56250000000000000       0.40625000000000000        0.0000000000000000     
  0.59375000000000000       0.40625000000000000        0.0000000000000000     
  0.62500000000000000       0.40625000000000000        0.0000000000000000     
  0.50000000000000000       0.43750000000000000        0.0000000000000000     
  0.53125000000000000       0.43750000000000000        0.0000000000000000     
  0.56250000000000000       0.43750000000000000        0.0000000000000000     
  0.59375000000000000       0.43750000000000000        0.0000000000000000     
  0.62500000000000000       0.43750000000000000        0.0000000000000000     
  0.50000000000000000       0.46875000000000000        0.0000000000000000     
  0.53125000000000000       0.46875000000000000        0.0000000000000000     
  0.56250000000000000       0.46875000000000000        0.0000000000000000     
  0.59375000000000000       0.46875000000000000        0.0000000000000000     
  0.62500000000000000       0.46875000000000000        0.0000000000000000     
  0.50000000000000000       0.50000000000000000        0.0000000000000000     
  0.53125000000000000       0.50000000000000000        0.0000000000000000     
  0.56250000000000000       0.50000000000000000        0.0000000000000000     
  0.59375000000000000       0.50000000000000000        0.0000000000000000     
  0.62500000000000000       0.50000000000000000        0.0000000000000000     
  0.62500000000000000       0.37500000000000000        0.0000000000000000     
  0.65625000000000000       0.37500000000000000        0.0000000000000000     
  0.68750000000000000       0.37500000000000000        0.0000000000000000     
  0.71875000000000000       0.37500000000000000        0.0000000000000000     
  0.75000000000000000       0.37500000000000000        0.0000000000000000     
  0.62500000000000000       0.40625000000000000        0.0000000000000000     
  0.65625000000000000       0.40625000000000000        0.0000000000000000     
  0.68750000000000000       0.40625000000000000        0.0000000000000000     
  0.71875000000000000       0.40625000000000000        0.0000000000000000     
  0.75000000000000000       0.40625000000000000        0.0000000000000000     
  0.62500000000000000       0.43750000000000000        0.0000000000000000     
  0.65625000000000000       0.43750000000000000        0.0000000000000000     
  0.68750000000000000       0.43750000000000000        0.0000000000000000     
  0.71875000000000000       0.43750000000000000        0.0000000000000000     
  0.75000000000000000       0.43750000000000000        0.0000000000000000     
  0.62500000000000000       0.46875000000000000        0.0000000000000000     
  0.65625000000000000       0.46875000000000000        0.0000000000000000     
  0.68750000000000000       0.46875000000000000        0.0000000000000000     
  0.71875000000000000       0.46875000000000000        0.0000000000000000     
  0.75000000000000000       0.46875000000000000        0.0000000000000000     
  0.62500000000000000       0.50000000000000000        0.0000000000000000     
  0.65625000000000000       0.50000000000000000        0.0000000000000000     
  0.68750000000000000       0.50000000000000000        0.0000000000000000     
  0.71875000000000000       0.50000000000000000        0.0000000000000000     
  0.75000000000000000       0.50000000000000000        0.0000000000000000     
  0.75000000000000000       0.37500000000000000        0.0000000000000000     
  0.78125000000000000       0.37500000000000000        0.0000000000000000     
  0.81250000000000000       0.37500000000000000        0.0000000000000000     
  0.84375000000000000       0.37500000000000000        0.0000000000000000     
  0.87500000000000000       0.37500000000000000        0.0000000000000000     
  0.75000000000000000       0.40625000000000000        0.0000000000000000     
  0.78125000000000000       0.40625000000000000        0.0000000000000000     
  0.81250000000000000       0.40625000000000000        0.0000000000000000     
  0.84375000000000000       0.40625000000000000        0.0000000000000000     
  0.87500000000000000       0.40625000000000000        0.0000000000000000     
  0.75000000000000000       0.43750000000000000        0.0000000000000000     
  0.78125000000000000       0.43750000000000000        0.0000000000000000     
  0.81250000000000000       0.43750000000000000        0.0000000000000000     
  0.84375000000000000       0.43750000000000000        0.0000000000000000     
  0.87500000000000000       0.43750000000000000        0.0000000000000000     
  0.75000000000000000       0.46875000000000000        0.0000000000000000     
  0.78125000000000000       0.46875000000000000        0.0000000000000000     
  0.81250000000000000       0.46875000000000000        0.0000000000000000     
  0.84375000000000000       0.46875000000000000        0.0000000000000000     
  0.87500000000000000       0.46875000000000000        0.0000000000000000     
  0.75000000000000000       0.50000000000000000        0.0000000000000000     
  0.78125000000000000       0.50000000000000000        0.0000000000000000     
  0.81250000000000000       0.50000000000000000        0.0000000000000000     
  0.84375000000000000       0.50000000000000000        0.0000000000000000     
  0.87500000000000000       0.50000000000000000        0.0000000000000000     
  0.87500000000000000       0.37500000000000000        0.0000000000000000     
  0.90625000000000000       0.37500000000000000        0.0000000000000000     
  0.93750000000000000       0.37500000000000000        0.0000000000000000     
  0.96875000000000000       0.37500000000000000        0.0000000000000000     
   1.0000000000000000       0.37500000000000000        0.0000000000000000     
  0.87500000000000000       0.40625000000000000        0.0000000000000000     
  0.90625000000000000       0.40625000000000000        0.0000000000000000     
  0.93750000000000000       0.40625000000000000        0.0000000000000000     
  0.96875000000000000       0.40625000000000000        0.0000000000000000     
   1.0000000000000000       0.40625000000000000        0.0000000000000000     
  0.87500000000000000       0.43750000000000000        0.0000000000000000     
  0.90625000000000000       0.43750000000000000        0.0000000000000000     
  0.93750000000000000       0.43750000000000000        0.0000000000000000     
  0.96875000000000000       0.43750000000000000        0.0000000000000000     
   1.0000000000000000       0.43750000000000000        0.0000000000000000     
  0.87500000000000000       0.46875000000000000        0.0000000000000000     
  0.90625000000000000       0.46875000000000000        0.0000000000000000     
  0.93750000000000000       0.46875000000000000        0.0000000000000000     
  0.96875000000000000       0.46875000000000000        0.0000000000000000     
   1.0000000000000000       0.46875000000000000        0.0000000000000000     
  0.87500000000000000       0.50000000000000000        0.0000000000000000     
  0.90625000000000000       0.50000000000000000        0.0000000000000000     
  0.93750000000000000       0.50000000000000000        0.0000000000000000     
  0.96875000000000000       0.50000000000000000        0.0000000000000000     
   1.0000000000000000       0.50000000000000000        0.0000000000000000     
   0.0000000000000000       0.50000000000000000        0.0000000000000000     
   3.1250000000000000E-002  0.50000000000000000        0.0000000000000000     
   6.2500000000000000E-002  0.50000000000000000        0.0000000000000000     
   9.3750000000000000E-002  0.50000000000000000        0.0000000000000000     
  0.12500000000000000       0.50000000000000000        0.0000000000000000     
   0.0000000000000000       0.53125000000000000        0.0000000000000000     
   3.1250000000000000E-002  0.53125000000000000        0.0000000000000000     
   6.2500000000000000E-002  0.53125000000000000        0.0000000000000000     
   9.3750000000000000E-002  0.53125000000000000        0.0000000000000000     
  0.12500000000000000       0.53125000000000000        0.0000000000000000     
   0.0000000000000000       0.56250000000000000        0.0000000000000000     
   3.1250000000000000E-002  0.56250000000000000        0.0000000000000000     
   6.2500000000000000E-002  0.56250000000000000        0.0000000000000000     
   9.3750000000000000E-002  0.56250000000000000        0.0000000000000000     
  0.12500000000000000       0.56250000000000000        0.0000000000000000     
   0.0000000000000000       0.59375000000000000        0.0000000000000000     
   3.1250000000000000E-002  0.59375000000000000        0.0000000000000000     
   6.2500000000000000E-002  0.59375000000000000        0.0000000000000000     
   9.3750000000000000E-002  0.59375000000000000        0.0000000000000000     
  0.12500000000000000       0.59375000000000000        0.0000000000000000     
   0.0000000000000000       0.62500000000000000        0.0000000000000000     
   3.1250000000000000E-002  0.62500000000000000        0.0000000000000000     
   6.2500000000000000E-002  0.62500000000000000        0.0000000000000000     
   9.3750000000000000E-002  0.62500000000000000        0.0000000000000000     
  0.12500000000000000       0.62500000000000000        0.0000000000000000     
  0.12500000000000000       0.50000000000000000        0.0000000000000000     
  0.15625000000000000       0.50000000000000000        0.0000000000000000     
  0.18750000000000000       0.50000000000000000        0.0000000000000000     
  0.21875000000000000       0.50000000000000000        0.0000000000000000     
  0.25000000000000000       0.50000000000000000        0.0000000000000000     
  0.12500000000000000       0.53125000000000000        0.0000000000000000     
  0.15625000000000000       0.53125000000000000        0.0000000000000000     
  0.18750000000000000       0.53125000000000000        0.0000000000000000     
  0.21875000000000000       0.53125000000000000        0.0000000000000000     
  0.25000000000000000       0.53125000000000000        0.0000000000000000     
  0.12500000000000000       0.56250000000000000        0.0000000000000000     
  0.15625000000000000       0.56250000000000000        0.0000000000000000     
  0.18750000000000000       0.56250000000000000        0.0000000000000000     
  0.21875000000000000       0.56250000000000000        0.0000000000000000     
  0.25000000000000000       0.56250000000000000        0.0000000000000000     
  0.12500000000000000       0.59375000000000000        0.0000000000000000     
  0.15625000000000000       0.59375000000000000        0.0000000000000000     
  0.18750000000000000       0.59375000000000000        0.0000000000000000     
  0.21875000000000000       0.59375000000000000        0.0000000000000000     
  0.25000000000000000       0.59375000000000000        0.0000000000000000     
  0.12500000000000000       0.62500000000000000        0.0000000000000000     
  0.15625000000000000       0.62500000000000000        0.0000000000000000     
  0.18750000000000000       0.62500000000000000        0.0000000000000000     
  0.21875000000000000       0.62500000000000000        0.0000000000000000     
  0.25000000000000000       0.62500000000000000        0.0000000000000000     
  0.25000000000000000       0.50000000000000000        0.0000000000000000     
  0.28125000000000000       0.50000000000000000        0.0000000000000000     
  0.31250000000000000       0.50000000000000000        0.0000000000000000     
  0.34375000000000000       0.50000000000000000        0.0000000000000000     
  0.37500000000000000       0.50000000000000000        0.0000000000000000     
  0.25000000000000000       0.53125000000000000        0.0000000000000000     
  0.28125000000000000       0.53125000000000000        0.0000000000000000     
  0.31250000000000000       0.53125000000000000        0.0000000000000000     
  0.34375000000000000       0.53125000000000000        0.0000000000000000     
  0.37500000000000000       0.53125000000000000        0.0000000000000000     
  0.25000000000000000       0.56250000000000000        0.0000000000000000     
  0.28125000000000000       0.56250000000000000        0.0000000000000000     
  0.31250000000000000       0.56250000000000000        0.0000000000000000     
  0.34375000000000000       0.56250000000000000        0.0000000000000000     
  0.37500000000000000       0.56250000000000000        0.0000000000000000     
  0.25000000000000000       0.59375000000000000        0.0000000000000000     
  0.28125000000000000       0.59375000000000000        0.0000000000000000     
  0.31250000000000000       0.59375000000000000        0.0000000000000000     
  0.34375000000000000       0.59375000000000000        0.0000000000000000     
  0.37500000000000000       0.59375000000000000        0.0000000000000000     
  0.25000000000000000       0.62500000000000000        0.0000000000000000     
  0.28125000000000000       0.62500000000000000        0.0000000000000000     
  0.31250000000000000       0.62500000000000000        0.0000000000000000     
  0.34375000000000000       0.62500000000000000        0.0000000000000000     
  0.37500000000000000       0.62500000000000000        0.0000000000000000     
  0.37500000000000000       0.50000000000000000        0.0000000000000000     
  0.40625000000000000       0.50000000000000000        0.0000000000000000     
  0.43750000000000000       0.50000000000000000        0.0000000000000000     
  0.46875000000000000       0.50000000000000000        0.0000000000000000     
  0.50000000000000000       0.50000000000000000        0.0000000000000000     
  0.37500000000000000       0.53125000000000000        0.0000000000000000     
  0.40625000000000000       0.53125000000000000        0.0000000000000000     
  0.43750000000000000       0.53125000000000000        0.0000000000000000     
  0.46875000000000000       0.53125000000000000        0.0000000000000000     
  0.50000000000000000       0.53125000000000000        0.0000000000000000     
  0.37500000000000000       0.56250000000000000        0.0000000000000000     
  0.40625000000000000       0.56250000000000000        0.0000000000000000     
  0.43750000000000000       0.56250000000000000        0.0000000000000000     
  0.46875000000000000       0.56250000000000000        0.0000000000000000     
  0.50000000000000000       0.56250000000000000        0.0000000000000000     
  0.37500000000000000       0.59375000000000000        0.0000000000000000     
  0.40625000000000000       0.59375000000000000        0.0000000000000000     
  0.43750000000000000       0.59375000000000000        0.0000000000000000     
  0.46875000000000000       0.59375000000000000        0.0000000000000000     
  0.50000000000000000       0.59375000000000000        0.0000000000000000     
  0.37500000000000000       0.62500000000000000        0.0000000000000000     
  0.40625000000000000       0.62500000000000000        0.0000000000000000     
  0.43750000000000000       0.62500000000000000        0.0000000000000000     
  0.46875000000000000       0.62500000000000000        0.0000000000000000     
  0.50000000000000000       0.62500000000000000        0.0000000000000000     
  0.50000000000000000       0.50000000000000000        0.0000000000000000     
  0.53125000000000000       0.50000000000000000        0.0000000000000000     
  0.56250000000000000       0.50000000000000000        0.0000000000000000     
  0.59375000000000000       0.50000000000000000        0.0000000000000000     
  0.62500000000000000       0.50000000000000000        0.0000000000000000     
  0.50000000000000000       0.53125000000000000        0.0000000000000000     
  0.53125000000000000       0.53125000000000000        0.0000000000000000     
  0.56250000000000000       0.53125000000000000        0.0000000000000000     
  0.59375000000000000       0.53125000000000000        0.0000000000000000     
  0.62500000000000000       0.53125000000000000        0.0000000000000000     
  0.50000000000000000       0.56250000000000000        0.0000000000000000     
  0.53125000000000000       0.56250000000000000        0.0000000000000000     
  0.56250000000000000       0.56250000000000000        0.0000000000000000     
  0.59375000000000000       0.56250000000000000        0.0000000000000000     
  0.62500000000000000       0.56250000000000000        0.0000000000000000     
  0.50000000000000000       0.59375000000000000        0.0000000000000000     
  0.53125000000000000       0.59375000000000000        0.0000000000000000     
  0.56250000000000000       0.59375000000000000        0.0000000000000000     
  0.59375000000000000       0.59375000000000000        0.0000000000000000     
  0.62500000000000000       0.59375000000000000        0.0000000000000000     
  0.50000000000000000       0.62500000000000000        0.0000000000000000     
  0.53125000000000000       0.62500000000000000        0.0000000000000000     
  0.56250000000000000       0.62500000000000000        0.0000000000000000     
  0.59375000000000000       0.62500000000000000        0.0000000000000000     
  0.62500000000000000       0.62500000000000000        0.0000000000000000     
  0.62500000000000000       0.50000000000000000        0.0000000000000000     
  0.65625000000000000       0.50000000000000000        0.0000000000000000     
  0.68750000000000000       0.50000000000000000        0.0000000000000000     
  0.71875000000000000       0.50000000000000000        0.0000000000000000     
  0.75000000000000000       0.50000000000000000        0.0000000000000000     
  0.62500000000000000       0.53125000000000000        0.0000000000000000     
  0.65625000000000000       0.53125000000000000        0.0000000000000000     
  0.68750000000000000       0.53125000000000000        0.0000000000000000     
  0.71875000000000000       0.53125000000000000        0.0000000000000000     
  0.75000000000000000       0.53125000000000000        0.0000000000000000     
  0.62500000000000000       0.56250000000000000        0.0000000000000000     
  0.65625000000000000       0.56250000000000000        0.0000000000000000     
  0.68750000000000000       0.56250000000000000        0.0000000000000000     
  0.71875000000000000       0.56250000000000000        0.0000000000000000     
  0.75000000000000000       0.56250000000000000        0.0000000000000000     
  0.62500000000000000       0.59375000000000000        0.0000000000000000     
  0.65625000000000000       0.59375000000000000        0.0000000000000000     
  0.68750000000000000       0.59375000000000000        0.0000000000000000     
  0.71875000000000000       0.59375000000000000        0.0000000000000000     
  0.75000000000000000       0.59375000000000000        0.0000000000000000     
  0.62500000000000000       0.62500000000000000        0.0000000000000000     
  0.65625000000000000       0.62500000000000000        0.0000000000000000     
  0.68750000000000000       0.62500000000000000        0.0000000000000000     
  0.71875000000000000       0.62500000000000000        0.0000000000000000     
  0.75000000000000000       0.62500000000000000        0.0000000000000000     
  0.75000000000000000       0.50000000000000000        0.0000000000000000     
  0.78125000000000000       0.50000000000000000        0.0000000000000000     
  0.81250000000000000       0.50000000000000000        0.0000000000000000     
  0.84375000000000000       0.50000000000000000        0.0000000000000000     
  0.87500000000000000       0.50000000000000000        0.0000000000000000     
  0.75000000000000000       0.53125000000000000        0.0000000000000000     
  0.78125000000000000       0.53125000000000000        0.0000000000000000     
  0.81250000000000000       0.53125000000000000        0.0000000000000000     
  0.84375000000000000       0.53125000000000000        0.0000000000000000     
  0.87500000000000000       0.53125000000000000        0.0000000000000000     
  0.75000000000000000       0.56250000000000000        0.0000000000000000     
  0.78125000000000000       0.56250000000000000        0.0000000000000000     
  0.81250000000000000       0.56250000000000000        0.0000000000000000     
  0.84375000000000000       0.56250000000000000        0.0000000000000000     
  0.87500000000000000       0.56250000000000000        0.0000000000000000     
  0.75000000000000000       0.59375000000000000        0.0000000000000000     
  0.78125000000000000       0.59375000000000000        0.0000000000000000     
  0.81250000000000000       0.59375000000000000        0.0000000000000000     
  0.84375000000000000       0.59375000000000000        0.0000000000000000     
  0.87500000000000000       0.59375000000000000        0.0000000000000000     
  0.75000000000000000       0.62500000000000000        0.0000000000000000     
  0.78125000000000000       0.62500000000000000        0.0000000000000000     
  0.81250000000000000       0.62500000000000000        0.0000000000000000     
  0.84375000000000000       0.62500000000000000        0.0000000000000000     
  0.87500000000000000       0.62500000000000000        0.0000000000000000     
  0.87500000000000000       0.50000000000000000        0.0000000000000000     
  0.90625000000000000       0.50000000000000000        0.0000000000000000     
  0.93750000000000000       0.50000000000000000        0.0000000000000000     
  0.96875000000000000       0.50000000000000000        0.0000000000000000     
   1.0000000000000000       0.50000000000000000        0.0000000000000000     
  0.87500000000000000       0.53125000000000000        0.0000000000000000     
  0.90625000000000000       0.53125000000000000        0.0000000000000000     
  0.93750000000000000       0.53125000000000000        0.0000000000000000     
  0.96875000000000000       0.53125000000000000        0.0000000000000000     
   1.0000000000000000       0.53125000000000000        0.0000000000000000     
  0.87500000000000000       0.56250000000000000        0.0000000000000000     
  0.90625000000000000       0.56250000000000000        0.0000000000000000     
  0.93750000000000000       0.56250000000000000        0.0000000000000000     
  0.96875000000000000       0.56250000000000000        0.0000000000000000     
   1.0000000000000000       0.56250000000000000        0.0000000000000000     
  0.87500000000000000       0.59375000000000000        0.0000000000000000     
  0.90625000000000000       0.59375000000000000        0.0000000000000000     
  0.93750000000000000       0.59375000000000000        0.0000000000000000     
  0.96875000000000000       0.59375000000000000        0.0000000000000000     
   1.0000000000000000       0.59375000000000000        0.0000000000000000     
  0.87500000000000000       0.62500000000000000        0.0000000000000000     
  0.90625000000000000       0.62500000000000000        0.0000000000000000     
  0.93750000000000000       0.62500000000000000        0.0000000000000000     
  0.96875000000000000       0.62500000000000000        0.0000000000000000     
   1.0000000000000000       0.62500000000000000        0.0000000000000000     
   0.0000000000000000       0.62500000000000000        0.0000000000000000     
   3.1250000000000000E-002  0.62500000000000000        0.0000000000000000     
   6.2500000000000000E-002  0.62500000000000000        0.0000000000000000     
   9.3750000000000000E-002  0.62500000000000000        0.0000000000000000     
  0.12500000000000000       0.62500000000000000        0.0000000000000000     
   0.0000000000000000       0.65625000000000000        0.0000000000000000     
   3.1250000000000000E-002  0.65625000000000000        0.0000000000000000     
   6.2500000000000000E-002  0.65625000000000000        0.0000000000000000     
   9.3750000000000000E-002  0.65625000000000000        0.0000000000000000     
  0.12500000000000000       0.65625000000000000        0.0000000000000000     
   0.0000000000000000       0.68750000000000000        0.0000000000000000     
   3.1250000000000000E-002  0.68750000000000000        0.0000000000000000     
   6.2500000000000000E-002  0.68750000000000000        0.0000000000000000     
   9.3750000000000000E-002  0.68750000000000000        0.0000000000000000     
  0.12500000000000000       0.68750000000000000        0.0000000000000000     
   0.0000000000000000       0.71875000000000000        0.0000000000000000     
   3.1250000000000000E-002  0.71875000000000000        0.0000000000000000     
   6.2500000000000000E-002  0.71875000000000000        0.0000000000000000     
   9.3750000000000000E-002  0.71875000000000000        0.0000000000000000     
  0.12500000000000000       0.71875000000000000        0.0000000000000000     
   0.0000000000000000       0.75000000000000000        0.0000000000000000     
   3.1250000000000000E-002  0.75000000000000000        0.0000000000000000     
   6.2500000000000000E-002  0.75000000000000000        0.0000000000000000     
   9.3750000000000000E-002  0.75000000000000000        0.0000000000000000     
  0.12500000000000000       0.75000000000000000        0.0000000000000000     
  0.12500000000000000       0.62500000000000000        0.0000000000000000     
  0.15625000000000000       0.62500000000000000        0.0000000000000000     
  0.18750000000000000       0.62500000000000000        0.0000000000000000     
  0.21875000000000000       0.62500000000000000        0.0000000000000000     
  0.25000000000000000       0.62500000000000000        0.0000000000000000     
  0.12500000000000000       0.65625000000000000        0.0000000000000000     
  0.15625000000000000       0.65625000000000000        0.0000000000000000     
  0.18750000000000000       0.65625000000000000        0.0000000000000000     
  0.21875000000000000       0.65625000000000000        0.0000000000000000     
  0.25000000000000000       0.65625000000000000        0.0000000000000000     
  0.12500000000000000       0.68750000000000000        0.0000000000000000     
  0.15625000000000000       0.68750000000000000        0.0000000000000000     
  0.18750000000000000       0.68750000000000000        0.0000000000000000     
  0.21875000000000000       0.68750000000000000        0.0000000000000000     
  0.25000000000000000       0.68750000000000000        0.0000000000000000     
  0.12500000000000000       0.71875000000000000        0.0000000000000000     
  0.15625000000000000       0.71875000000000000        0.0000000000000000     
  0.18750000000000000       0.71875000000000000        0.0000000000000000     
  0.21875000000000000       0.71875000000000000        0.0000000000000000     
  0.25000000000000000       0.71875000000000000        0.0000000000000000     
  0.12500000000000000       0.75000000000000000        0.0000000000000000     
  0.15625000000000000       0.75000000000000000        0.0000000000000000     
  0.18750000000000000       0.75000000000000000        0.0000000000000000     
  0.21875000000000000       0.75000000000000000        0.0000000000000000     
  0.25000000000000000       0.75000000000000000        0.0000000000000000     
  0.25000000000000000       0.62500000000000000        0.0000000000000000     
  0.28125000000000000       0.62500000000000000        0.0000000000000000     
  0.31250000000000000       0.62500000000000000        0.0000000000000000     
  0.34375000000000000       0.62500000000000000        0.0000000000000000     
  0.37500000000000000       0.62500000000000000        0.0000000000000000     
  0.25000000000000000       0.65625000000000000        0.0000000000000000     
  0.28125000000000000       0.65625000000000000        0.0000000000000000     
  0.31250000000000000       0.65625000000000000        0.0000000000000000     
  0.34375000000000000       0.65625000000000000        0.0000000000000000     
  0.37500000000000000       0.65625000000000000        0.0000000000000000     
  0.25000000000000000       0.68750000000000000        0.0000000000000000     
  0.28125000000000000       0.68750000000000000        0.0000000000000000     
  0.31250000000000000       0.68750000000000000        0.0000000000000000     
  0.34375000000000000       0.68750000000000000        0.0000000000000000     
  0.37500000000000000       0.68750000000000000        0.0000000000000000     
  0.25000000000000000       0.71875000000000000        0.0000000000000000     
  0.28125000000000000       0.71875000000000000        0.0000000000000000     
  0.31250000000000000       0.71875000000000000        0.0000000000000000     
  0.34375000000000000       0.71875000000000000        0.0000000000000000     
  0.37500000000000000       0.71875000000000000        0.0000000000000000     
  0.25000000000000000       0.75000000000000000        0.0000000000000000     
  0.28125000000000000       0.75000000000000000        0.0000000000000000     
  0.31250000000000000       0.75000000000000000        0.0000000000000000     
  0.34375000000000000       0.75000000000000000        0.0000000000000000     
  0.37500000000000000       0.75000000000000000        0.0000000000000000     
  0.37500000000000000       0.62500000000000000        0.0000000000000000     
  0.40625000000000000       0.62500000000000000        0.0000000000000000     
  0.43750000000000000       0.62500000000000000        0.0000000000000000     
  0.46875000000000000       0.62500000000000000        0.0000000000000000     
  0.50000000000000000       0.62500000000000000        0.0000000000000000     
  0.37500000000000000       0.65625000000000000        0.0000000000000000     
  0.40625000000000000       0.65625000000000000        0.0000000000000000     
  0.43750000000000000       0.65625000000000000        0.0000000000000000     
  0.46875000000000000       0.65625000000000000        0.0000000000000000     
  0.50000000000000000       0.65625000000000000        0.0000000000000000     
  0.37500000000000000       0.68750000000000000        0.0000000000000000     
  0.40625000000000000       0.68750000000000000        0.0000000000000000     
  0.43750000000000000       0.68750000000000000        0.0000000000000000     
  0.46875000000000000       0.68750000000000000        0.0000000000000000     
  0.50000000000000000       0.68750000000000000        0.0000000000000000     
  0.37500000000000000       0.71875000000000000        0.0000000000000000     
  0.40625000000000000       0.71875000000000000        0.0000000000000000     
  0.43750000000000000       0.71875000000000000        0.0000000000000000     
  0.46875000000000000       0.71875000000000000        0.0000000000000000     
  0.50000000000000000       0.71875000000000000        0.0000000000000000     
  0.37500000000000000       0.75000000000000000        0.0000000000000000     
  0.40625000000000000       0.75000000000000000        0.0000000000000000     
  0.43750000000000000       0.75000000000000000        0.0000000000000000     
  0.46875000000000000       0.75000000000000000        0.0000000000000000     
  0.50000000000000000       0.75000000000000000        0.0000000000000000     
  0.50000000000000000       0.62500000000000000        0.0000000000000000     
  0.53125000000000000       0.62500000000000000        0.0000000000000000     
  0.56250000000000000       0.62500000000000000        0.0000000000000000     
  0.59375000000000000       0.62500000000000000        0.0000000000000000     
  0.62500000000000000       0.62500000000000000        0.0000000000000000     
  0.50000000000000000       0.65625000000000000        0.0000000000000000     
  0.53125000000000000       0.65625000000000000        0.0000000000000000     
  0.56250000000000000       0.65625000000000000        0.0000000000000000     
  0.59375000000000000       0.65625000000000000        0.0000000000000000     
  0.62500000000000000       0.65625000000000000        0.0000000000000000     
  0.50000000000000000       0.68750000000000000        0.0000000000000000     
  0.53125000000000000       0.68750000000000000        0.0000000000000000     
  0.56250000000000000       0.68750000000000000        0.0000000000000000     
  0.59375000000000000       0.68750000000000000        0.0000000000000000     
  0.62500000000000000       0.68750000000000000        0.0000000000000000     
  0.50000000000000000       0.71875000000000000        0.0000000000000000     
  0.53125000000000000       0.71875000000000000        0.0000000000000000     
  0.56250000000000000       0.71875000000000000        0.0000000000000000     
  0.59375000000000000       0.71875000000000000        0.0000000000000000     
  0.62500000000000000       0.71875000000000000        0.0000000000000000     
  0.50000000000000000       0.75000000000000000        0.0000000000000000     
  0.53125000000000000       0.75000000000000000        0.0000000000000000     
  0.56250000000000000       0.75000000000000000        0.0000000000000000     
  0.59375000000000000       0.75000000000000000        0.0000000000000000     
  0.62500000000000000       0.75000000000000000        0.0000000000000000     
  0.62500000000000000       0.62500000000000000        0.0000000000000000     
  0.65625000000000000       0.62500000000000000        0.0000000000000000     
  0.68750000000000000       0.62500000000000000        0.0000000000000000     
  0.71875000000000000       0.62500000000000000        0.0000000000000000     
  0.75000000000000000       0.62500000000000000        0.0000000000000000     
  0.62500000000000000       0.65625000000000000        0.0000000000000000     
  0.65625000000000000       0.65625000000000000        0.0000000000000000     
  0.68750000000000000       0.65625000000000000        0.0000000000000000     
  0.71875000000000000       0.65625000000000000        0.0000000000000000     
  0.75000000000000000       0.65625000000000000        0.0000000000000000     
  0.62500000000000000       0.68750000000000000        0.0000000000000000     
  0.65625000000000000       0.68750000000000000        0.0000000000000000     
  0.68750000000000000       0.68750000000000000        0.0000000000000000     
  0.71875000000000000       0.68750000000000000        0.0000000000000000     
  0.75000000000000000       0.68750000000000000        0.0000000000000000     
  0.62500000000000000       0.71875000000000000        0.0000000000000000     
  0.65625000000000000       0.71875000000000000        0.0000000000000000     
  0.68750000000000000       0.71875000000000000        0.0000000000000000     
  0.71875000000000000       0.71875000000000000        0.0000000000000000     
  0.75000000000000000       0.71875000000000000        0.0000000000000000     
  0.62500000000000000       0.75000000000000000        0.0000000000000000     
  0.65625000000000000       0.75000000000000000        0.0000000000000000     
  0.68750000000000000       0.75000000000000000        0.0000000000000000     
  0.71875000000000000       0.75000000000000000        0.0000000000000000     
  0.75000000000000000       0.75000000000000000        0.0000000000000000     
  0.75000000000000000       0.62500000000000000        0.0000000000000000     
  0.78125000000000000       0.62500000000000000        0.0000000000000000     
  0.81250000000000000       0.62500000000000000        0.0000000000000000     
  0.84375000000000000       0.62500000000000000        0.0000000000000000     
  0.87500000000000000       0.62500000000000000        0.0000000000000000     
  0.75000000000000000       0.65625000000000000        0.0000000000000000     
  0.78125000000000000       0.65625000000000000        0.0000000000000000     
  0.81250000000000000       0.65625000000000000        0.0000000000000000     
  0.84375000000000000       0.65625000000000000        0.0000000000000000     
  0.87500000000000000       0.65625000000000000        0.0000000000000000     
  0.75000000000000000       0.68750000000000000        0.0000000000000000     
  0.78125000000000000       0.68750000000000000        0.0000000000000000     
  0.81250000000000000       0.68750000000000000        0.0000000000000000     
  0.84375000000000000       0.68750000000000000        0.0000000000000000     
  0.87500000000000000       0.68750000000000000        0.0000000000000000     
  0.75000000000000000       0.71875000000000000        0.0000000000000000     
  0.78125000000000000       0.71875000000000000        0.0000000000000000     
  0.81250000000000000       0.71875000000000000        0.0000000000000000     
  0.84375000000000000       0.71875000000000000        0.0000000000000000     
  0.87500000000000000       0.71875000000000000        0.0000000000000000     
  0.75000000000000000       0.75000000000000000        0.0000000000000000     
  0.78125000000000000       0.75000000000000000        0.0000000000000000     
  0.81250000000000000       0.75000000000000000        0.0000000000000000     
  0.84375000000000000       0.75000000000000000        0.0000000000000000     
  0.87500000000000000       0.75000000000000000        0.0000000000000000     
  0.87500000000000000       0.62500000000000000        0.0000000000000000     
  0.90625000000000000       0.62500000000000000        0.0000000000000000     
  0.93750000000000000       0.62500000000000000        0.0000000000000000     
  0.96875000000000000       0.62500000000000000        0.0000000000000000     
   1.0000000000000000       0.62500000000000000        0.0000000000000000     
  0.87500000000000000       0.65625000000000000        0.0000000000000000     
  0.90625000000000000       0.65625000000000000        0.0000000000000000     
  0.93750000000000000       0.65625000000000000        0.0000000000000000     
  0.96875000000000000       0.65625000000000000        0.0000000000000000     
   1.0000000000000000       0.65625000000000000        0.0000000000000000     
  0.87500000000000000       0.68750000000000000        0.0000000000000000     
  0.90625000000000000       0.68750000000000000        0.0000000000000000     
  0.93750000000000000       0.68750000000000000        0.0000000000000000     
  0.96875000000000000       0.68750000000000000        0.0000000000000000     
   1.0000000000000000       0.68750000000000000        0.0000000000000000     
  0.87500000000000000       0.71875000000000000        0.0000000000000000     
  0.90625000000000000       0.71875000000000000        0.0000000000000000     
  0.93750000000000000       0.71875000000000000        0.0000000000000000     
  0.96875000000000000       0.71875000000000000        0.0000000000000000     
   1.0000000000000000       0.71875000000000000        0.0000000000000000     
  0.87500000000000000       0.75000000000000000        0.0000000000000000     
  0.90625000000000000       0.75000000000000000        0.0000000000000000     
  0.93750000000000000       0.75000000000000000        0.0000000000000000     
  0.96875000000000000       0.75000000000000000        0.0000000000000000     
   1.0000000000000000       0.75000000000000000        0.0000000000000000     
   0.0000000000000000       0.75000000000000000        0.0000000000000000     
   3.1250000000000000E-002  0.75000000000000000        0.0000000000000000     
   6.2500000000000000E-002  0.75000000000000000        0.0000000000000000     
   9.3750000000000000E-002  0.75000000000000000        0.0000000000000000     
  0.12500000000000000       0.75000000000000000        0.0000000000000000     
   0.0000000000000000       0.78125000000000000        0.0000000000000000     
   3.1250000000000000E-002  0.78125000000000000        0.0000000000000000     
   6.2500000000000000E-002  0.78125000000000000        0.0000000000000000     
   9.3750000000000000E-002  0.78125000000000000        0.0000000000000000     
  0.12500000000000000       0.78125000000000000        0.0000000000000000     
   0.0000000000000000       0.81250000000000000        0.0000000000000000     
   3.1250000000000000E-002  0.81250000000000000        0.0000000000000000     
   6.2500000000000000E-002  0.81250000000000000        0.0000000000000000     
   9.3750000000000000E-002  0.81250000000000000        0.0000000000000000     
  0.12500000000000000       0.81250000000000000        0.0000000000000000     
   0.0000000000000000       0.84375000000000000        0.0000000000000000     
   3.1250000000000000E-002  0.84375000000000000        0.0000000000000000     
   6.2500000000000000E-002  0.84375000000000000        0.0000000000000000     
   9.3750000000000000E-002  0.84375000000000000        0.0000000000000000     
  0.12500000000000000       0.84375000000000000        0.0000000000000000     
   0.0000000000000000       0.87500000000000000        0.0000000000000000     
   3.1250000000000000E-002  0.87500000000000000        0.0000000000000000     
   6.2500000000000000E-002  0.87500000000000000        0.0000000000000000     
   9.3750000000000000E-002  0.87500000000000000        0.0000000000000000     
  0.12500000000000000       0.87500000000000000        0.0000000000000000     
  0.12500000000000000       0.75000000000000000        0.0000000000000000     
  0.15625000000000000       0.75000000000000000        0.0000000000000000     
  0.18750000000000000       0.75000000000000000        0.0000000000000000     
  0.21875000000000000       0.75000000000000000        0.0000000000000000     
  0.25000000000000000       0.75000000000000000        0.0000000000000000     
  0.12500000000000000       0.78125000000000000        0.0000000000000000     
  0.15625000000000000       0.78125000000000000        0.0000000000000000     
  0.18750000000000000       0.78125000000000000        0.0000000000000000     
  0.21875000000000000       0.78125000000000000        0.0000000000000000     
  0.25000000000000000       0.78125000000000000        0.0000000000000000     
  0.12500000000000000       0.81250000000000000        0.0000000000000000     
  0.15625000000000000       0.81250000000000000        0.0000000000000000     
  0.18750000000000000       0.81250000000000000        0.0000000000000000     
  0.21875000000000000       0.81250000000000000        0.0000000000000000     
  0.25000000000000000       0.81250000000000000        0.0000000000000000     
  0.12500000000000000       0.84375000000000000        0.0000000000000000     
  0.15625000000000000       0.84375000000000000        0.0000000000000000     
  0.18750000000000000       0.84375000000000000        0.0000000000000000     
  0.21875000000000000       0.84375000000000000        0.0000000000000000     
  0.25000000000000000       0.84375000000000000        0.0000000000000000     
  0.12500000000000000       0.87500000000000000        0.0000000000000000     
  0.15625000000000000       0.87500000000000000        0.0000000000000000     
  0.18750000000000000       0.87500000000000000        0.0000000000000000     
  0.21875000000000000       0.87500000000000000        0.0000000000000000     
  0.25000000000000000       0.87500000000000000        0.0000000000000000     
  0.25000000000000000       0.75000000000000000        0.0000000000000000     
  0.28125000000000000       0.75000000000000000        0.0000000000000000     
  0.31250000000000000       0.75000000000000000        0.0000000000000000     
  0.34375000000000000       0.75000000000000000        0.0000000000000000     
  0.37500000000000000       0.75000000000000000        0.0000000000000000     
  0.25000000000000000       0.78125000000000000        0.0000000000000000     
  0.28125000000000000       0.78125000000000000        0.0000000000000000     
  0.31250000000000000       0.78125000000000000        0.0000000000000000     
  0.34375000000000000       0.78125000000000000        0.0000000000000000     
  0.37500000000000000       0.78125000000000000        0.0000000000000000     
  0.25000000000000000       0.81250000000000000        0.0000000000000000     
  0.28125000000000000       0.81250000000000000        0.0000000000000000     
  0.31250000000000000       0.81250000000000000        0.0000000000000000     
  0.34375000000000000       0.81250000000000000        0.0000000000000000     
  0.37500000000000000       0.81250000000000000        0.0000000000000000     
  0.25000000000000000       0.84375000000000000        0.0000000000000000     
  0.28125000000000000       0.84375000000000000        0.0000000000000000     
  0.31250000000000000       0.84375000000000000        0.0000000000000000     
  0.34375000000000000       0.84375000000000000        0.0000000000000000     
  0.37500000000000000       0.84375000000000000        0.0000000000000000     
  0.25000000000000000       0.87500000000000000        0.0000000000000000     
  0.28125000000000000       0.87500000000000000        0.0000000000000000     
  0.31250000000000000       0.87500000000000000        0.0000000000000000     
  0.34375000000000000       0.87500000000000000        0.0000000000000000     
  0.37500000000000000       0.87500000000000000        0.0000000000000000     
  0.37500000000000000       0.75000000000000000        0.0000000000000000     
  0.40625000000000000       0.75000000000000000        0.0000000000000000     
  0.43750000000000000       0.75000000000000000        0.0000000000000000     
  0.46875000000000000       0.75000000000000000        0.0000000000000000     
  0.50000000000000000       0.75000000000000000        0.0000000000000000     
  0.37500000000000000       0.78125000000000000        0.0000000000000000     
  0.40625000000000000       0.78125000000000000        0.0000000000000000     
  0.43750000000000000       0.78125000000000000        0.0000000000000000     
  0.46875000000000000       0.78125000000000000        0.0000000000000000     
  0.50000000000000000       0.78125000000000000        0.0000000000000000     
  0.37500000000000000       0.81250000000000000        0.0000000000000000     
  0.40625000000000000       0.81250000000000000        0.0000000000000000     
  0.43750000000000000       0.81250000000000000        0.0000000000000000     
  0.46875000000000000       0.81250000000000000        0.0000000000000000     
  0.50000000000000000       0.81250000000000000        0.0000000000000000     
  0.37500000000000000       0.84375000000000000        0.0000000000000000     
  0.40625000000000000       0.84375000000000000        0.0000000000000000     
  0.43750000000000000       0.84375000000000000        0.0000000000000000     
  0.46875000000000000       0.84375000000000000        0.0000000000000000     
  0.50000000000000000       0.84375000000000000        0.0000000000000000     
  0.37500000000000000       0.87500000000000000        0.0000000000000000     
  0.40625000000000000       0.87500000000000000        0.0000000000000000     
  0.43750000000000000       0.87500000000000000        0.0000000000000000     
  0.46875000000000000       0.87500000000000000        0.0000000000000000     
  0.50000000000000000       0.87500000000000000        0.0000000000000000     
  0.50000000000000000       0.75000000000000000        0.0000000000000000     
  0.53125000000000000       0.75000000000000000        0.0000000000000000     
  0.56250000000000000       0.75000000000000000        0.0000000000000000     
  0.59375000000000000       0.75000000000000000        0.0000000000000000     
  0.62500000000000000       0.75000000000000000        0.0000000000000000     
  0.50000000000000000       0.78125000000000000        0.0000000000000000     
  0.53125000000000000       0.78125000000000000        0.0000000000000000     
  0.56250000000000000       0.78125000000000000        0.0000000000000000     
  0.59375000000000000       0.78125000000000000        0.0000000000000000     
  0.62500000000000000       0.78125000000000000        0.0000000000000000     
  0.50000000000000000       0.81250000000000000        0.0000000000000000     
  0.53125000000000000       0.81250000000000000        0.0000000000000000     
  0.56250000000000000       0.81250000000000000        0.0000000000000000     
  0.59375000000000000       0.81250000000000000        0.0000000000000000     
  0.62500000000000000       0.81250000000000000        0.0000000000000000     
  0.50000000000000000       0.84375000000000000        0.0000000000000000     
  0.53125000000000000       0.84375000000000000        0.0000000000000000     
  0.56250000000000000       0.84375000000000000        0.0000000000000000     
  0.59375000000000000       0.84375000000000000        0.0000000000000000     
  0.62500000000000000       0.84375000000000000        0.0000000000000000     
  0.50000000000000000       0.87500000000000000        0.0000000000000000     
  0.53125000000000000       0.87500000000000000        0.0000000000000000     
  0.56250000000000000       0.87500000000000000        0.0000000000000000     
  0.59375000000000000       0.87500000000000000        0.0000000000000000     
  0.62500000000000000       0.87500000000000000        0.0000000000000000     
  0.62500000000000000       0.75000000000000000        0.0000000000000000     
  0.65625000000000000       0.75000000000000000        0.0000000000000000     
  0.68750000000000000       0.75000000000000000        0.0000000000000000     
  0.71875000000000000       0.75000000000000000        0.0000000000000000     
  0.75000000000000000       0.75000000000000000        0.0000000000000000     
  0.62500000000000000       0.78125000000000000        0.0000000000000000     
  0.65625000000000000       0.78125000000000000        0.0000000000000000     
  0.68750000000000000       0.78125000000000000        0.0000000000000000     
  0.71875000000000000       0.78125000000000000        0.0000000000000000     
  0.75000000000000000       0.78125000000000000        0.0000000000000000     
  0.62500000000000000       0.81250000000000000        0.0000000000000000     
  0.65625000000000000       0.81250000000000000        0.0000000000000000     
  0.68750000000000000       0.81250000000000000        0.0000000000000000     
  0.71875000000000000       0.81250000000000000        0.0000000000000000     
  0.75000000000000000       0.81250000000000000        0.0000000000000000     
  0.62500000000000000       0.84375000000000000        0.0000000000000000     
  0.65625000000000000       0.84375000000000000        0.0000000000000000     
  0.68750000000000000       0.84375000000000000        0.0000000000000000     
  0.71875000000000000       0.84375000000000000        0.0000000000000000     
  0.75000000000000000       0.84375000000000000        0.0000000000000000     
  0.62500000000000000       0.87500000000000000        0.0000000000000000     
  0.65625000000000000       0.87500000000000000        0.0000000000000000     
  0.68750000000000000       0.87500000000000000        0.0000000000000000     
  0.71875000000000000       0.87500000000000000        0.0000000000000000     
  0.75000000000000000       0.87500000000000000        0.0000000000000000     
  0.75000000000000000       0.75000000000000000        0.0000000000000000     
  0.78125000000000000       0.75000000000000000        0.0000000000000000     
  0.81250000000000000       0.75000000000000000        0.0000000000000000     
  0.84375000000000000       0.75000000000000000        0.0000000000000000     
  0.87500000000000000       0.75000000000000000        0.0000000000000000     
  0.75000000000000000       0.78125000000000000        0.0000000000000000     
  0.78125000000000000       0.78125000000000000        0.0000000000000000     
  0.81250000000000000       0.78125000000000000        0.0000000000000000     
  0.84375000000000000       0.78125000000000000        0.0000000000000000     
  0.87500000000000000       0.78125000000000000        0.0000000000000000     
  0.75000000000000000       0.81250000000000000        0.0000000000000000     
  0.78125000000000000       0.81250000000000000        0.0000000000000000     
  0.81250000000000000       0.81250000000000000        0.0000000000000000     
  0.84375000000000000       0.81250000000000000        0.0000000000000000     
  0.87500000000000000       0.81250000000000000        0.0000000000000000     
  0.75000000000000000       0.84375000000000000        0.0000000000000000     
  0.78125000000000000       0.84375000000000000        0.0000000000000000     
  0.81250000000000000       0.84375000000000000        0.0000000000000000     
  0.84375000000000000       0.84375000000000000        0.0000000000000000     
  0.87500000000000000       0.84375000000000000        0.0000000000000000     
  0.75000000000000000       0.87500000000000000        0.0000000000000000     
  0.78125000000000000       0.87500000000000000        0.0000000000000000     
  0.81250000000000000       0.87500000000000000        0.0000000000000000     
  0.84375000000000000       0.87500000000000000        0.0000000000000000     
  0.87500000000000000       0.87500000000000000        0.0000000000000000     
  0.87500000000000000       0.75000000000000000        0.0000000000000000     
  0.90625000000000000       0.75000000000000000        0.0000000000000000     
  0.93750000000000000       0.75000000000000000        0.0000000000000000     
  0.96875000000000000       0.75000000000000000        0.0000000000000000     
   1.0000000000000000       0.75000000000000000        0.0000000000000000     
  0.87500000000000000       0.78125000000000000        0.0000000000000000     
  0.90625000000000000       0.78125000000000000        0.0000000000000000     
  0.93750000000000000       0.78125000000000000        0.0000000000000000     
  0.96875000000000000       0.78125000000000000        0.0000000000000000     
   1.0000000000000000       0.78125000000000000        0.0000000000000000     
  0.87500000000000000       0.81250000000000000        0.0000000000000000     
  0.90625000000000000       0.81250000000000000        0.0000000000000000     
  0.93750000000000000       0.81250000000000000        0.0000000000000000     
  0.96875000000000000       0.81250000000000000        0.0000000000000000     
   1.0000000000000000       0.81250000000000000        0.0000000000000000     
  0.87500000000000000       0.84375000000000000        0.0000000000000000     
  0.90625000000000000       0.84375000000000000        0.0000000000000000     
  0.93750000000000000       0.84375000000000000        0.0000000000000000     
  0.96875000000000000       0.84375000000000000        0.0000000000000000     
   1.0000000000000000       0.84375000000000000        0.0000000000000000     
  0.87500000000000000       0.87500000000000000        0.0000000000000000     
  0.90625000000000000       0.87500000000000000        0.0000000000000000     
  0.93750000000000000       0.87500000000000000        0.0000000000000000     
  0.96875000000000000       0.87500000000000000        0.0000000000000000     
   1.0000000000000000       0.87500000000000000        0.0000000000000000     
   0.0000000000000000       0.87500000000000000        0.0000000000000000     
   3.1250000000000000E-002  0.87500000000000000        0.0000000000000000     
   6.2500000000000000E-002  0.87500000000000000        0.0000000000000000     
   9.3750000000000000E-002  0.87500000000000000        0.0000000000000000     
  0.12500000000000000       0.87500000000000000        0.0000000000000000     
   0.0000000000000000       0.90625000000000000        0.0000000000000000     
   3.1250000000000000E-002  0.90625000000000000        0.0000000000000000     
   6.2500000000000000E-002  0.90625000000000000        0.0000000000000000     
   9.3750000000000000E-002  0.90625000000000000        0.0000000000000000     
  0.12500000000000000       0.90625000000000000        0.0000000000000000     
   0.0000000000000000       0.93750000000000000        0.0000000000000000     
   3.1250000000000000E-002  0.93750000000000000        0.0000000000000000     
   6.2500000000000000E-002  0.93750000000000000        0.0000000000000000     
   9.3750000000000000E-002  0.93750000000000000        0.0000000000000000     
  0.12500000000000000       0.93750000000000000        0.0000000000000000     
   0.0000000000000000       0.96875000000000000        0.0000000000000000     
   3.1250000000000000E-002  0.96875000000000000        0.0000000000000000     
   6.2500000000000000E-002  0.96875000000000000        0.0000000000000000     
   9.3750000000000000E-002  0.96875000000000000        0.0000000000000000     
  0.12500000000000000       0.96875000000000000        0.0000000000000000     
   0.0000000000000000        1.0000000000000000        0.0000000000000000     
   3.1250000000000000E-002   1.0000000000000000        0.0000000000000000     
   6.2500000000000000E-002   1.0000000000000000        0.0000000000000000     
   9.3750000000000000E-002   1.0000000000000000        0.0000000000000000     
  0.12500000000000000        1.0000000000000000        0.0000000000000000     
  0.12500000000000000       0.87500000000000000        0.0000000000000000     
  0.15625000000000000       0.87500000000000000        0.0000000000000000     
  0.18750000000000000       0.87500000000000000        0.0000000000000000     
  0.21875000000000000       0.87500000000000000        0.0000000000000000     
  0.25000000000000000       0.87500000000000000        0.0000000000000000     
  0.12500000000000000       0.90625000000000000        0.0000000000000000     
  0.15625000000000000       0.90625000000000000        0.0000000000000000     
  0.18750000000000000       0.90625000000000000        0.0000000000000000     
  0.21875000000000000       0.90625000000000000        0.0000000000000000     
  0.25000000000000000       0.90625000000000000        0.0000000000000000     
  0.12500000000000000       0.93750000000000000        0.0000000000000000     
  0.15625000000000000       0.93750000000000000        0.0000000000000000     
  0.18750000000000000       0.93750000000000000        0.0000000000000000     
  0.21875000000000000       0.93750000000000000        0.0000000000000000     
  0.25000000000000000       0.93750000000000000        0.0000000000000000     
  0.12500000000000000       0.96875000000000000        0.0000000000000000     
  0.15625000000000000       0.96875000000000000        0.0000000000000000     
  0.18750000000000000       0.96875000000000000        0.0000000000000000     
  0.21875000000000000       0.96875000000000000        0.0000000000000000     
  0.25000000000000000       0.96875000000000000        0.0000000000000000     
  0.12500000000000000        1.0000000000000000        0.0000000000000000     
  0.15625000000000000        1.0000000000000000        0.0000000000000000     
  0.18750000000000000        1.0000000000000000        0.0000000000000000     
  0.21875000000000000        1.0000000000000000        0.0000000000000000     
  0.25000000000000000        1.0000000000000000        0.0000000000000000     
  0.25000000000000000       0.87500000000000000        0.0000000000000000     
  0.28125000000000000       0.87500000000000000        0.0000000000000000     
  0.31250000000000000       0.87500000000000000        0.0000000000000000     
  0.34375000000000000       0.87500000000000000        0.0000000000000000     
  0.37500000000000000       0.87500000000000000        0.0000000000000000     
  0.25000000000000000       0.90625000000000000        0.0000000000000000     
  0.28125000000000000       0.90625000000000000        0.0000000000000000     
  0.31250000000000000       0.90625000000000000        0.0000000000000000     
  0.34375000000000000       0.90625000000000000        0.0000000000000000     
  0.37500000000000000       0.90625000000000000        0.0000000000000000     
  0.25000000000000000       0.93750000000000000        0.0000000000000000     
  0.28125000000000000       0.93750000000000000        0.0000000000000000     
  0.31250000000000000       0.93750000000000000        0.0000000000000000     
  0.34375000000000000       0.93750000000000000        0.0000000000000000     
  0.37500000000000000       0.93750000000000000        0.0000000000000000     
  0.25000000000000000       0.96875000000000000        0.0000000000000000     
  0.28125000000000000       0.96875000000000000        0.0000000000000000     
  0.31250000000000000       0.96875000000000000        0.0000000000000000     
  0.34375000000000000       0.96875000000000000        0.0000000000000000     
  0.37500000000000000       0.96875000000000000        0.0000000000000000     
  0.25000000000000000        1.0000000000000000        0.0000000000000000     
  0.28125000000000000        1.0000000000000000        0.0000000000000000     
  0.31250000000000000        1.0000000000000000        0.0000000000000000     
  0.34375000000000000        1.0000000000000000        0.0000000000000000     
  0.37500000000000000        1.0000000000000000        0.0000000000000000     
  0.37500000000000000       0.87500000000000000        0.0000000000000000     
  0.40625000000000000       0.87500000000000000        0.0000000000000000     
  0.43750000000000000       0.87500000000000000        0.0000000000000000     
  0.46875000000000000       0.87500000000000000        0.0000000000000000     
  0.50000000000000000       0.87500000000000000        0.0000000000000000     
  0.37500000000000000       0.90625000000000000        0.0000000000000000     
  0.40625000000000000       0.90625000000000000        0.0000000000000000     
  0.43750000000000000       0.90625000000000000        0.0000000000000000     
  0.46875000000000000       0.90625000000000000        0.0000000000000000     
  0.50000000000000000       0.90625000000000000        0.0000000000000000     
  0.37500000000000000       0.93750000000000000        0.0000000000000000     
  0.40625000000000000       0.93750000000000000        0.0000000000000000     
  0.43750000000000000       0.93750000000000000        0.0000000000000000     
  0.46875000000000000       0.93750000000000000        0.0000000000000000     
  0.50000000000000000       0.93750000000000000        0.0000000000000000     
  0.37500000000000000       0.96875000000000000        0.0000000000000000     
  0.40625000000000000       0.96875000000000000        0.0000000000000000     
  0.43750000000000000       0.96875000000000000        0.0000000000000000     
  0.46875000000000000       0.96875000000000000        0.0000000000000000     
  0.50000000000000000       0.96875000000000000        0.0000000000000000     
  0.37500000000000000        1.0000000000000000        0.0000000000000000     
  0.40625000000000000        1.0000000000000000        0.0000000000000000     
  0.43750000000000000        1.0000000000000000        0.0000000000000000     
  0.46875000000000000        1.0000000000000000        0.0000000000000000     
  0.50000000000000000        1.0000000000000000        0.0000000000000000     
  0.50000000000000000       0.87500000000000000        0.0000000000000000     
  0.53125000000000000       0.87500000000000000        0.0000000000000000     
  0.56250000000000000       0.87500000000000000        0.0000000000000000     
  0.59375000000000000       0.87500000000000000        0.0000000000000000     
  0.62500000000000000       0.87500000000000000        0.0000000000000000     
  0.50000000000000000       0.90625000000000000        0.0000000000000000     
  0.53125000000000000       0.90625000000000000        0.0000000000000000     
  0.56250000000000000       0.90625000000000000        0.0000000000000000     
  0.59375000000000000       0.90625000000000000        0.0000000000000000     
  0.62500000000000000       0.90625000000000000        0.0000000000000000     
  0.50000000000000000       0.93750000000000000        0.0000000000000000     
  0.53125000000000000       0.93750000000000000        0.0000000000000000     
  0.56250000000000000       0.93750000000000000        0.0000000000000000     
  0.59375000000000000       0.93750000000000000        0.0000000000000000     
  0.62500000000000000       0.93750000000000000        0.0000000000000000     
  0.50000000000000000       0.96875000000000000        0.0000000000000000     
  0.53125000000000000       0.96875000000000000        0.0000000000000000     
  0.56250000000000000       0.96875000000000000        0.0000000000000000     
  0.59375000000000000       0.96875000000000000        0.0000000000000000     
  0.62500000000000000       0.96875000000000000        0.0000000000000000     
  0.50000000000000000        1.0000000000000000        0.0000000000000000     
  0.53125000000000000        1.0000000000000000        0.0000000000000000     
  0.56250000000000000        1.0000000000000000        0.0000000000000000     
  0.59375000000000000        1.0000000000000000        0.0000000000000000     
  0.62500000000000000        1.0000000000000000        0.0000000000000000     
  0.62500000000000000       0.87500000000000000        0.0000000000000000     
  0.65625000000000000       0.87500000000000000        0.0000000000000000     
  0.68750000000000000       0.87500000000000000        0.0000000000000000     
  0.71875000000000000       0.87500000000000000        0.0000000000000000     
  0.75000000000000000       0.87500000000000000        0.0000000000000000     
  0.62500000000000000       0.90625000000000000        0.0000000000000000     
  0.65625000000000000       0.90625000000000000        0.0000000000000000     
  0.68750000000000000       0.90625000000000000        0.0000000000000000     
  0.71875000000000000       0.90625000000000000        0.0000000000000000     
  0.75000000000000000       0.90625000000000000        0.0000000000000000     
  0.62500000000000000       0.93750000000000000        0.0000000000000000     
  0.65625000000000000       0.93750000000000000        0.0000000000000000     
  0.68750000000000000       0.93750000000000000        0.0000000000000000     
  0.71875000000000000       0.93750000000000000        0.0000000000000000     
  0.75000000000000000       0.93750000000000000        0.0000000000000000     
  0.62500000000000000       0.96875000000000000        0.0000000000000000     
  0.65625000000000000       0.96875000000000000        0.0000000000000000     
  0.68750000000000000       0.96875000000000000        0.0000000000000000     
  0.71875000000000000       0.96875000000000000        0.0000000000000000     
  0.75000000000000000       0.96875000000000000        0.0000000000000000     
  0.62500000000000000        1.0000000000000000        0.0000000000000000     
  0.65625000000000000        1.0000000000000000        0.0000000000000000     
  0.68750000000000000        1.0000000000000000        0.0000000000000000     
  0.71875000000000000        1.0000000000000000        0.0000000000000000     
  0.75000000000000000        1.0000000000000000        0.0000000000000000     
  0.75000000000000000       0.87500000000000000        0.0000000000000000     
  0.78125000000000000       0.87500000000000000        0.0000000000000000     
  0.81250000000000000       0.87500000000000000        0.0000000000000000     
  0.84375000000000000       0.87500000000000000        0.0000000000000000     
  0.87500000000000000       0.87500000000000000        0.0000000000000000     
  0.75000000000000000       0.90625000000000000        0.0000000000000000     
  0.78125000000000000       0.90625000000000000        0.0000000000000000     
  0.81250000000000000       0.90625000000000000        0.0000000000000000     
  0.84375000000000000       0.90625000000000000        0.0000000000000000     
  0.87500000000000000       0.90625000000000000        0.0000000000000000     
  0.75000000000000000       0.93750000000000000        0.0000000000000000     
  0.78125000000000000       0.93750000000000000        0.0000000000000000     
  0.81250000000000000       0.93750000000000000        0.0000000000000000     
  0.84375000000000000       0.93750000000000000        0.0000000000000000     
  0.87500000000000000       0.93750000000000000        0.0000000000000000     
  0.75000000000000000       0.96875000000000000        0.0000000000000000     
  0.78125000000000000       0.96875000000000000        0.0000000000000000     
  0.81250000000000000       0.96875000000000000        0.0000000000000000     
  0.84375000000000000       0.96875000000000000        0.0000000000000000     
  0.87500000000000000       0.96875000000000000        0.0000000000000000     
  0.75000000000000000        1.0000000000000000        0.0000000000000000     
  0.78125000000000000        1.0000000000000000        0.0000000000000000     
  0.81250000000000000        1.0000000000000000        0.0000000000000000     
  0.84375000000000000        1.0000000000000000        0.0000000000000000     
  0.87500000000000000        1.0000000000000000        0.0000000000000000     
  0.87500000000000000       0.87500000000000000        0.0000000000000000     
  0.90625000000000000       0.87500000000000000        0.0000000000000000     
  0.93750000000000000       0.87500000000000000        0.0000000000000000     
  0.96875000000000000       0.87500000000000000        0.0000000000000000     
   1.0000000000000000       0.87500000000000000        0.0000000000000000     
  0.87500000000000000       0.90625000000000000        0.0000000000000000     
  0.90625000000000000       0.90625000000000000        0.0000000000000000     
  0.93750000000000000       0.90625000000000000        0.0000000000000000     
  0.96875000000000000       0.90625000000000000        0.0000000000000000     
   1.0000000000000000       0.90625000000000000        0.0000000000000000     
  0.87500000000000000       0.93750000000000000        0.0000000000000000     
  0.90625000000000000       0.93750000000000000        0.0000000000000000     
  0.93750000000000000       0.93750000000000000        0.0000000000000000     
  0.96875000000000000       0.93750000000000000        0.0000000000000000     
   1.0000000000000000       0.93750000000000000        0.0000000000000000     
  0.87500000000000000       0.96875000000000000        0.0000000000000000     
  0.90625000000000000       0.96875000000000000        0.0000000000000000     
  0.93750000000000000       0.96875000000000000        0.0000000000000000     
  0.96875000000000000       0.96875000000000000        0.0000000000000000     
   1.0000000000000000       0.96875000000000000        0.0000000000000000     
  0.87500000000000000        1.0000000000000000        0.0000000000000000     
  0.90625000000000000        1.0000000000000000        0.0000000000000000     
  0.93750000000000000        1.0000000000000000        0.0000000000000000     
  0.96875000000000000        1.0000000000000000        0.0000000000000000     
   1.0000000000000000        1.0000000000000000        0.0000000000000000     
 </DataArray>
 </Points>
 <Cells>
 <DataArray  type="Int32"  Name="connectivity"  format="ascii">
           0           1           6           5
           1           2           7           6
           2           3           8           7
           3           4           9           8
           5           6          11          10
           6           7          12          11
           7           8          13          12
           8           9          14          13
          10          11          16          15
          11          12          17          16
          12          13          18          17
          13          14          19          18
          15          16          21          20
          16          17          22          21
          17          18          23          22
          18          19          24          23
          25          26          31          30
          26          27          32          31
          27          28          33          32
          28          29          34          33
          30          31          36          35
          31          32          37          36
          32          33          38          37
          33          34          39          38
          35          36          41          40
          36          37          42          41
          37          38          43          42
          38          39          44          43
          40          41          46          45
          41          42          47          46
          42          43          48          47
          43          44          49          48
          50          51          56          55
          51          52          57          56
          52          53          58          57
          53          54          59          58
          55          56          61          60
          56          57          62          61
          57          58          63          62
          58          59          64          63
          60          61          66          65
          61          62          67          66
          62          63          68          67
          63          64          69          68
          65          66          71          70
          66          67          72          71
          67          68          73          72
          68          69          74          73
          75          76          81          80
          76          77          82          81
          77          78          83          82
          78          79          84          83
          80          81          86          85
          81          82          87          86
          82          83          88          87
          83          84          89          88
          85          86          91          90
          86          87          92          91
          87          88          93          92
          88          89          94          93
          90          91          96          95
          91          92          97          96
          92          93          98          97
          93          94          99          98
         100         101         106         105
         101         102         107         106
         102         103         108         107
         103         104         109         108
         105         106         111         110
         106         107         112         111
         107         108         113         112
         108         109         114         113
         110         111         116         115
         111         112         117         116
         112         113         118         117
         113         114         119         118
         115         116         121         120
         116         117         122         121
         117         118         123         122
         118         119         124         123
         125         126         131         130
         126         127         132         131
         127         128         133         132
         128         129         134         133
         130         131         136         135
         131         132         137         136
         132         133         138         137
         133         134         139         138
         135         136         141         140
         136         137         142         141
         137         138         143         142
         138         139         144         143
         140         141         146         145
         141         142         147         146
         142         143         148         147
         143         144         149         148
         150         151         156         155
         151         152         157         156
         152         153         158         157
         153         154         159         158
         155         156         161         160
         156         157         162         161
         157         158         163         162
         158         159         164         163
         160         161         166         165
         161         162         167         166
         162         163         168         167
         163         164         169         168
         165         166         171         170
         166         167         172         171
         167         168         173         172
         168         169         174         173
         175         176         181         180
         176         177         182         181
         177         178         183         182
         178         179         184         183
         180         181         186         185
         181         182         187         186
         182         183         188         187
         183         184         189         188
         185         186         191         190
         186         187         192         191
         187         188         193         192
         188         189         194         193
         190         191         196         195
         191         192         197         196
         192         193         198         197
         193         194         199         198
         200         201         206         205
         201         202         207         206
         202         203         208         207
         203         204         209         208
         205         206         211         210
         206         207         212         211
         207         208         213         212
         208         209         214         213
         210         211         216         215
         211         212         217         216
         212         213         218         217
         213         214         219         218
         215         216         221         220
         216         217         222         221
         217         218         223         222
         218         219         224         223
         225         226         231         230
         226         227         232         231
         227         228         233         232
         228         229         234         233
         230         231         236         235
         231         232         237         236
         232         233         238         237
         233         234         239         238
         235         236         241         240
         236         237         242         241
         237         238         243         242
         238         239         244         243
         240         241         246         245
         241         242         247         246
         242         243         248         247
         243         244         249         248
         250         251         256         255
         251         252         257         256
         252         253         258         257
         253         254         259         258
         255         256         261         260
         256         257         262         261
         257         258         263         262
         258         259         264         263
         260         261         266         265
         261         262         267         266
         262         263         268         267
         263         264         269         268
         265         266         271         270
         266         267         272         271
         267         268         273         272
         268         269         274         273
         275         276         281         280
         276         277         282         281
         277         278         283         282
         278         279         284         283
         280         281         286         285
         281         282         287         286
         282         283         288         287
         283         284         289         288
         285         286         291         290
         286         287         292         291
         287         288         293         292
         288         289         294         293
         290         291         296         295
         291         292         297         296
         292         293         298         297
         293         294         299         298
         300         301         306         305
         301         302         307         306
         302         303         308         307
         303         304         309         308
         305         306         311         310
         306         307         312         311
         307         308         313         312
         308         309         314         313
         310         311         316         315
         311         312         317         316
         312         313         318         317
         313         314         319         318
         315         316         321         320
         316         317         322         321
         317         318         323         322
         318         319         324         323
         325         326         331         330
         326         327         332         331
         327         328         333         332
         328         329         334         333
         330         331         336         335
         331         332         337         336
         332         333         338         337
         333         334         339         338
         335         336         341         340
         336         337         342         341
         337         338         343         342
         338         339         344         343
         340         341         346         345
         341         342         347         346
         342         343         348         347
         343         344         349         348
         350         351         356         355
         351         352         357         356
         352         353         358         357
         353         354         359         358
         355         356         361         360
         356         357         362         361
         357         358         363         362
         358         359         364         363
         360         361         366         365
         361         362         367         366
         362         363         368         367
         363         364         369         368
         365         366         371         370
         366         367         372         371
         367         368         373         372
         368         369         374         373
         375         376         381         380
         376         377         382         381
         377         378         383         382
         378         379         384         383
         380         381         386         385
         381         382         387         386
         382         383         388         387
         383         384         389         388
         385         386         391         390
         386         387         392         391
         387         388         393         392
         388         389         394         393
         390         391         396         395
         391         392         397         396
         392         393         398         397
         393         394         399         398
         400         401         406         405
         401         402         407         406
         402         403         408         407
         403         404         409         408
         405         406         411         410
         406         407         412         411
         407         408         413         412
         408         409         414         413
         410         411         416         415
         411         412         417         416
         412         413         418         417
         413         414         419         418
         415         416         421         420
         416         417         422         421
         417         418         423         422
         418         419         424         423
         425         426         431         430
         426         427         432         431
         427         428         433         432
         428         429         434         433
         430         431         436         435
         431         432         437         436
         432         433         438         437
         433         434         439         438
         435         436         441         440
         436         437         442         441
         437         438         443         442
         438         439         444         443
         440         441         446         445
         441         442         447         446
         442         443         448         447
         443         444         449         448
         450         451         456         455
         451         452         457         456
         452         453         458         457
         453         454         459         458
         455         456         461         460
         456         457         462         461
         457         458         463         462
         458         459         464         463
         460         461         466         465
         461         462         467         466
         462         463         468         467
         463         464         469         468
         465         466         471         470
         466         467         472         471
         467         468         473         472
         468         469         474         473
         475         476         481         480
         476         477         482         481
         477         478         483         482
         478         479         484         483
         480         481         486         485
         481         482         487         486
         482         483         488         487
         483         484         489         488
         485         486         491         490
         486         487         492         491
         487         488         493         492
         488         489         494         493
         490         491         496         495
         491         492         497         496
         492         493         498         497
         493         494         499         498
         500         501         506         505
         501         502         507         506
         502         503         508         507
         503         504         509         508
         505         506         511         510
         506         507         512         511
         507         508         513         512
         508         509         514         513
         510         511         516         515
         511         512         517         516
         512         513         518         517
         513         514         519         518
         515         516         521         520
         516         517         522         521
         517         518         523         522
         518         519         524         523
         525         526         531         530
         526         527         532         531
         527         528         533         532
         528         529         534         533
         530         531         536         535
         531         532         537         536
         532         533         538         537
         533         534         539         538
         535         536         541         540
         536         537         542         541
         537         538         543         542
         538         539         544         543
         540         541         546         545
         541         542         547         546
         542         543         548         547
         543         544         549         548
         550         551         556         555
         551         552         557         556
         552         553         558         557
         553         554         559         558
         555         556         561         560
         556         557         562         561
         557         558         563         562
         558         559         564         563
         560         561         566         565
         561         562         567         566
         562         563         568         567
         563         564         569         568
         565         566         571         570
         566         567         572         571
         567         568         573         572
         568         569         574         573
         575         576         581         580
         576         577         582         581
         577         578         583         582
         578         579         584         583
         580         581         586         585
         581         582         587         586
         582         583         588         587
         583         584         589         588
         585         586         591         590
         586         587         592         591
         587         588         593         592
         588         589         594         593
         590         591         596         595
         591         592         597         596
         592         593         598         597
         593         594         599         598
         600         601         606         605
         601         602         607         606
         602         603         608         607
         603         604         609         608
         605         606         611         610
         606         607         612         611
         607         608         613         612
         608         609         614         613
         610         611         616         615
         611         612         617         616
         612         613         618         617
         613         614         619         618
         615         616         621         620
         616         617         622         621
         617         618         623         622
         618         619         624         623
         625         626         631         630
         626         627         632         631
         627         628         633         632
         628         629         634         633
         630         631         636         635
         631         632         637         636
         632         633         638         637
         633         634         639         638
         635         636         641         640
         636         637         642         641
         637         638         643         642
         638         639         644         643
         640         641         646         645
         641         642         647         646
         642         643         648         647
         643         644         649         648
         650         651         656         655
         651         652         657         656
         652         653         658         657
         653         654         659         658
         655         656         661         660
         656         657         662         661
         657         658         663         662
         658         659         664         663
         660         661         666         665
         661         662         667         666
         662         663         668         667
         663         664         669         668
         665         666         671         670
         666         667         672         671
         667         668         673         672
         668         669         674         673
         675         676         681         680
         676         677         682         681
         677         678         683         682
         678         679         684         683
         680         681         686         685
         681         682         687         686
         682         683         688         687
         683         684         689         688
         685         686         691         690
         686         687         692         691
         687         688         693         692
         688         689         694         693
         690         691         696         695
         691         692         697         696
         692         693         698         697
         693         694         699         698
         700         701         706         705
         701         702         707         706
         702         703         708         707
         703         704         709         708
         705         706         711         710
         706         707         712         711
         707         708         713         712
         708         709         714         713
         710         711         716         715
         711         712         717         716
         712         713         718         717
         713         714         719         718
         715         716         721         720
         716         717         722         721
         717         718         723         722
         718         719         724         723
         725         726         731         730
         726         727         732         731
         727         728         733         732
         728         729         734         733
         730         731         736         735
         731         732         737         736
         732         733         738         737
         733         734         739         738
         735         736         741         740
         736         737         742         741
         737         738         743         742
         738         739         744         743
         740         741         746         745
         741         742         747         746
         742         743         748         747
         743         744         749         748
         750         751         756         755
         751         752         757         756
         752         753         758         757
         753         754         759         758
         755         756         761         760
         756         757         762         761
         757         758         763         762
         758         759         764         763
         760         761         766         765
         761         762         767         766
         762         763         768         767
         763         764         769         768
         765         766         771         770
         766         767         772         771
         767         768         773         772
         768         769         774         773
         775         776         781         780
         776         777         782         781
         777         778         783         782
         778         779         784         783
         780         781         786         785
         781         782         787         786
         782         783         788         787
         783         784         789         788
         785         786         791         790
         786         787         792         791
         787         788         793         792
         788         789         794         793
         790         791         796         795
         791         792         797         796
         792         793         798         797
         793         794         799         798
         800         801         806         805
         801         802         807         806
         802         803         808         807
         803         804         809         808
         805         806         811         810
         806         807         812         811
         807         808         813         812
         808         809         814         813
         810         811         816         815
         811         812         817         816
         812         813         818         817
         813         814         819         818
         815         816         821         820
         816         817         822         821
         817         818         823         822
         818         819         824         823
         825         826         831         830
         826         827         832         831
         827         828         833         832
         828         829         834         833
         830         831         836         835
         831         832         837         836
         832         833         838         837
         833         834         839         838
         835         836         841         840
         836         837         842         841
         837         838         843         842
         838         839         844         843
         840         841         846         845
         841         842         847         846
         842         843         848         847
         843         844         849         848
         850         851         856         855
         851         852         857         856
         852         853         858         857
         853         854         859         858
         855         856         861         860
         856         857         862         861
         857         858         863         862
         858         859         864         863
         860         861         866         865
         861         862         867         866
         862         863         868         867
         863         864         869         868
         865         866         871         870
         866         867         872         871
         867         868         873         872
         868         869         874         873
         875         876         881         880
         876         877         882         881
         877         878         883         882
         878         879         884         883
         880         881         886         885
         881         882         887         886
         882         883         888         887
         883         884         889         888
         885         886         891         890
         886         887         892         891
         887         888         893         892
         888         889         894         893
         890         891         896         895
         891         892         897         896
         892         893         898         897
         893         894         899         898
         900         901         906         905
         901         902         907         906
         902         903         908         907
         903         904         909         908
         905         906         911         910
         906         907         912         911
         907         908         913         912
         908         909         914         913
         910         911         916         915
         911         912         917         916
         912         913         918         917
         913         914         919         918
         915         916         921         920
         916         917         922         921
         917         918         923         922
         918         919         924         923
         925         926         931         930
         926         927         932         931
         927         928         933         932
         928         929         934         933
         930         931         936         935
         931         932         937         936
         932         933         938         937
         933         934         939         938
         935         936         941         940
         936         937         942         941
         937         938         943         942
         938         939         944         943
         940         941         946         945
         941         942         947         946
         942         943         948         947
         943         944         949         948
         950         951         956         955
         951         952         957         956
         952         953         958         957
         953         954         959         958
         955         956         961         960
         956         957         962         961
         957         958         963         962
         958         959         964         963
         960         961         966         965
         961         962         967         966
         962         963         968         967
         963         964         969         968
         965         966         971         970
         966         967         972         971
         967         968         973         972
         968         969         974         973
         975         976         981         980
         976         977         982         981
         977         978         983         982
         978         979         984         983
         980         981         986         985
         981         982         987         986
         982         983         988         987
         983         984         989         988
         985         986         991         990
         986         987         992         991
         987         988         993         992
         988         989         994         993
         990         991         996         995
         991         992         997         996
         992         993         998         997
         993         994         999         998
        1000        1001        1006        1005
        1001        1002        1007        1006
        1002        1003        1008        1007
        1003        1004        1009        1008
        1005        1006        1011        1010
        1006        1007        1012        1011
        1007        1008        1013        1012
        1008        1009        1014        1013
        1010        1011        1016        1015
        1011        1012        1017        1016
        1012        1013        1018        1017
        1013        1014        1019        1018
        1015        1016        1021        1020
        1016        1017        1022        1021
        1017        1018        1023        1022
        1018        1019        1024        1023
        1025        1026        1031        1030
        1026        1027        1032        1031
        1027        1028        1033        1032
        1028        1029        1034        1033
        1030        1031        1036        1035
        1031        1032        1037        1036
        1032        1033        1038        1037
        1033        1034        1039        1038
        1035        1036        1041        1040
        1036        1037        1042        1041
        1037        1038        1043        1042
        1038        1039        1044        1043
        1040        1041        1046        1045
        1041        1042        1047        1046
        1042        1043        1048        1047
        1043        1044        1049        1048
        1050        1051        1056        1055
        1051        1052        1057        1056
        1052        1053        1058        1057
        1053        1054        1059        1058
        1055        1056        1061        1060
        1056        1057        1062        1061
        1057        1058        1063        1062
        1058        1059        1064        1063
        1060        1061        1066        1065
        1061        1062        1067        1066
        1062        1063        1068        1067
        1063        1064        1069        1068
        1065        1066        1071        1070
        1066        1067        1072        1071
        1067        1068        1073        1072
        1068        1069        1074        1073
        1075        1076        1081        1080
        1076        1077        1082        1081
        1077        1078        1083        1082
        1078        1079        1084        1083
        1080        1081        1086        1085
        1081        1082        1087        1086
        1082        1083        1088        1087
        1083        1084        1089        1088
        1085        1086        1091        1090
        1086        1087        1092        1091
        1087        1088        1093        1092
        1088        1089        1094        1093
        1090        1091        1096        1095
        1091        1092        1097        1096
        1092        1093        1098        1097
        1093        1094        1099        1098
        1100        1101        1106        1105
        1101        1102        1107        1106
        1102        1103        1108        1107
        1103        1104        1109        1108
        1105        1106        1111        1110
        1106        1107        1112        1111
        1107        1108        1113        1112
        1108        1109        1114        1113
        1110        1111        1116        1115
        1111        1112        1117        1116
        1112        1113        1118        1117
        1113        1114        1119        1118
        1115        1116        1121        1120
        1116        1117        1122        1121
        1117        1118        1123        1122
        1118        1119        1124        1123
        1125        1126        1131        1130
        1126        1127        1132        1131
        1127        1128        1133        1132
        1128        1129        1134        1133
        1130        1131        1136        1135
        1131        1132        1137        1136
        1132        1133        1138        1137
        1133        1134        1139        1138
        1135        1136        1141        1140
        1136        1137        1142        1141
        1137        1138        1143        1142
        1138        1139        1144        1143
        1140        1141        1146        1145
        1141        1142        1147        1146
        1142        1143        1148        1147
        1143        1144        1149        1148
        1150        1151        1156        1155
        1151        1152        1157        1156
        1152        1153        1158        1157
        1153        1154        1159        1158
        1155        1156        1161        1160
        1156        1157        1162        1161
        1157        1158        1163        1162
        1158        1159        1164        1163
        1160        1161        1166        1165
        1161        1162        1167        1166
        1162        1163        1168        1167
        1163        1164        1169        1168
        1165        1166        1171        1170
        1166        1167        1172        1171
        1167        1168        1173        1172
        1168        1169        1174        1173
        1175        1176        1181        1180
        1176        1177        1182        1181
        1177        1178        1183        1182
        1178        1179        1184        1183
        1180        1181        1186        1185
        1181        1182        1187        1186
        1182        1183        1188        1187
        1183        1184        1189        1188
        1185        1186        1191        1190
        1186        1187        1192        1191
        1187        1188        1193        1192
        1188        1189        1194        1193
        1190        1191        1196        1195
        1191        1192        1197        1196
        1192        1193        1198        1197
        1193        1194        1199        1198
        1200        1201        1206        1205
        1201        1202        1207        1206
        1202        1203        1208        1207
        1203        1204        1209        1208
        1205        1206        1211        1210
        1206        1207        1212        1211
        1207        1208        1213        1212
        1208        1209        1214        1213
        1210        1211        1216        1215
        1211        1212        1217        1216
        1212        1213        1218        1217
        1213        1214        1219        1218
        1215        1216        1221        1220
        1216        1217        1222        1221
        1217        1218        1223        1222
        1218        1219        1224        1223
        1225        1226        1231        1230
        1226        1227        1232        1231
        1227        1228        1233        1232
        1228        1229        1234        1233
        1230        1231        1236        1235
        1231        1232        1237        1236
        1232        1233        1238        1237
        1233        1234        1239        1238
        1235        1236        1241        1240
        1236        1237        1242        1241
        1237        1238        1243        1242
        1238        1239        1244        1243
        1240        1241        1246        1245
        1241        1242        1247        1246
        1242        1243        1248        1247
        1243        1244        1249        1248
        1250        1251        1256        1255
        1251        1252        1257        1256
        1252        1253        1258        1257
        1253        1254        1259        1258
        1255        1256        1261        1260
        1256        1257        1262        1261
        1257        1258        1263        1262
        1258        1259        1264        1263
        1260        1261        1266        1265
        1261        1262        1267        1266
        1262        1263        1268        1267
        1263        1264        1269        1268
        1265        1266        1271        1270
        1266        1267        1272        1271
        1267        1268        1273        1272
        1268        1269        1274        1273
        1275        1276        1281        1280
        1276        1277        1282        1281
        1277        1278        1283        1282
        1278        1279        1284        1283
        1280        1281        1286        1285
        1281        1282        1287        1286
        1282        1283        1288        1287
        1283        1284        1289        1288
        1285        1286        1291        1290
        1286        1287        1292        1291
        1287        1288        1293        1292
        1288        1289        1294        1293
        1290        1291        1296        1295
        1291        1292        1297        1296
        1292        1293        1298        1297
        1293        1294        1299        1298
        1300        1301        1306        1305
        1301        1302        1307        1306
        1302        1303        1308        1307
        1303        1304        1309        1308
        1305        1306        1311        1310
        1306        1307        1312        1311
        1307        1308        1313        1312
        1308        1309        1314        1313
        1310        1311        1316        1315
        1311        1312        1317        1316
        1312        1313        1318        1317
        1313        1314        1319        1318
        1315        1316        1321        1320
        1316        1317        1322        1321
        1317        1318        1323        1322
        1318        1319        1324        1323
        1325        1326        1331        1330
        1326        1327        1332        1331
        1327        1328        1333        1332
        1328        1329        1334        1333
        1330        1331        1336        1335
        1331        1332        1337        1336
        1332        1333        1338        1337
        1333        1334        1339        1338
        1335        1336        1341        1340
        1336        1337        1342        1341
        1337        1338        1343        1342
        1338        1339        1344        1343
        1340        1341        1346        1345
        1341        1342        1347        1346
        1342        1343        1348        1347
        1343        1344        1349        1348
        1350        1351        1356        1355
        1351        1352        1357        1356
        1352        1353        1358        1357
        1353        1354        1359        1358
        1355        1356        1361        1360
        1356        1357        1362        1361
        1357        1358        1363        1362
        1358        1359        1364        1363
        1360        1361        1366        1365
        1361        1362        1367        1366
        1362        1363        1368        1367
        1363        1364        1369        1368
        1365        1366        1371        1370
        1366        1367        1372        1371
        1367        1368        1373        1372
        1368        1369        1374        1373
        1375        1376        1381        1380
        1376        1377        1382        1381
        1377        1378        1383        1382
        1378        1379        1384        1383
        1380        1381        1386        1385
        1381        1382        1387        1386
        1382        1383        1388        1387
        1383        1384        1389        1388
        1385        1386        1391        1390
        1386        1387        1392        1391
        1387        1388        1393        1392
        1388        1389        1394        1393
        1390        1391        1396        1395
        1391        1392        1397        1396
        1392        1393        1398        1397
        1393        1394        1399        1398
        1400        1401        1406        1405
        1401        1402        1407        1406
        1402        1403        1408        1407
        1403        1404        1409        1408
        1405        1406        1411        1410
        1406        1407        1412        1411
        1407        1408        1413        1412
        1408        1409        1414        1413
        1410        1411        1416        1415
        1411        1412        1417        1416
        1412        1413        1418        1417
        1413        1414        1419        1418
        1415        1416        1421        1420
        1416        1417        1422        1421
        1417        1418        1423        1422
        1418        1419        1424        1423
        1425        1426        1431        1430
        1426        1427        1432        1431
        1427        1428        1433        1432
        1428        1429        1434        1433
        1430        1431        1436        1435
        1431        1432        1437        1436
        1432        1433        1438        1437
        1433        1434        1439        1438
        1435        1436        1441        1440
        1436        1437        1442        1441
        1437        1438        1443        1442
        1438        1439        1444        1443
        1440        1441        1446        1445
        1441        1442        1447        1446
        1442        1443        1448        1447
        1443        1444        1449        1448
        1450        1451        1456        1455
        1451        1452        1457        1456
        1452        1453        1458        1457
        1453        1454        1459        1458
        1455        1456        1461        1460
        1456        1457        1462        1461
        1457        1458        1463        1462
        1458        1459        1464        1463
        1460        1461        1466        1465
        1461        1462        1467        1466
        1462        1463        1468        1467
        1463        1464        1469        1468
        1465        1466        1471        1470
        1466        1467        1472        1471
        1467        1468        1473        1472
        1468        1469        1474        1473
        1475        1476        1481        1480
        1476        1477        1482        1481
        1477        1478        1483        1482
        1478        1479        1484        1483
        1480        1481        1486        1485
        1481        1482        1487        1486
        1482        1483        1488        1487
        1483        1484        1489        1488
        1485        1486        1491        1490
        1486        1487        1492        1491
        1487        1488        1493        1492
        1488        1489        1494        1493
        1490        1491        1496        1495
        1491        1492        1497        1496
        1492        1493        1498        1497
        1493        1494        1499        1498
        1500        1501        1506        1505
        1501        1502        1507        1506
        1502        1503        1508        1507
        1503        1504        1509        1508
        1505        1506        1511        1510
        1506        1507        1512        1511
        1507        1508        1513        1512
        1508        1509        1514        1513
        1510        1511        1516        1515
        1511        1512        1517        1516
        1512        1513        1518        1517
        1513        1514        1519        1518
        1515        1516        1521        1520
        1516        1517        1522        1521
        1517        1518        1523        1522
        1518        1519        1524        1523
        1525        1526        1531        1530
        1526        1527        1532        1531
        1527        1528        1533        1532
        1528        1529        1534        1533
        1530        1531        1536        1535
        1531        1532        1537        1536
        1532        1533        1538        1537
        1533        1534        1539        1538
        1535        1536        1541        1540
        1536        1537        1542        1541
        1537        1538        1543        1542
        1538        1539        1544        1543
        1540        1541        1546        1545
        1541        1542        1547        1546
        1542        1543        1548        1547
        1543        1544        1549        1548
        1550        1551        1556        1555
        1551        1552        1557        1556
        1552        1553        1558        1557
        1553        1554        1559        1558
        1555        1556        1561        1560
        1556        1557        1562        1561
        1557        1558        1563        1562
        1558        1559        1564        1563
        1560        1561        1566        1565
        1561        1562        1567        1566
        1562        1563        1568        1567
        1563        1564        1569        1568
        1565        1566        1571        1570
        1566        1567        1572        1571
        1567        1568        1573        1572
        1568        1569        1574        1573
        1575        1576        1581        1580
        1576        1577        1582        1581
        1577        1578        1583        1582
        1578        1579        1584        1583
        1580        1581        1586        1585
        1581        1582        1587        1586
        1582        1583        1588        1587
        1583        1584        1589        1588
        1585        1586        1591        1590
        1586        1587        1592        1591
        1587        1588        1593        1592
        1588        1589        1594        1593
        1590        1591        1596        1595
        1591        1592        1597        1596
        1592        1593        1598        1597
        1593        1594        1599        1598
 </DataArray>
 <DataArray  type="Int32"  Name="offsets"  format="ascii"> 
           4
           8
          12
          16
          20
          24
          28
          32
          36
          40
          44
          48
          52
          56
          60
          64
          68
          72
          76
          80
          84
          88
          92
          96
         100
         104
         108
         112
         116
         120
         124
         128
         132
         136
         140
         144
         148
         152
         156
         160
         164
         168
         172
         176
         180
         184
         188
         192
         196
         200
         204
         208
         212
         216
         220
         224
         228
         232
         236
         240
         244
         248
         252
         256
         260
         264
         268
         272
         276
         280
         284
         288
         292
         296
         300
         304
         308
         312
         316
         320
         324
         328
         332
         336
         340
         344
         348
         352
         356
         360
         364
         368
         372
         376
         380
         384
         388
         392
         396
         400
         404
         408
         412
         416
         420
         424
         428
         432
         436
         440
         444
         448
         452
         456
         460
         464
         468
         472
         476
         480
         484
         488
         492
         496
         500
         504
         508
         512
         516
         520
         524
         528
         532
         536
         540
         544
         548
         552
         556
         560
         564
         568
         572
         576
         580
         584
         588
         592
         596
         600
         604
         608
         612
         616
         620
         624
         628
         632
         636
         640
         644
         648
         652
         656
         660
         664
         668
         672
         676
         680
         684
         688
         692
         696
         700
         704
         708
         712
         716
         720
         724
         728
         732
         736
         740
         744
         748
         752
         756
         760
         764
         768
         772
         776
         780
         784
         788
         792
         796
         800
         804
         808
         812
         816
         820
         824
         828
         832
         836
         840
         844
         848
         852
         856
         860
         864
         868
         872
         876
         880
         884
         888
         892
         896
         900
         904
         908
         912
         916
         920
         924
         928
         932
         936
         940
         944
         948
         952
         956
         960
         964
         968
         972
         976
         980
         984
         988
         992
         996
        1000
        1004
        1008
        1012
        1016
        1020
        1024
        1028
        1032
        1036
        1040
        1044
        1048
        1052
        1056
        1060
        1064
        1068
        1072
        1076
        1080
        1084
        1088
        1092
        1096
        1100
        1104
        1108
        1112
        1116
        1120
        1124
        1128
        1132
        1136
        1140
        1144
        1148
        1152
        1156
        1160
        1164
        1168
        1172
        1176
        1180
        1184
        1188
        1192
        1196
        1200
        1204
        1208
        1212
        1216
        1220
        1224
        1228
        1232
        1236
        1240
        1244
        1248
        1252
        1256
        1260
        1264
        1268
        1272
        1276
        1280
        1284
        1288
        1292
        1296
        1300
        1304
        1308
        1312
        1316
        1320
        1324
        1328
        1332
        1336
        1340
        1344
        1348
        1352
        1356
        1360
        1364
        1368
        1372
        1376
        1380
        1384
        1388
        1392
        1396
        1400
        1404
        1408
        1412
        1416
        1420
        1424
        1428
        1432
        1436
        1440
        1444
        1448
        1452
        1456
        1460
        1464
        1468
        1472
        1476
        1480
        1484
        1488
        1492
        1496
        1500
        1504
        1508
        1512
        1516
        1520
        1524
        1528
        1532
        1536
        1540
        1544
        1548
        1552
        1556
        1560
        1564
        1568
        1572
        1576
        1580
        1584
        1588
        1592
        1596
        1600
        1604
        1608
        1612
        1616
        1620
        1624
        1628
        1632
        1636
        1640
        1644
        1648
        1652
        1656
        1660
        1664
        1668
        1672
        1676
        1680
        1684
        1688
        1692
        1696
        1700
        1704
        1708
        1712
        1716
        1720
        1724
        1728
        1732
        1736
        1740
        1744
        1748
        1752
        1756
        1760
        1764
        1768
        1772
        1776
        1780
        1784
        1788
        1792
        1796
        1800
        1804
        1808
        1812
        1816
        1820
        1824
        1828
        1832
        1836
        1840
        1844
        1848
        1852
        1856
        1860
        1864
        1868
        1872
        1876
        1880
        1884
        1888
        1892
        1896
        1900
        1904
        1908
        1912
        1916
        1920
        1924
        1928
        1932
        1936
        1940
        1944
        1948
        1952
        1956
        1960
        1964
        1968
        1972
        1976
        1980
        1984
        1988
        1992
        1996
        2000
        2004
        2008
        2012
        2016
        2020
        2024
        2028
        2032
        2036
        2040
        2044
        2048
        2052
        2056
        2060
        2064
        2068
        2072
        2076
        2080
        2084
        2088
        2092
        2096
        2100
        2104
        2108
        2112
        2116
        2120
        2124
        2128
        2132
        2136
        2140
        2144
        2148
        2152
        2156
        2160
        2164
        2168
        2172
        2176
        2180
        2184
        2188
        2192
        2196
        2200
        2204
        2208
        2212
        2216
        2220
        2224
        2228
        2232
        2236
        2240
        2244
        2248
        2252
        2256
        2260
        2264
        2268
        2272
        2276
        2280
        2284
        2288
        2292
        2296
        2300
        2304
        2308
        2312
        2316
        2320
        2324
        2328
        2332
        2336
        2340
        2344
        2348
        2352
        2356
        2360
        2364
        2368
        2372
        2376
        2380
        2384
        2388
        2392
        2396
        2400
        2404
        2408
        2412
        2416
        2420
        2424
        2428
        2432
        2436
        2440
        2444
        2448
        2452
        2456
        2460
        2464
        2468
        2472
        2476
        2480
        2484
        2488
        2492
        2496
        2500
        2504
        2508
        2512
        2516
        2520
        2524
        2528
        2532
        2536
        2540
        2544
        2548
        2552
        2556
        2560
        2564
        2568
        2572
        2576
        2580
        2584
        2588
        2592
        2596
        2600
        2604
        2608
        2612
        2616
        2620
        2624
        2628
        2632
        2636
        2640
        2644
        2648
        2652
        2656
        2660
        2664
        2668
        2672
        2676
        2680
        2684
        2688
        2692
        2696
        2700
        2704
        2708
        2712
        2716
        2720
        2724
        2728
        2732
        2736
        2740
        2744
        2748
        2752
        2756
        2760
        2764
        2768
        2772
        2776
        2780
        2784
        2788
        2792
        2796
        2800
        2804
        2808
        2812
        2816
        2820
        2824
        2828
        2832
        2836
        2840
        2844
        2848
        2852
        2856
        2860
        2864
        2868
        2872
        2876
        2880
        2884
        2888
        2892
        2896
        2900
        2904
        2908
        2912
        2916
        2920
        2924
        2928
        2932
        2936
        2940
        2944
        2948
        2952
        2956
        2960
        2964
        2968
        2972
        2976
        2980
        2984
        2988
        2992
        2996
        3000
        3004
        3008
        3012
        3016
        3020
        3024
        3028
        3032
        3036
        3040
        3044
        3048
        3052
        3056
        3060
        3064
        3068
        3072
        3076
        3080
        3084
        3088
        3092
        3096
        3100
        3104
        3108
        3112
        3116
        3120
        3124
        3128
        3132
        3136
        3140
        3144
        3148
        3152
        3156
        3160
        3164
        3168
        3172
        3176
        3180
        3184
        3188
        3192
        3196
        3200
        3204
        3208
        3212
        3216
        3220
        3224
        3228
        3232
        3236
        3240
        3244
        3248
        3252
        3256
        3260
        3264
        3268
        3272
        3276
        3280
        3284
        3288
        3292
        3296
        3300
        3304
        3308
        3312
        3316
        3320
        3324
        3328
        3332
        3336
        3340
        3344
        3348
        3352
        3356
        3360
        3364
        3368
        3372
        3376
        3380
        3384
        3388
        3392
        3396
        3400
        3404
        3408
        3412
        3416
        3420
        3424
        3428
        3432
        3436
        3440
        3444
        3448
        3452
        3456
        3460
        3464
        3468
        3472
        3476
        3480
        3484
        3488
        3492
        3496
        3500
        3504
        3508
        3512
        3516
        3520
        3524
        3528
        3532
        3536
        3540
        3544
        3548
        3552
        3556
        3560
        3564
        3568
        3572
        3576
        3580
        3584
        3588
        3592
        3596
        3600
        3604
        3608
        3612
        3616
        3620
        3624
        3628
        3632
        3636
        3640
        3644
        3648
        3652
        3656
        3660
        3664
        3668
        3672
        3676
        3680
        3684
        3688
        3692
        3696
        3700
        3704
        3708
        3712
        3716
        3720
        3724
        3728
        3732
        3736
        3740
        3744
        3748
        3752
        3756
        3760
        3764
        3768
        3772
        3776
        3780
        3784
        3788
        3792
        3796
        3800
        3804
        3808
        3812
        3816
        3820
        3824
        3828
        3832
        3836
        3840
        3844
        3848
        3852
        3856
        3860
        3864
        3868
        3872
        3876
        3880
        3884
        3888
        3892
        3896
        3900
        3904
        3908
        3912
        3916
        3920
        3924
        3928
        3932
        3936
        3940
        3944
        3948
        3952
        3956
        3960
        3964
        3968
        3972
        3976
        3980
        3984
        3988
        3992
        3996
        4000
        4004
        4008
        4012
        4016
        4020
        4024
        4028
        4032
        4036
        4040
        4044
        4048
        4052
        4056
        4060
        4064
        4068
        4072
        4076
        4080
        4084
        4088
        4092
        4096
 </DataArray>
 <DataArray  type="UInt8"  Name="types"  format="ascii">
 9
 9
 9
 9
 9
 9
 9
 9
 9
 9
 9
 9
 9
 9
 9
 9
 9
 9
 9
 9
 9
 9
 9
 9
 9
 9
 9
 9
 9
 9
 9
 9
 9
 9
 9
 9
 9
 9
 9
 9
 9
 9
 9
 9
 9
 9
 9
 9
 9
 9
 9
 9
 9
 9
 9
 9
 9
 9
 9
 9
 9
 9
 9
 9
 9
 9
 9
 9
 9
 9
 9
 9
 9
 9
 9
 9
 9
 9
 9
 9
 9
 9
 9
 9
 9
 9
 9
 9
 9
 9
 9
 9
 9
 9
 9
 9
 9
 9
 9
 9
 9
 9
 9
 9
 9
 9
 9
 9
 9
 9
 9
 9
 9
 9
 9
 9
 9
 9
 9
 9
 9
 9
 9
 9
 9
 9
 9
 9
 9
 9
 9
 9
 9
 9
 9
 9
 9
 9
 9
 9
 9
 9
 9
 9
 9
 9
 9
 9
 9
 9
 9
 9
 9
 9
 9
 9
 9
 9
 9
 9
 9
 9
 9
 9
 9
 9
 9
 9
 9
 9
 9
 9
 9
 9
 9
 9
 9
 9
 9
 9
 9
 9
 9
 9
 9
 9
 9
 9
 9
 9
 9
 9
 9
 9
 9
 9
 9
 9
 9
 9
 9
 9
 9
 9
 9
 9
 9
 9
 9
 9
 9
 9
 9
 9
 9
 9
 9
 9
 9
 9
 9
 9
 9
 9
 9
 9
 9
 9
 9
 9
 9
 9
 9
 9
 9
 9
 9
 9
 9
 9
 9
 9
 9
 9
 9
 9
 9
 9
 9
 9
 9
 9
 9
 9
 9
 9
 9
 9
 9
 9
 9
 9
 9
 9
 9
 9
 9
 9
 9
 9
 9
 9
 9
 9
 9
 9
 9
 9
 9
 9
 9
 9
 9
 9
 9
 9
 9
 9
 9
 9
 9
 9
 9
 9
 9
 9
 9
 9
 9
 9
 9
 9
 9
 9
 9
 9
 9
 9
 9
 9
 9
 9
 9
 9
 9
 9
 9
 9
 9
 9
 9
 9
 9
 9
 9
 9
 9
 9
 9
 9
 9
 9
 9
 9
 9
 9
 9
 9
 9
 9
 9
 9
 9
 9
 9
 9
 9
 9
 9
 9
 9
 9
 9
 9
 9
 9
 9
 9
 9
 9
 9
 9
 9
 9
 9
 9
 9
 9
 9
 9
 9
 9
 9
 9
 9
 9
 9
 9
 9
 9
 9
 9
 9
 9
 9
 9
 9
 9
 9
 9
 9
 9
 9
 9
 9
 9
 9
 9
 9
 9
 9
 9
 9
 9
 9
 9
 9
 9
 9
 9
 9
 9
 9
 9
 9
 9
 9
 9
 9
 9
 9
 9
 9
 9
 9
 9
 9
 9
 9
 9
 9
 9
 9
 9
 9
 9
 9
 9
 9
 9
 9
 9
 9
 9
 9
 9
 9
 9
 9
 9
 9
 9
 9
 9
 9
 9
 9
 9
 9
 9
 9
 9
 9
 9
 9
 9
 9
 9
 9
 9
 9
 9
 9
 9
 9
 9
 9
 9
 9
 9
 9
 9
 9
 9
 9
 9
 9
 9
 9
 9
 9
 9
 9
 9
 9
 9
 9
 9
 9
 9
 9
 9
 9
 9
 9
 9
 9
 9
 9
 9
 9
 9
 9
 9
 9
 9
 9
 9
 9
 9
 9
 9
 9
 9
 9
 9
 9
 9
 9
 9
 9
 9
 9
 9
 9
 9
 9
 9
 9
 9
 9
 9
 9
 9
 9
 9
 9
 9
 9
 9
 9
 9
 9
 9
 9
 9
 9
 9
 9
 9
 9
 9
 9
 9
 9
 9
 9
 9
 9
 9
 9
 9
 9
 9
 9
 9
 9
 9
 9
 9
 9
 9
 9
 9
 9
 9
 9
 9
 9
 9
 9
 9
 9
 9
 9
 9
 9
 9
 9
 9
 9
 9
 9
 9
 9
 9
 9
 9
 9
 9
 9
 9
 9
 9
 9
 9
 9
 9
 9
 9
 9
 9
 9
 9
 9
 9
 9
 9
 9
 9
 9
 9
 9
 9
 9
 9
 9
 9
 9
 9
 9
 9
 9
 9
 9
 9
 9
 9
 9
 9
 9
 9
 9
 9
 9
 9
 9
 9
 9
 9
 9
 9
 9
 9
 9
 9
 9
 9
 9
 9
 9
 9
 9
 9
 9
 9
 9
 9
 9
 9
 9
 9
 9
 9
 9
 9
 9
 9
 9
 9
 9
 9
 9
 9
 9
 9
 9
 9
 9
 9
 9
 9
 9
 9
 9
 9
 9
 9
 9
 9
 9
 9
 9
 9
 9
 9
 9
 9
 9
 9
 9
 9
 9
 9
 9
 9
 9
 9
 9
 9
 9
 9
 9
 9
 9
 9
 9
 9
 9
 9
 9
 9
 9
 9
 9
 9
 9
 9
 9
 9
 9
 9
 9
 9
 9
 9
 9
 9
 9
 9
 9
 9
 9
 9
 9
 9
 9
 9
 9
 9
 9
 9
 9
 9
 9
 9
 9
 9
 9
 9
 9
 9
 9
 9
 9
 9
 9
 9
 9
 9
 9
 9
 9
 9
 9
 9
 9
 9
 9
 9
 9
 9
 9
 9
 9
 9
 9
 9
 9
 9
 9
 9
 9
 9
 9
 9
 9
 9
 9
 9
 9
 9
 9
 9
 9
 9
 9
 9
 9
 9
 9
 9
 9
 9
 9
 9
 9
 9
 9
 9
 9
 9
 9
 9
 9
 9
 9
 9
 9
 9
 9
 9
 9
 9
 9
 9
 9
 9
 9
 9
 9
 9
 9
 9
 9
 9
 9
 9
 9
 9
 9
 9
 9
 9
 9
 9
 9
 9
 9
 9
 9
 9
 9
 9
 9
 9
 9
 9
 9
 9
 9
 9
 9
 9
 9
 9
 9
 9
 9
 9
 9
 9
 9
 9
 9
 9
 9
 9
 9
 9
 9
 9
 9
 9
 9
 9
 9
 9
 9
 9
 9
 9
 9
 9
 9
 9
 9
 9
 9
 9
 9
 9
 9
 9
 9
 9
 9
 9
 9
 9
 9
 9
 9
 9
 9
 9
 9
 9
 9
 9
 9
 9
 9
 9
 9
 9
 9
 9
 9
 9
 9
 9
 9
 9
 9
 9
 9
 9
 9
 9
 9
 9
 9
 9
 9
 9
 9
 9
 9
 9
 9
 9
 9
 9
 9
 9
 9
 9
 9
 9
 9
 9
 9
 9
 9
 9
 9
 9
 9
 9
 9
 9
 9
 9
 9
 9
 9
 9
 9
 9
 9
 9
 9
 9
 9
 9
 9
 9
 9
 9
 9
 9
 9
 9
 </DataArray>
 </Cells> 
 <PointData>
 <DataArray  type="Float64" Name="disp" NumberOfComponents="3" format="ascii">
   0.0000000000000000        0.0000000000000000        0.0000000000000000     
   6.0959784186110973E-003   3.7902781767273973E-003   0.0000000000000000     
   1.1666047923581115E-002   7.3236998793416910E-003   0.0000000000000000     
   1.6710208514910049E-002   1.0600265107842882E-002   0.0000000000000000     
   2.1228460192597901E-002   1.3619973862230969E-002   0.0000000000000000     
   0.0000000000000000        0.0000000000000000        0.0000000000000000     
   4.8911599416887061E-003   3.0220657562856756E-003   0.0000000000000000     
   9.5736560233575640E-003   6.0604730558672833E-003   0.0000000000000000     
   1.4047488245006571E-002   9.1152218987448231E-003   0.0000000000000000     
   1.8312656606635735E-002   1.2186312284918293E-002   0.0000000000000000     
   0.0000000000000000        0.0000000000000000        0.0000000000000000     
   3.9535694870834600E-003   2.4250906182124556E-003   0.0000000000000000     
   7.9106280464204086E-003   5.0628902021653995E-003   0.0000000000000000     
   1.1871175678010845E-002   7.9133987518588307E-003   0.0000000000000000     
   1.5835212381854771E-002   1.0976616267292749E-002   0.0000000000000000     
   0.0000000000000000        0.0000000000000000        0.0000000000000000     
   3.2832070547953594E-003   1.9993527625077386E-003   0.0000000000000000     
   6.6769639927696470E-003   4.3309513182360404E-003   0.0000000000000000     
   1.0181270813922864E-002   6.9947956671849061E-003   0.0000000000000000     
   1.3796127518255010E-002   9.9908858093543332E-003   0.0000000000000000     
   0.0000000000000000        0.0000000000000000        0.0000000000000000     
   2.8800726448244035E-003   1.7448521891715240E-003   0.0000000000000000     
   5.8726638624052819E-003   3.8646564040792069E-003   0.0000000000000000     
   8.9777736527426339E-003   6.3594126447230484E-003   0.0000000000000000     
   1.2195402015836460E-002   9.2291209111030510E-003   0.0000000000000000     
   2.1228460192597901E-002   1.3619973862230969E-002   0.0000000000000000     
   2.5433609852209219E-002   1.6613185290626928E-002   0.0000000000000000     
   2.9538464389308551E-002   1.9810258541151732E-002   0.0000000000000000     
   3.3543023803895892E-002   2.3211193613805383E-002   0.0000000000000000     
   3.7447288095971240E-002   2.6815990508587878E-002   0.0000000000000000     
   1.8312656606635735E-002   1.2186312284918293E-002   0.0000000000000000     
   2.2407360816189697E-002   1.5341938171703304E-002   0.0000000000000000     
   2.6369800581613135E-002   1.8650293516415464E-002   0.0000000000000000     
   3.0199975902906039E-002   2.2111378319054773E-002   0.0000000000000000     
   3.3897886780068401E-002   2.5725192579621230E-002   0.0000000000000000     
   1.5835212381854771E-002   1.0976616267292749E-002   0.0000000000000000     
   1.9730978723499670E-002   1.4211274776019505E-002   0.0000000000000000     
   2.3486715268493032E-002   1.7576106305591459E-002   0.0000000000000000     
   2.7102422016834864E-002   2.1071110856008608E-002   0.0000000000000000     
   3.0578098968525154E-002   2.4696288427270952E-002   0.0000000000000000     
   1.3796127518255010E-002   9.9908858093543332E-003   0.0000000000000000     
   1.7404463574139131E-002   1.3221195103575535E-002   0.0000000000000000     
   2.0889208449948245E-002   1.6587696908679721E-002   0.0000000000000000     
   2.4250362145682370E-002   2.0090391224666888E-002   0.0000000000000000     
   2.7487924661341503E-002   2.3729278051537041E-002   0.0000000000000000     
   1.2195402015836460E-002   9.2291209111030510E-003   0.0000000000000000     
   1.5427815368108069E-002   1.2371699154371389E-002   0.0000000000000000     
   1.8577280125978771E-002   1.5685065325680245E-002   0.0000000000000000     
   2.1643796289448559E-002   1.9169219425029617E-002   0.0000000000000000     
   2.4627363858517441E-002   2.2824161452419511E-002   0.0000000000000000     
   3.7447288095971240E-002   2.6815990508587878E-002   0.0000000000000000     
   4.1255851415481250E-002   3.0620551553532053E-002   0.0000000000000000     
   4.4973307912372550E-002   3.4620779076670716E-002   0.0000000000000000     
   4.8599657586645161E-002   3.8816673078003891E-002   0.0000000000000000     
   5.2134900438299062E-002   4.3208233557531561E-002   0.0000000000000000     
   3.3897886780068401E-002   2.5725192579621230E-002   0.0000000000000000     
   3.7486667329691623E-002   2.9520975801899718E-002   0.0000000000000000     
   4.0989451668367080E-002   3.3527967489675133E-002   0.0000000000000000     
   4.4406239796094794E-002   3.7746167642947456E-002   0.0000000000000000     
   4.7737031712874751E-002   4.2175576261716710E-002   0.0000000000000000     
   3.0578098968525154E-002   2.4696288427270952E-002   0.0000000000000000     
   3.3942983343389035E-002   2.8496476677762346E-002   0.0000000000000000     
   3.7226312361251630E-002   3.2516513265866638E-002   0.0000000000000000     
   4.0428086022112945E-002   3.6756398191583842E-002   0.0000000000000000     
   4.3548304325972967E-002   4.1216131454913943E-002   0.0000000000000000     
   2.7487924661341503E-002   2.3729278051537041E-002   0.0000000000000000     
   3.0624799456573489E-002   2.7547054181119919E-002   0.0000000000000000     
   3.3683889991026193E-002   3.1586416405245253E-002   0.0000000000000000     
   3.6665196264699593E-002   3.5847364723913033E-002   0.0000000000000000     
   3.9568718277593708E-002   4.0329899137123267E-002   0.0000000000000000     
   2.4627363858517441E-002   2.2824161452419511E-002   0.0000000000000000     
   2.7532115669244985E-002   2.6672708311972441E-002   0.0000000000000000     
   3.0362184557690755E-002   3.0737676907810950E-002   0.0000000000000000     
   3.3117570523854736E-002   3.5019067239935024E-002   0.0000000000000000     
   3.5798273567736960E-002   3.9516879308344674E-002   0.0000000000000000     
   5.2134900438299062E-002   4.3208233557531561E-002   0.0000000000000000     
   5.5575453618335977E-002   4.7798888245540211E-002   0.0000000000000000     
   5.8917734277757636E-002   5.2592064872316310E-002   0.0000000000000000     
   6.2161742416564032E-002   5.7587763437859860E-002   0.0000000000000000     
   6.5307478034755159E-002   6.2785983942170873E-002   0.0000000000000000     
   4.7737031712874751E-002   4.2175576261716710E-002   0.0000000000000000     
   5.0977810781442125E-002   4.6808811759703979E-002   0.0000000000000000     
   5.4124560364532052E-002   5.1638492550630383E-002   0.0000000000000000     
   5.7177280462144556E-002   5.6664618634495928E-002   0.0000000000000000     
   6.0135971074279621E-002   6.1887190011300594E-002   0.0000000000000000     
   4.3548304325972967E-002   4.1216131454913943E-002   0.0000000000000000     
   4.6583425041556679E-002   4.5882542118454599E-002   0.0000000000000000     
   4.9529905937589040E-002   5.0742459244803438E-002   0.0000000000000000     
   5.2387747014070035E-002   5.5795882833960468E-002   0.0000000000000000     
   5.5156948270999678E-002   6.1042812885925675E-002   0.0000000000000000     
   3.9568718277593708E-002   4.0329899137123267E-002   0.0000000000000000     
   4.2392296398679662E-002   4.5020079321792042E-002   0.0000000000000000     
   4.5133770996928592E-002   4.9903964954835456E-002   0.0000000000000000     
   4.7793142072340491E-002   5.4981556036253473E-002   0.0000000000000000     
   5.0370409624915347E-002   6.0252852566046136E-002   0.0000000000000000     
   3.5798273567736960E-002   3.9516879308344674E-002   0.0000000000000000     
   3.8404424852811064E-002   4.4221423369716337E-002   0.0000000000000000     
   4.0936155542550715E-002   4.9123009680726436E-002   0.0000000000000000     
   4.3393465636955897E-002   5.4221638241374978E-002   0.0000000000000000     
   4.5776355136026625E-002   5.9517309051661957E-002   0.0000000000000000     
   6.5307478034755159E-002   6.2785983942170873E-002   0.0000000000000000     
   6.8359479615289570E-002   6.8174689677094530E-002   0.0000000000000000     
   7.1322285641125804E-002   7.3741843934476040E-002   0.0000000000000000     
   7.4195896112263848E-002   7.9487446714315374E-002   0.0000000000000000     
   7.6980311028703730E-002   8.5411498016612561E-002   0.0000000000000000     
   6.0135971074279621E-002   6.1887190011300594E-002   0.0000000000000000     
   6.3004549968470255E-002   6.7298561360823239E-002   0.0000000000000000     
   6.5786934912249448E-002   7.2891087362842708E-002   0.0000000000000000     
   6.8483125905617212E-002   7.8664768017359013E-002   0.0000000000000000     
   7.1093122948573534E-002   8.4619603324372156E-002   0.0000000000000000     
   5.5156948270999678E-002   6.1042812885925675E-002   0.0000000000000000     
   5.7840619769826525E-002   6.6477799278520461E-002   0.0000000000000000     
   6.0441871571999081E-002   7.2095391889566179E-002   0.0000000000000000     
   6.2960703677517355E-002   7.7895590719062824E-002   0.0000000000000000     
   6.5397116086381352E-002   8.3878395767010422E-002   0.0000000000000000     
   5.0370409624915347E-002   6.0252852566046136E-002   0.0000000000000000     
   5.2867689019358365E-002   6.5712403430186181E-002   0.0000000000000000     
   5.5287095620374663E-002   7.1354757514646414E-002   0.0000000000000000     
   5.7628629427964262E-002   7.7179914819426779E-002   0.0000000000000000     
   5.9892290442127155E-002   8.3187875344527346E-002   0.0000000000000000     
   4.5776355136026625E-002   5.9517309051661957E-002   0.0000000000000000     
   4.8085757717065768E-002   6.5002373815820413E-002   0.0000000000000000     
   5.0322607057376206E-002   7.0669184238083410E-002   0.0000000000000000     
   5.2486903156957934E-002   7.6517740318450919E-002   0.0000000000000000     
   5.4578646015810944E-002   8.2548042056922954E-002   0.0000000000000000     
   7.6980311028703730E-002   8.5411498016612561E-002   0.0000000000000000     
   7.9668509326385861E-002   9.1504581681112140E-002   0.0000000000000000     
   8.2253469941250767E-002   9.7757281547558625E-002   0.0000000000000000     
   8.4735192873298379E-002  0.10416959761595204        0.0000000000000000     
   8.7113678122528737E-002  0.11074152988629238        0.0000000000000000     
   7.1093122948573534E-002   8.4619603324372156E-002   0.0000000000000000     
   7.3611345846397405E-002   9.0743573528630481E-002   0.0000000000000000     
   7.6032214404367762E-002   9.7024658874882305E-002   0.0000000000000000     
   7.8355728622484605E-002  0.10346285936312770        0.0000000000000000     
   8.0581888500747961E-002  0.11005817499336659        0.0000000000000000     
   6.5397116086381352E-002   8.3878395767010422E-002   0.0000000000000000     
   6.7746646075313388E-002   9.0030277727914179E-002   0.0000000000000000     
   7.0004830921035696E-002   9.6337707296279357E-002   0.0000000000000000     
   7.2171670623548317E-002  0.10280068447210587        0.0000000000000000     
   7.4247165182851238E-002  0.10941920925539386        0.0000000000000000     
   5.9892290442127155E-002   8.3187875344527346E-002   0.0000000000000000     
   6.2074410013133775E-002   8.9364694278963264E-002   0.0000000000000000     
   6.4171319491254569E-002   9.5696426811749696E-002   0.0000000000000000     
   6.6183018876489502E-002  0.10218307294288669        0.0000000000000000     
   6.8109508168838595E-002  0.10882463267237417        0.0000000000000000     
   5.4578646015810944E-002   8.2548042056922954E-002   0.0000000000000000     
   5.6594637659858629E-002   8.8746823181777720E-002   0.0000000000000000     
   5.8531680115024368E-002   9.5100817421293407E-002   0.0000000000000000     
   6.0389773381308152E-002  0.10161002477547001        0.0000000000000000     
   6.2168917458709998E-002  0.10827444524430758        0.0000000000000000     
   8.7113678122528737E-002  0.11074152988629238        0.0000000000000000     
   8.9394562998947574E-002  0.11745774134436383        0.0000000000000000     
   9.1583484812560637E-002  0.12430289497595065        0.0000000000000000     
   9.3680443563367938E-002  0.13127699078105279        0.0000000000000000     
   9.5685439251369464E-002  0.13838002875967031        0.0000000000000000     
   8.0581888500747961E-002  0.11005817499336659        0.0000000000000000     
   8.2720094332579958E-002  0.11679884024506659        0.0000000000000000     
   8.4779746411402748E-002  0.12367308959769530        0.0000000000000000     
   8.6760844737216361E-002  0.13068092305125270        0.0000000000000000     
   8.8663389310020740E-002  0.13782234060573878        0.0000000000000000     
   7.4247165182851238E-002  0.10941920925539386        0.0000000000000000     
   7.6242607940684812E-002  0.11618385167514840        0.0000000000000000     
   7.8169292238789420E-002  0.12308518176037472        0.0000000000000000     
   8.0027218077165022E-002  0.13012319951107285        0.0000000000000000     
   8.1816385455811630E-002  0.13729790492724273        0.0000000000000000     
   6.8109508168838595E-002  0.10882463267237417        0.0000000000000000     
   6.9962103823262192E-002  0.11561277563460928        0.0000000000000000     
   7.1752122294720652E-002  0.12253917146398896        0.0000000000000000     
   7.3479563583213975E-002  0.12960382016051325        0.0000000000000000     
   7.5144427688742174E-002  0.13680672172418212        0.0000000000000000     
   6.2168917458709998E-002  0.10827444524430758        0.0000000000000000     
   6.3878581980312030E-002  0.11508561212344919        0.0000000000000000     
   6.5528236579196444E-002  0.12203505870853795        0.0000000000000000     
   6.7117881255363221E-002  0.12912278499957386        0.0000000000000000     
   6.8647516008812345E-002  0.13634879099655697        0.0000000000000000     
   9.5685439251369464E-002  0.13838002875967031        0.0000000000000000     
   9.7609066237083764E-002  0.14561040253570162        0.0000000000000000     
   9.9461918881029329E-002  0.15296650573304529        0.0000000000000000     
  0.10124399718320622       0.16044833835170125        0.0000000000000000     
  0.10295530114361438       0.16805590039166957        0.0000000000000000     
   8.8663389310020740E-002  0.13782234060573878        0.0000000000000000     
   9.0478249502488201E-002  0.14508609104423659        0.0000000000000000     
   9.2196294687291014E-002  0.15246092314982904        0.0000000000000000     
   9.3817524864429194E-002  0.15994683692251621        0.0000000000000000     
   9.5341940033902728E-002  0.16754383236229808        0.0000000000000000     
   8.1816385455811630E-002  0.13729790492724273        0.0000000000000000     
   8.3516675008481644E-002  0.14459213903921234        0.0000000000000000     
   8.5107967368927409E-002  0.15198874287730968        0.0000000000000000     
   8.6590262537148951E-002  0.15948771644153475        0.0000000000000000     
   8.7963560513146286E-002  0.16708905973188748        0.0000000000000000     
   7.5144427688742174E-002  0.13680672172418212        0.0000000000000000     
   7.6724342755064068E-002  0.14412854652062898        0.0000000000000000     
   7.8196936925938529E-002  0.15154996491548720        0.0000000000000000     
   7.9562210201365544E-002  0.15907097690875688        0.0000000000000000     
   8.0820162581345070E-002  0.16669158250043786        0.0000000000000000     
   6.8647516008812345E-002  0.13634879099655697        0.0000000000000000     
   7.0101252742235498E-002  0.14369531348848649        0.0000000000000000     
   7.1463203358324331E-002  0.15114458926436170        0.0000000000000000     
   7.2733367857078873E-002  0.15869661832418255        0.0000000000000000     
   7.3911746238499082E-002  0.16635140066794912        0.0000000000000000     
   0.0000000000000000        0.0000000000000000        0.0000000000000000     
   2.8800726448244035E-003   1.7448521891715240E-003   0.0000000000000000     
   5.8726638624052819E-003   3.8646564040792069E-003   0.0000000000000000     
   8.9777736527426339E-003   6.3594126447230484E-003   0.0000000000000000     
   1.2195402015836460E-002   9.2291209111030510E-003   0.0000000000000000     
   0.0000000000000000        0.0000000000000000        0.0000000000000000     
   2.6103245421118114E-003   1.5889381561924988E-003   0.0000000000000000     
   5.2897445282624094E-003   3.5567052423967249E-003   0.0000000000000000     
   8.0382599584517943E-003   5.9033012586126778E-003   0.0000000000000000     
   1.0855870832679967E-002   8.6287262048403580E-003   0.0000000000000000     
   0.0000000000000000        0.0000000000000000        0.0000000000000000     
   2.3401210315988005E-003   1.4589599215593507E-003   0.0000000000000000     
   4.7202228632761325E-003   3.2997976158904208E-003   0.0000000000000000     
   7.1403054950319950E-003   5.5225130829932110E-003   0.0000000000000000     
   9.6003689268663889E-003   8.1271063228677189E-003   0.0000000000000000     
   0.0000000000000000        0.0000000000000000        0.0000000000000000     
   2.0694621132853713E-003   1.3549174852720797E-003   0.0000000000000000     
   4.1640988674464486E-003   3.0939335245602950E-003   0.0000000000000000     
   6.2839102624832324E-003   5.2170481178646453E-003   0.0000000000000000     
   8.4288962983957213E-003   7.7242612651851313E-003   0.0000000000000000     
   0.0000000000000000        0.0000000000000000        0.0000000000000000     
   1.7983477871715238E-003   1.2768108473306854E-003   0.0000000000000000     
   3.6213725407733604E-003   2.9391129684063471E-003   0.0000000000000000     
   5.4690742608055091E-003   4.9869063632269842E-003   0.0000000000000000     
   7.3414529472679707E-003   7.4201910317925977E-003   0.0000000000000000     
   1.2195402015836460E-002   9.2291209111030510E-003   0.0000000000000000     
   1.5427815368108069E-002   1.2371699154371389E-002   0.0000000000000000     
   1.8577280125978771E-002   1.5685065325680245E-002   0.0000000000000000     
   2.1643796289448559E-002   1.9169219425029617E-002   0.0000000000000000     
   2.4627363858517441E-002   2.2824161452419511E-002   0.0000000000000000     
   1.0855870832679967E-002   8.6287262048403580E-003   0.0000000000000000     
   1.3689219252774542E-002   1.1650723811931460E-002   0.0000000000000000     
   1.6484947320563128E-002   1.4887037810737669E-002   0.0000000000000000     
   1.9243055036045731E-002   1.8337668201258997E-002   0.0000000000000000     
   2.1963542399222349E-002   2.2002614983495428E-002   0.0000000000000000     
   9.6003689268663889E-003   8.1271063228677189E-003   0.0000000000000000     
   1.2076860375506581E-002   1.1046205959780132E-002   0.0000000000000000     
   1.4546227057679847E-002   1.4212440617996631E-002   0.0000000000000000     
   1.7008468973386183E-002   1.7625810297517218E-002   0.0000000000000000     
   1.9463586122625592E-002   2.1286314998341892E-002   0.0000000000000000     
   8.4288962983957213E-003   7.7242612651851313E-003   0.0000000000000000     
   1.0590738736304194E-002   1.0558145597917410E-002   0.0000000000000000     
   1.2761119337328925E-002   1.3661273747457126E-002   0.0000000000000000     
   1.4940038101469917E-002   1.7033645713804293E-002   0.0000000000000000     
   1.7127495028727166E-002   2.0675261496958901E-002   0.0000000000000000     
   7.3414529472679707E-003   7.4201910317925977E-003   0.0000000000000000     
   9.2308543351673766E-003   1.0186542726343289E-002   0.0000000000000000     
   1.1129624159510364E-002   1.3233537199119160E-002   0.0000000000000000     
   1.3037762420296929E-002   1.6561174450120213E-002   0.0000000000000000     
   1.4955269117527075E-002   2.0169454479346448E-002   0.0000000000000000     
   2.4627363858517441E-002   2.2824161452419511E-002   0.0000000000000000     
   2.7532115669244985E-002   2.6672708311972441E-002   0.0000000000000000     
   3.0362184557690755E-002   3.0737676907810950E-002   0.0000000000000000     
   3.3117570523854736E-002   3.5019067239935024E-002   0.0000000000000000     
   3.5798273567736960E-002   3.9516879308344674E-002   0.0000000000000000     
   2.1963542399222349E-002   2.2002614983495428E-002   0.0000000000000000     
   2.4629958526849252E-002   2.5879923827966167E-002   0.0000000000000000     
   2.7225852535682715E-002   2.9967640405190402E-002   0.0000000000000000     
   2.9751224425722731E-002   3.4265764715168130E-002   0.0000000000000000     
   3.2206074196969303E-002   3.8774296757899347E-002   0.0000000000000000     
   1.9463586122625592E-002   2.1286314998341892E-002   0.0000000000000000     
   2.1883354574832030E-002   2.5175185486747343E-002   0.0000000000000000     
   2.4239550399439459E-002   2.9273652529010256E-002   0.0000000000000000     
   2.6532173596447887E-002   3.3581716125130640E-002   0.0000000000000000     
   2.8761224165857299E-002   3.8099376275108482E-002   0.0000000000000000     
   1.7127495028727166E-002   2.0675261496958901E-002   0.0000000000000000     
   1.9292303813193308E-002   2.4558493288315972E-002   0.0000000000000000     
   2.1403278148960987E-002   2.8655713279270519E-002   0.0000000000000000     
   2.3460418036030193E-002   3.2966921469822538E-002   0.0000000000000000     
   2.5463723474400939E-002   3.7492117859972043E-002   0.0000000000000000     
   1.4955269117527075E-002   2.0169454479346448E-002   0.0000000000000000     
   1.6856806241933101E-002   2.4029847232672045E-002   0.0000000000000000     
   1.8717035784247299E-002   2.8113822655971177E-002   0.0000000000000000     
   2.0535957744469674E-002   3.2421380749243847E-002   0.0000000000000000     
   2.2313572122600225E-002   3.6952521512490059E-002   0.0000000000000000     
   3.5798273567736960E-002   3.9516879308344674E-002   0.0000000000000000     
   3.8404424852811064E-002   4.4221423369716337E-002   0.0000000000000000     
   4.0936155542550715E-002   4.9123009680726436E-002   0.0000000000000000     
   4.3393465636955897E-002   5.4221638241374978E-002   0.0000000000000000     
   4.5776355136026625E-002   5.9517309051661957E-002   0.0000000000000000     
   3.2206074196969303E-002   3.8774296757899347E-002   0.0000000000000000     
   3.4592408624649067E-002   4.3488667647126437E-002   0.0000000000000000     
   3.6912234483988643E-002   4.8404308496591733E-002   0.0000000000000000     
   3.9165551774988032E-002   5.3521219306295234E-002   0.0000000000000000     
   4.1352360497647248E-002   5.8839400076236968E-002   0.0000000000000000     
   2.8761224165857299E-002   3.8099376275108482E-002   0.0000000000000000     
   3.0928845934891831E-002   4.2823905538921327E-002   0.0000000000000000     
   3.3037182730775619E-002   4.7752576476546675E-002   0.0000000000000000     
   3.5086234553508663E-002   5.2885389087984576E-002   0.0000000000000000     
   3.7076001403090947E-002   5.8222343373235001E-002   0.0000000000000000     
   2.5463723474400939E-002   3.7492117859972043E-002   0.0000000000000000     
   2.7413736783539366E-002   4.2227137045100969E-002   0.0000000000000000     
   2.9311000282911649E-002   4.7167813620591290E-002   0.0000000000000000     
   3.1155513972517767E-002   5.2314147586442969E-002   0.0000000000000000     
   3.2947277852357744E-002   5.7666138942656028E-002   0.0000000000000000     
   2.2313572122600225E-002   3.6952521512490059E-002   0.0000000000000000     
   2.4047081170591671E-002   4.1698362165665415E-002   0.0000000000000000     
   2.5733687140396713E-002   4.6650019928725549E-002   0.0000000000000000     
   2.7373390032015360E-002   5.1807494801670434E-002   0.0000000000000000     
   2.8966189845447615E-002   5.7170786784500091E-002   0.0000000000000000     
   4.5776355136026625E-002   5.9517309051661957E-002   0.0000000000000000     
   4.8085757717065768E-002   6.5002373815820413E-002   0.0000000000000000     
   5.0322607057376206E-002   7.0669184238083410E-002   0.0000000000000000     
   5.2486903156957934E-002   7.6517740318450919E-002   0.0000000000000000     
   5.4578646015810944E-002   8.2548042056922954E-002   0.0000000000000000     
   4.1352360497647248E-002   5.8839400076236968E-002   0.0000000000000000     
   4.3472529694184636E-002   6.4348481528254398E-002   0.0000000000000000     
   4.5525928406818600E-002   7.0038094384184998E-002   0.0000000000000000     
   4.7512556635549132E-002   7.5908238644028778E-002   0.0000000000000000     
   4.9432414380376224E-002   8.1958914307785749E-002   0.0000000000000000     
   3.7076001403090947E-002   5.8222343373235001E-002   0.0000000000000000     
   3.9005708781950851E-002   6.3751497660319345E-002   0.0000000000000000     
   4.0874582192516745E-002   6.9460910277258994E-002   0.0000000000000000     
   4.2682621634788621E-002   7.5350581224053997E-002   0.0000000000000000     
   4.4429827108766487E-002   8.1420510500704271E-002   0.0000000000000000     
   3.2947277852357744E-002   5.7666138942656028E-002   0.0000000000000000     
   3.4685294980364413E-002   6.3211422212015256E-002   0.0000000000000000     
   3.6368568414470621E-002   6.8937631917305425E-002   0.0000000000000000     
   3.7997098154676417E-002   7.4844768058526509E-002   0.0000000000000000     
   3.9570884200981739E-002   8.0932830635678507E-002   0.0000000000000000     
   2.8966189845447615E-002   5.7170786784500091E-002   0.0000000000000000     
   3.0511288289425304E-002   6.2728255183342144E-002   0.0000000000000000     
   3.2007887072680256E-002   6.8468259304324236E-002   0.0000000000000000     
   3.3455986195212485E-002   7.4390799147446340E-002   0.0000000000000000     
   3.4855585657021987E-002   8.0495874712708484E-002   0.0000000000000000     
   5.4578646015810944E-002   8.2548042056922954E-002   0.0000000000000000     
   5.6594637659858629E-002   8.8746823181777720E-002   0.0000000000000000     
   5.8531680115024368E-002   9.5100817421293407E-002   0.0000000000000000     
   6.0389773381308152E-002  0.10161002477547001        0.0000000000000000     
   6.2168917458709998E-002  0.10827444524430758        0.0000000000000000     
   4.9432414380376224E-002   8.1958914307785749E-002   0.0000000000000000     
   5.1282554610924472E-002   8.8177734840125324E-002   0.0000000000000000     
   5.3060030296818481E-002   9.4552313705716984E-002   0.0000000000000000     
   5.4764841438058237E-002  0.10108265090456070        0.0000000000000000     
   5.6396988034643748E-002  0.10776874643665647        0.0000000000000000     
   4.4429827108766487E-002   8.1420510500704271E-002   0.0000000000000000     
   4.6113386461767859E-002   8.7658499657773933E-002   0.0000000000000000     
   4.7730487541110256E-002   9.4052350245826977E-002   0.0000000000000000     
   4.9281130346793690E-002  0.10060206226486340        0.0000000000000000     
   5.0765314878818156E-002  0.10730763571488325        0.0000000000000000     
   3.9570884200981739E-002   8.0932830635678507E-002   0.0000000000000000     
   4.1087133212388785E-002   8.7189117634723465E-002   0.0000000000000000     
   4.2543051847899714E-002   9.3600927041623344E-002   0.0000000000000000     
   4.3938640107514526E-002  0.10016825885637817        0.0000000000000000     
   4.5273897991233207E-002  0.10689111307898795        0.0000000000000000     
   3.4855585657021987E-002   8.0495874712708484E-002   0.0000000000000000     
   3.6203794862787263E-002   8.6769588770973974E-002   0.0000000000000000     
   3.7497723217186849E-002   9.3198044093106142E-002   0.0000000000000000     
   3.8737370720220723E-002   9.9781240679105015E-002   0.0000000000000000     
   3.9922737371888908E-002  0.10651917852897055        0.0000000000000000     
   6.2168917458709998E-002  0.10827444524430758        0.0000000000000000     
   6.3878581980312030E-002  0.11508561212344919        0.0000000000000000     
   6.5528236579196444E-002  0.12203505870853795        0.0000000000000000     
   6.7117881255363221E-002  0.12912278499957386        0.0000000000000000     
   6.8647516008812345E-002  0.13634879099655697        0.0000000000000000     
   5.6396988034643748E-002  0.10776874643665647        0.0000000000000000     
   5.7963610974677185E-002  0.11460165735643940        0.0000000000000000     
   5.9471851146260725E-002  0.12157244071834457        0.0000000000000000     
   6.0921708549394347E-002  0.12868109652237203        0.0000000000000000     
   6.2313183184078039E-002  0.13592762476852172        0.0000000000000000     
   5.0765314878818156E-002  0.10730763571488325        0.0000000000000000     
   5.2188759369200463E-002  0.11416020754835111        0.0000000000000000     
   5.3557182049957394E-002  0.12115091471773168        0.0000000000000000     
   5.4870582921088970E-002  0.12827975722302490        0.0000000000000000     
   5.6128961982595163E-002  0.13554673506423082        0.0000000000000000     
   4.5273897991233207E-002  0.10689111307898795        0.0000000000000000     
   4.6554027163881843E-002  0.11376126269918437        0.0000000000000000     
   4.7784229290286466E-002  0.12077048070669923        0.0000000000000000     
   4.8964504370447103E-002  0.12791876710153252        0.0000000000000000     
   5.0094852404363711E-002  0.13520612188368419        0.0000000000000000     
   3.9922737371888908E-002  0.10651917852897055        0.0000000000000000     
   4.1059414358721333E-002  0.11340482280893917        0.0000000000000000     
   4.2152992867247940E-002  0.12043113868524728        0.0000000000000000     
   4.3203472897468717E-002  0.12759812615789487        0.0000000000000000     
   4.4210854449383684E-002  0.13490578522688199        0.0000000000000000     
   6.8647516008812345E-002  0.13634879099655697        0.0000000000000000     
   7.0101252742235498E-002  0.14369531348848649        0.0000000000000000     
   7.1463203358324331E-002  0.15114458926436170        0.0000000000000000     
   7.2733367857078873E-002  0.15869661832418255        0.0000000000000000     
   7.3911746238499082E-002  0.16635140066794912        0.0000000000000000     
   6.2313183184078039E-002  0.13592762476852172        0.0000000000000000     
   6.3638924721724735E-002  0.14329677534028362        0.0000000000000000     
   6.4891582833747283E-002  0.15077329812114765        0.0000000000000000     
   6.6071157520145710E-002  0.15835719311111379        0.0000000000000000     
   6.7177648780920002E-002  0.16604846031018206        0.0000000000000000     
   5.6128961982595163E-002  0.13554673506423082        0.0000000000000000     
   5.7328878445260592E-002  0.14293726747351915        0.0000000000000000     
   5.8466891519869786E-002  0.15043677368305969        0.0000000000000000     
   5.9543001206422801E-002  0.15804525369285244        0.0000000000000000     
   6.0557207504919580E-002  0.16576270750289737        0.0000000000000000     
   5.0094852404363711E-002  0.13520612188368419        0.0000000000000000     
   5.1171113912843062E-002  0.14261678988819310        0.0000000000000000     
   5.2189129416691848E-002  0.15013501595009787        0.0000000000000000     
   5.3148898915910091E-002  0.15776080006939852        0.0000000000000000     
   5.4050422410497775E-002  0.16549414224609516        0.0000000000000000     
   4.4210854449383684E-002  0.13490578522688199        0.0000000000000000     
   4.5165631124472166E-002  0.14233534258430547        0.0000000000000000     
   4.6058296524213470E-002  0.14986802492226214        0.0000000000000000     
   4.6888850648607622E-002  0.15750383224075210        0.0000000000000000     
   4.7657293497654615E-002  0.16524276453977527        0.0000000000000000     
   0.0000000000000000        0.0000000000000000        0.0000000000000000     
   1.7983477871715238E-003   1.2768108473306854E-003   0.0000000000000000     
   3.6213725407733604E-003   2.9391129684063471E-003   0.0000000000000000     
   5.4690742608055091E-003   4.9869063632269842E-003   0.0000000000000000     
   7.3414529472679707E-003   7.4201910317925977E-003   0.0000000000000000     
   0.0000000000000000        0.0000000000000000        0.0000000000000000     
   1.5350476622137325E-003   1.2175290453673977E-003   0.0000000000000000     
   3.0993961659597129E-003   2.8208255889984567E-003   0.0000000000000000     
   4.6930455112379399E-003   4.8098896308931766E-003   0.0000000000000000     
   6.3159956980484147E-003   7.1847211710515582E-003   0.0000000000000000     
   0.0000000000000000        0.0000000000000000        0.0000000000000000     
   1.2878313473684722E-003   1.1699611170144463E-003   0.0000000000000000     
   2.6055220257083533E-003   2.7245610279065047E-003   0.0000000000000000     
   3.9530720350196419E-003   4.6637997326761747E-003   0.0000000000000000     
   5.3304813753023393E-003   6.9876772313234572E-003   0.0000000000000000     
   0.0000000000000000        0.0000000000000000        0.0000000000000000     
   1.0566988426357431E-003   1.1341070622718306E-003   0.0000000000000000     
   2.1397501200192820E-003   2.6503192851304908E-003   0.0000000000000000     
   3.2491538321506161E-003   4.5486366685759793E-003   0.0000000000000000     
   4.3849099790297464E-003   6.8290592126082975E-003   0.0000000000000000     
   0.0000000000000000        0.0000000000000000        0.0000000000000000     
   8.4165014801554469E-004   1.1099668811395515E-003   0.0000000000000000     
   1.7020804488924984E-003   2.5981003606704144E-003   0.0000000000000000     
   2.5812909026308611E-003   4.4644004385925888E-003   0.0000000000000000     
   3.4792815092306328E-003   6.7088671149060745E-003   0.0000000000000000     
   7.3414529472679707E-003   7.4201910317925977E-003   0.0000000000000000     
   9.2308543351673766E-003   1.0186542726343289E-002   0.0000000000000000     
   1.1129624159510364E-002   1.3233537199119160E-002   0.0000000000000000     
   1.3037762420296929E-002   1.6561174450120213E-002   0.0000000000000000     
   1.4955269117527075E-002   2.0169454479346448E-002   0.0000000000000000     
   6.3159956980484147E-003   7.1847211710515582E-003   0.0000000000000000     
   7.9555890310341118E-003   9.8957377684668751E-003   0.0000000000000000     
   9.5991678148379996E-003   1.2893356982132405E-002   0.0000000000000000     
   1.1246732049460081E-002   1.6177578812048149E-002   0.0000000000000000     
   1.2898281734900355E-002   1.9748403258214108E-002   0.0000000000000000     
   5.3304813753023393E-003   6.9876772313234572E-003   0.0000000000000000     
   6.7233246828423713E-003   9.6500711476972742E-003   0.0000000000000000     
   8.1171765939256676E-003   1.2604859105646541E-002   0.0000000000000000     
   9.5120371085522237E-003   1.5852041105171265E-002   0.0000000000000000     
   1.0907906226722042E-002   1.9391617146271436E-002   0.0000000000000000     
   4.3849099790297464E-003   6.8290592126082975E-003   0.0000000000000000     
   5.5340612905921674E-003   9.4495428640344794E-003   0.0000000000000000     
   6.6836504967733709E-003   1.2368043569661563E-002   0.0000000000000000     
   7.8336775975733613E-003   1.5584561329489550E-002   0.0000000000000000     
   8.9841425929921368E-003   1.9099096143518440E-002   0.0000000000000000     
   3.4792815092306328E-003   6.7088671149060745E-003   0.0000000000000000     
   4.3877988542834903E-003   9.2941529174784959E-003   0.0000000000000000     
   5.2985895233811095E-003   1.2182910374177479E-002   0.0000000000000000     
   6.2116535165234917E-003   1.5375139485003020E-002   0.0000000000000000     
   7.1269908337106367E-003   1.8870840249955119E-002   0.0000000000000000     
   1.4955269117527075E-002   2.0169454479346448E-002   0.0000000000000000     
   1.6856806241933101E-002   2.4029847232672045E-002   0.0000000000000000     
   1.8717035784247299E-002   2.8113822655971177E-002   0.0000000000000000     
   2.0535957744469674E-002   3.2421380749243847E-002   0.0000000000000000     
   2.2313572122600225E-002   3.6952521512490059E-002   0.0000000000000000     
   1.2898281734900355E-002   1.9748403258214108E-002   0.0000000000000000     
   1.4537342651216655E-002   2.3579774721501259E-002   0.0000000000000000     
   1.6147440578466815E-002   2.7645637602780597E-002   0.0000000000000000     
   1.7728575516650833E-002   3.1945991902052114E-002   0.0000000000000000     
   1.9280747465768716E-002   3.6480837619315809E-002   0.0000000000000000     
   1.0907906226722042E-002   1.9391617146271436E-002   0.0000000000000000     
   1.2294393831209248E-002   2.3198803156489312E-002   0.0000000000000000     
   1.3661109804787970E-002   2.7248815063367137E-002   0.0000000000000000     
   1.5008054147458205E-002   3.1541652866904905E-002   0.0000000000000000     
   1.6335226859219953E-002   3.6077316567102613E-002   0.0000000000000000     
   8.9841425929921368E-003   1.9099096143518440E-002   0.0000000000000000     
   1.0127959781910875E-002   2.2886932537636198E-002   0.0000000000000000     
   1.1258043463210755E-002   2.6923355037730790E-002   0.0000000000000000     
   1.2374393636891778E-002   3.1208363643802209E-002   0.0000000000000000     
   1.3477010302953944E-002   3.5741958355850478E-002   0.0000000000000000     
   7.1269908337106367E-003   1.8870840249955119E-002   0.0000000000000000     
   8.0380405033215335E-003   2.2644162864941919E-002   0.0000000000000000     
   8.9382415537351736E-003   2.6669257525871560E-002   0.0000000000000000     
   9.8275939849515586E-003   3.0946124232744041E-002   0.0000000000000000     
   1.0706097796970687E-002   3.5474762985559370E-002   0.0000000000000000     
   2.2313572122600225E-002   3.6952521512490059E-002   0.0000000000000000     
   2.4047081170591671E-002   4.1698362165665415E-002   0.0000000000000000     
   2.5733687140396713E-002   4.6650019928725549E-002   0.0000000000000000     
   2.7373390032015360E-002   5.1807494801670434E-002   0.0000000000000000     
   2.8966189845447615E-002   5.7170786784500091E-002   0.0000000000000000     
   1.9280747465768716E-002   3.6480837619315809E-002   0.0000000000000000     
   2.0797820012387228E-002   4.1235810957573213E-002   0.0000000000000000     
   2.2273656743073154E-002   4.6196548119825855E-002   0.0000000000000000     
   2.3708257657826488E-002   5.1363049106073727E-002   0.0000000000000000     
   2.5101622756647231E-002   5.6735313916316824E-002   0.0000000000000000     
   1.6335226859219953E-002   3.6077316567102613E-002   0.0000000000000000     
   1.7634894225264545E-002   4.0837713477782964E-002   0.0000000000000000     
   1.8899322530783282E-002   4.5804750912768630E-002   0.0000000000000000     
   2.0128511775776192E-002   5.0978428872059590E-002   0.0000000000000000     
   2.1322461960243247E-002   5.6358747355655874E-002   0.0000000000000000     
   1.3477010302953944E-002   3.5741958355850478E-002   0.0000000000000000     
   1.4558303809223606E-002   4.0504069726294653E-002   0.0000000000000000     
   1.5610684503527112E-002   4.5474628307553847E-002   0.0000000000000000     
   1.6634152385864465E-002   5.0653634099628045E-002   0.0000000000000000     
   1.7628707456235664E-002   5.6041087102517269E-002   0.0000000000000000     
   1.0706097796970687E-002   3.5474762985559370E-002   0.0000000000000000     
   1.1568048764264423E-002   4.0234879703108281E-002   0.0000000000000000     
   1.2407742661304634E-002   4.5206180304181519E-002   0.0000000000000000     
   1.3225179488091317E-002   5.0388664788779090E-002   0.0000000000000000     
   1.4020359244624477E-002   5.5782333156900989E-002   0.0000000000000000     
   2.8966189845447615E-002   5.7170786784500091E-002   0.0000000000000000     
   3.0511288289425304E-002   6.2728255183342144E-002   0.0000000000000000     
   3.2007887072680256E-002   6.8468259304324236E-002   0.0000000000000000     
   3.3455986195212485E-002   7.4390799147446340E-002   0.0000000000000000     
   3.4855585657021987E-002   8.0495874712708484E-002   0.0000000000000000     
   2.5101622756647231E-002   5.6735313916316824E-002   0.0000000000000000     
   2.6453255702431039E-002   6.2302616432076595E-002   0.0000000000000000     
   2.7762660158073552E-002   6.8054230534874499E-002   0.0000000000000000     
   2.9029836123574779E-002   7.3990156224710543E-002   0.0000000000000000     
   3.0254783598934708E-002   8.0110393501584706E-002   0.0000000000000000     
   2.1322461960243247E-002   5.6358747355655874E-002   0.0000000000000000     
   2.2480764212679114E-002   6.1935125815995196E-002   0.0000000000000000     
   2.3603009661578429E-002   6.7696983705515273E-002   0.0000000000000000     
   2.4689198306941190E-002   7.3644321024216128E-002   0.0000000000000000     
   2.5739330148767402E-002   7.9777137772097745E-002   0.0000000000000000     
   1.7628707456235664E-002   5.6041087102517269E-002   0.0000000000000000     
   1.8593813820169534E-002   6.1625783335097946E-002   0.0000000000000000     
   1.9528935583194889E-002   6.7396518816246573E-002   0.0000000000000000     
   2.0434072745311734E-002   7.3353293545963108E-002   0.0000000000000000     
   2.1309225306520071E-002   7.9496107524247558E-002   0.0000000000000000     
   1.4020359244624477E-002   5.5782333156900989E-002   0.0000000000000000     
   1.4792404524902287E-002   6.1374588989384866E-002   0.0000000000000000     
   1.5540437922922931E-002   6.7152835867068342E-002   0.0000000000000000     
   1.6264459438686405E-002   7.3117073789951456E-002   0.0000000000000000     
   1.6964469072192713E-002   7.9267302758034203E-002   0.0000000000000000     
   3.4855585657021987E-002   8.0495874712708484E-002   0.0000000000000000     
   3.6203794862787263E-002   8.6769588770973974E-002   0.0000000000000000     
   3.7497723217186849E-002   9.3198044093106142E-002   0.0000000000000000     
   3.8737370720220723E-002   9.9781240679105015E-002   0.0000000000000000     
   3.9922737371888908E-002  0.10651917852897055        0.0000000000000000     
   3.0254783598934708E-002   8.0110393501584706E-002   0.0000000000000000     
   3.1434568331873254E-002   8.6399787130740438E-002   0.0000000000000000     
   3.2566256070110301E-002   9.2843181877421160E-002   0.0000000000000000     
   3.3649846813645884E-002   9.9440577741626901E-002   0.0000000000000000     
   3.4685340562479960E-002  0.10619197472335765        0.0000000000000000     
   2.5739330148767402E-002   7.9777137772097745E-002   0.0000000000000000     
   2.6750650538556710E-002   8.6079586778237849E-002   0.0000000000000000     
   2.7720404827808760E-002   9.2535820871714261E-002   0.0000000000000000     
   2.8648593016523550E-002   9.9145840052526898E-002   0.0000000000000000     
   2.9535215104701085E-002  0.10590964432067586        0.0000000000000000     
   2.1309225306520071E-002   7.9496107524247558E-002   0.0000000000000000     
   2.2152041482837646E-002   8.5808987713466234E-002   0.0000000000000000     
   2.2960169490282206E-002   9.2275961075985374E-002   0.0000000000000000     
   2.3733609328853749E-002   9.8897027611805008E-002   0.0000000000000000     
   2.4472360998552271E-002  0.10567218732092513        0.0000000000000000     
   1.6964469072192713E-002   7.9267302758034203E-002   0.0000000000000000     
   1.7638741164716056E-002   8.5587989936425551E-002   0.0000000000000000     
   1.8285550057530638E-002   9.2063602490234556E-002   0.0000000000000000     
   1.8904895750636464E-002   9.8694140419461202E-002   0.0000000000000000     
   1.9496778244033529E-002  0.10547960372410550        0.0000000000000000     
   3.9922737371888908E-002  0.10651917852897055        0.0000000000000000     
   4.1059414358721333E-002  0.11340482280893917        0.0000000000000000     
   4.2152992867247940E-002  0.12043113868524728        0.0000000000000000     
   4.3203472897468717E-002  0.12759812615789487        0.0000000000000000     
   4.4210854449383684E-002  0.13490578522688199        0.0000000000000000     
   3.4685340562479960E-002  0.10619197472335765        0.0000000000000000     
   3.5678796137631995E-002  0.11309154184932318        0.0000000000000000     
   3.6636272360121437E-002  0.12013344814623335        0.0000000000000000     
   3.7557769229948260E-002  0.12731769361408807        0.0000000000000000     
   3.8443286747112490E-002  0.13464427825288744        0.0000000000000000     
   2.9535215104701085E-002  0.10590964432067586        0.0000000000000000     
   3.0386047684526914E-002  0.11282207379204416        0.0000000000000000     
   3.1206867348186593E-002  0.11987796858251494        0.0000000000000000     
   3.1997674095680134E-002  0.12707732869208821        0.0000000000000000     
   3.2758467927007526E-002  0.13442015412076394        0.0000000000000000     
   2.4472360998552271E-002  0.10567218732092513        0.0000000000000000     
   2.5181168999406069E-002  0.11259641863710204        0.0000000000000000     
   2.5864777831443423E-002  0.11966469999409209        0.0000000000000000     
   2.6523187494664337E-002  0.12687703139189521        0.0000000000000000     
   2.7156397989068815E-002  0.13423341283051152        0.0000000000000000     
   1.9496778244033529E-002  0.10547960372410550        0.0000000000000000     
   2.0064160082269474E-002  0.11241457638449688        0.0000000000000000     
   2.0610003809891923E-002  0.11949364238096477        0.0000000000000000     
   2.1134309426900880E-002  0.12671680171350921        0.0000000000000000     
   2.1637076933296345E-002  0.13408405438213014        0.0000000000000000     
   4.4210854449383684E-002  0.13490578522688199        0.0000000000000000     
   4.5165631124472166E-002  0.14233534258430547        0.0000000000000000     
   4.6058296524213470E-002  0.14986802492226214        0.0000000000000000     
   4.6888850648607622E-002  0.15750383224075210        0.0000000000000000     
   4.7657293497654615E-002  0.16524276453977527        0.0000000000000000     
   3.8443286747112490E-002  0.13464427825288744        0.0000000000000000     
   3.9277862602612110E-002  0.14209137176968459        0.0000000000000000     
   4.0046534487445107E-002  0.14963714387153274        0.0000000000000000     
   4.0749302401611516E-002  0.15728159455843188        0.0000000000000000     
   4.1386166345111317E-002  0.16502472383038200        0.0000000000000000     
   3.2758467927007526E-002  0.13442015412076394        0.0000000000000000     
   3.3473240869727118E-002  0.14188332365215892        0.0000000000000000     
   3.4125984951397251E-002  0.14944371606988976        0.0000000000000000     
   3.4716700172017924E-002  0.15710133137395660        0.0000000000000000     
   3.5245386531589137E-002  0.16485616956435939        0.0000000000000000     
   2.7156397989068815E-002  0.13423341283051152        0.0000000000000000     
   2.7751765925817212E-002  0.14171119823172840        0.0000000000000000     
   2.8296647916069884E-002  0.14928774151733334        0.0000000000000000     
   2.8791043959826842E-002  0.15696304268732642        0.0000000000000000     
   2.9234954057088078E-002  0.16473710174170753        0.0000000000000000     
   2.1637076933296345E-002  0.13408405438213014        0.0000000000000000     
   2.2113437770882372E-002  0.14157499550839306        0.0000000000000000     
   2.2558523381463011E-002  0.14916922021386339        0.0000000000000000     
   2.2972333765038263E-002  0.15686672849854119        0.0000000000000000     
   2.3354868921608131E-002  0.16466752036242638        0.0000000000000000     
   0.0000000000000000        0.0000000000000000        0.0000000000000000     
   8.4165014801554469E-004   1.1099668811395515E-003   0.0000000000000000     
   1.7020804488924984E-003   2.5981003606704144E-003   0.0000000000000000     
   2.5812909026308611E-003   4.4644004385925888E-003   0.0000000000000000     
   3.4792815092306328E-003   6.7088671149060745E-003   0.0000000000000000     
   0.0000000000000000        0.0000000000000000        0.0000000000000000     
   6.3379099051707750E-004   1.0939690157303718E-003   0.0000000000000000     
   1.2779836386191854E-003   2.5620450670881898E-003   0.0000000000000000     
   1.9325779443063239E-003   4.4042281540734533E-003   0.0000000000000000     
   2.5975739075784921E-003   6.6205182766861633E-003   0.0000000000000000     
   0.0000000000000000        0.0000000000000000        0.0000000000000000     
   4.2422709714954178E-004   1.0825419081570554E-003   0.0000000000000000     
   8.5293031549052499E-004   2.5362942169457289E-003   0.0000000000000000     
   1.2861096550229498E-003   4.3612569263660212E-003   0.0000000000000000     
   1.7237651157468157E-003   6.5574300364179307E-003   0.0000000000000000     
   0.0000000000000000        0.0000000000000000        0.0000000000000000     
   2.1295846791293742E-004   1.0756855584196021E-003   0.0000000000000000     
   4.2692047950651730E-004   2.5208478102430329E-003   0.0000000000000000     
   6.4188603478073942E-004   4.3354867554702917E-003   0.0000000000000000     
   8.5785513373560390E-004   6.5196023941013793E-003   0.0000000000000000     
   0.0000000000000000        0.0000000000000000        0.0000000000000000     
  -1.4897192735500346E-008   1.0733999665180122E-003   0.0000000000000000     
  -4.5869332837978997E-008   2.5157058469801007E-003   0.0000000000000000     
  -9.2916420307300428E-008   4.3269176413862657E-003   0.0000000000000000     
  -1.5603845514376279E-007   6.5070353497365075E-003   0.0000000000000000     
   3.4792815092306328E-003   6.7088671149060745E-003   0.0000000000000000     
   4.3877988542834903E-003   9.2941529174784959E-003   0.0000000000000000     
   5.2985895233811095E-003   1.2182910374177479E-002   0.0000000000000000     
   6.2116535165234917E-003   1.5375139485003020E-002   0.0000000000000000     
   7.1269908337106367E-003   1.8870840249955119E-002   0.0000000000000000     
   2.5975739075784921E-003   6.6205182766861633E-003   0.0000000000000000     
   3.2699760456366806E-003   9.1779455897066133E-003   0.0000000000000000     
   3.9467888756818783E-003   1.2043540247915098E-002   0.0000000000000000     
   4.6280123977140855E-003   1.5217302251311618E-002   0.0000000000000000     
   5.3136466117333020E-003   1.8699231599896171E-002   0.0000000000000000     
   1.7237651157468157E-003   6.5574300364179307E-003   0.0000000000000000     
   2.1660315363720732E-003   9.0949651623961209E-003   0.0000000000000000     
   2.6130437556086718E-003   1.1944013919595244E-002   0.0000000000000000     
   3.0648017734566102E-003   1.5104576308015309E-002   0.0000000000000000     
   3.5213055899158902E-003   1.8576652327656304E-002   0.0000000000000000     
   8.5785513373560390E-004   6.5196023941013793E-003   0.0000000000000000     
   1.0759653264896679E-003   9.0452116355470152E-003   0.0000000000000000     
   1.2973541631614886E-003   1.1884331389217918E-002   0.0000000000000000     
   1.5220216437510663E-003   1.5036961655114084E-002   0.0000000000000000     
   1.7499677682584007E-003   1.8503102433235517E-002   0.0000000000000000     
  -1.5603845514376279E-007   6.5070353497365075E-003   0.0000000000000000     
  -2.2258401053522954E-007   9.0286850091592999E-003   0.0000000000000000     
  -2.7990165966945571E-007   1.1864492656783115E-002   0.0000000000000000     
  -3.2799140254654972E-007   1.5014458292607950E-002   0.0000000000000000     
  -3.6685323916672841E-007   1.8478581916633811E-002   0.0000000000000000     
   7.1269908337106367E-003   1.8870840249955119E-002   0.0000000000000000     
   8.0380405033215335E-003   2.2644162864941919E-002   0.0000000000000000     
   8.9382415537351736E-003   2.6669257525871560E-002   0.0000000000000000     
   9.8275939849515586E-003   3.0946124232744041E-002   0.0000000000000000     
   1.0706097796970687E-002   3.5474762985559370E-002   0.0000000000000000     
   5.3136466117333020E-003   1.8699231599896171E-002   0.0000000000000000     
   5.9968880555071151E-003   2.2461968384945137E-002   0.0000000000000000     
   6.6709332668031113E-003   2.6478152697734882E-002   0.0000000000000000     
   7.3357822456212914E-003   3.0747784538265415E-002   0.0000000000000000     
   7.9914349919616538E-003   3.5270863906536734E-002   0.0000000000000000     
   3.5213055899158902E-003   1.8576652327656304E-002   0.0000000000000000     
   3.9767544985335052E-003   2.2331823344184508E-002   0.0000000000000000     
   4.4253477928564494E-003   2.6341670723266191E-002   0.0000000000000000     
   4.8670854728847229E-003   3.0606194464901353E-002   0.0000000000000000     
   5.3019675386183247E-003   3.5125394569089995E-002   0.0000000000000000     
   1.7499677682584007E-003   1.8503102433235517E-002   0.0000000000000000     
   1.9776398324007037E-003   2.2253727742660042E-002   0.0000000000000000     
   2.2014851318951875E-003   2.6259811602465492E-002   0.0000000000000000     
   2.4215036667418525E-003   3.0521354012651856E-002   0.0000000000000000     
   2.6376954369406974E-003   3.5038354973219138E-002   0.0000000000000000     
  -3.6685323916672841E-007   1.8478581916633811E-002   0.0000000000000000     
  -4.5594289128903474E-007   2.2227681580371736E-002   0.0000000000000000     
  -6.5471608067370433E-007   2.6232575335332776E-002   0.0000000000000000     
  -9.6317280731913796E-007   3.0493263181516919E-002   0.0000000000000000     
  -1.3813130712270975E-006   3.5009745118924171E-002   0.0000000000000000     
   1.0706097796970687E-002   3.5474762985559370E-002   0.0000000000000000     
   1.1568048764264423E-002   4.0234879703108281E-002   0.0000000000000000     
   1.2407742661304634E-002   4.5206180304181519E-002   0.0000000000000000     
   1.3225179488091317E-002   5.0388664788779090E-002   0.0000000000000000     
   1.4020359244624477E-002   5.5782333156900989E-002   0.0000000000000000     
   7.9914349919616538E-003   3.5270863906536734E-002   0.0000000000000000     
   8.6346155134096290E-003   4.0027624509417284E-002   0.0000000000000000     
   9.2620478175506442E-003   4.4998300053775503E-002   0.0000000000000000     
   9.8737319043846992E-003   5.0182890539611405E-002   0.0000000000000000     
   1.0469667773911798E-002   5.5581395966924976E-002   0.0000000000000000     
   5.3019675386183247E-003   3.5125394569089995E-002   0.0000000000000000     
   5.7284904796818630E-003   3.9879785246415098E-002   0.0000000000000000     
   6.1451507856999429E-003   4.4849880707459655E-002   0.0000000000000000     
   6.5519484566725671E-003   5.0035680952223674E-002   0.0000000000000000     
   6.9488834925997313E-003   5.5437185980707140E-002   0.0000000000000000     
   2.6376954369406974E-003   3.5038354973219138E-002   0.0000000000000000     
   2.8496736630811235E-003   3.9791361914101722E-002   0.0000000000000000     
   3.0570515657525298E-003   4.4760922265233968E-002   0.0000000000000000     
   3.2598291449549167E-003   4.9947036026615904E-002   0.0000000000000000     
   3.4580064006882820E-003   5.5349703198247502E-002   0.0000000000000000     
  -1.3813130712270975E-006   3.5009745118924171E-002   0.0000000000000000     
  -1.8349363925891562E-006   3.9762354512477144E-002   0.0000000000000000     
  -2.2498422915967790E-006   4.4731424727098450E-002   0.0000000000000000     
  -2.6260307682511314E-006   4.9916955762788082E-002   0.0000000000000000     
  -2.9635018225515359E-006   5.5318947619546054E-002   0.0000000000000000     
   1.4020359244624477E-002   5.5782333156900989E-002   0.0000000000000000     
   1.4792404524902287E-002   6.1374588989384866E-002   0.0000000000000000     
   1.5540437922922931E-002   6.7152835867068342E-002   0.0000000000000000     
   1.6264459438686405E-002   7.3117073789951456E-002   0.0000000000000000     
   1.6964469072192713E-002   7.9267302758034203E-002   0.0000000000000000     
   1.0469667773911798E-002   5.5581395966924976E-002   0.0000000000000000     
   1.1048699895557710E-002   6.1179740219463978E-002   0.0000000000000000     
   1.1609672738748213E-002   6.6963847180976199E-002   0.0000000000000000     
   1.2152586303483308E-002   7.2933716851461605E-002   0.0000000000000000     
   1.2677440589762999E-002   7.9089349230920231E-002   0.0000000000000000     
   6.9488834925997313E-003   5.5437185980707140E-002   0.0000000000000000     
   7.3348635008161130E-003   6.1039434465943364E-002   0.0000000000000000     
   7.7087960886563856E-003   6.6827465080965626E-002   0.0000000000000000     
   8.0706812561205498E-003   7.2801277825773933E-002   0.0000000000000000     
   8.4205190032086031E-003   7.8960872700368306E-002   0.0000000000000000     
   3.4580064006882820E-003   5.5349703198247502E-002   0.0000000000000000     
   3.6508953406775031E-003   6.0953671728823017E-002   0.0000000000000000     
   3.8378079726474491E-003   6.6743689567036663E-002   0.0000000000000000     
   4.0187442965981248E-003   7.2719756712888425E-002   0.0000000000000000     
   4.1937043125295252E-003   7.8881873166378361E-002   0.0000000000000000     
  -2.9635018225515359E-006   5.5318947619546054E-002   0.0000000000000000     
  -3.2045848581249616E-006   6.0922452008102930E-002   0.0000000000000000     
  -3.2916092785963721E-006   6.6712520639189296E-002   0.0000000000000000     
  -3.2245750839665128E-006   7.2689153512805124E-002   0.0000000000000000     
  -3.0034822742345570E-006   7.8852350628950463E-002   0.0000000000000000     
   1.6964469072192713E-002   7.9267302758034203E-002   0.0000000000000000     
   1.7638741164716056E-002   8.5587989936425551E-002   0.0000000000000000     
   1.8285550057530638E-002   9.2063602490234556E-002   0.0000000000000000     
   1.8904895750636464E-002   9.8694140419461202E-002   0.0000000000000000     
   1.9496778244033529E-002  0.10547960372410550        0.0000000000000000     
   1.2677440589762999E-002   7.9089349230920231E-002   0.0000000000000000     
   1.3183157590473055E-002   8.5415756370751092E-002   0.0000000000000000     
   1.3668659298499251E-002   9.1897950322353164E-002   0.0000000000000000     
   1.4133945713841588E-002   9.8535931085726502E-002   0.0000000000000000     
   1.4579016836500067E-002  0.10532969866087109        0.0000000000000000     
   8.4205190032086031E-003   7.8960872700368306E-002   0.0000000000000000     
   8.7576987663897585E-003   8.5291449940078062E-002   0.0000000000000000     
   9.0816099821332246E-003   9.1778209780232600E-002   0.0000000000000000     
   9.3922526504390032E-003   9.8421152220831906E-002   0.0000000000000000     
   9.6896267713070978E-003  0.10522027726187599        0.0000000000000000     
   4.1937043125295252E-003   7.8881873166378361E-002   0.0000000000000000     
   4.3623646924661665E-003   8.5215070644406490E-002   0.0000000000000000     
   4.5244021084325627E-003   9.1704380863872836E-002   0.0000000000000000     
   4.6798165604287111E-003   9.8349803824777399E-002   0.0000000000000000     
   4.8286080484546152E-003  0.10515133952712022        0.0000000000000000     
  -3.0034822742345570E-006   7.8852350628950463E-002   0.0000000000000000     
  -2.8446312977192887E-006   8.5186618483736362E-002   0.0000000000000000     
  -2.9643226027378658E-006   9.1676463573273886E-002   0.0000000000000000     
  -3.3625561892887976E-006   9.8321885897563022E-002   0.0000000000000000     
  -4.0393320573750384E-006  0.10512288545660378        0.0000000000000000     
   1.9496778244033529E-002  0.10547960372410550        0.0000000000000000     
   2.0064160082269474E-002  0.11241457638449688        0.0000000000000000     
   2.0610003809891923E-002  0.11949364238096477        0.0000000000000000     
   2.1134309426900880E-002  0.12671680171350921        0.0000000000000000     
   2.1637076933296345E-002  0.13408405438213014        0.0000000000000000     
   1.4579016836500067E-002  0.10532969866087109        0.0000000000000000     
   1.5005037778768974E-002  0.11227330166002288        0.0000000000000000     
   1.5413173652942593E-002  0.11936078869541783        0.0000000000000000     
   1.5803424459020932E-002  0.12659215976705598        0.0000000000000000     
   1.6175790197003978E-002  0.13396741487493732        0.0000000000000000     
   9.6896267713070978E-003  0.10522027726187599        0.0000000000000000     
   9.9738189345564363E-003  0.11216934908947426        0.0000000000000000     
   1.0244915730005960E-002  0.11926213188973613        0.0000000000000000     
   1.0502917157655670E-002  0.12649862566266157        0.0000000000000000     
   1.0747823217505566E-002  0.13387883040825063        0.0000000000000000     
   4.8286080484546152E-003  0.10515133952712022        0.0000000000000000     
   4.9705035496318568E-003  0.11210271867285104        0.0000000000000000     
   5.1052300410820194E-003  0.11919767196391959        0.0000000000000000     
   5.2327875228051039E-003  0.12643619940032591        0.0000000000000000     
   5.3531759948011095E-003  0.13381830098206995        0.0000000000000000     
  -4.0393320573750384E-006  0.10512288545660378        0.0000000000000000     
  -4.9083760047647328E-006  0.11207341041015319        0.0000000000000000     
  -5.8834138292290609E-006  0.11916740891796826        0.0000000000000000     
  -6.9644455307696492E-006  0.12640488098004898        0.0000000000000000     
  -8.1514711093863892E-006  0.13378582659639537        0.0000000000000000     
   2.1637076933296345E-002  0.13408405438213014        0.0000000000000000     
   2.2113437770882372E-002  0.14157499550839306        0.0000000000000000     
   2.2558523381463011E-002  0.14916922021386339        0.0000000000000000     
   2.2972333765038263E-002  0.15686672849854119        0.0000000000000000     
   2.3354868921608131E-002  0.16466752036242638        0.0000000000000000     
   1.6175790197003978E-002  0.13396741487493732        0.0000000000000000     
   1.6533080900670419E-002  0.14146846172780933        0.0000000000000000     
   1.6878106603798935E-002  0.14907720803441948        0.0000000000000000     
   1.7210867306389533E-002  0.15679365379476776        0.0000000000000000     
   1.7531363008442206E-002  0.16461779900885418        0.0000000000000000     
   1.0747823217505566E-002  0.13387883040825063        0.0000000000000000     
   1.0985519810929156E-002  0.14138534313563367        0.0000000000000000     
   1.1221892839299960E-002  0.14900076085394109        0.0000000000000000     
   1.1456942302617975E-002  0.15672508356317288        0.0000000000000000     
   1.1690668200883202E-002  0.16455831126332920        0.0000000000000000     
   5.3531759948011095E-003  0.13381830098206995        0.0000000000000000     
   5.4707545016585866E-003  0.14132563973186602        0.0000000000000000     
   5.5898820879660806E-003  0.14893987867242825        0.0000000000000000     
   5.7105587537235932E-003  0.15666101780375674        0.0000000000000000     
   5.8327844989311244E-003  0.16448905712585143        0.0000000000000000     
  -8.1514711093863892E-006  0.13378582659639537        0.0000000000000000     
  -1.1215027141291134E-005  0.14128935151650640        0.0000000000000000     
  -1.7925650202700832E-005  0.14889456148988101        0.0000000000000000     
  -2.8283340293615132E-005  0.15660145651651919        0.0000000000000000     
  -4.2288097414031403E-005  0.16441003659642092        0.0000000000000000     
   0.0000000000000000        0.0000000000000000        0.0000000000000000     
  -1.4897192735500346E-008   1.0733999665180122E-003   0.0000000000000000     
  -4.5869332837978997E-008   2.5157058469801007E-003   0.0000000000000000     
  -9.2916420307300428E-008   4.3269176413862657E-003   0.0000000000000000     
  -1.5603845514376279E-007   6.5070353497365075E-003   0.0000000000000000     
   0.0000000000000000        0.0000000000000000        0.0000000000000000     
  -2.1298896364619176E-004   1.0756880997435782E-003   0.0000000000000000     
  -4.2701086653294492E-004   2.5208689458654366E-003   0.0000000000000000     
  -6.4206570866025953E-004   4.3355425383655756E-003   0.0000000000000000     
  -8.5815349002813543E-004   6.5197088772439953E-003   0.0000000000000000     
   0.0000000000000000        0.0000000000000000        0.0000000000000000     
  -4.2425969692614621E-004   1.0825529253875926E-003   0.0000000000000000     
  -8.5301664759920815E-004   2.5363377256075433E-003   0.0000000000000000     
  -1.2862708520191861E-003   4.3613544006598521E-003   0.0000000000000000     
  -1.7240223101860793E-003   6.5576029505445199E-003   0.0000000000000000     
   0.0000000000000000        0.0000000000000000        0.0000000000000000     
  -6.3382709703259875E-004   1.0939944434500556E-003   0.0000000000000000     
  -1.2780632125316278E-003   2.5621121862064210E-003   0.0000000000000000     
  -1.9327083464970867E-003   4.4043532282690961E-003   0.0000000000000000     
  -2.5977624989289758E-003   6.6207175696380814E-003   0.0000000000000000     
   0.0000000000000000        0.0000000000000000        0.0000000000000000     
  -8.4169116396554946E-004   1.1100126539309672E-003   0.0000000000000000     
  -1.7021505613302034E-003   2.5981923276620694E-003   0.0000000000000000     
  -2.5813781920939619E-003   4.4645390211933075E-003   0.0000000000000000     
  -3.4793740562568246E-003   6.7090527345246807E-003   0.0000000000000000     
  -1.5603845514376279E-007   6.5070353497365075E-003   0.0000000000000000     
  -2.2258401053522954E-007   9.0286850091592999E-003   0.0000000000000000     
  -2.7990165966945571E-007   1.1864492656783115E-002   0.0000000000000000     
  -3.2799140254654972E-007   1.5014458292607950E-002   0.0000000000000000     
  -3.6685323916672841E-007   1.8478581916633811E-002   0.0000000000000000     
  -8.5815349002813543E-004   6.5197088772439953E-003   0.0000000000000000     
  -1.0763893557259089E-003   9.0453561320144611E-003   0.0000000000000000     
  -1.2978884508429160E-003   1.1884472472190738E-002   0.0000000000000000     
  -1.5226507753791575E-003   1.5037057897772824E-002   0.0000000000000000     
  -1.7506763293346321E-003   1.8503112408760729E-002   0.0000000000000000     
  -1.7240223101860793E-003   6.5576029505445199E-003   0.0000000000000000     
  -2.1663921492538264E-003   9.0951958528939850E-003   0.0000000000000000     
  -2.6135014963763652E-003   1.1944245585340688E-002   0.0000000000000000     
  -3.0653503515536960E-003   1.5104752147884629E-002   0.0000000000000000     
  -3.5219387147858178E-003   1.8576715540525809E-002   0.0000000000000000     
  -2.5977624989289758E-003   6.6207175696380814E-003   0.0000000000000000     
  -3.2702309645942880E-003   9.1782041717978699E-003   0.0000000000000000     
  -3.9471190382600174E-003   1.2043811996232964E-002   0.0000000000000000     
  -4.6284267199261609E-003   1.5217541042943353E-002   0.0000000000000000     
  -5.3141540095927213E-003   1.8699391311929051E-002   0.0000000000000000     
  -3.4793740562568246E-003   6.7090527345246807E-003   0.0000000000000000     
  -4.3879058017472928E-003   9.2943810887261228E-003   0.0000000000000000     
  -5.2987410764938694E-003   1.2183171704867565E-002   0.0000000000000000     
  -6.2118798804965542E-003   1.5375424582949011E-002   0.0000000000000000     
  -7.1273222137553461E-003   1.8871139722970453E-002   0.0000000000000000     
  -3.6685323916672841E-007   1.8478581916633811E-002   0.0000000000000000     
  -4.5594289128903474E-007   2.2227681580371736E-002   0.0000000000000000     
  -6.5471608067370433E-007   2.6232575335332776E-002   0.0000000000000000     
  -9.6317280731913796E-007   3.0493263181516919E-002   0.0000000000000000     
  -1.3813130712270975E-006   3.5009745118924171E-002   0.0000000000000000     
  -1.7506763293346321E-003   1.8503112408760729E-002   0.0000000000000000     
  -1.9785198044020139E-003   2.2253717185171933E-002   0.0000000000000000     
  -2.2027358922739738E-003   2.6259953407023966E-002   0.0000000000000000     
  -2.4233245929505109E-003   3.0521821074316807E-002   0.0000000000000000     
  -2.6402859064316268E-003   3.5039320187050464E-002   0.0000000000000000     
  -3.5219387147858178E-003   1.8576715540525809E-002   0.0000000000000000     
  -3.9775387291910097E-003   2.2331866884912996E-002   0.0000000000000000     
  -4.4264225378875524E-003   2.6341937302694993E-002   0.0000000000000000     
  -4.8685901408754414E-003   3.0606926793871787E-002   0.0000000000000000     
  -5.3040415381546812E-003   3.5126835358443374E-002   0.0000000000000000     
  -5.3141540095927213E-003   1.8699391311929051E-002   0.0000000000000000     
  -5.9975127172582779E-003   2.2462130679594919E-002   0.0000000000000000     
  -6.6717146529214066E-003   2.6478527022345856E-002   0.0000000000000000     
  -7.3367598165821101E-003   3.0748580340181852E-002   0.0000000000000000     
  -7.9926482082403882E-003   3.5272290633102915E-002   0.0000000000000000     
  -7.1273222137553461E-003   1.8871139722970453E-002   0.0000000000000000     
  -8.0384417686038181E-003   2.2644508569217701E-002   0.0000000000000000     
  -8.9386122373755431E-003   2.6669722565976550E-002   0.0000000000000000     
  -9.8278336200705203E-003   3.0946781713247017E-002   0.0000000000000000     
  -1.0706105916688748E-002   3.5475686011029080E-002   0.0000000000000000     
  -1.3813130712270975E-006   3.5009745118924171E-002   0.0000000000000000     
  -1.8349363925891562E-006   3.9762354512477144E-002   0.0000000000000000     
  -2.2498422915967790E-006   4.4731424727098450E-002   0.0000000000000000     
  -2.6260307682511314E-006   4.9916955762788082E-002   0.0000000000000000     
  -2.9635018225515359E-006   5.5318947619546054E-002   0.0000000000000000     
  -2.6402859064316268E-003   3.5039320187050464E-002   0.0000000000000000     
  -2.8530984636215514E-003   3.9792474527893890E-002   0.0000000000000000     
  -3.0612408954245095E-003   4.4761307879516044E-002   0.0000000000000000     
  -3.2647132018405038E-003   4.9945820241916940E-002   0.0000000000000000     
  -3.4635153828695333E-003   5.5346011615096558E-002   0.0000000000000000     
  -5.3040415381546812E-003   3.5126835358443374E-002   0.0000000000000000     
  -5.7311800634880384E-003   3.9881433446704445E-002   0.0000000000000000     
  -6.1484090506382805E-003   4.4850491508949708E-002   0.0000000000000000     
  -6.5557284996054111E-003   5.0034009545179149E-002   0.0000000000000000     
  -6.9531384103894284E-003   5.5431987555392762E-002   0.0000000000000000     
  -7.9926482082403882E-003   3.5272290633102915E-002   0.0000000000000000     
  -8.6360797359920517E-003   4.0029231268908845E-002   0.0000000000000000     
  -9.2637543079329109E-003   4.4998975615399443E-002   0.0000000000000000     
  -9.8756719240629728E-003   5.0181523672574724E-002   0.0000000000000000     
  -1.0471832584382230E-002   5.5576875440434680E-002   0.0000000000000000     
  -1.0706105916688748E-002   3.5475686011029080E-002   0.0000000000000000     
  -1.1567797481133591E-002   4.0235867994507055E-002   0.0000000000000000     
  -1.2407276667308403E-002   4.5206760198865256E-002   0.0000000000000000     
  -1.3224543475213185E-002   5.0388362624103678E-002   0.0000000000000000     
  -1.4019597904847945E-002   5.5780675270222319E-002   0.0000000000000000     
  -2.9635018225515359E-006   5.5318947619546054E-002   0.0000000000000000     
  -3.2045848581249616E-006   6.0922452008102930E-002   0.0000000000000000     
  -3.2916092785963721E-006   6.6712520639189296E-002   0.0000000000000000     
  -3.2245750839665128E-006   7.2689153512805124E-002   0.0000000000000000     
  -3.0034822742345570E-006   7.8852350628950463E-002   0.0000000000000000     
  -3.4635153828695333E-003   5.5346011615096558E-002   0.0000000000000000     
  -3.6568521431125430E-003   6.0947561360775782E-002   0.0000000000000000     
  -3.8439281871704739E-003   6.6736148840675483E-002   0.0000000000000000     
  -4.0247435150433273E-003   7.2711774054795689E-002   0.0000000000000000     
  -4.1992981267311045E-003   7.8874437003136372E-002   0.0000000000000000     
  -6.9531384103894284E-003   5.5431987555392762E-002   0.0000000000000000     
  -7.3394632014075253E-003   6.1030785843834236E-002   0.0000000000000000     
  -7.7135272910769069E-003   6.6816764714747220E-002   0.0000000000000000     
  -8.0753306793975681E-003   7.2789924168131778E-002   0.0000000000000000     
  -8.4248733663695140E-003   7.8950264203987874E-002   0.0000000000000000     
  -1.0471832584382230E-002   5.5576875440434680E-002   0.0000000000000000     
  -1.1051037759743075E-002   6.1172125457278292E-002   0.0000000000000000     
  -1.1612088920997892E-002   6.6954368261404523E-002   0.0000000000000000     
  -1.2154986068146689E-002   7.2923603852813421E-002   0.0000000000000000     
  -1.2679729201189458E-002   7.9079832231504943E-002   0.0000000000000000     
  -1.4019597904847945E-002   5.5780675270222319E-002   0.0000000000000000     
  -1.4791575818119190E-002   6.1371580201107959E-002   0.0000000000000000     
  -1.5539613076933438E-002   6.7148959480647377E-002   0.0000000000000000     
  -1.6263709681290688E-002   7.3112813108840602E-002   0.0000000000000000     
  -1.6963865631190945E-002   7.9263141085687605E-002   0.0000000000000000     
  -3.0034822742345570E-006   7.8852350628950463E-002   0.0000000000000000     
  -2.8446312977192887E-006   8.5186618483736362E-002   0.0000000000000000     
  -2.9643226027378658E-006   9.1676463573273886E-002   0.0000000000000000     
  -3.3625561892887976E-006   9.8321885897563022E-002   0.0000000000000000     
  -4.0393320573750384E-006  0.10512288545660378        0.0000000000000000     
  -4.1992981267311045E-003   7.8874437003136372E-002   0.0000000000000000     
  -4.3676670745118849E-003   8.5208078603555393E-002   0.0000000000000000     
  -4.5299254106637493E-003   9.1696639773910640E-002   0.0000000000000000     
  -4.6860731351866984E-003   9.8340120514202087E-002   0.0000000000000000     
  -4.8361102480807307E-003  0.10513852082442975        0.0000000000000000     
  -8.4248733663695140E-003   7.8950264203987874E-002   0.0000000000000000     
  -8.7618405067863125E-003   8.5281436149351325E-002   0.0000000000000000     
  -9.0859172554415453E-003   9.1767091331258030E-002   0.0000000000000000     
  -9.3971036123352124E-003   9.8407229749707975E-002   0.0000000000000000     
  -9.6953995774673105E-003  0.10520185140470117        0.0000000000000000     
  -1.2679729201189458E-002   7.9079832231504943E-002   0.0000000000000000     
  -1.3185364928121005E-002   8.5406691121124131E-002   0.0000000000000000     
  -1.3670939856936130E-002   9.1887818245316041E-002   0.0000000000000000     
  -1.4136453987634834E-002   9.8523213604080701E-002   0.0000000000000000     
  -1.4581907320217115E-002  0.10531287719741808        0.0000000000000000     
  -1.6963865631190945E-002   7.9263141085687605E-002   0.0000000000000000     
  -1.7638240338515961E-002   8.5583843518873826E-002   0.0000000000000000     
  -1.8284993215147496E-002   9.2058820516084688E-002   0.0000000000000000     
  -1.8904124261085561E-002   9.8688072077320235E-002   0.0000000000000000     
  -1.9495633476330140E-002  0.10547159820258045        0.0000000000000000     
  -4.0393320573750384E-006  0.10512288545660378        0.0000000000000000     
  -4.9083760047647328E-006  0.11207341041015319        0.0000000000000000     
  -5.8834138292290609E-006  0.11916740891796826        0.0000000000000000     
  -6.9644455307696492E-006  0.12640488098004898        0.0000000000000000     
  -8.1514711093863892E-006  0.13378582659639537        0.0000000000000000     
  -4.8361102480807307E-003  0.10513852082442975        0.0000000000000000     
  -4.9796135039300539E-003  0.11208609965122103        0.0000000000000000     
  -5.1161596573188759E-003  0.11917711594120342        0.0000000000000000     
  -5.2457487082471959E-003  0.12641156969437689        0.0000000000000000     
  -5.3683806567150112E-003  0.13378946091074148        0.0000000000000000     
  -9.6953995774673105E-003  0.10520185140470117        0.0000000000000000     
  -9.9808084957206424E-003  0.11214546174589486        0.0000000000000000     
  -1.0253333711978011E-002  0.11923256622294637        0.0000000000000000     
  -1.0512975226239413E-002  0.12646316483585562        0.0000000000000000     
  -1.0759733038504851E-002  0.13383725758462270        0.0000000000000000     
  -1.4581907320217115E-002  0.10531287719741808        0.0000000000000000     
  -1.5008493351376532E-002  0.11225149669417468        0.0000000000000000     
  -1.5417405577806633E-002  0.11933375976319707        0.0000000000000000     
  -1.5808643999507425E-002  0.12655966640448521        0.0000000000000000     
  -1.6182208616478910E-002  0.13392921661803911        0.0000000000000000     
  -1.9495633476330140E-002  0.10547159820258045        0.0000000000000000     
  -2.0062668070897714E-002  0.11240420449606049        0.0000000000000000     
  -2.0608375254804745E-002  0.11948069656195558        0.0000000000000000     
  -2.1132755028051238E-002  0.12670107440026562        0.0000000000000000     
  -2.1635807390637179E-002  0.13406533801099071        0.0000000000000000     
  -8.1514711093863892E-006  0.13378582659639537        0.0000000000000000     
  -1.1215027141291134E-005  0.14128935151650640        0.0000000000000000     
  -1.7925650202700832E-005  0.14889456148988101        0.0000000000000000     
  -2.8283340293615132E-005  0.15660145651651919        0.0000000000000000     
  -4.2288097414031403E-005  0.16441003659642092        0.0000000000000000     
  -5.3683806567150112E-003  0.13378946091074148        0.0000000000000000     
  -5.4916183334400796E-003  0.14128736170166784        0.0000000000000000     
  -5.6230245691401585E-003  0.14888184417852665        0.0000000000000000     
  -5.7625993638152394E-003  0.15657290834131796        0.0000000000000000     
  -5.9103427174653327E-003  0.16436055419004172        0.0000000000000000     
  -1.0759733038504851E-002  0.13383725758462270        0.0000000000000000     
  -1.1001684975207381E-002  0.14133055349946314        0.0000000000000000     
  -1.1246908862780059E-002  0.14891876161059250        0.0000000000000000     
  -1.1495404701222881E-002  0.15660188191801078        0.0000000000000000     
  -1.1747172490535857E-002  0.16437991442171798        0.0000000000000000     
  -1.6182208616478910E-002  0.13392921661803911        0.0000000000000000     
  -1.6541414952443198E-002  0.14141892690989236        0.0000000000000000     
  -1.6889578531122409E-002  0.14900531378607854        0.0000000000000000     
  -1.7226699352516535E-002  0.15668837724659765        0.0000000000000000     
  -1.7552777416625594E-002  0.16446811729144967        0.0000000000000000     
  -2.1635807390637179E-002  0.13406533801099071        0.0000000000000000     
  -2.2110808265147525E-002  0.14155248193295553        0.0000000000000000     
  -2.2551033574167198E-002  0.14914150070498486        0.0000000000000000     
  -2.2956483317696202E-002  0.15683239432707860        0.0000000000000000     
  -2.3327157495734552E-002  0.16462516279923683        0.0000000000000000     
   0.0000000000000000        0.0000000000000000        0.0000000000000000     
  -8.4169116396554946E-004   1.1100126539309672E-003   0.0000000000000000     
  -1.7021505613302034E-003   2.5981923276620694E-003   0.0000000000000000     
  -2.5813781920939619E-003   4.4645390211933075E-003   0.0000000000000000     
  -3.4793740562568246E-003   6.7090527345246807E-003   0.0000000000000000     
   0.0000000000000000        0.0000000000000000        0.0000000000000000     
  -1.0567403574685483E-003   1.1341711699559710E-003   0.0000000000000000     
  -2.1398056507873648E-003   2.6504307884338686E-003   0.0000000000000000     
  -3.2491958799564496E-003   4.5487788554336942E-003   0.0000000000000000     
  -4.3849110449758026E-003   6.8292153709554465E-003   0.0000000000000000     
   0.0000000000000000        0.0000000000000000        0.0000000000000000     
  -1.2878631372851457E-003   1.1700336046507110E-003   0.0000000000000000     
  -2.6055554376955420E-003   2.7246802069811988E-003   0.0000000000000000     
  -3.9530769012311893E-003   4.6639398069914639E-003   0.0000000000000000     
  -5.3304275278920864E-003   6.9878124046815048E-003   0.0000000000000000     
   0.0000000000000000        0.0000000000000000        0.0000000000000000     
  -1.5350595034153410E-003   1.2175999580151876E-003   0.0000000000000000     
  -3.0993999220547339E-003   2.8209405833040592E-003   0.0000000000000000     
  -4.6930212559181802E-003   4.8100218758666182E-003   0.0000000000000000     
  -6.3159235050056790E-003   7.1848438357028591E-003   0.0000000000000000     
   0.0000000000000000        0.0000000000000000        0.0000000000000000     
  -1.7983294558591343E-003   1.2768702300493999E-003   0.0000000000000000     
  -3.6213391038649421E-003   2.9392119174024510E-003   0.0000000000000000     
  -5.4690289440174232E-003   4.9870250620591529E-003   0.0000000000000000     
  -7.3413989763165769E-003   7.4203096640195060E-003   0.0000000000000000     
  -3.4793740562568246E-003   6.7090527345246807E-003   0.0000000000000000     
  -4.3879058017472928E-003   9.2943810887261228E-003   0.0000000000000000     
  -5.2987410764938694E-003   1.2183171704867565E-002   0.0000000000000000     
  -6.2118798804965542E-003   1.5375424582949011E-002   0.0000000000000000     
  -7.1273222137553461E-003   1.8871139722970453E-002   0.0000000000000000     
  -4.3849110449758026E-003   6.8292153709554465E-003   0.0000000000000000     
  -5.5340300813718707E-003   9.4497196601414542E-003   0.0000000000000000     
  -6.6836319246711068E-003   1.2368271048134049E-002   0.0000000000000000     
  -7.8337165748735057E-003   1.5584869534933229E-002   0.0000000000000000     
  -8.9842840319790673E-003   1.9099515120538993E-002   0.0000000000000000     
  -5.3304275278920864E-003   6.9878124046815048E-003   0.0000000000000000     
  -6.7232172241270538E-003   9.6502129425065867E-003   0.0000000000000000     
  -8.1170558963849070E-003   1.2605056362921972E-002   0.0000000000000000     
  -9.5119435446656426E-003   1.5852342665927652E-002   0.0000000000000000     
  -1.0907880168969267E-002   1.9392071851523640E-002   0.0000000000000000     
  -6.3159235050056790E-003   7.1848438357028591E-003   0.0000000000000000     
  -7.9554672300128394E-003   9.8958609358215169E-003   0.0000000000000000     
  -9.5990129916352692E-003   1.2893527649231327E-002   0.0000000000000000     
  -1.1246560789872972E-002   1.6177843975932284E-002   0.0000000000000000     
  -1.2898110624725942E-002   1.9748809915924394E-002   0.0000000000000000     
  -7.3413989763165769E-003   7.4203096640195060E-003   0.0000000000000000     
  -9.2307800990292285E-003   1.0186663640086250E-002   0.0000000000000000     
  -1.1129503210422199E-002   1.3233684907062121E-002   0.0000000000000000     
  -1.3037568310495488E-002   1.6561373464947123E-002   0.0000000000000000     
  -1.4954975399249094E-002   2.0169729313741249E-002   0.0000000000000000     
  -7.1273222137553461E-003   1.8871139722970453E-002   0.0000000000000000     
  -8.0384417686038181E-003   2.2644508569217701E-002   0.0000000000000000     
  -8.9386122373755431E-003   2.6669722565976550E-002   0.0000000000000000     
  -9.8278336200705203E-003   3.0946781713247017E-002   0.0000000000000000     
  -1.0706105916688748E-002   3.5475686011029080E-002   0.0000000000000000     
  -8.9842840319790673E-003   1.9099515120538993E-002   0.0000000000000000     
  -1.0128118428183151E-002   2.2887437372558127E-002   0.0000000000000000     
  -1.1258003895681103E-002   2.6923865858597427E-002   0.0000000000000000     
  -1.2373940434472932E-002   3.1208800578656885E-002   0.0000000000000000     
  -1.3475928044558631E-002   3.5742241532736495E-002   0.0000000000000000     
  -1.0907880168969267E-002   1.9392071851523640E-002   0.0000000000000000     
  -1.2294335240951795E-002   2.3199353908393006E-002   0.0000000000000000     
  -1.3660778232269244E-002   2.7249298825218819E-002   0.0000000000000000     
  -1.5007209142921614E-002   3.1541906602001075E-002   0.0000000000000000     
  -1.6333627972908910E-002   3.6077177238739787E-002   0.0000000000000000     
  -1.2898110624725942E-002   1.9748809915924394E-002   0.0000000000000000     
  -1.4537092206909749E-002   2.3580258176722314E-002   0.0000000000000000     
  -1.6146935247139955E-002   2.7646021465840713E-002   0.0000000000000000     
  -1.7727639745416562E-002   3.1946099783279593E-002   0.0000000000000000     
  -1.9279205701739573E-002   3.6480493129038949E-002   0.0000000000000000     
  -1.4954975399249094E-002   2.0169729313741249E-002   0.0000000000000000     
  -1.6856389326057018E-002   2.4030150177546065E-002   0.0000000000000000     
  -1.8716474940293250E-002   2.8114033780463128E-002   0.0000000000000000     
  -2.0535232241957788E-002   3.2421380122492446E-002   0.0000000000000000     
  -2.2312661231050634E-002   3.6952189203633995E-002   0.0000000000000000     
  -1.0706105916688748E-002   3.5475686011029080E-002   0.0000000000000000     
  -1.1567797481133591E-002   4.0235867994507055E-002   0.0000000000000000     
  -1.2407276667308403E-002   4.5206760198865256E-002   0.0000000000000000     
  -1.3224543475213185E-002   5.0388362624103678E-002   0.0000000000000000     
  -1.4019597904847945E-002   5.5780675270222319E-002   0.0000000000000000     
  -1.3475928044558631E-002   3.5742241532736495E-002   0.0000000000000000     
  -1.4556526583684610E-002   4.0504283400539520E-002   0.0000000000000000     
  -1.5608295909597275E-002   4.5475020861769216E-002   0.0000000000000000     
  -1.6631236022296624E-002   5.0654453916425583E-002   0.0000000000000000     
  -1.7625346921782657E-002   5.6042582564508628E-002   0.0000000000000000     
  -1.6333627972908910E-002   3.6077177238739787E-002   0.0000000000000000     
  -1.7632460328417070E-002   4.0837417264046653E-002   0.0000000000000000     
  -1.8896131815632048E-002   4.5804933206533407E-002   0.0000000000000000     
  -2.0124642434553842E-002   5.0979725066200049E-002   0.0000000000000000     
  -2.1317992185182450E-002   5.6361792843046571E-002   0.0000000000000000     
  -1.9279205701739573E-002   3.6480493129038949E-002   0.0000000000000000     
  -2.0795598715330967E-002   4.1235269585028475E-002   0.0000000000000000     
  -2.2270784385412724E-002   4.6196497233157857E-002   0.0000000000000000     
  -2.3704762711984840E-002   5.1364176073427074E-002   0.0000000000000000     
  -2.5097533695047327E-002   5.6738306105836162E-002   0.0000000000000000     
  -2.2312661231050634E-002   3.6952189203633995E-002   0.0000000000000000     
  -2.4045941744426300E-002   4.1697840363484957E-002   0.0000000000000000     
  -2.5732253618939296E-002   4.6649712941642517E-002   0.0000000000000000     
  -2.7371596854589623E-002   5.1807806938106653E-002   0.0000000000000000     
  -2.8963971451377288E-002   5.7172122352877386E-002   0.0000000000000000     
  -1.4019597904847945E-002   5.5780675270222319E-002   0.0000000000000000     
  -1.4791575818119190E-002   6.1371580201107959E-002   0.0000000000000000     
  -1.5539613076933438E-002   6.7148959480647377E-002   0.0000000000000000     
  -1.6263709681290688E-002   7.3112813108840602E-002   0.0000000000000000     
  -1.6963865631190945E-002   7.9263141085687605E-002   0.0000000000000000     
  -1.7625346921782657E-002   5.6042582564508628E-002   0.0000000000000000     
  -1.8590160000398051E-002   6.1627907994416170E-002   0.0000000000000000     
  -1.9525206650485471E-002   6.7398931394546072E-002   0.0000000000000000     
  -2.0430486872044930E-002   7.3355652764898333E-002   0.0000000000000000     
  -2.1306000665076420E-002   7.9498072105472953E-002   0.0000000000000000     
  -2.1317992185182450E-002   5.6361792843046571E-002   0.0000000000000000     
  -2.2475872930441832E-002   6.1939866756295883E-002   0.0000000000000000     
  -2.3597976533255943E-002   6.7702677025170938E-002   0.0000000000000000     
  -2.4684302993624785E-002   7.3650223649671678E-002   0.0000000000000000     
  -2.5734852311548352E-002   7.9782506629798147E-002   0.0000000000000000     
  -2.5097533695047327E-002   5.6738306105836162E-002   0.0000000000000000     
  -2.6448714608250538E-002   6.2307456486747098E-002   0.0000000000000000     
  -2.7757922725244848E-002   6.8060196372521933E-002   0.0000000000000000     
  -2.9025158046030248E-002   7.3996525763160612E-002   0.0000000000000000     
  -3.0250420570606736E-002   8.0116444658663147E-002   0.0000000000000000     
  -2.8963971451377288E-002   5.7172122352877386E-002   0.0000000000000000     
  -3.0508685033824173E-002   6.2730677185769815E-002   0.0000000000000000     
  -3.2005045226452179E-002   6.8471489436599059E-002   0.0000000000000000     
  -3.3453052029261313E-002   7.4394559105365132E-002   0.0000000000000000     
  -3.4852705442251573E-002   8.0499886192068007E-002   0.0000000000000000     
  -1.6963865631190945E-002   7.9263141085687605E-002   0.0000000000000000     
  -1.7638240338515961E-002   8.5583843518873826E-002   0.0000000000000000     
  -1.8284993215147496E-002   9.2058820516084688E-002   0.0000000000000000     
  -1.8904124261085561E-002   9.8688072077320235E-002   0.0000000000000000     
  -1.9495633476330140E-002  0.10547159820258045        0.0000000000000000     
  -2.1306000665076420E-002   7.9498072105472953E-002   0.0000000000000000     
  -2.2149074765144407E-002   8.5810538911488543E-002   0.0000000000000000     
  -2.2957035907813353E-002   9.2277402678163714E-002   0.0000000000000000     
  -2.3729884093083256E-002   9.8898663405498480E-002   0.0000000000000000     
  -2.4467619320954120E-002  0.10567432109349283        0.0000000000000000     
  -2.5734852311548352E-002   7.9782506629798147E-002   0.0000000000000000     
  -2.6746476235179582E-002   8.6084422867856503E-002   0.0000000000000000     
  -2.7716026512671393E-002   9.2540869266152889E-002   0.0000000000000000     
  -2.8643503144023790E-002   9.9151845824687307E-002   0.0000000000000000     
  -2.9528906129236771E-002  0.10591735254345977        0.0000000000000000     
  -3.0250420570606736E-002   8.0116444658663147E-002   0.0000000000000000     
  -3.1430444748621472E-002   8.6405495387977663E-002   0.0000000000000000     
  -3.2561965029721612E-002   9.2849220280052186E-002   0.0000000000000000     
  -3.3644981413907156E-002   9.9447619334886703E-002   0.0000000000000000     
  -3.4679493901178103E-002  0.10620069255248123        0.0000000000000000     
  -3.4852705442251573E-002   8.0499886192068007E-002   0.0000000000000000     
  -3.6200980305470094E-002   8.6773756471852065E-002   0.0000000000000000     
  -3.7494851458964022E-002   9.3202455719861604E-002   0.0000000000000000     
  -3.8734318902733364E-002   9.9785983936096681E-002   0.0000000000000000     
  -3.9919382636778113E-002  0.10652434112055724        0.0000000000000000     
  -1.9495633476330140E-002  0.10547159820258045        0.0000000000000000     
  -2.0062668070897714E-002  0.11240420449606049        0.0000000000000000     
  -2.0608375254804745E-002  0.11948069656195558        0.0000000000000000     
  -2.1132755028051238E-002  0.12670107440026562        0.0000000000000000     
  -2.1635807390637179E-002  0.13406533801099071        0.0000000000000000     
  -2.4467619320954120E-002  0.10567432109349283        0.0000000000000000     
  -2.5175278757492495E-002  0.11259916105558357        0.0000000000000000     
  -2.5857899568764917E-002  0.11966796860520737        0.0000000000000000     
  -2.6515481754771392E-002  0.12688074374236433        0.0000000000000000     
  -2.7148025315511935E-002  0.13423748646705441        0.0000000000000000     
  -2.9528906129236771E-002  0.10591735254345977        0.0000000000000000     
  -3.0378271514369143E-002  0.11283194227677509        0.0000000000000000     
  -3.1197635345479712E-002  0.11989016787893809        0.0000000000000000     
  -3.1986997622568465E-002  0.12709202934994879        0.0000000000000000     
  -3.2746358345635412E-002  0.13443752668980713        0.0000000000000000     
  -3.4679493901178103E-002  0.10620069255248123        0.0000000000000000     
  -3.5671646341527675E-002  0.11310254815963514        0.0000000000000000     
  -3.6627582584949137E-002  0.12014729438314770        0.0000000000000000     
  -3.7547302631442452E-002  0.12733493122301889        0.0000000000000000     
  -3.8430806481007634E-002  0.13466545867924887        0.0000000000000000     
  -3.9919382636778113E-002  0.10652434112055724        0.0000000000000000     
  -4.1055403238968106E-002  0.11341097870416364        0.0000000000000000     
  -4.2147741287173177E-002  0.12043934811783616        0.0000000000000000     
  -4.3196396781393344E-002  0.12760944936157484        0.0000000000000000     
  -4.4201369721628588E-002  0.13492128243537962        0.0000000000000000     
  -2.1635807390637179E-002  0.13406533801099071        0.0000000000000000     
  -2.2110808265147525E-002  0.14155248193295553        0.0000000000000000     
  -2.2551033574167198E-002  0.14914150070498486        0.0000000000000000     
  -2.2956483317696202E-002  0.15683239432707860        0.0000000000000000     
  -2.3327157495734552E-002  0.16462516279923683        0.0000000000000000     
  -2.7148025315511935E-002  0.13423748646705441        0.0000000000000000     
  -2.7739148701325080E-002  0.14171978002166355        0.0000000000000000     
  -2.8272470362549394E-002  0.14930920764857775        0.0000000000000000     
  -2.8747990299184890E-002  0.15700576934779695        0.0000000000000000     
  -2.9165708511231549E-002  0.16480946511932115        0.0000000000000000     
  -3.2746358345635412E-002  0.13443752668980713        0.0000000000000000     
  -3.3455720048980564E-002  0.14190938262902733        0.0000000000000000     
  -3.4095085266903954E-002  0.14949031989812364        0.0000000000000000     
  -3.4664453999405570E-002  0.15718033849709606        0.0000000000000000     
  -3.5163826246485418E-002  0.16497943842594451        0.0000000000000000     
  -3.8430806481007634E-002  0.13466545867924887        0.0000000000000000     
  -3.9260522308114006E-002  0.14212128975504690        0.0000000000000000     
  -4.0018878287230879E-002  0.14968483745362260        0.0000000000000000     
  -4.0705874418358261E-002  0.15735610177497589        0.0000000000000000     
  -4.1321510701496138E-002  0.16513508271910679        0.0000000000000000     
  -4.4201369721628588E-002  0.13492128243537962        0.0000000000000000     
  -4.5153555478725377E-002  0.14235550139972228        0.0000000000000000     
  -4.6043849423530167E-002  0.14989276031507459        0.0000000000000000     
  -4.6872251556042945E-002  0.15753305918143651        0.0000000000000000     
  -4.7638761876263730E-002  0.16527639799880806        0.0000000000000000     
   0.0000000000000000        0.0000000000000000        0.0000000000000000     
  -1.7983294558591343E-003   1.2768702300493999E-003   0.0000000000000000     
  -3.6213391038649421E-003   2.9392119174024510E-003   0.0000000000000000     
  -5.4690289440174232E-003   4.9870250620591529E-003   0.0000000000000000     
  -7.3413989763165769E-003   7.4203096640195060E-003   0.0000000000000000     
   0.0000000000000000        0.0000000000000000        0.0000000000000000     
  -2.0694168145577109E-003   1.3549611639843361E-003   0.0000000000000000     
  -4.1640333174884957E-003   3.0940115271179749E-003   0.0000000000000000     
  -6.2838495087923565E-003   5.2171510894009170E-003   0.0000000000000000     
  -8.4288653884692921E-003   7.7243798508331617E-003   0.0000000000000000     
   0.0000000000000000        0.0000000000000000        0.0000000000000000     
  -2.3400653994522544E-003   1.4589895030509830E-003   0.0000000000000000     
  -4.7201428972877286E-003   3.2998567302922341E-003   0.0000000000000000     
  -7.1402324935064205E-003   5.5226016817237523E-003   0.0000000000000000     
  -9.6003341881083313E-003   8.1272243573455392E-003   0.0000000000000000     
   0.0000000000000000        0.0000000000000000        0.0000000000000000     
  -2.6102752105427660E-003   1.5889552472493414E-003   0.0000000000000000     
  -5.2896678432626364E-003   3.5567475269252281E-003   0.0000000000000000     
  -8.0381778981596114E-003   5.9033768390276600E-003   0.0000000000000000     
  -1.0855805375233693E-002   8.6288431835566375E-003   0.0000000000000000     
   0.0000000000000000        0.0000000000000000        0.0000000000000000     
  -2.8800462478292444E-003   1.7448583965794103E-003   0.0000000000000000     
  -5.8726081554132219E-003   3.8646839170169566E-003   0.0000000000000000     
  -8.9776857227519338E-003   6.3594765613126398E-003   0.0000000000000000     
  -1.2195278949845382E-002   9.2292363294664594E-003   0.0000000000000000     
  -7.3413989763165769E-003   7.4203096640195060E-003   0.0000000000000000     
  -9.2307800990292285E-003   1.0186663640086250E-002   0.0000000000000000     
  -1.1129503210422199E-002   1.3233684907062121E-002   0.0000000000000000     
  -1.3037568310495488E-002   1.6561373464947123E-002   0.0000000000000000     
  -1.4954975399249094E-002   2.0169729313741249E-002   0.0000000000000000     
  -8.4288653884692921E-003   7.7243798508331617E-003   0.0000000000000000     
  -1.0590718188033916E-002   1.0558272489936522E-002   0.0000000000000000     
  -1.2761045139000841E-002   1.3661403685232812E-002   0.0000000000000000     
  -1.4939846241370066E-002   1.7033773436722036E-002   0.0000000000000000     
  -1.7127121495141596E-002   2.0675381744404184E-002   0.0000000000000000     
  -9.6003341881083313E-003   8.1272243573455392E-003   0.0000000000000000     
  -1.2076843853884595E-002   1.1046338920008079E-002   0.0000000000000000     
  -1.4546157363626347E-002   1.4212559532561864E-002   0.0000000000000000     
  -1.7008274717333585E-002   1.7625886195006889E-002   0.0000000000000000     
  -1.9463195915006313E-002   2.1286318907343157E-002   0.0000000000000000     
  -1.0855805375233693E-002   8.6288431835566375E-003   0.0000000000000000     
  -1.3689157096581266E-002   1.1650862930300925E-002   0.0000000000000000     
  -1.6484839884298712E-002   1.4887152449049272E-002   0.0000000000000000     
  -1.9242853738386037E-002   1.8337711739801699E-002   0.0000000000000000     
  -2.1963198658843240E-002   2.2002540802558184E-002   0.0000000000000000     
  -1.2195278949845382E-002   9.2292363294664594E-003   0.0000000000000000     
  -1.5427657916123931E-002   1.2371844520815049E-002   0.0000000000000000     
  -1.8577092701017948E-002   1.5685182434695043E-002   0.0000000000000000     
  -2.1643583304527432E-002   1.9169250071106446E-002   0.0000000000000000     
  -2.4627129726652385E-002   2.2824047430049253E-002   0.0000000000000000     
  -1.4954975399249094E-002   2.0169729313741249E-002   0.0000000000000000     
  -1.6856389326057018E-002   2.4030150177546065E-002   0.0000000000000000     
  -1.8716474940293250E-002   2.8114033780463128E-002   0.0000000000000000     
  -2.0535232241957788E-002   3.2421380122492446E-002   0.0000000000000000     
  -2.2312661231050634E-002   3.6952189203633995E-002   0.0000000000000000     
  -1.7127121495141596E-002   2.0675381744404184E-002   0.0000000000000000     
  -1.9291781911877227E-002   2.4558585679654375E-002   0.0000000000000000     
  -2.1402738503138778E-002   2.8655742313847724E-002   0.0000000000000000     
  -2.3459991268926242E-002   3.2966851646984222E-002   0.0000000000000000     
  -2.5463540209239622E-002   3.7491913679063876E-002   0.0000000000000000     
  -1.9463195915006313E-002   2.1286318907343157E-002   0.0000000000000000     
  -2.1882825277854019E-002   2.5175120451837351E-002   0.0000000000000000     
  -2.4239067127086223E-002   2.9273553610756155E-002   0.0000000000000000     
  -2.6531921462702904E-002   3.3581618384099572E-002   0.0000000000000000     
  -2.8761388284704079E-002   3.8099314771867579E-002   0.0000000000000000     
  -2.1963198658843240E-002   2.2002540802558184E-002   0.0000000000000000     
  -2.4629519423987389E-002   2.5879754494095006E-002   0.0000000000000000     
  -2.7225460812135567E-002   2.9967467671188436E-002   0.0000000000000000     
  -2.9751022823287773E-002   3.4265680333838471E-002   0.0000000000000000     
  -3.2206205457444008E-002   3.8774392482045096E-002   0.0000000000000000     
  -2.4627129726652385E-002   2.2824047430049253E-002   0.0000000000000000     
  -2.7531864350277338E-002   2.6672487806427336E-002   0.0000000000000000     
  -3.0361919558286824E-002   3.0737484495144556E-002   0.0000000000000000     
  -3.3117295350680843E-002   3.5019037496200923E-002   0.0000000000000000     
  -3.5797991727459393E-002   3.9517146809596421E-002   0.0000000000000000     
  -2.2312661231050634E-002   3.6952189203633995E-002   0.0000000000000000     
  -2.4045941744426300E-002   4.1697840363484957E-002   0.0000000000000000     
  -2.5732253618939296E-002   4.6649712941642517E-002   0.0000000000000000     
  -2.7371596854589623E-002   5.1807806938106653E-002   0.0000000000000000     
  -2.8963971451377288E-002   5.7172122352877386E-002   0.0000000000000000     
  -2.5463540209239622E-002   3.7491913679063876E-002   0.0000000000000000     
  -2.7413792245797625E-002   4.2226789865833989E-002   0.0000000000000000     
  -2.9311154300318967E-002   4.7167341663041852E-002   0.0000000000000000     
  -3.1155626372803648E-002   5.2313569070687467E-002   0.0000000000000000     
  -3.2947208463251672E-002   5.7665472088770819E-002   0.0000000000000000     
  -2.8761388284704079E-002   3.8099314771867579E-002   0.0000000000000000     
  -3.0929453049539497E-002   4.2823778358493415E-002   0.0000000000000000     
  -3.3038101213658931E-002   4.7752144728410259E-002   0.0000000000000000     
  -3.5087332777062365E-002   5.2884413881618131E-002   0.0000000000000000     
  -3.7077147739749829E-002   5.8220585818117017E-002   0.0000000000000000     
  -3.2206205457444008E-002   3.8774392482045096E-002   0.0000000000000000     
  -3.4592924155651912E-002   4.3488805841463238E-002   0.0000000000000000     
  -3.6913094358959175E-002   4.8404122137747765E-002   0.0000000000000000     
  -3.9166716067365791E-002   5.3520341370898686E-002   0.0000000000000000     
  -4.1353789280871758E-002   5.8837463540915985E-002   0.0000000000000000     
  -3.5797991727459393E-002   3.9517146809596421E-002   0.0000000000000000     
  -3.8404205564134888E-002   4.4221872314743435E-002   0.0000000000000000     
  -4.0936133736219731E-002   4.9123273891054330E-002   0.0000000000000000     
  -4.3393776243713926E-002   5.4221351538529090E-002   0.0000000000000000     
  -4.5777133086617447E-002   5.9516105257167724E-002   0.0000000000000000     
  -2.8963971451377288E-002   5.7172122352877386E-002   0.0000000000000000     
  -3.0508685033824173E-002   6.2730677185769815E-002   0.0000000000000000     
  -3.2005045226452179E-002   6.8471489436599059E-002   0.0000000000000000     
  -3.3453052029261313E-002   7.4394559105365132E-002   0.0000000000000000     
  -3.4852705442251573E-002   8.0499886192068007E-002   0.0000000000000000     
  -3.2947208463251672E-002   5.7665472088770819E-002   0.0000000000000000     
  -3.4684977011420759E-002   6.3210803876563915E-002   0.0000000000000000     
  -3.6368008457068647E-002   6.8937317593338709E-002   0.0000000000000000     
  -3.7996302800195336E-002   7.4845013239095190E-002   0.0000000000000000     
  -3.9569860040800819E-002   8.0933890813833398E-002   0.0000000000000000     
  -3.7077147739749829E-002   5.8220585818117017E-002   0.0000000000000000     
  -3.9006783345298342E-002   6.3749111582329265E-002   0.0000000000000000     
  -4.0875476837284944E-002   6.9458442218677183E-002   0.0000000000000000     
  -4.2683228215709641E-002   7.5348577727160762E-002   0.0000000000000000     
  -4.4430037480572435E-002   8.1419518107780045E-002   0.0000000000000000     
  -4.1353789280871758E-002   5.8837463540915985E-002   0.0000000000000000     
  -4.3474104035456894E-002   6.4345600303065867E-002   0.0000000000000000     
  -4.5527450367101055E-002   7.0034863312614493E-002   0.0000000000000000     
  -4.7513828275804235E-002   7.5905252569561849E-002   0.0000000000000000     
  -4.9433237761566426E-002   8.1956768073907976E-002   0.0000000000000000     
  -4.5777133086617447E-002   5.9516105257167724E-002   0.0000000000000000     
  -4.8086939081896443E-002   6.5000270038773747E-002   0.0000000000000000     
  -5.0323929046517002E-002   7.0666580875150667E-002   0.0000000000000000     
  -5.2488102980479109E-002   7.6515037766298449E-002   0.0000000000000000     
  -5.4579460883782779E-002   8.2545640712217136E-002   0.0000000000000000     
  -3.4852705442251573E-002   8.0499886192068007E-002   0.0000000000000000     
  -3.6200980305470094E-002   8.6773756471852065E-002   0.0000000000000000     
  -3.7494851458964022E-002   9.3202455719861604E-002   0.0000000000000000     
  -3.8734318902733364E-002   9.9785983936096681E-002   0.0000000000000000     
  -3.9919382636778113E-002  0.10652434112055724        0.0000000000000000     
  -3.9569860040800819E-002   8.0933890813833398E-002   0.0000000000000000     
  -4.1085971959567862E-002   8.7190846665066685E-002   0.0000000000000000     
  -4.2541930337179221E-002   9.3602777140308444E-002   0.0000000000000000     
  -4.3937735173634911E-002  0.10016968223955869        0.0000000000000000     
  -4.5273386468934911E-002  0.10689156196281741        0.0000000000000000     
  -4.4430037480572435E-002   8.1419518107780045E-002   0.0000000000000000     
  -4.6113308764757208E-002   8.7658406513208581E-002   0.0000000000000000     
  -4.7730446201147830E-002   9.4052386096119975E-002   0.0000000000000000     
  -4.9281449789744282E-002  0.10060145685651421        0.0000000000000000     
  -5.0766319530546611E-002  0.10730561879439129        0.0000000000000000     
  -4.9433237761566426E-002   8.1956768073907976E-002   0.0000000000000000     
  -5.1282990721038112E-002   8.8176436016277754E-002   0.0000000000000000     
  -5.3060399050869816E-002   9.4551282587296184E-002   0.0000000000000000     
  -5.4765462751061519E-002  0.10108130778696325        0.0000000000000000     
  -5.6398181821613221E-002  0.10776651161527892        0.0000000000000000     
  -5.4579460883782779E-002   8.2545640712217136E-002   0.0000000000000000     
  -5.6595017828410615E-002   8.8744935174274175E-002   0.0000000000000000     
  -5.8531788886345214E-002   9.5099466613837072E-002   0.0000000000000000     
  -6.0389774057586595E-002  0.10160923503090577        0.0000000000000000     
  -6.2168973342134747E-002  0.10827424042548030        0.0000000000000000     
  -3.9919382636778113E-002  0.10652434112055724        0.0000000000000000     
  -4.1055403238968106E-002  0.11341097870416364        0.0000000000000000     
  -4.2147741287173177E-002  0.12043934811783616        0.0000000000000000     
  -4.3196396781393344E-002  0.12760944936157484        0.0000000000000000     
  -4.4201369721628588E-002  0.13492128243537962        0.0000000000000000     
  -4.5273386468934911E-002  0.10689156196281741        0.0000000000000000     
  -4.6553593436290341E-002  0.11376112931506900        0.0000000000000000     
  -4.7783065288912310E-002  0.12077109730129787        0.0000000000000000     
  -4.8961802026800845E-002  0.12792146592150408        0.0000000000000000     
  -5.0089803649955897E-002  0.13521223517568756        0.0000000000000000     
  -5.0766319530546611E-002  0.10730561879439129        0.0000000000000000     
  -5.2190268163094342E-002  0.11415689539705950        0.0000000000000000     
  -5.3558508426926991E-002  0.12114731015182718        0.0000000000000000     
  -5.4871040322044602E-002  0.12827686305869432        0.0000000000000000     
  -5.6127863848447146E-002  0.13554555411766084        0.0000000000000000     
  -5.6398181821613221E-002  0.10776651161527892        0.0000000000000000     
  -5.7965427419380072E-002  0.11459827695013522        0.0000000000000000     
  -5.9474070701217206E-002  0.12156798666942409        0.0000000000000000     
  -6.0924111667124643E-002  0.12867564077314550        0.0000000000000000     
  -6.2315550317102356E-002  0.13592123926129951        0.0000000000000000     
  -6.2168973342134747E-002  0.10827424042548030        0.0000000000000000     
  -6.3879071205147561E-002  0.11508527397429609        0.0000000000000000     
  -6.5529752111782968E-002  0.12203312685408856        0.0000000000000000     
  -6.7121016062040961E-002  0.12911779906485771        0.0000000000000000     
  -6.8652863055921526E-002  0.13633929060660352        0.0000000000000000     
  -4.4201369721628588E-002  0.13492128243537962        0.0000000000000000     
  -4.5153555478725377E-002  0.14235550139972228        0.0000000000000000     
  -4.6043849423530167E-002  0.14989276031507459        0.0000000000000000     
  -4.6872251556042945E-002  0.15753305918143651        0.0000000000000000     
  -4.7638761876263730E-002  0.16527639799880806        0.0000000000000000     
  -5.0089803649955897E-002  0.13521223517568756        0.0000000000000000     
  -5.1166091093742268E-002  0.14262243143379380        0.0000000000000000     
  -5.2189685293524718E-002  0.15013108106576817        0.0000000000000000     
  -5.3160586249303261E-002  0.15773818407161078        0.0000000000000000     
  -5.4078793961077877E-002  0.16544374045132154        0.0000000000000000     
  -5.6127863848447146E-002  0.13554555411766084        0.0000000000000000     
  -5.7329400686092234E-002  0.14293249372800176        0.0000000000000000     
  -5.8476072514937451E-002  0.15041679228899202        0.0000000000000000     
  -5.9567879334982789E-002  0.15799844980063152        0.0000000000000000     
  -6.0604821146228255E-002  0.16567746626292035        0.0000000000000000     
  -6.2315550317102356E-002  0.13592123926129951        0.0000000000000000     
  -6.3643484255775276E-002  0.14328568828234628        0.0000000000000000     
  -6.4903011087768359E-002  0.15074989398474609        0.0000000000000000     
  -6.6094130813081534E-002  0.15831385636849882        0.0000000000000000     
  -6.7216843431714884E-002  0.16597757543360456        0.0000000000000000     
  -6.8652863055921526E-002  0.13633929060660352        0.0000000000000000     
  -7.0108341802791435E-002  0.14368201509682732        0.0000000000000000     
  -7.1470501012017434E-002  0.15113038615303032        0.0000000000000000     
  -7.2739340683599538E-002  0.15868440377521262        0.0000000000000000     
  -7.3914860817537731E-002  0.16634406796337414        0.0000000000000000     
   0.0000000000000000        0.0000000000000000        0.0000000000000000     
  -2.8800462478292444E-003   1.7448583965794103E-003   0.0000000000000000     
  -5.8726081554132219E-003   3.8646839170169566E-003   0.0000000000000000     
  -8.9776857227519338E-003   6.3594765613126398E-003   0.0000000000000000     
  -1.2195278949845382E-002   9.2292363294664594E-003   0.0000000000000000     
   0.0000000000000000        0.0000000000000000        0.0000000000000000     
  -3.2832026924507172E-003   1.9993509883682787E-003   0.0000000000000000     
  -6.6769291039169096E-003   4.3309667196248236E-003   0.0000000000000000     
  -1.0181179234398577E-002   6.9948471937696351E-003   0.0000000000000000     
  -1.3795953083895720E-002   9.9909924108027119E-003   0.0000000000000000     
   0.0000000000000000        0.0000000000000000        0.0000000000000000     
  -3.9535687255462110E-003   2.4250850599430349E-003   0.0000000000000000     
  -7.9105959589511211E-003   5.0628967538062317E-003   0.0000000000000000     
  -1.1871081700214732E-002   7.9134350815895909E-003   0.0000000000000000     
  -1.5835025949337042E-002   1.0976700043293109E-002   0.0000000000000000     
   0.0000000000000000        0.0000000000000000        0.0000000000000000     
  -4.8911443471157268E-003   3.0220606113036796E-003   0.0000000000000000     
  -9.5736087205158561E-003   6.0604740195611805E-003   0.0000000000000000     
  -1.4047393120200397E-002   9.1152402247725046E-003   0.0000000000000000     
  -1.8312497546169336E-002   1.2186359226937652E-002   0.0000000000000000     
   0.0000000000000000        0.0000000000000000        0.0000000000000000     
  -6.0959295571592622E-003   3.7902776424502114E-003   0.0000000000000000     
  -1.1665967388611118E-002   7.3236985168896717E-003   0.0000000000000000     
  -1.6710113494355569E-002   1.0600262623318382E-002   0.0000000000000000     
  -2.1228367874392612E-002   1.3619969961736339E-002   0.0000000000000000     
  -1.2195278949845382E-002   9.2292363294664594E-003   0.0000000000000000     
  -1.5427657916123931E-002   1.2371844520815049E-002   0.0000000000000000     
  -1.8577092701017948E-002   1.5685182434695043E-002   0.0000000000000000     
  -2.1643583304527432E-002   1.9169250071106446E-002   0.0000000000000000     
  -2.4627129726652385E-002   2.2824047430049253E-002   0.0000000000000000     
  -1.3795953083895720E-002   9.9909924108027119E-003   0.0000000000000000     
  -1.7404219109571767E-002   1.3221336227730949E-002   0.0000000000000000     
  -2.0888945768590138E-002   1.6587812501561244E-002   0.0000000000000000     
  -2.4250133060950842E-002   2.0090421232293595E-002   0.0000000000000000     
  -2.7487780986653880E-002   2.3729162419928004E-002   0.0000000000000000     
  -1.5835025949337042E-002   1.0976700043293109E-002   0.0000000000000000     
  -1.9730713473983960E-002   1.4211390587229119E-002   0.0000000000000000     
  -2.3486429041821397E-002   1.7576205661709948E-002   0.0000000000000000     
  -2.7102172652849362E-002   2.1071145266735598E-002   0.0000000000000000     
  -3.0577944307067843E-002   2.4696209402306071E-002   0.0000000000000000     
  -1.8312497546169336E-002   1.2186359226937652E-002   0.0000000000000000     
  -2.2407141009360504E-002   1.5342007599309558E-002   0.0000000000000000     
  -2.6369542520711716E-002   1.8650361915141158E-002   0.0000000000000000     
  -3.0199702080222976E-002   2.2111422174432460E-002   0.0000000000000000     
  -3.3897619687894287E-002   2.5725188377183451E-002   0.0000000000000000     
  -2.1228367874392612E-002   1.3619969961736339E-002   0.0000000000000000     
  -2.5433501715701405E-002   1.6613187263972266E-002   0.0000000000000000     
  -2.9538286205261100E-002   1.9810281261854877E-002   0.0000000000000000     
  -3.3542721343071701E-002   2.3211251955384177E-002   0.0000000000000000     
  -3.7446807129133196E-002   2.6816099344560161E-002   0.0000000000000000     
  -2.4627129726652385E-002   2.2824047430049253E-002   0.0000000000000000     
  -2.7531864350277338E-002   2.6672487806427336E-002   0.0000000000000000     
  -3.0361919558286824E-002   3.0737484495144556E-002   0.0000000000000000     
  -3.3117295350680843E-002   3.5019037496200923E-002   0.0000000000000000     
  -3.5797991727459393E-002   3.9517146809596421E-002   0.0000000000000000     
  -2.7487780986653880E-002   2.3729162419928004E-002   0.0000000000000000     
  -3.0624703891981717E-002   2.7546836197087948E-002   0.0000000000000000     
  -3.3683716123216842E-002   3.1586242696396934E-002   0.0000000000000000     
  -3.6664817680359250E-002   3.5847381917854956E-002   0.0000000000000000     
  -3.9568008563408946E-002   4.0330253861462002E-002   0.0000000000000000     
  -3.0577944307067843E-002   2.4696209402306071E-002   0.0000000000000000     
  -3.3942881884358365E-002   2.8496315474330493E-002   0.0000000000000000     
  -3.7226123264602458E-002   3.2516380888717999E-002   0.0000000000000000     
  -4.0427668447800123E-002   3.6756405645468601E-002   0.0000000000000000     
  -4.3547517433951341E-002   4.1216389744582291E-002   0.0000000000000000     
  -3.3897619687894287E-002   2.5725188377183451E-002   0.0000000000000000     
  -3.7486398327407300E-002   2.9520925638154952E-002   0.0000000000000000     
  -4.0989140982443682E-002   3.3527899072107750E-002   0.0000000000000000     
  -4.4405847653003441E-002   3.7746108679041851E-002   0.0000000000000000     
  -4.7736518339086577E-002   4.2175554458957279E-002   0.0000000000000000     
  -3.7446807129133196E-002   2.6816099344560161E-002   0.0000000000000000     
  -4.1255253221128496E-002   3.0620666688561331E-002   0.0000000000000000     
  -4.4972769276740522E-002   3.4620797246566186E-002   0.0000000000000000     
  -4.8599355295969239E-002   3.8816491018574720E-002   0.0000000000000000     
  -5.2135011278814668E-002   4.3207748004586946E-002   0.0000000000000000     
  -3.5797991727459393E-002   3.9517146809596421E-002   0.0000000000000000     
  -3.8404205564134888E-002   4.4221872314743435E-002   0.0000000000000000     
  -4.0936133736219731E-002   4.9123273891054330E-002   0.0000000000000000     
  -4.3393776243713926E-002   5.4221351538529090E-002   0.0000000000000000     
  -4.5777133086617447E-002   5.9516105257167724E-002   0.0000000000000000     
  -3.9568008563408946E-002   4.0330253861462002E-002   0.0000000000000000     
  -4.2391320650023816E-002   4.5020708669917517E-002   0.0000000000000000     
  -4.5132785817861752E-002   4.9904596485920889E-002   0.0000000000000000     
  -4.7792404066922742E-002   5.4981917309472148E-002   0.0000000000000000     
  -5.0370175397206805E-002   6.0252671140571250E-002   0.0000000000000000     
  -4.3547517433951341E-002   4.1216389744582291E-002   0.0000000000000000     
  -4.6582292788354109E-002   4.5883045798568924E-002   0.0000000000000000     
  -4.9528617076306437E-002   5.0743086419938348E-002   0.0000000000000000     
  -5.2386490297808286E-002   5.5796511608690570E-002   0.0000000000000000     
  -5.5155912452859703E-002   6.1043321364825584E-002   0.0000000000000000     
  -4.7736518339086577E-002   4.2175554458957279E-002   0.0000000000000000     
  -5.0977121979125788E-002   4.6808883700697662E-002   0.0000000000000000     
  -5.4123627511553786E-002   5.1638743693106698E-002   0.0000000000000000     
  -5.7176034936370572E-002   5.6665134436184386E-002   0.0000000000000000     
  -6.0134344253576118E-002   6.1888055929930720E-002   0.0000000000000000     
  -5.2135011278814668E-002   4.3207748004586946E-002   0.0000000000000000     
  -5.5575808222338839E-002   4.7798222376303726E-002   0.0000000000000000     
  -5.8917817123603805E-002   5.2591568305425947E-002   0.0000000000000000     
  -6.2161037982609552E-002   5.7587785791953588E-002   0.0000000000000000     
  -6.5305470799356086E-002   6.2786874835886672E-002   0.0000000000000000     
  -4.5777133086617447E-002   5.9516105257167724E-002   0.0000000000000000     
  -4.8086939081896443E-002   6.5000270038773747E-002   0.0000000000000000     
  -5.0323929046517002E-002   7.0666580875150667E-002   0.0000000000000000     
  -5.2488102980479109E-002   7.6515037766298449E-002   0.0000000000000000     
  -5.4579460883782779E-002   8.2545640712217136E-002   0.0000000000000000     
  -5.0370175397206805E-002   6.0252671140571250E-002   0.0000000000000000     
  -5.2867971518973475E-002   6.5711601504631581E-002   0.0000000000000000     
  -5.5287664142482283E-002   7.1353451927066464E-002   0.0000000000000000     
  -5.7629253267733216E-002   7.7178222407875904E-002   0.0000000000000000     
  -5.9892738894726301E-002   8.3185912947059890E-002   0.0000000000000000     
  -5.5155912452859703E-002   6.1043321364825584E-002   0.0000000000000000     
  -5.7839884381044454E-002   6.6478075415818072E-002   0.0000000000000000     
  -6.0441406921946390E-002   7.2095333489142738E-002   0.0000000000000000     
  -6.2960480075565511E-002   7.7895095584799581E-002   0.0000000000000000     
  -6.5397103841901796E-002   8.3877361702788547E-002   0.0000000000000000     
  -6.0134344253576118E-002   6.1888055929930720E-002   0.0000000000000000     
  -6.3002677668109408E-002   6.7299691772333248E-002   0.0000000000000000     
  -6.5785157384909351E-002   7.2892225561379489E-002   0.0000000000000000     
  -6.8481783403975968E-002   7.8665657297069438E-002   0.0000000000000000     
  -7.1092555725309245E-002   8.4619986979403122E-002   0.0000000000000000     
  -6.5305470799356086E-002   6.2786874835886672E-002   0.0000000000000000     
  -6.8356351380168323E-002   6.8176450574177080E-002   0.0000000000000000     
  -7.1318915531371166E-002   7.3744128143776677E-002   0.0000000000000000     
  -7.4193163252964628E-002   7.9489907544685517E-002   0.0000000000000000     
  -7.6979094544948681E-002   8.5413788776903560E-002   0.0000000000000000     
  -5.4579460883782779E-002   8.2545640712217136E-002   0.0000000000000000     
  -5.6595017828410615E-002   8.8744935174274175E-002   0.0000000000000000     
  -5.8531788886345214E-002   9.5099466613837072E-002   0.0000000000000000     
  -6.0389774057586595E-002  0.10160923503090577        0.0000000000000000     
  -6.2168973342134747E-002  0.10827424042548030        0.0000000000000000     
  -5.9892738894726301E-002   8.3185912947059890E-002   0.0000000000000000     
  -6.2074528956827066E-002   8.9362835228995449E-002   0.0000000000000000     
  -6.4171031387401045E-002   9.5695300938059558E-002   0.0000000000000000     
  -6.6182246186448232E-002  0.10218331007425219        0.0000000000000000     
  -6.8108173353968654E-002  0.10882686263757342        0.0000000000000000     
  -6.5397103841901796E-002   8.3877361702788547E-002   0.0000000000000000     
  -6.7746662976239866E-002   9.0029067422239095E-002   0.0000000000000000     
  -7.0004542233864320E-002   9.6337148322280547E-002   0.0000000000000000     
  -7.2170741614775213E-002  0.10280160440291293        0.0000000000000000     
  -7.4245261118972450E-002  0.10942243566413623        0.0000000000000000     
  -7.1092555725309245E-002   8.4619986979403122E-002   0.0000000000000000     
  -7.3611419886649029E-002   9.0743631754005113E-002   0.0000000000000000     
  -7.6032321425735114E-002   9.7025008766500054E-002   0.0000000000000000     
  -7.8355260342567470E-002  0.10346411801688794        0.0000000000000000     
  -8.0580236637146169E-002  0.11006095950516880        0.0000000000000000     
  -7.6979094544948681E-002   8.5413788776903560E-002   0.0000000000000000     
  -7.9668799688054515E-002   9.1506528224293504E-002   0.0000000000000000     
  -8.2254368963013316E-002   9.7758882270718078E-002   0.0000000000000000     
  -8.4735802369825045E-002  0.10417085091617724        0.0000000000000000     
  -8.7113099908489727E-002  0.11074243416067106        0.0000000000000000     
  -6.2168973342134747E-002  0.10827424042548030        0.0000000000000000     
  -6.3879071205147561E-002  0.11508527397429609        0.0000000000000000     
  -6.5529752111782968E-002  0.12203312685408856        0.0000000000000000     
  -6.7121016062040961E-002  0.12911779906485771        0.0000000000000000     
  -6.8652863055921526E-002  0.13633929060660352        0.0000000000000000     
  -6.8108173353968654E-002  0.10882686263757342        0.0000000000000000     
  -6.9960779466000239E-002  0.11561603919778110        0.0000000000000000     
  -7.1752031098580957E-002  0.12254092032463308        0.0000000000000000     
  -7.3481928251710807E-002  0.12960150601812942        0.0000000000000000     
  -7.5150470925389762E-002  0.13679779627827016        0.0000000000000000     
  -7.4245261118972450E-002  0.10942243566413623        0.0000000000000000     
  -7.6240132147541537E-002  0.11618872534882911        0.0000000000000000     
  -7.8167386101567871E-002  0.12308955669987011        0.0000000000000000     
  -8.0027022981051410E-002  0.13012492971725928        0.0000000000000000     
  -8.1819042785992224E-002  0.13729484440099660        0.0000000000000000     
  -8.0580236637146169E-002  0.11006095950516880        0.0000000000000000     
  -8.2717129249771454E-002  0.11680333242744016        0.0000000000000000     
  -8.4775817120743668E-002  0.12367903597979965        0.0000000000000000     
  -8.6756300250062812E-002  0.13068807016224726        0.0000000000000000     
  -8.8658578637728871E-002  0.13783043497478298        0.0000000000000000     
  -8.7113099908489727E-002  0.11074243416067106        0.0000000000000000     
  -8.9391770772689977E-002  0.11745986043361427        0.0000000000000000     
  -9.1577324156108392E-002  0.12430935816442168        0.0000000000000000     
  -9.3669760058744972E-002  0.13129092735309333        0.0000000000000000     
  -9.5669078480599745E-002  0.13840456799962919        0.0000000000000000     
  -6.8652863055921526E-002  0.13633929060660352        0.0000000000000000     
  -7.0108341802791435E-002  0.14368201509682732        0.0000000000000000     
  -7.1470501012017434E-002  0.15113038615303032        0.0000000000000000     
  -7.2739340683599538E-002  0.15868440377521262        0.0000000000000000     
  -7.3914860817537731E-002  0.16634406796337414        0.0000000000000000     
  -7.5150470925389762E-002  0.13679779627827016        0.0000000000000000     
  -7.6731332789061371E-002  0.14411752274817347        0.0000000000000000     
  -7.8198187512169115E-002  0.15154841707095770        0.0000000000000000     
  -7.9551035094712952E-002  0.15909047924662281        0.0000000000000000     
  -8.0789875536692937E-002  0.16674370927516885        0.0000000000000000     
  -8.1819042785992224E-002  0.13729484440099660        0.0000000000000000     
  -8.3519816676505834E-002  0.14458825981311343        0.0000000000000000     
  -8.5105715812707747E-002  0.15199413501564102        0.0000000000000000     
  -8.6576740194598004E-002  0.15951247000857932        0.0000000000000000     
  -8.7932889822176577E-002  0.16714326479192845        0.0000000000000000     
  -8.8658578637728871E-002  0.13783043497478298        0.0000000000000000     
  -9.0473793465124755E-002  0.14509422629164720        0.0000000000000000     
  -9.2193085913633371E-002  0.15246753998708024        0.0000000000000000     
  -9.3816455983254651E-002  0.15995037606108214        0.0000000000000000     
  -9.5343903673988664E-002  0.16754273451365298        0.0000000000000000     
  -9.5669078480599745E-002  0.13840456799962919        0.0000000000000000     
  -9.7593263154918231E-002  0.14563542218377473        0.0000000000000000     
  -9.9460297814945947E-002  0.15296863198527544        0.0000000000000000     
 -0.10127018246068294       0.16040419740413131        0.0000000000000000     
 -0.10302291709212920       0.16794211844034235        0.0000000000000000     
 </DataArray>
 <DataArray  type="Float64" Name="stress" NumberOfComponents="3" format="ascii">
   13416649583.328291        4024994874.9984875        2893813967.1019931     
   11766592654.001438        1890622157.8785639        1715754425.7894511     
   10313776680.034336        413719291.95781231        810771399.64873469     
   9058201661.4269848       -405713722.76376438        178864888.67984387     
   7999867598.1793900       -567676886.28616667       -179965107.11722073     
   10539938894.133373        3161981668.2400122        2225645527.1170778     
   9667621720.4076481        1589706459.9479504        1446669830.5254073     
   8943914268.3059120        512796990.40253305        863164159.49480903     
   8368816537.8281698       -68746740.396239281        475128514.02528286     
   7942328528.9744225       -154924732.44836569        282562894.11682767     
   8337916380.0405426        2501374914.0121627        1712297453.7911723     
   8021606134.4566450        1424677366.3101745        1275669162.5619881     
   7805274376.7609806        681241444.90230179        956904407.28312290     
   7688921106.9535503        271067149.78854513        756003187.95457530     
   7672546325.0343542        194154480.96890545        672965504.57634532     
   6810582041.0497990        2043174612.3149397        1353769747.1242762     
   6828545896.1484318        1395534876.9652348        1202752421.8991940     
   6897857005.3995399        919052655.45711732        1091992143.0136759     
   7018515368.8031263        613727947.79058862        1021488910.4677221     
   7190520986.3591862        479560753.96564627        991242724.26133275     
   5957935877.1611423        1787380763.1483428        1150062407.1163898     
   6088441005.4830103        1502278991.9131329        1227919608.5370243     
   6221662154.2215958        1226230622.0669820        1268427366.6864691     
   6357599323.3768988        959235653.60989046        1271585681.5647242     
   6496252512.9489193        701294086.54185772        1237394553.1717892     
   7999867598.1793900       -567676886.28616667       -179965107.11722073     
   7917447885.7682905       -200520476.91310358       -78306585.765326515     
   7793619262.5982189        28606229.930056095       -9193028.9677602109     
   7628381728.6691761        119703234.24331474        27375563.275479220     
   7421735283.9811649        72770536.026667118        31399190.964391213     
   7942328528.9744225       -154924732.44836569        282562894.11682767     
   7739679107.4410648        16069638.209193230        281113884.10619986     
   7513708394.9520016        109326372.34773970        264993609.79789075     
   7264416391.5072336        124845469.96726561        234202071.19190389     
   6991803097.1067581        62626931.067778111        188739268.28823912     
   7672546325.0343542        194154480.96890545        672965504.57634532     
   7400734909.3977337        184307127.41666126        589511186.30700397     
   7123689822.6086693        157014203.35628653        509259303.99663311     
   6841411064.6671686        112275708.78778291        432209857.64522767     
   6553898635.5732317        50091643.711152315        358362847.25279480     
   7190520986.3591862        479560753.96564627        991242724.26133275     
   6900615291.6382923        304191990.70929432        846885320.83708906     
   6623563545.5682249        171669722.95570135        723604053.62846386     
   6359365748.1489849        81993950.704864502        621398922.63545465     
   6108021899.3805714        35164673.956785440        540269927.85806131     
   6496252512.9489193        701294086.54185772        1237394553.1717892     
   6239320254.1627464        375724228.08709693        1053236287.6964549     
   6013329563.8306675        153292931.14598155        908027858.69338632     
   5818280441.9526806        34000195.718508959        801769266.16258156     
   5654172888.5287876        17846021.804682493        734460510.10404038     
   7421735283.9811649        72770536.026667118        31399190.964391213     
   7219781672.6225195       -17324503.742470264        15109032.744572980     
   7029850032.5384731       -67346305.929597855        2840159.8415628495     
   6851940363.7290239       -77294870.534734726       -5407427.7446330972     
   6686052666.1941805       -47170197.557860374       -9633730.0140145402     
   6991803097.1067581        62626931.067778111        188739268.28823912     
   6808976624.7747955        3581106.6935229301        180888678.63200912     
   6633803312.3466740       -29954184.667916298        176564783.97297782     
   6466283159.8224058       -37978943.016523838        175767584.31114811     
   6306416167.2019768       -20493168.352320671        178497079.64651898     
   6553898635.5732317        50091643.711152315        358362847.25279480     
   6388786187.0690489        21671100.172101021        353854879.56094313     
   6226958087.0979614        4198385.0767002106        352379016.54668063     
   6068414335.6599665       -2326501.5750663280        353935258.21000504     
   5913154932.7550640        2096440.2168135643        358523604.55091661     
   6108021899.3805714        35164673.956785440        540269927.85806131     
   5959210359.5052814        36945476.693279028        534007635.53137952     
   5809314356.7923298        35111403.304234505        530282857.56267136     
   5658333891.2417173        29662453.789655209        529095593.95193529     
   5506268962.8534431        20598628.149538279        530445844.69917327     
   5654172888.5287876        17846021.804682493        734460510.10404038     
   5520249142.0834885        49404236.257045031        721346946.54331398     
   5380872121.4297791        62784870.014692545        710276307.02094555     
   5236041826.5676527        57987923.077624798        701248591.53693807     
   5085758257.4971132        35013395.445845127        694263800.09128881     
   6686052666.1941805       -47170197.557860374       -9633730.0140145402     
   6508637427.2500648       -9610195.4338963032       -5431922.2195916902     
   6326382804.8796215        11818528.602308989        1479832.4624922725     
   6139288799.0828514        17115974.550758600        11101534.032239269     
   5947355409.8597488        6282142.4114346504        23433182.489643537     
   6306416167.2019768       -20493168.352320671        178497079.64651898     
   6131999803.2860975       -92341.016360282898        173866232.17269567     
   5954730189.8358555        10797654.538394928        172792074.32246318     
   5774607326.8512545        12176818.311954498        175274606.09582865     
   5591631214.3322906        4045150.3043005466        181313827.49279484     
   5913154932.7550640        2096440.2168135643        358523604.55091661     
   5744156708.8272362        6063872.2527108192        347377258.01613557     
   5574291369.2570114        7140918.8139638901        340634343.84089041     
   5403558914.0443974        5327579.9005753994        338294862.02517247     
   5231959343.1893845        623855.51253747940        340358812.56899339     
   5506268962.8534431        20598628.149538279        530445844.69917327     
   5345108143.8734808        8858444.3733158112        515101155.31073546     
   5185066343.1430922        848321.42900705338        505006641.01776224     
   5026143560.6622791       -3431740.6833837032        500162301.82026273     
   4868339796.4310398       -3981741.9638597965        500568137.71822792     
   5085758257.4971132        35013395.445845127        694263800.09128881     
   4934854108.4248323        8291375.3454473019        677037924.05648613     
   4787055111.4940948       -8080137.6164731979        665908965.85309076     
   4642361266.7049007       -14101143.439922810        660876925.48109937     
   4500772574.0572510       -9771642.1248939037        661941802.94051242     
   5947355409.8597488        6282142.4114346504        23433182.489643537     
   5773208699.5171671       -3355341.9954867363        20308154.027431484     
   5601171929.1294231       -5959693.2196230888        19114408.926351532     
   5431245098.6965094       -1530911.2609970570        19851947.186406553     
   5263428208.2184305        9931003.8804266453        22520768.807587910     
   5591631214.3322906        4045150.3043005466        181313827.49279484     
   5424418516.1117678       -1689227.7975759506        179090771.47535083     
   5258521660.1396103       -3037465.0715785027        179369570.73565334     
   5093940646.4158163        438.48229455947876        182150225.27369633     
   4930675474.9403830        7424482.8640546799        187432735.08950442     
   5231959343.1893845        623855.51253747940        340358812.56899339     
   5073310862.5669680       -718354.64148187637        338111281.67210060     
   4915184126.4864464       -321416.32252192497        338936177.96956962     
   4757579134.9478111        1814670.4694058895        342833501.46139860     
   4600495887.9510708        5689905.7343101501        349803252.14759171     
   4868339796.4310398       -3981741.9638597965        500568137.71822792     
   4719885738.8827705       -442722.52720093727        497369684.61766785     
   4571159328.1699219        2188453.0275244713        497814230.62808454     
   4422160564.2924900        3911784.7003123760        501901775.74948615     
   4272889447.2504840        4727272.4911766052        509632319.98185927     
   4500772574.0572510       -9771642.1248939037        661941802.94051242     
   4364143145.0591698       -862331.45475006104        656865980.31206787     
   4226447265.1900387        4492142.9785559177        656003728.71121967     
   4087684934.4498615        6291781.1750354767        659355048.13796318     
   3947856152.8386273        4536583.1346685886        666919938.59230554     
   5263428208.2184305        9931003.8804266453        22520768.807587910     
   5066099673.5244942        12890391.597804308        14397364.454652963     
   4866892604.9245396        9587999.6284434795        10572113.546936102     
   4665807002.4185581        23827.972336292267        11045016.084450778     
   4462842866.0065670       -15802123.370479584        15816072.067184819     
   4930675474.9403830        7424482.8640546799        187432735.08950442     
   4743877207.7378349        7831367.2513144016        178409464.40774974     
   4555791297.4453650        3946108.0054872036        173777285.27340677     
   4366417744.0629692       -4231294.8734173775        173536197.68647006     
   4175756547.5906529       -16700841.385379076        177686201.64695337     
   4600495887.9510708        5689905.7343101501        349803252.14759171     
   4424493425.6747293        3623948.0218970776        340569487.75579917     
   4247794211.1245666       -764517.26993536949        335819753.01360780     
   4070398244.3005686       -7475490.1412012577        335554047.92101371     
   3892305525.2027497       -16508970.591872454        339772372.47801119     
   4272889447.2504840        4727272.4911766052        509632319.98185927     
   4107948327.3351707        268133.90954399109        500877434.49880654     
   3942901345.9621282       -4543876.1978604794        496699516.76754165     
   3777748503.1313543       -9708757.8310286999        497098566.78805929     
   3612489798.8428555       -15226510.989964485        502074584.56035870     
   3947856152.8386273        4536583.1346685886        666919938.59230554     
   3794241912.7191620       -2236075.0857472420        659333304.63677454     
   3641112701.9580631       -7391968.7782700062        656416576.53520977     
   3488468520.5553308       -10931097.942908764        658169754.28761840     
   3336309368.5109615       -12853462.579663038        664592837.89399576     
   4462842866.0065670       -15802123.370479584        15816072.067184819     
   4284440198.6530223       -21914079.258690596        5702947.3663534783     
   4109462584.8123617       -16609190.103958607        6826488.3059498956     
   3937910024.4845872        112544.09372782707        19186694.885972150     
   3769782517.6696877        28251123.334338427        42783567.106426008     
   4175756547.5906529       -16700841.385379076        177686201.64695337     
   4025344362.0819311       -15330773.822226763        170938909.31666297     
   3877383497.1044750       -5789637.8215246201        172759470.43010864     
   3731873952.6582756        11922566.616713762        183147884.98728436     
   3588815728.7433524        37805839.492526531        202104152.98819685     
   3892305525.2027497       -16508970.591872454        339772372.47801119     
   3762258643.8340011       -9944432.8888292313        335254890.70637190     
   3633689350.0149002        1545396.6463773251        336636450.18178862     
   3506597643.7454486        17960518.013745785        343917050.90422726     
   3380983525.0256505        39300931.213297844        357096692.87371516     
   3612489798.8428555       -15226510.989964485        502074584.56035870     
   3495183043.9092350       -5755056.4584815502        498650891.53549951     
   3378380143.5436544        5395913.2997841835        498457427.56098032     
   3262081097.7461090        18226398.284837127        501494192.63681245     
   3146285906.5165963        32736398.496660113        507761186.76298630     
   3336309368.5109615       -12853462.579663038        664592837.89399576     
   3224117562.3076401       -2762644.5311795473        661126911.80401897     
   3111455877.6907387        5761912.1387065649        658222402.56769884     
   2998324314.6602516        12720207.429962277        655879310.18502259     
   2884722873.2161813        18112241.342627645        654097634.65600169     
   3769782517.6696877        28251123.334338427        42783567.106426008     
   3642498344.2798104        56926332.687776804        57452774.250422463     
   3504064038.3124008        48434433.449464560        47774973.470133133     
   3354479599.7674975        2775425.6195025444        13750164.765591322     
   3193745028.6450701       -80050690.802219510       -44621651.863249093     
   3588815728.7433524        37805839.492526531        202104152.98819685     
   3404757445.2643518        43894276.949588060        201670639.56485444     
   3213306203.3093419        25339519.486616135        187124073.66561896     
   3014462002.8783231       -17858432.896368265        158464455.29051986     
   2808224843.9712925       -85699580.199415565        115691784.43950719     
   3380983525.0256505        39300931.213297844        357096692.87371516     
   3169391004.1672149        31574558.586895823        345943828.66812372     
   2954162698.9342804        11728904.712161899        330911867.43503636     
   2735298609.3268385       -20236030.410928607        312000809.17446440     
   2512798735.3448987       -64320246.782343030        289210653.88637537     
   3146285906.5165963        32736398.496660113        507761186.76298630     
   2936399020.9884028        19967177.599687576        490272341.56024015     
   2726633525.1872168        7602589.1260892153        479138354.77838892     
   2516989419.1130290       -4357366.9241814613        474359226.41742998     
   2307466702.7658544       -15912690.551092386        475934956.47735423     
   2884722873.2161813        18112241.342627645        654097634.65600169     
   2705781495.7279167        9072133.9880101681        634656178.24119461     
   2530718682.0681558        12960572.728419423        631803535.69566858     
   2359534432.2369142        29777557.563879490        645539707.01942325     
   2192228746.2341781        59523088.494368792        675864692.21244752     
   5957935877.1611423        1787380763.1483428        1150062407.1163898     
   6088441005.4830103        1502278991.9131329        1227919608.5370243     
   6221662154.2215958        1226230622.0669820        1268427366.6864691     
   6357599323.3768988        959235653.60989046        1271585681.5647242     
   6496252512.9489193        701294086.54185772        1237394553.1717892     
   5434606037.9971886        1630381811.3991566        1033494418.1070536     
   5489909641.8237438        1372516315.6394370        1113878263.0785680     
   5547405130.4263887        1121957102.4666820        1167478930.4459188     
   5607092503.8051233        878704171.88089180        1194296420.2091060     
   5668971761.9599447        642757523.88206577        1194330732.3681290     
   4895220673.1805582        1468566201.9541674        936384764.43580878     
   4905512082.9890175        1246993780.8131027        1018683761.3774698     
   4917471241.9329395        1030980523.4569089        1084765846.3819933     
   4931098150.0123215        820526429.88558543        1134631019.4493794     
   4946392807.2271633        615631500.09913170        1168279280.5796278     
   4339779782.7112484        1301933934.8133745        858733446.10265481     
   4335248328.9788294        1125711387.4341302        942336103.43372977     
   4331860488.7412453        953300885.03766227        1020288114.4946930     
   4329616261.9984941        784702427.62397099        1092589479.2855451     
   4328515648.7505732        619916015.19305491        1159240197.8062859     
   3768283366.5892591        1130485009.9767778        800540463.10759199     
   3779118379.7931819        1008669135.5025196        884835289.24734783     
   3790572870.8513088        888918187.20894313        974045734.78401828     
   3802646839.7636399        771232165.09604847        1068171799.7176032     
   3815340286.5301747        655611069.16383541        1167213484.0481024     
   6496252512.9489193        701294086.54185772        1237394553.1717892     
   6239320254.1627464        375724228.08709693        1053236287.6964549     
   6013329563.8306675        153292931.14598155        908027858.69338632     
   5818280441.9526806        34000195.718508959        801769266.16258156     
   5654172888.5287876        17846021.804682493        734460510.10404038     
   5668971761.9599447        642757523.88206577        1194330732.3681290     
   5518869657.5006056        383187430.44257474        1073485518.7553813     
   5392930149.5906172        204159325.50091553        980636795.45671940     
   5291153238.2299795        105673209.05709028        915784562.47214127     
   5213538923.4186916        87729081.111095428        878928819.80164778     
   4946392807.2271633        615631500.09913170        1168279280.5796278     
   4871825582.3570042        412672589.25361323        1102838318.2739317     
   4814641982.1314535        267659093.89011526        1054440500.1241416     
   4774842006.5505047        180591014.00863791        1023085826.1302568     
   4752425655.6141634        151468349.60918069        1008774296.2922773     
   4328515648.7505732        619916015.19305491        1159240197.8062859     
   4298188028.7319403        464179704.52021265        1141294686.2521076     
   4278465061.4531665        343792236.31357789        1129438972.6956551     
   4269346746.9142580        258753610.57315469        1123673057.1369298     
   4270833085.1152101        209063827.29893661        1123996939.5759296     
   3815340286.5301747        655611069.16383541        1167213484.0481024     
   3797956996.6254101        537708776.24237299        1188854622.6899073     
   3784399387.5557618        432558752.77130592        1205632213.1712589     
   3774667459.3212342        340160998.75063801        1217546255.4921587     
   3768761211.9218254        260515514.18036461        1224596749.6526041     
   5654172888.5287876        17846021.804682493        734460510.10404038     
   5520249142.0834885        49404236.257045031        721346946.54331398     
   5380872121.4297791        62784870.014692545        710276307.02094555     
   5236041826.5676527        57987923.077624798        701248591.53693807     
   5085758257.4971132        35013395.445845127        694263800.09128881     
   5213538923.4186916        87729081.111095428        878928819.80164778     
   5077506766.3045282        85630117.675261497        855236059.30413020     
   4939314551.4548788        76330961.787798166        835645561.45870924     
   4798962278.8697376        59831613.448703289        820157326.26538777     
   4656449948.5491114        36132072.657977343        808771353.72416317     
   4752425655.6141634        151468349.60918069        1008774296.2922773     
   4620168912.4418211        117477355.66835499        978344424.74304771     
   4489045328.0069141        87263557.518982649        954076154.45965505     
   4359054902.3094416        60826955.161065578        935969485.44209898     
   4230197635.3494101        38167548.594603777        924024417.69038081     
   4270833085.1152101        209063827.29893661        1123996939.5759296     
   4148235580.4953661        144945950.23632145        1090672042.8600678     
   4030064451.0858860        95582657.208248138        1065568086.0237824     
   3916319696.8867664        60973948.214713335        1048685069.0670730     
   3807001317.8980088        41119823.255717516        1040022991.9899361     
   3768761211.9218254        260515514.18036461        1224596749.6526041     
   3661706770.4651647        168035901.37916815        1192218913.6551909     
   3562371920.6917906        101288260.85559428        1170121356.1510906     
   3470756662.6017046        60272592.609645367        1158304077.1403062     
   3386860996.1949058        44988896.641322255        1156767076.6228378     
   5085758257.4971132        35013395.445845127        694263800.09128881     
   4934854108.4248323        8291375.3454473019        677037924.05648613     
   4787055111.4940948       -8080137.6164731979        665908965.85309076     
   4642361266.7049007       -14101143.439922810        660876925.48109937     
   4500772574.0572510       -9771642.1248939037        661941802.94051242     
   4656449948.5491114        36132072.657977343        808771353.72416317     
   4522449165.1314268        15117631.976207972        795482887.67008424     
   4390695232.4413643        1592693.7198486328        787782959.03768075     
   4261188150.4789248       -4442742.1111066341        785671567.82695377     
   4133927919.2441082       -2988675.5166516304        789148714.03790236     
   4230197635.3494101        38167548.594603777        924024417.69038081     
   4111647702.1299534        22424932.694544077        913672009.96744716     
   3994486318.2242022        11310814.506831408        908399759.25646484     
   3878713483.6321540        4825194.0314657688        908207665.55743217     
   3764329198.3538094        2968071.2684488297        913095728.87034786     
   3807001317.8980088        41119823.255717516        1040022991.9899361     
   3702449719.4204187        30213277.500463009        1031605290.9485817     
   3598428368.8426108        21074224.744488478        1027759366.5094488     
   3494937266.1645894        13702664.987801075        1028485218.6725385     
   3391976411.3863554        8098598.2303979397        1033782847.4378496     
   3386860996.1949058        44988896.641322255        1156767076.6228378     
   3294855217.0028172        38482666.393963456        1149282730.6134853     
   3202521384.2965922        30882924.432819605        1145861780.7966278     
   3109859498.0762348        22189670.757901430        1146504227.1722662     
   3016869558.3417444        12402905.369203091        1151210069.7403998     
   4500772574.0572510       -9771642.1248939037        661941802.94051242     
   4364143145.0591698       -862331.45475006104        656865980.31206787     
   4226447265.1900387        4492142.9785559177        656003728.71121967     
   4087684934.4498615        6291781.1750354767        659355048.13796318     
   3947856152.8386273        4536583.1346685886        666919938.59230554     
   4133927919.2441082       -2988675.5166516304        789148714.03790236     
   4007003142.8793354        1259833.5827648640        782269060.73838079     
   3879607651.6400852        3939293.1005930901        779716523.41474462     
   3751741445.5263677        5049703.0368511677        781491102.06699562     
   3623404524.5381660        4591063.3915138245        787592796.69513166     
   3764329198.3538094        2968071.2684488297        913095728.87034786     
   3647433488.7603259        2653103.0385286808        905107270.22908366     
   3530662800.2889404        2754871.8822748661        901559472.51200056     
   3414017132.9396601        3273377.7997047901        902452335.71909535     
   3297496486.7124815        4208620.7907989025        907785859.85037148     
   3391976411.3863554        8098598.2303979397        1033782847.4378496     
   3285434182.7021375        3317476.9125332832        1025380608.7841781     
   3179612711.1365995        938879.32359671593        1021532576.0029854     
   3074511996.6897402        962805.46358859539        1022238749.0942651     
   2970132039.3615575        3389255.3325052261        1027499128.0580175     
   3016869558.3417444        12402905.369203091        1151210069.7403998     
   2921005224.7047791        3252955.2047932148        1143089076.4036665     
   2826457384.1830645       -1508684.5754415989        1139635833.8877027     
   2733226036.7766099       -1882013.9714796543        1140850342.1925032     
   2641311182.4854069        2132967.0166536570        1146732601.3180721     
   3947856152.8386273        4536583.1346685886        666919938.59230554     
   3794241912.7191620       -2236075.0857472420        659333304.63677454     
   3641112701.9580631       -7391968.7782700062        656416576.53520977     
   3488468520.5553308       -10931097.942908764        658169754.28761840     
   3336309368.5109615       -12853462.579663038        664592837.89399576     
   3623404524.5381660        4591063.3915138245        787592796.69513166     
   3482499016.3422785       -40878.140955448151        779870104.55647671     
   3341798689.5759106       -3988881.5750141144        776759442.65399826     
   3201303544.2390771       -7252946.9106311798        778260810.98769891     
   3061013580.3317685       -9833074.1478294134        784374209.55757415     
   3297496486.7124815        4208620.7907989025        907785859.85037148     
   3169134351.5321789        1667788.2738569975        899600620.27828193     
   3040697549.8525691       -1121932.5741150379        895969535.32457781     
   2912186081.6736517       -4160541.7531152964        896892604.98925626     
   2783599946.9954200       -7448039.2631522417        902369829.27232039     
   2970132039.3615575        3389255.3325052261        1027499128.0580175     
   2854147918.2888680        2889924.1587083340        1018524851.8021817     
   2737809282.7880335        1208878.2244292498        1014046854.5469402     
   2621116132.8590508       -1653882.4703488350        1014065136.2922908     
   2504068468.5019174       -5698357.9256212711        1018579697.0382347     
   2641311182.4854069        2132967.0166536570        1146732601.3180721     
   2537539716.6123486        3625529.5136104822        1136642799.1281850     
   2433133888.3823061        3003550.8206090927        1130991400.3210964     
   2328093697.7952805        267030.93766677380        1129778404.8968034     
   2222419144.8512692       -4584030.1352274418        1133003812.8553100     
   3336309368.5109615       -12853462.579663038        664592837.89399576     
   3224117562.3076401       -2762644.5311795473        661126911.80401897     
   3111455877.6907387        5761912.1387065649        658222402.56769884     
   2998324314.6602516        12720207.429962277        655879310.18502259     
   2884722873.2161813        18112241.342627645        654097634.65600169     
   3061013580.3317685       -9833074.1478294134        784374209.55757415     
   2950936340.1363139       -3107490.0532423258        780506462.98210716     
   2840813409.2046742        3465791.5873798132        778480481.24070883     
   2730644787.5368404        9886770.7740337849        778296264.33337545     
   2620430475.1328239        16155447.506736755        779953812.26011586     
   2783599946.9954200       -7448039.2631522417        902369829.27232039     
   2679295409.8947520       -2990247.9963842630        898595147.83498192     
   2575369369.7352839        2729199.7410687208        897942579.21213400     
   2471821826.5170217        9710303.9491932392        900412123.40377319     
   2368652780.2399616        17953064.628000975        906003780.40990281     
   2504068468.5019174       -5698357.9256212711        1018579697.0382347     
   2409194771.5829463       -2410918.3605885506        1015392966.3626497     
   2315123759.2825718        3552136.5997626781        1016608696.4819763     
   2221855431.6007867        12190806.955422759        1022226887.3962090     
   2129389788.5376027        23505092.706413031        1032247539.1053550     
   2222419144.8512692       -4584030.1352274418        1133003812.8553100     
   2140634425.2009027       -1369501.1458758116        1130899918.5651093     
   2060076577.8465276        5934602.1634478569        1134478833.0502369     
   1980745602.7881353        17328279.792720914        1143740556.3106930     
   1902641500.0257430        32811531.741981626        1158685088.3464782     
   2884722873.2161813        18112241.342627645        654097634.65600169     
   2705781495.7279167        9072133.9880101681        634656178.24119461     
   2530718682.0681558        12960572.728419423        631803535.69566858     
   2359534432.2369142        29777557.563879490        645539707.01942325     
   2192228746.2341781        59523088.494368792        675864692.21244752     
   2620430475.1328239        16155447.506736755        779953812.26011586     
   2480160891.6174526        16324093.116601229        765525805.16344810     
   2341859998.9771142        23055041.643234134        762131421.18484735     
   2205527797.2118068        36348293.086633682        769770660.32431066     
   2071164286.3215289        56203847.446790695        788443522.58185577     
   2368652780.2399616        17953064.628000975        906003780.40990281     
   2251183017.1226053        22568871.129893541        894361037.51897144     
   2133772071.9267993        27380737.370269537        888196726.99490464     
   2016419944.6525340        32388663.349136233        887510848.83768499     
   1899126635.2998271        37592649.066503525        892303403.04732907     
   2129389788.5376027        23505092.706413031        1032247539.1053550     
   2018847872.2433727        27806468.027862072        1021161875.3077701     
   1906454900.9172084        25937659.909524202        1009999453.1258321     
   1792210874.5591078        17898668.351400614        998760272.55953252     
   1676115793.1690750        3689493.3534946442        987444333.60889924     
   1902641500.0257430        32811531.741981626        1158685088.3464782     
   1783155456.9797521        32036883.810514212        1145928318.5298362     
   1659908485.9483409        18725809.260987401        1127539599.5776350     
   1532900586.9315126       -7121691.9065946341        1103518931.4898717     
   1402131759.9292760       -45505619.692221642        1073866314.2665482     
   3768283366.5892591        1130485009.9767778        800540463.10759199     
   3779118379.7931819        1008669135.5025196        884835289.24734783     
   3790572870.8513088        888918187.20894313        974045734.78401828     
   3802646839.7636399        771232165.09604847        1068171799.7176032     
   3815340286.5301747        655611069.16383541        1167213484.0481024     
   3207871102.8345156        962361330.85035467        756661141.83549571     
   3235876480.2090631        868187202.95912933        853037224.31830347     
   3263612061.7574558        773113755.64738822        951326795.24705410     
   3291077847.4796939        677140988.91513157        1051529854.6217484     
   3318273837.3757768        580268902.76235962        1153646402.4423850     
   2685682669.4669394        805704800.84008181        721950808.67124200     
   2722280894.0093365        736599164.43105650        829370661.53668249     
   2757720049.0452180        663629963.00031793        935701871.89709449     
   2792000134.5745873        586797196.54786658        1040944439.7524785     
   2825121150.5974422        506100865.07370204        1145098365.1028340     
   2201718066.4865303        660515419.94595909        696409463.61483049     
   2238331621.1940012        613905019.91830134        813835600.90248477     
   2272896832.7145982        560466809.26773286        927170964.73413920     
   2305413701.0483217        500200787.99425399        1036415555.1097937     
   2335882226.1951723        433106956.09786445        1141569372.0294487     
   1755977293.8932891        526793188.16798675        680037106.66626155     
   1784028661.7630575        500104769.42086363        806432042.41571021     
   1809142412.7655933        463624294.44963235        925734073.75818789     
   1831318546.9008973        417351763.25429344        1037943200.6936942     
   1850557064.1689684        361287175.83484650        1143059423.2222292     
   3815340286.5301747        655611069.16383541        1167213484.0481024     
   3797956996.6254101        537708776.24237299        1188854622.6899073     
   3784399387.5557618        432558752.77130592        1205632213.1712589     
   3774667459.3212342        340160998.75063801        1217546255.4921587     
   3768761211.9218254        260515514.18036461        1224596749.6526041     
   3318273837.3757768        580268902.76235962        1153646402.4423850     
   3293781777.4373055        473121817.73101652        1181946889.3867736     
   3273008798.6470513        378371669.86040127        1207160668.7987368     
   3255954901.0050159        296018459.15051067        1229287740.6782751     
   3242620084.5111985        226062185.60134971        1248328105.0253880     
   2825121150.5974422        506100865.07370204        1145098365.1028340     
   2798597008.1339169        411231994.18507487        1179933834.0484207     
   2775685347.1317077        328404728.16750419        1213459436.0896111     
   2756386167.5908175        257619067.02099133        1245675171.2264044     
   2740699469.5112429        198875010.74553418        1276581039.4588001     
   2335882226.1951723        433106956.09786445        1141569372.0294487     
   2312402688.7152443        352039305.60454798        1182815456.6748505     
   2292429033.0097327        282657927.69261843        1224528515.0438826     
   2275961259.0786371        224962822.36207676        1266708547.1365459     
   2262999366.9219575        178953989.61292148        1309355552.9528401     
   1850557064.1689684        361287175.83484650        1143059423.2222292     
   1835198819.1812892        295543751.98943663        1190591757.2660608     
   1823239856.2811246        241131268.43574256        1240367905.6615510     
   1814680175.4684756        198049725.17376721        1292387868.4087005     
   1809519776.7433414        166299122.20350814        1346651645.5075092     
   3768761211.9218254        260515514.18036461        1224596749.6526041     
   3661706770.4651647        168035901.37916815        1192218913.6551909     
   3562371920.6917906        101288260.85559428        1170121356.1510906     
   3470756662.6017046        60272592.609645367        1158304077.1403062     
   3386860996.1949058        44988896.641322255        1156767076.6228378     
   3242620084.5111985        226062185.60134971        1248328105.0253880     
   3164672303.1683254        151599377.81507671        1231318867.8803589     
   3092814685.8756580        97437116.862818003        1222261366.5568705     
   3027047232.6331935        63575402.744570374        1221155601.0549212     
   2967369943.4409337        50014235.460341573        1228001571.3745131     
   2740699469.5112429        198875010.74553418        1276581039.4588001     
   2685205369.2199473        140433114.25552523        1273039402.2608912     
   2634172005.3457732        96860339.155917764        1275120958.2127492     
   2587599377.8887196        68156685.446710825        1282825707.3143730     
   2545487486.8487868        54322153.127906919        1296153649.5657620     
   2262999366.9219575        178953989.61292148        1309355552.9528401     
   2223305968.6200280        134537110.70051205        1317380516.7967882     
   2186443879.1021352        99557927.734889388        1328700131.1187274     
   2152413098.3682795        74016440.716058016        1343314395.9186585     
   2121213626.4184623        57912649.644020557        1361223311.1965842     
   1809519776.7433414        166299122.20350814        1346651645.5075092     
   1778974101.3685665        133911367.15003407        1364342211.4880478     
   1749630307.1447456        105529882.59973806        1382998885.2748058     
   1721488394.0718777        81154668.552620173        1402621666.8677804     
   1694548362.1499629        60785725.008680105        1423210556.2669742     
   3386860996.1949058        44988896.641322255        1156767076.6228378     
   3294855217.0028172        38482666.393963456        1149282730.6134853     
   3202521384.2965922        30882924.432819605        1145861780.7966278     
   3109859498.0762348        22189670.757901430        1146504227.1722662     
   3016869558.3417444        12402905.369203091        1151210069.7403998     
   2967369943.4409337        50014235.460341573        1228001571.3745131     
   2884973718.7935309        39269375.270904422        1219762543.4521534     
   2802838091.2374687        29393172.052598357        1215830229.7429194     
   2720963060.7727432        20385625.805418372        1216204630.2468145     
   2639348627.3993549        12246736.529360771        1220885744.9638367     
   2545487486.8487868        54322153.127906919        1296153649.5657620     
   2473396011.0907378        39547221.299797177        1287846698.7701089     
   2402153783.0294976        27603115.127717495        1284089780.2082174     
   2331760802.6650686        18489834.611676693        1284882893.8800862     
   2262217069.9974484        12207379.751664639        1290226039.7857153     
   2121213626.4184623        57912649.644020557        1361223311.1965842     
   2060122093.8944304        39316204.480632186        1353535196.5673556     
   2000468459.6726816        25512753.658185959        1350640432.1925220     
   1942252723.7532139        16502297.176680326        1352539018.0720811     
   1885474886.1360285        12284835.036114573        1359230954.2060344     
   1694548362.1499629        60785725.008680105        1423210556.2669742     
   1645151967.2046137        38576324.813415587        1416828036.8438911     
   1597782121.1670194        23122087.643999219        1415482185.6958315     
   1552438824.0371799        14423013.500434279        1419173002.8227997     
   1509122075.8150928        12479102.382709801        1427900488.2247944     
   3016869558.3417444        12402905.369203091        1151210069.7403998     
   2921005224.7047791        3252955.2047932148        1143089076.4036665     
   2826457384.1830645       -1508684.5754415989        1139635833.8877027     
   2733226036.7766099       -1882013.9714796543        1140850342.1925032     
   2641311182.4854069        2132967.0166536570        1146732601.3180721     
   2639348627.3993549        12246736.529360771        1220885744.9638367     
   2556235876.4542270        5466570.2832003832        1214175707.7457836     
   2474054760.2648468        1791853.2228633165        1212059956.2580080     
   2392805278.8312173        1222585.3483635187        1214538490.5005212     
   2312487432.1533360        3758766.6596907377        1221611310.4733107     
   2262217069.9974484        12207379.751664639        1290226039.7857153     
   2191646001.4856300        7734027.3461941481        1284477957.2669156     
   2121621709.3700514        5083262.9281951189        1283250695.3879147     
   2052144193.6507185        4255086.4976751804        1286544254.1487050     
   1983213454.3276277        5249498.0546345711        1294358633.5492969     
   1885474886.1360285        12284835.036114573        1359230954.2060344     
   1827235599.7989867        10055326.393774271        1353995824.9670682     
   1769158231.4986825        8365544.5405564308        1353208051.2774091     
   1711242781.2351131        7215489.4764577150        1356867633.1370625     
   1653489249.0082831        6605161.2014886141        1364974570.5460250     
   1509122075.8150928        12479102.382709801        1427900488.2247944     
   1463004671.3942978        12430467.425939620        1422729310.8462374     
   1416664326.6507344        11638698.059937775        1421932023.9265003     
   1370101041.5844007        10103794.284706831        1425508627.4655931     
   1323314816.1953027        7825756.1002551317        1433459121.4635069     
   2641311182.4854069        2132967.0166536570        1146732601.3180721     
   2537539716.6123486        3625529.5136104822        1136642799.1281850     
   2433133888.3823061        3003550.8206090927        1130991400.3210964     
   2328093697.7952805        267030.93766677380        1129778404.8968034     
   2222419144.8512692       -4584030.1352274418        1133003812.8553100     
   2312487432.1533360        3758766.6596907377        1221611310.4733107     
   2220102196.0665631        3628745.7932946682        1210945495.9775667     
   2127414345.8690727        2490011.2245032787        1204974358.7107880     
   2034423881.5608525        342562.95328259468        1203697898.6729717     
   1941130803.1419127       -2813599.0203441381        1207116115.8641176     
   1983213454.3276277        5249498.0546345711        1294358633.5492969     
   1902946659.0161872        3716557.1216183901        1283503846.3683357     
   1822708997.8402822        2280729.9737234116        1277600010.2625031     
   1742500470.7999160        942016.61095249653        1276647125.2318025     
   1662321077.8950846       -299582.96669411659        1280645191.2762246     
   1653489249.0082831        6605161.2014886141        1364974570.5460250     
   1586073105.4612126        3888963.4985525608        1354317850.3004889     
   1519017844.2959406        2375707.0682816505        1348868354.9762442     
   1452323465.5124650        2065391.9106646180        1348626084.5732934     
   1385989969.1107874        2958018.0257060528        1353591039.0916305     
   1323314816.1953027        7825756.1002551317        1433459121.4635069     
   1269481535.4016433        4145964.9241131544        1423387507.7740276     
   1216340885.2360444        2774942.5081718564        1418779392.8520050     
   1163892865.6985042        3712688.8524284363        1419634776.6974401     
   1112137476.7890215        6959203.9568755627        1425953659.3103292     
   2222419144.8512692       -4584030.1352274418        1133003812.8553100     
   2140634425.2009027       -1369501.1458758116        1130899918.5651093     
   2060076577.8465276        5934602.1634478569        1134478833.0502369     
   1980745602.7881353        17328279.792720914        1143740556.3106930     
   1902641500.0257430        32811531.741981626        1158685088.3464782     
   1941130803.1419127       -2813599.0203441381        1207116115.8641176     
   1873695394.3626878        2669562.0895816088        1206685568.7438567     
   1807144152.7875774        11099947.213218927        1211086613.7982385     
   1741477078.4165754        22477556.350552082        1220319251.0272729     
   1676694171.2496846        36802389.501585364        1234383480.4309506     
   1662321077.8950846       -299582.96669411659        1280645191.2762246     
   1606802932.5564866        6722596.0346457362        1281488168.7187073     
   1551826249.3301241        15549648.743431926        1286311521.7351556     
   1497391028.2159951        26181575.159667134        1295115250.3255758     
   1443497269.2140958        38618375.283340037        1307899354.4899633     
   1385989969.1107874        2958018.0257060528        1353591039.0916305     
   1339957039.7823012        10789600.689308286        1355307718.4896660     
   1294122867.4741721        19283706.754102230        1360153556.8609920     
   1248487452.1863935        28440336.220064104        1368128554.2056041     
   1203050793.9189773        38259489.087234080        1379232710.5235064     
   1112137476.7890215        6959203.9568755627        1425953659.3103292     
   1073157716.0401278        14870576.053574502        1428144218.0567338     
   1034034007.2197151        22302121.245213509        1432612719.1757450     
   994766350.32778180        29253839.531782806        1439359162.6673627     
   955354745.36432290        35725730.913264096        1448383548.5315890     
   1902641500.0257430        32811531.741981626        1158685088.3464782     
   1783155456.9797521        32036883.810514212        1145928318.5298362     
   1659908485.9483409        18725809.260987401        1127539599.5776350     
   1532900586.9315126       -7121691.9065946341        1103518931.4898717     
   1402131759.9292760       -45505619.692221642        1073866314.2665482     
   1676694171.2496846        36802389.501585364        1234383480.4309506     
   1548281734.3528819        30546345.445188820        1218637057.4400918     
   1418001381.9298911        18063916.301503241        1202921064.3437722     
   1285853113.9807258       -644897.92942571640        1187235501.1419847     
   1151836930.5053847       -25580097.247626543        1171580367.8347373     
   1443497269.2140958        38618375.283340037        1307899354.4899633     
   1322336664.2667551        31734402.842069864        1291371792.8606601     
   1201201156.2524719        24934086.844332337        1280537040.1559982     
   1080090745.1712499        18217427.290130079        1275395096.3759732     
   959005431.02308404        11584424.179445624        1275945961.5205698     
   1203050793.9189773        38259489.087234080        1379232710.5235064     
   1105320246.7213860        35601056.001199782        1364132524.7915432     
   1009507808.9160880        39336320.889476597        1360387527.0143144     
   915613480.50308275        49465283.752065063        1367997717.1918137     
   823637261.48238087        65987944.588997006        1386963095.3240633     
   955354745.36432290        35725730.913264096        1448383548.5315890     
   897232481.71675932        42146304.922529191        1436919253.2327361     
   842921339.92073047        61270618.436912984        1442472524.9187174     
   792421319.97623789        93098671.456422716        1465043363.5895324     
   745732421.88327634        137630463.98102802        1504631769.2451844     
   1755977293.8932891        526793188.16798675        680037106.66626155     
   1784028661.7630575        500104769.42086363        806432042.41571021     
   1809142412.7655933        463624294.44963235        925734073.75818789     
   1831318546.9008973        417351763.25429344        1037943200.6936942     
   1850557064.1689684        361287175.83484650        1143059423.2222292     
   1326256165.3968790        397876849.61906368        669722213.84614074     
   1339522967.9730320        375528916.32871330        791860436.75896132     
   1350588248.6208427        345842576.61055464        908717171.05517828     
   1359452007.3403108        308817830.46458799        1020292416.7347922     
   1366114244.1314366        264454677.89081278        1126586173.7978022     
   890350494.70696306        267105148.41208893        662353261.17507410     
   894008205.67626631        250650342.68454102        781093548.67997146     
   896200489.65611684        229310780.32548445        896363763.35863268     
   896927346.64651513        203086461.33491951        1008163905.2110590     
   896188776.64746046        171977385.71284598        1116493974.2372496     
   448260281.82354194        134478084.54706258        657930248.65306187     
   447484374.87276059        125469048.48834673        774131378.17874062     
   445979135.87141651        114028905.59442207        888673850.66855156     
   443744564.81950963        100157655.86528820        1001557666.1224947     
   440780661.71704030        83855299.300946087        1112782824.5405703     
  -14473.253384463178       -4341.9760153389534        656453176.28010380     
  -48524.437485369388       -14966.259869698519        770973925.25526893     
  -75812.733258984095       -3047.5826332598517        885647432.98493385     
  -96338.140705318729        31414.055694285860        1000473699.4690992     
  -110100.65982441331        88418.655112458233        1115452724.7077644     
   1850557064.1689684        361287175.83484650        1143059423.2222292     
   1835198819.1812892        295543751.98943663        1190591757.2660608     
   1823239856.2811246        241131268.43574256        1240367905.6615510     
   1814680175.4684756        198049725.17376721        1292387868.4087005     
   1809519776.7433414        166299122.20350814        1346651645.5075092     
   1366114244.1314366        264454677.89081278        1126586173.7978022     
   1360308017.4895892        216872160.36779451        1182001718.1480064     
   1357046944.0380502        177773486.81247097        1238330176.1843319     
   1356331023.7768195        147158657.22484148        1295571547.9067786     
   1358160256.7058973        125027671.60490805        1353725833.3153470     
   896188776.64746046        171977385.71284598        1116493974.2372496     
   896131995.02133703        141415002.51318663        1178796245.1804185     
   897766237.68831575        116489366.95720023        1240680529.1441720     
   901091504.64839566        97200479.044886023        1302146826.1285079     
   906107795.90157819        83548338.776245594        1363195136.1334279     
   440780661.71704030        83855299.300946087        1112782824.5405703     
   442670751.77653331        69172278.425613165        1180975338.3632970     
   445397737.23192191        57278908.869931415        1247418964.5410688     
   448961618.08320558        48175190.633900955        1312113703.0738878     
   453362394.33038473        41861123.717521235        1375059553.9617515     
  -110100.65982441331        88418.655112458233        1115452724.7077644     
  -75712.244822404697        143988.10507420168        1188538997.6966410     
  -58557.331131434512        142112.55066529661        1258545482.3750255     
  -58635.918752066398        82791.991884731557        1325472178.7429180     
  -75948.007683853226       -33973.571266523424        1389319086.8003190     
   1809519776.7433414        166299122.20350814        1346651645.5075092     
   1778974101.3685665        133911367.15003407        1364342211.4880478     
   1749630307.1447456        105529882.59973806        1382998885.2748058     
   1721488394.0718777        81154668.552620173        1402621666.8677804     
   1694548362.1499629        60785725.008680105        1423210556.2669742     
   1358160256.7058973        125027671.60490805        1353725833.3153470     
   1333012535.0427291        100057820.58570659        1372665265.1264064     
   1308783981.7134759        78151864.012890279        1393079037.2091899     
   1285474596.7181389        59309801.886458933        1414967149.5636973     
   1263084380.0567164        43531634.206412733        1438329602.1899295     
   906107795.90157819        83548338.776245594        1363195136.1334279     
   887810120.70860445        66432019.618893713        1383053602.1551309     
   870148901.03250885        51437218.851134121        1404894640.9140627     
   853124136.87329018        38563936.472965568        1428718252.4102249     
   836735828.23094940        27812172.484389216        1454524436.6436162     
   453362394.33038473        41861123.717521235        1375059553.9617515     
   443366858.36619383        33033964.249595106        1395507222.5742192     
   433725065.10184258        25385947.114467248        1418445696.3894229     
   424437014.53733146        18917072.312139556        1443874975.4073615     
   415502706.67265886        13627339.842607766        1471795059.6280365     
  -75948.007683853226       -33973.571266523424        1389319086.8003190     
  -317251.98450361454       -136345.52219041943        1410026126.3836739     
  -487526.07852157240       -1951.1971083037788        1433732203.6352706     
  -586770.28973794973        369209.40397908015        1460437318.5551090     
  -614984.61815248919        977136.28107259003        1490141471.1431887     
   1694548362.1499629        60785725.008680105        1423210556.2669742     
   1645151967.2046137        38576324.813415587        1416828036.8438911     
   1597782121.1670194        23122087.643999219        1415482185.6958315     
   1552438824.0371799        14423013.500434279        1419173002.8227997     
   1509122075.8150928        12479102.382709801        1427900488.2247944     
   1263084380.0567164        43531634.206412733        1438329602.1899295     
   1228045174.7668071        27522874.004587173        1435524133.9038312     
   1194436759.8683197        16283415.107505023        1437295072.4637897     
   1162259135.3612585        9813257.5151779056        1443642417.8698034     
   1131512301.2456212        8112401.2275921106        1454566170.1218717     
   836735828.23094940        27812172.484389216        1454524436.6436162     
   814738779.94227540        17609542.479737371        1454600967.8921194     
   793576763.52869570        10190352.058734924        1458793644.5577078     
   773249778.99021077        5554601.2213818133        1467102466.6403813     
   753757826.32682049        3702289.9676765203        1479527434.1401420     
   415502706.67265886        13627339.842607766        1471795059.6280365     
   405232782.73102051        8836330.2388724983        1474058538.8087566     
   395202132.14814651        4842898.4976864904        1479977901.9775906     
   385410754.92403746        1647044.6190490276        1489553149.1345396     
   375858651.05869353       -751231.39703737199        1502784280.2796073     
  -614984.61815248919        977136.28107259003        1490141471.1431887     
  -472816.86695741990        1203237.2819915810        1493896846.6537399     
  -687134.27332815668        241054.42435857942        1500847844.7234368     
  -1257936.8372617885       -1909412.2918170593        1510994465.3522773     
  -2185224.5587627017       -5248162.8665516907        1524336708.5402632     
   1509122075.8150928        12479102.382709801        1427900488.2247944     
   1463004671.3942978        12430467.425939620        1422729310.8462374     
   1416664326.6507344        11638698.059937775        1421932023.9265003     
   1370101041.5844007        10103794.284706831        1425508627.4655931     
   1323314816.1953027        7825756.1002551317        1433459121.4635069     
   1131512301.2456212        8112401.2275921106        1454566170.1218717     
   1096571718.1228671        7223172.9330242872        1449197608.6024802     
   1061565016.7153761        6113550.3559975028        1448246694.5468636     
   1026492197.0231507        4783533.4965226054        1451713427.9550226     
   991353259.04618740        3233122.3545908332        1459597808.8269541     
   753757826.32682049        3702289.9676765203        1479527434.1401420     
   730119084.51625156        2009974.3395455480        1474144447.5242887     
   706571046.45898128        620004.55574432015        1473222865.3771615     
   683113712.15500760       -467619.38373449445        1476762687.6987619     
   659747081.60433197       -1252897.4788872302        1484763914.4890893     
   375858651.05869353       -751231.39703737199        1502784280.2796073     
   363646770.57445514       -3209128.3544851094        1497569827.6116631     
   351682415.88155007       -4841939.3408220708        1496860536.4173982     
   339965586.97997516       -5649664.3560575843        1500656406.6968112     
   328496283.86973166       -5632303.4001895785        1508957438.4499016     
  -2185224.5587627017       -5248162.8665516907        1524336708.5402632     
  -2845223.7025227984       -8434135.1490677595        1519473748.8646040     
  -3100875.0169161856       -10272281.333694454        1519159707.6675735     
  -2952178.5019475091       -10762601.420447424        1523394584.9491727     
  -2399134.1576141827       -9905095.4093189240        1532178380.7093992     
   1323314816.1953027        7825756.1002551317        1433459121.4635069     
   1269481535.4016433        4145964.9241131544        1423387507.7740276     
   1216340885.2360444        2774942.5081718564        1418779392.8520050     
   1163892865.6985042        3712688.8524284363        1419634776.6974401     
   1112137476.7890215        6959203.9568755627        1425953659.3103292     
   991353259.04618740        3233122.3545908332        1459597808.8269541     
   951831254.32826662        870979.80488300323        1450175517.4547601     
   912707140.60794246       -164859.41950070858        1445994328.4595730     
   873980917.88521492        125604.68143606186        1447054241.8413999     
   835652586.16008258        1742372.1076930165        1453355257.6002333     
   659747081.60433197       -1252897.4788872302        1484763914.4890893     
   633900934.70373023       -2488016.8796909750        1475647082.5319681     
   608157939.17026305       -3379298.3900465071        1471548956.5614128     
   582518095.00392973       -3926742.0099551082        1472469536.5774224     
   556981402.20473373       -4130347.7394059896        1478408822.5799947     
   328496283.86973166       -5632303.4001895785        1508957438.4499016     
   315690576.52802920       -5931025.1296230257        1499802203.0056539     
   302693280.92300296       -6868374.4034681469        1495443277.1575241     
   289504397.05464917       -8444351.2217382342        1495880660.9055119     
   276123924.92296666       -10658955.584438771        1501114354.2496204     
  -2399134.1576141827       -9905095.4093189240        1532178380.7093992     
  -2799820.1988288201       -9458044.9448872134        1522640878.8758171     
  -3686834.1338356193       -10632087.459761668        1517677290.2479062     
  -5060175.9626301890       -13427222.953929732        1517287614.8256693     
  -6919845.6852111556       -17843451.427384745        1521471852.6091049     
   1112137476.7890215        6959203.9568755627        1425953659.3103292     
   1073157716.0401278        14870576.053574502        1428144218.0567338     
   1034034007.2197151        22302121.245213509        1432612719.1757450     
   994766350.32778180        29253839.531782806        1439359162.6673627     
   955354745.36432290        35725730.913264096        1448383548.5315890     
   835652586.16008258        1742372.1076930165        1453355257.6002333     
   802379211.88825464        5295560.3447630405        1455045742.8309145     
   768984825.89892578        8445376.1901657581        1459853548.4851060     
   735469428.19209564        11191819.643900365        1467778674.5628102     
   701833018.76776922        13534890.705975264        1478821121.0640256     
   556981402.20473373       -4130347.7394059896        1478408822.5799947     
   531812637.41254836       -4215876.4612066746        1479625993.3746493     
   506545797.25688589       -4628323.0612634420        1484799862.6437159     
   481180881.73774588       -5367687.5395777225        1493930430.3871992     
   455717890.85513169       -6433969.8961403370        1507017696.6050987     
   276123924.92296666       -10658955.584438771        1501114354.2496204     
   261457992.61300895       -13663734.364328831        1501884969.6879375     
   246716921.29360032       -16918976.509056509        1507451661.6515732     
   231900710.96473187       -20424682.018650159        1517814430.1405280     
   217009361.62641275       -24180850.893079579        1532973275.1548007     
  -6919845.6852111556       -17843451.427384745        1521471852.6091049     
  -8684722.5103591532       -23048013.364596251        1521822671.7707796     
  -10501801.990937259       -28426584.153239369        1527808945.5086780     
  -12371084.126949616       -33979163.793331377        1539430673.8228002     
  -14292568.918389289       -39705752.284847081        1556687856.7131429     
   955354745.36432290        35725730.913264096        1448383548.5315890     
   897232481.71675932        42146304.922529191        1436919253.2327361     
   842921339.92073047        61270618.436912984        1442472524.9187174     
   792421319.97623789        93098671.456422716        1465043363.5895324     
   745732421.88327634        137630463.98102802        1504631769.2451844     
   701833018.76776922        13534890.705975264        1478821121.0640256     
   680883370.51478171        22198733.305395573        1470230842.9029834     
   661712806.40958917        36792856.397460848        1472699639.9244411     
   644321326.45218349        57317259.982157409        1486227512.1283991     
   628708930.64257085        83771944.059490964        1510814459.5148566     
   455717890.85513169       -6433969.8961403370        1507017696.6050987     
   454916595.70433110       -634137.39429494739        1498930724.9275017     
   453862346.99758261        4322516.5877220631        1495944336.6300688     
   452555144.73488361        8435992.0499067307        1498058531.7127984     
   450994988.91623574        11706288.992258370        1505273310.1756921     
   217009361.62641275       -24180850.893079579        1532973275.1548007     
   219332157.28541756       -26352307.176513538        1523018899.3062894     
   219369961.68473166       -36140400.992249817        1512206615.0356016     
   217122774.82434806       -53545132.340312123        1500536422.3427384     
   212590596.70427981       -78566501.220657170        1488008321.2277117     
  -14292568.918389289       -39705752.284847081        1556687856.7131429     
  -25869944.741969004       -54955776.041287340        1542495366.0393405     
  -41764349.528980359       -84595896.342502505        1521486475.1410306     
  -61975783.279426321       -128626113.18849660        1493661184.0182171     
  -86504245.993302658       -187046426.57926065        1459019492.6708946     
  -14473.253384463178       -4341.9760153389534        656453176.28010380     
  -48524.437485369388       -14966.259869698519        770973925.25526893     
  -75812.733258984095       -3047.5826332598517        885647432.98493385     
  -96338.140705318729        31414.055694285860        1000473699.4690992     
  -110100.65982441331        88418.655112458233        1115452724.7077644     
  -448293613.76895523       -134488084.13068655        657926198.07096946     
  -447576241.44745928       -125486031.91944063        774138146.26413262     
  -446122740.84483695       -114030218.77110647        888695505.36207771     
  -443933111.96108776       -100120644.68568356        1001598275.3648049     
  -441007354.79621232       -83757309.663172305        1112846456.2723141     
  -890396982.96830940       -267119094.89049283        662353468.04042828     
  -894092038.14041138       -250653521.48390505        781107541.74318886     
  -896321599.63858747       -229302969.16423121        896399678.50101316     
  -897085667.46283782       -203067437.93147141        1008229878.3139014     
  -896384241.61316204       -171946927.78562543        1116598141.1818535     
  -1326324580.8514471       -397897374.25543416        669734986.18848038     
  -1339595914.5163417       -375517434.95326287        791882111.69243741     
  -1350672389.1145108       -345821298.76200801        908759952.40174007     
  -1359554004.6459548       -308808965.68166935        1020368508.3163881     
  -1366240761.1106741       -264480435.71224746        1126707779.4363825     
  -1756076407.4183679       -526822922.22551042        680070752.51512551     
  -1784087870.5752494       -500077772.32751405        806461856.11187816     
  -1809175109.2726066       -463585207.56443655        925776327.06425822     
  -1831338123.5104396       -417345227.93627781        1038014165.3722662     
  -1850576913.2887478       -361357833.44303769        1143175371.0359013     
  -110100.65982441331        88418.655112458233        1115452724.7077644     
  -75712.244822404697        143988.10507420168        1188538997.6966410     
  -58557.331131434512        142112.55066529661        1258545482.3750255     
  -58635.918752066398        82791.991884731557        1325472178.7429180     
  -75948.007683853226       -33973.571266523424        1389319086.8003190     
  -441007354.79621232       -83757309.663172305        1112846456.2723141     
  -442846636.68857163       -69003581.021273464        1181019334.0443513     
  -445540790.59619492       -57099425.763588160        1247438832.3846164     
  -449089816.51908219       -48044843.890115067        1312104951.2931099     
  -453493714.45723373       -41839835.400857672        1375017690.7698312     
  -896384241.61316204       -171946927.78562543        1116598141.1818535     
  -896307454.15939784       -141358118.05574447        1178880378.8041067     
  -897923177.23484993       -116411010.08991829        1240735645.8733079     
  -901231410.83951855       -97105603.888147771        1302163942.3894572     
  -906232154.97340441       -83441899.450433433        1363165268.3525543     
  -1366240761.1106741       -264480435.71224746        1126707779.4363825     
  -1360458164.6573005       -216919622.99833807        1182122131.9759073     
  -1357205717.2470961       -177792640.42832607        1238435922.8411000     
  -1356483418.8800609       -147099488.00221217        1295649152.0319605     
  -1358291269.5561960       -124840165.71999621        1353761819.5484886     
  -1850576913.2887478       -361357833.44303769        1143175371.0359013     
  -1835298768.1822798       -295688095.84905487        1190744593.5597527     
  -1823388410.6329336       -241244316.77881128        1240539663.2879918     
  -1814845840.6407104       -198026496.23230857        1292560580.2206182     
  -1809671058.2056079       -166034634.20954514        1346807344.3576329     
  -75948.007683853226       -33973.571266523424        1389319086.8003190     
  -317251.98450361454       -136345.52219041943        1410026126.3836739     
  -487526.07852157240       -1951.1971083037788        1433732203.6352706     
  -586770.28973794973        369209.40397908015        1460437318.5551090     
  -614984.61815248919        977136.28107259003        1490141471.1431887     
  -453493714.45723373       -41839835.400857672        1375017690.7698312     
  -443925068.91635579       -33159628.315295503        1395603032.1096072     
  -434633352.09476739       -25402516.960699260        1418708701.7863348     
  -425618563.99246770       -18568501.337064952        1444334699.8000140     
  -416880704.60945904       -12657581.444401711        1472481026.1506476     
  -906232154.97340441       -83441899.450433433        1363165268.3525543     
  -888221300.86136889       -66389435.612348884        1383222959.7463102     
  -870835334.07071459       -51419929.512199700        1405322270.1457293     
  -854074254.60144007       -38533381.149985045        1429463199.5508118     
  -837938062.45354712       -27729790.525707543        1455645747.9615574     
  -1358291269.5561960       -124840165.71999621        1353761819.5484886     
  -1333205947.8195431       -99825767.413349330        1372885909.2937851     
  -1309093472.0063624       -78054188.851609111        1393572908.7134559     
  -1285953842.1166546       -59525430.034776986        1415822817.8075006     
  -1263787058.1504178       -44239490.962850392        1439635636.5759199     
  -1809671058.2056079       -166034634.20954514        1346807344.3576329     
  -1778879009.7908792       -133468623.71830153        1364591880.7520306     
  -1749407765.9017129       -105305294.97893220        1383460617.4895127     
  -1721257326.5381098       -81544647.991441429        1403413554.5700805     
  -1694427691.7000697       -62186682.755826890        1424450691.9937336     
  -614984.61815248919        977136.28107259003        1490141471.1431887     
  -472816.86695741990        1203237.2819915810        1493896846.6537399     
  -687134.27332815668        241054.42435857942        1500847844.7234368     
  -1257936.8372617885       -1909412.2918170593        1510994465.3522773     
  -2185224.5587627017       -5248162.8665516907        1524336708.5402632     
  -416880704.60945904       -12657581.444401711        1472481026.1506476     
  -406397864.14912182       -7603582.3865168691        1474206485.6751263     
  -396548258.80992401       -4660367.0657639802        1479576555.9420404     
  -387331888.59186399       -3827935.4821360111        1488591236.9513884     
  -378748753.49494350       -5106287.6356417537        1501250528.7031713     
  -837938062.45354712       -27729790.525707543        1455645747.9615574     
  -815831725.90324068       -17463046.396614581        1455018416.5424621     
  -794635374.43764567       -10229585.883227497        1458484684.0490918     
  -774349008.05676186       -6029408.9855436385        1466044550.4814456     
  -754972626.76059151       -4862515.7035711408        1477698015.8395233     
  -1263787058.1504178       -44239490.962850392        1439635636.5759199     
  -1228774402.1293118       -28375154.748294771        1436332639.2557476     
  -1194948481.1564915       -16466602.028025031        1437572229.0445890     
  -1162309295.2319572       -8513832.8020403981        1443354405.9424448     
  -1130856844.3557081       -4516847.0703431964        1453679169.9493158     
  -1694427691.7000697       -62186682.755826890        1424450691.9937336     
  -1645225892.8273361       -40339907.441562355        1418149153.8149815     
  -1597487578.9664621       -23371415.500160158        1416839190.9285338     
  -1551212750.1174471       -11281206.931623280        1420520803.3343894     
  -1506401406.2802911       -4069281.7359518409        1429193991.0325511     
  -2185224.5587627017       -5248162.8665516907        1524336708.5402632     
  -2845223.7025227984       -8434135.1490677595        1519473748.8646040     
  -3100875.0169161856       -10272281.333694454        1519159707.6675735     
  -2952178.5019475091       -10762601.420447424        1523394584.9491727     
  -2399134.1576141827       -9905095.4093189240        1532178380.7093992     
  -378748753.49494350       -5106287.6356417537        1501250528.7031713     
  -367028733.44866514       -6108137.7325418890        1496816717.1801364     
  -355113651.97018224       -6459783.0554264635        1496853050.6664379     
  -343003509.05948514       -6161223.6042657495        1501359529.1620729     
  -330698304.71658301       -5212459.3790847510        1510336152.6670451     
  -754972626.76059151       -4862515.7035711408        1477698015.8395233     
  -731097654.57940316       -3747763.7314076126        1473449185.0057645     
  -707236907.36316049       -2680428.3090636134        1473591725.7120490     
  -683390385.11186326       -1660509.4365378022        1478125637.9583726     
  -659558087.82551348       -688007.11383742094        1487050921.7447414     
  -1130856844.3557081       -4516847.0703431964        1453679169.9493158     
  -1095051987.0947313       -1353013.1456456184        1449371152.3414855     
  -1059470641.1958542        1065782.9053853154        1449375732.8044045     
  -1024112806.6590811        2739541.0827355981        1453692911.3380711     
  -988978483.48440862        3668261.3864197135        1462322687.9424887     
  -1506401406.2802911       -4069281.7359518409        1429193991.0325511     
  -1458891730.9946494        1076114.0247427225        1424582619.1873016     
  -1411814853.4682651        4778850.5879132748        1424205071.9435065     
  -1365170773.7011354        7038927.9535666704        1428061349.3011684     
  -1318959491.6932659        7856346.1216881275        1436151451.2602863     
  -2399134.1576141827       -9905095.4093189240        1532178380.7093992     
  -2799820.1988288201       -9458044.9448872134        1522640878.8758171     
  -3686834.1338356193       -10632087.459761668        1517677290.2479062     
  -5060175.9626301890       -13427222.953929732        1517287614.8256693     
  -6919845.6852111556       -17843451.427384745        1521471852.6091049     
  -330698304.71658301       -5212459.3790847510        1510336152.6670451     
  -318785389.97607690       -4610658.0024594516        1500261007.4900944     
  -307218707.63558590       -5162964.6258842051        1495048237.9598308     
  -295998257.69511455       -6869379.2493739724        1494697844.0762472     
  -285124040.15465504       -9729901.8729030043        1499209825.8393495     
  -659558087.82551348       -688007.11383742094        1487050921.7447414     
  -634507393.90039527        315798.69585800171        1476601577.9671586     
  -609662836.88152170        632481.48473760486        1471303072.2772694     
  -585024416.76889348        262041.25280013680        1471155404.6750762     
  -560592133.56250906       -795521.99995097518        1476158575.1605744     
  -988978483.48440862        3668261.3864197135        1462322687.9424887     
  -949965831.97178960        5321325.1500490308        1451662590.3070052     
  -911019221.87164462        6754250.8721016049        1446441793.2002287     
  -872138653.18397057        7967038.5525830388        1446660296.6221559     
  -833324125.90876889        8959688.1914893389        1452318100.5727890     
  -1318959491.6932659        7856346.1216881275        1436151451.2602863     
  -1265160704.1902597        10405921.360115588        1425444044.5096364     
  -1211287862.6059518        13202343.536215365        1420464400.7287045     
  -1157340966.9403462        16245612.649971843        1421212519.9174891     
  -1103320017.1934407        19535728.701396048        1427688402.0759892     
  -6919845.6852111556       -17843451.427384745        1521471852.6091049     
  -8684722.5103591532       -23048013.364596251        1521822671.7707796     
  -10501801.990937259       -28426584.153239369        1527808945.5086780     
  -12371084.126949616       -33979163.793331377        1539430673.8228002     
  -14292568.918389289       -39705752.284847081        1556687856.7131429     
  -285124040.15465504       -9729901.8729030043        1499209825.8393495     
  -272633679.31320548       -12620821.481952831        1500071998.9136510     
  -260136804.73710179       -15490028.642158926        1505730367.3872285     
  -247633416.42634869       -18337523.353529923        1516184931.2600832     
  -235123514.38094628       -21163305.616072342        1531435690.5322170     
  -560592133.56250906       -795521.99995097518        1476158575.1605744     
  -536244418.41716313       -2092164.2896378636        1477600604.6026034     
  -511831473.14708483       -3171372.8302169442        1482999570.2669554     
  -487353297.75227803       -4033147.6217007637        1492355472.1536422     
  -462809892.23273444       -4677488.6640653014        1505668310.2626553     
  -833324125.90876889        8959688.1914893389        1452318100.5727890     
  -799516939.82223523        8537958.2123436928        1454408488.8376346     
  -765585807.22088802        8529383.2825754881        1459616554.1478612     
  -731530728.10472894        8933963.4021818638        1467942296.5034685     
  -697351702.47375619        9751698.5711641908        1479385715.9044607     
  -1103320017.1934407        19535728.701396048        1427688402.0759892     
  -1062451243.5284240        19269546.023985207        1430495651.6187444     
  -1021399806.9585125        19612239.696219802        1435581319.0299382     
  -980165707.48370874        20563809.718097091        1442945404.3095667     
  -938748945.10400689        22124256.089635015        1452587907.4576299     
  -14292568.918389289       -39705752.284847081        1556687856.7131429     
  -25869944.741969004       -54955776.041287340        1542495366.0393405     
  -41764349.528980359       -84595896.342502505        1521486475.1410306     
  -61975783.279426321       -128626113.18849660        1493661184.0182171     
  -86504245.993302658       -187046426.57926065        1459019492.6708946     
  -235123514.38094628       -21163305.616072342        1531435690.5322170     
  -255595587.73253548       -37124772.681320503        1514552610.3578160     
  -278211158.67609841       -60231231.719812766        1497808034.6114850     
  -302970227.21164000       -90482682.731564298        1481201963.2932277     
  -329872793.33915627       -127879125.71656936        1464734396.4030352     
  -462809892.23273444       -4677488.6640653014        1505668310.2626553     
  -472305506.96211535       -15389052.193057716        1488630427.1876934     
  -481771087.91201341       -26000503.123772487        1478685953.1933756     
  -491206635.08242863       -36511841.456211239        1475834888.2797027     
  -500612148.47336239       -46923067.190377206        1480077232.4466825     
  -697351702.47375619        9751698.5711641908        1479385715.9044607     
  -675999702.43070734        10251385.423498154        1464728816.5289693     
  -652444137.23671770        18096289.445636153        1464120230.8866987     
  -626685006.89179254        33286410.637562603        1477559958.9776499     
  -598722311.39591980        55821748.999309599        1505048000.8018324     
  -938748945.10400689        22124256.089635015        1452587907.4576299     
  -866678174.13831306        39796540.168349862        1442847778.3816416     
  -790230306.65021896        72059145.988398254        1454110867.6914546     
  -709405342.63972437        118912073.54977921        1486377175.3870680     
  -624203282.10683465        180355322.85248250        1539646701.4684770     
  -1756076407.4183679       -526822922.22551042        680070752.51512551     
  -1784087870.5752494       -500077772.32751405        806461856.11187816     
  -1809175109.2726066       -463585207.56443655        925776327.06425822     
  -1831338123.5104396       -417345227.93627781        1038014165.3722662     
  -1850576913.2887478       -361357833.44303769        1143175371.0359013     
  -2201834668.0476437       -660550400.41429305        696462975.28246701     
  -2238381748.2951474       -613894411.79758990        813880177.88834703     
  -2272888782.7961273       -560438270.69247413        927213344.90303445     
  -2305355771.5505834       -500181977.09894490        1036462476.3265290     
  -2335782714.5585155       -433125531.01700354        1141627572.1588314     
  -2685781568.1178441       -805734470.43535328        722013862.75260746     
  -2722313988.1611714       -736602559.91150355        829425622.53578079     
  -2757690541.1709743       -663617759.27590907        935745943.78094137     
  -2791911227.1472549       -586780068.52857065        1040974826.4880897     
  -2824976046.0900116       -506089487.66948736        1145112270.6572247     
  -3207917107.6289706       -962375132.28869128        756723414.92554700     
  -3235884590.1733212       -868202216.66925502        853098190.05417991     
  -3263580384.3971486       -773123673.31474268        951374123.69798005     
  -3291004490.3004532       -677139502.22515416        1051551215.8569473     
  -3318156907.8832350       -580249703.40048981        1153629466.5310817     
  -3768241286.5810232       -1130472385.9743071        800591631.80128586     
  -3779093554.3315978       -1008693382.0708445        884897880.44354415     
  -3790558312.4746490       -888956012.80897379        974097884.65414965     
  -3802635561.0101795       -771260278.18869638        1068191644.4331020     
  -3815325299.9381852       -655606178.21001005        1167179159.7804015     
  -1850576913.2887478       -361357833.44303769        1143175371.0359013     
  -1835298768.1822798       -295688095.84905487        1190744593.5597527     
  -1823388410.6329336       -241244316.77881128        1240539663.2879918     
  -1814845840.6407104       -198026496.23230857        1292560580.2206182     
  -1809671058.2056079       -166034634.20954514        1346807344.3576329     
  -2335782714.5585155       -433125531.01700354        1141627572.1588314     
  -2312409308.3722172       -352124212.88242006        1182920955.6180336     
  -2292523354.1119771       -282747734.50136483        1224677558.7325799     
  -2276124851.7777953       -224996095.87383837        1266897381.5024693     
  -2263213801.3696728       -178869296.99984217        1309580423.9277029     
  -2824976046.0900116       -506089487.66948736        1145112270.6572247     
  -2798543457.5354371       -411267412.60777038        1179990206.6213524     
  -2775717985.2758574       -328469058.52937090        1213568734.6917796     
  -2756499629.3112736       -257694425.43428838        1245847854.8685064     
  -2740888389.6416836       -198943513.32252300        1276827567.1515324     
  -3318156907.8832350       -580249703.40048981        1153629466.5310817     
  -3293701215.6719394       -473117695.02510595        1181952346.5697081     
  -3272972304.1245751       -378408288.86282706        1207213191.1655903     
  -3255970173.2411413       -296121484.91365409        1229412000.3187284     
  -3242694823.0216417       -226257283.17758906        1248548774.0291204     
  -3815325299.9381852       -655606178.21001005        1167179159.7804015     
  -3797882582.7817235       -537675060.13442481        1188807375.4631016     
  -3784286310.6581287       -432565425.50173485        1205610928.1540127     
  -3774536483.5674033       -340277274.31193745        1217589817.8531351     
  -3768633101.5095448       -260810606.56503689        1224744044.5604694     
  -1809671058.2056079       -166034634.20954514        1346807344.3576329     
  -1778879009.7908792       -133468623.71830153        1364591880.7520306     
  -1749407765.9017129       -105305294.97893220        1383460617.4895127     
  -1721257326.5381098       -81544647.991441429        1403413554.5700805     
  -1694427691.7000697       -62186682.755826890        1424450691.9937336     
  -2263213801.3696728       -178869296.99984217        1309580423.9277029     
  -2223050122.4961200       -134263511.14054692        1317584221.1854000     
  -2185792487.2268348       -99344537.295481205        1328934354.9064796     
  -2151440895.5618200       -74112375.464648485        1343630825.0909436     
  -2119995347.5010734       -58567025.648044109        1361673631.7387905     
  -2740888389.6416836       -198943513.32252300        1276827567.1515324     
  -2684889834.2513103       -140358978.27777827        1273201179.6807036     
  -2633382561.5439119       -96745385.509619355        1275183264.7935576     
  -2586366571.5194907       -68102735.018043399        1282773822.4900937     
  -2543841864.1780429       -54431026.803054094        1295972852.7703111     
  -3242694823.0216417       -226257283.17758906        1248548774.0291204     
  -3164398145.0564528       -151755025.12999463        1231442756.2379444     
  -3092177988.8529444       -97507839.621341825        1222207347.1507478     
  -3026034354.4111195       -63515726.651627779        1220842546.7675309     
  -2965967241.7309756       -49778686.220850587        1227348355.0882959     
  -3768633101.5095448       -260810606.56503689        1224744044.5604694     
  -3661575054.9115448       -168451651.69719636        1192308950.8571196     
  -3562178769.1539330       -101631899.63065302        1170006601.9780488     
  -3470444244.2367096       -60351350.365397453        1157836997.9232574     
  -3386371480.1598725       -44610003.901437402        1155800138.6927440     
  -1694427691.7000697       -62186682.755826890        1424450691.9937336     
  -1645225892.8273361       -40339907.441562355        1418149153.8149815     
  -1597487578.9664621       -23371415.500160158        1416839190.9285338     
  -1551212750.1174471       -11281206.931623280        1420520803.3343894     
  -1506401406.2802911       -4069281.7359518409        1429193991.0325511     
  -2119995347.5010734       -58567025.648044109        1361673631.7387905     
  -2059150506.3842754       -40257853.157265782        1354381470.1843369     
  -1999392565.7792344       -25571682.372342825        1351870289.5615098     
  -1940721525.6859462       -14508513.293263435        1354140089.8703089     
  -1883137386.1044147       -7068345.9200404882        1361190871.1107349     
  -2543841864.1780429       -54431026.803054094        1295972852.7703111     
  -2471955678.9905443       -39839966.587767363        1288129416.4236095     
  -2400779809.8146968       -27616626.411319017        1284856366.6478570     
  -2330314256.6505027       -17761006.273718119        1286153703.4430537     
  -2260559019.4979610       -10273106.174954414        1292021426.8091981     
  -2965967241.7309756       -49778686.220850587        1227348355.0882959     
  -2883641410.6461406       -39086247.733065844        1219392992.5328007     
  -2801649311.0728550       -29506247.617112160        1215797422.1875765     
  -2719990943.0111179       -21038685.872988343        1216561644.0526240     
  -2638666306.4609313       -13683562.500694633        1221685658.1279428     
  -3386371480.1598725       -44610003.901437402        1155800138.6927440     
  -3294207701.3510661       -37996696.593165040        1148172198.5119088     
  -3202001069.5537066       -31240545.989710331        1144693456.1806684     
  -3109751584.7677951       -24341552.091083169        1145363911.6990190     
  -3017459246.9933262       -17299714.897265315        1150183565.0669656     
  -1506401406.2802911       -4069281.7359518409        1429193991.0325511     
  -1458891730.9946494        1076114.0247427225        1424582619.1873016     
  -1411814853.4682651        4778850.5879132748        1424205071.9435065     
  -1365170773.7011354        7038927.9535666704        1428061349.3011684     
  -1318959491.6932659        7856346.1216881275        1436151451.2602863     
  -1883137386.1044147       -7068345.9200404882        1361190871.1107349     
  -1824394298.5281122       -1763196.5780235529        1355834480.3870077     
  -1766201257.0969555        1708465.6135071516        1354848485.2281814     
  -1708558261.8109422        3346640.6545621157        1358232885.6342583     
  -1651465312.6700804        3151328.5451080799        1365987681.6052320     
  -2260559019.4979610       -10273106.174954414        1292021426.8091981     
  -2190192316.8782930       -4691142.4257969856        1285783227.4234557     
  -2120492908.7896607       -1333493.7800922394        1284051994.5660610     
  -2051460795.2320666       -200160.23784446716        1286827728.2370143     
  -1983095976.2055089       -1291141.7990530729        1294110428.4363129     
  -2638666306.4609313       -13683562.500694633        1221685658.1279428     
  -2556285786.0451975       -7707723.5185891390        1214428860.2966475     
  -2474689808.5463891       -4347027.5929092169        1211815599.9571414     
  -2393878373.9645066       -3601474.7236424685        1213845877.1094334     
  -2313851482.2995510       -5471064.9107981920        1220519691.7535143     
  -3017459246.9933262       -17299714.897265315        1150183565.0669656     
  -2922674706.0288215       -10812939.856401324        1141771379.0065792     
  -2828791956.3671341       -7332135.8249202967        1138139301.4014289     
  -2735810998.0082636       -6857302.8028327227        1139287332.2515194     
  -2643731830.9522099       -9388440.7901318073        1145215471.5568476     
  -1318959491.6932659        7856346.1216881275        1436151451.2602863     
  -1265160704.1902597        10405921.360115588        1425444044.5096364     
  -1211287862.6059518        13202343.536215365        1420464400.7287045     
  -1157340966.9403462        16245612.649971843        1421212519.9174891     
  -1103320017.1934407        19535728.701396048        1427688402.0759892     
  -1651465312.6700804        3151328.5451080799        1365987681.6052320     
  -1583326352.2202649        5558269.3572955728        1355481111.1484833     
  -1515106499.7820404        8234850.1308503151        1350310595.6256192     
  -1446805755.3554068        11181070.865765870        1350476135.0366375     
  -1378424118.9403691        14396931.562030673        1355977729.3815391     
  -1983095976.2055089       -1291141.7990530729        1294110428.4363129     
  -1901736008.6255496        637414.84189081192        1283812671.8317537     
  -1820288311.1500723        2858404.4678953886        1278459262.1252496     
  -1738752883.7790766        5371827.0789637566        1278050199.3167946     
  -1657129726.5125628        8177682.6750940084        1282585483.4063928     
  -2313851482.2995510       -5471064.9107981920        1220519691.7535143     
  -2220389673.4061155       -4356642.1861045361        1210438726.5594456     
  -2126833296.7100487       -2926993.4526426792        1204910400.2275958     
  -2033182352.2113519       -1182118.7104133368        1203934712.7579665     
  -1939436839.9100304        877982.04057097435        1207511664.1505542     
  -2643731830.9522099       -9388440.7901318073        1145215471.5568476     
  -2539287346.5619540       -9423901.7266682386        1135359275.3315587     
  -2434741456.4619651       -9121343.6307553053        1129664009.9326584     
  -2330094160.6522331       -8480766.5023736954        1128129675.3601446     
  -2225345459.1327672       -7502170.3415360451        1130756271.6140175     
  -1103320017.1934407        19535728.701396048        1427688402.0759892     
  -1062451243.5284240        19269546.023985207        1430495651.6187444     
  -1021399806.9585125        19612239.696219802        1435581319.0299382     
  -980165707.48370874        20563809.718097091        1442945404.3095667     
  -938748945.10400689        22124256.089635015        1452587907.4576299     
  -1378424118.9403691        14396931.562030673        1355977729.3815391     
  -1331297315.4423759        11239074.853291392        1358047040.5820718     
  -1284249602.3041558        7817583.6119773388        1363319112.4083033     
  -1237280979.5257044        4132457.8380981088        1371793944.8602307     
  -1190391447.1070254        183697.53164768219        1383471537.9378560     
  -1657129726.5125628        8177682.6750940084        1282585483.4063928     
  -1601103913.8751271        2920445.7269703150        1283611477.4559228     
  -1545418944.8621314       -3472936.6359472871        1288764574.8884141     
  -1490074819.4735694       -11002464.413648069        1298044775.7038670     
  -1435071537.7094531       -19668137.606160700        1311452079.9022796     
  -1939436839.9100304        877982.04057097435        1207511664.1505542     
  -1871871038.8266897       -5686341.3550038338        1207188962.2403042     
  -1804907834.6324494       -14259321.047581911        1211917706.4702783     
  -1738547227.3273153       -24840957.037178636        1221697896.8404782     
  -1672789216.9112859       -37431249.323791385        1236529533.3509035     
  -2225345459.1327672       -7502170.3415360451        1130756271.6140175     
  -2143598690.2970531       -14581286.392611504        1128779494.9352114     
  -2062716271.6151059       -24541569.622918844        1132778507.1538937     
  -1982698203.0869277       -37383020.032446861        1142753308.2700608     
  -1903544484.7125266       -53105637.621237874        1158703898.2837143     
  -938748945.10400689        22124256.089635015        1452587907.4576299     
  -866678174.13831306        39796540.168349862        1442847778.3816416     
  -790230306.65021896        72059145.988398254        1454110867.6914546     
  -709405342.63972437        118912073.54977921        1486377175.3870680     
  -624203282.10683465        180355322.85248250        1539646701.4684770     
  -1190391447.1070254        183697.53164768219        1383471537.9378560     
  -1073274554.6014122        20642301.848525465        1376052700.6856411     
  -953876930.02355528        48703346.406207502        1381638510.7926016     
  -832198573.37345266        84366831.204720974        1400228968.2587352     
  -708239484.65110695        127632756.24403399        1431824073.0840561     
  -1435071537.7094531       -19668137.606160700        1311452079.9022796     
  -1295761583.7399862       -3279131.0739514232        1303908775.9486549     
  -1156267262.1484346        13724434.198550880        1301371548.3275850     
  -1016588572.9347850        31342558.211369932        1303840397.0390689     
  -876725516.09904969        49575240.964484334        1311315322.0831077     
  -1672789216.9112859       -37431249.323791385        1236529533.3509035     
  -1534139261.5540366       -31967758.599069595        1226416004.1706851     
  -1397401303.0248513       -32877590.634562016        1213309980.2964034     
  -1262575341.3237319       -40160745.430262983        1197211461.7280495     
  -1129661376.4506671       -53817222.986167729        1178120448.4656339     
  -1903544484.7125266       -53105637.621237874        1158703898.2837143     
  -1788407588.0435576       -65423580.726818979        1143574385.3517344     
  -1677279052.6528141       -91102728.093145549        1117453806.6990616     
  -1570158878.5402732       -130143079.72016752        1080342162.3257005     
  -1467047065.7059588       -182544635.60792208        1032239452.2316399     
  -3768241286.5810232       -1130472385.9743071        800591631.80128586     
  -3779093554.3315978       -1008693382.0708445        884897880.44354415     
  -3790558312.4746490       -888956012.80897379        974097884.65414965     
  -3802635561.0101795       -771260278.18869638        1068191644.4331020     
  -3815325299.9381852       -655606178.21001005        1167179159.7804015     
  -4339657783.6402769       -1301897335.0920832        858769155.25638258     
  -4335188608.9719772       -1125722080.6100736        942378676.99379253     
  -4331856791.5967064       -953338017.10482001        1020327187.1977090     
  -4329662331.5144606       -784745144.57632267        1092614685.8681319     
  -4328605228.7252426       -619943463.02458179        1159241173.0050609     
  -4895070277.4730091       -1468521083.2419026        936406627.16739643     
  -4905436137.8196678       -1246996521.4114957        1018707077.2826508     
  -4917464222.3599014       -1031012706.8930078        1084791748.7625706     
  -4931154531.0937119       -820569639.68643987        1134660641.6071563     
  -4946507064.0210962       -615667319.79179192        1168313755.8164077     
  -5434478768.0792179       -1630343630.4237654        1033504047.5343275     
  -5489836140.8746634       -1372516704.4751091        1113883081.3101184     
  -5547380604.7642336       -1121980082.1735363        1167491569.3487349     
  -5607112159.7479305       -878733763.51904774        1194329511.6501763     
  -5669030805.8257494       -642777748.51164293        1194396908.2144427     
  -5957883255.4589062       -1787364976.6376717        1150061416.3571758     
  -6088388618.1369677       -1502282629.8009152        1227906689.0761964     
  -6221605938.8097048       -1226240142.9464071        1268426648.9562016     
  -6357535217.4771166       -959237516.07414544        1271621295.9971912     
  -6496176454.1392012       -701274749.18413186        1237490630.1991653     
  -3815325299.9381852       -655606178.21001005        1167179159.7804015     
  -3797882582.7817235       -537675060.13442481        1188807375.4631016     
  -3784286310.6581287       -432565425.50173485        1205610928.1540127     
  -3774536483.5674033       -340277274.31193745        1217589817.8531351     
  -3768633101.5095448       -260810606.56503689        1224744044.5604694     
  -4328605228.7252426       -619943463.02458179        1159241173.0050609     
  -4298138549.3327465       -464153296.07486558        1141277567.8317363     
  -4278293449.5151420       -343768394.37478924        1129420354.5531189     
  -4269069929.2724299       -258788757.92435098        1123669533.1692088     
  -4270467988.6046076       -209214386.72354722        1124025103.6800060     
  -4946507064.0210962       -615667319.79179192        1168313755.8164077     
  -4871784837.0025806       -412648628.35095072        1102854006.1546981     
  -4814459324.1009779       -267618983.96649075        1054431703.2741919     
  -4774530525.3162899       -180578386.63841176        1023046847.1748884     
  -4751998440.6485157       -151526836.36671376        1008699437.8567883     
  -5669030805.8257494       -642777748.51164293        1194396908.2144427     
  -5518821445.7912226       -383161056.96267748        1073536690.4319885     
  -5392783934.4156332       -204117194.27683711        980644974.31723332     
  -5290918271.6989822       -105646160.45412326        915721759.87017620     
  -5213224457.6412668       -87747955.494533062        878767047.09081900     
  -6496176454.1392012       -701274749.18413186        1237490630.1991653     
  -6239248375.6986771       -375690581.91004872        1053325620.6636058     
  -6013267280.4591112       -153263025.30583239        908060167.68224049     
  -5818233168.4205065       -33992079.371484995        801694271.25506985     
  -5654146039.5828629       -17877744.107003927        734227931.38209617     
  -3768633101.5095448       -260810606.56503689        1224744044.5604694     
  -3661575054.9115448       -168451651.69719636        1192308950.8571196     
  -3562178769.1539330       -101631899.63065302        1170006601.9780488     
  -3470444244.2367096       -60351350.365397453        1157836997.9232574     
  -3386371480.1598725       -44610003.901437402        1155800138.6927440     
  -4270467988.6046076       -209214386.72354722        1124025103.6800060     
  -4148176800.7487984       -145281576.90500164        1090679858.8233361     
  -4030262935.8710561       -95939843.680010319        1065479549.7366931     
  -3916726393.9713788       -61189187.048570395        1048424176.4200764     
  -3807567175.0497689       -41029607.010684252        1039513738.8734858     
  -4751998440.6485157       -151526836.36671376        1008699437.8567883     
  -4620153565.9756184       -117724007.92967677        978275886.01950860     
  -4489401576.4184656       -87564129.878455877        954009460.89800251     
  -4359742471.9770565       -61047202.213046312        935900162.49227023     
  -4231176252.6513925       -38173224.933451176        923947990.80231249     
  -5213224457.6412668       -87747955.494533062        878767047.09081900     
  -5077505350.5920029       -85778944.771222591        855097032.44563556     
  -4939594690.7961626       -76504758.225986481        835596335.46197546     
  -4799492478.2537432       -59925395.858826876        820264956.13983619     
  -4657198712.9647465       -36040857.669736385        809102894.47921896     
  -5654146039.5828629       -17877744.107003927        734227931.38209617     
  -5520232154.5979538       -49446387.429636717        721143298.10172129     
  -5380842279.0041456       -62761728.722604275        710240173.42861426     
  -5235976412.8014383       -57823767.985906601        701518557.36277938     
  -5085634555.9898291       -34632505.219541311        694978449.90421069     
  -3386371480.1598725       -44610003.901437402        1155800138.6927440     
  -3294207701.3510661       -37996696.593165040        1148172198.5119088     
  -3202001069.5537066       -31240545.989710331        1144693456.1806684     
  -3109751584.7677951       -24341552.091083169        1145363911.6990190     
  -3017459246.9933262       -17299714.897265315        1150183565.0669656     
  -3807567175.0497689       -41029607.010684252        1039513738.8734858     
  -3702680642.7183981       -29903717.607411385        1030861542.9654539     
  -3598527920.1501908       -21223860.748023748        1026805517.5878780     
  -3495109007.3451538       -14990036.432532549        1027345662.7407584     
  -3392423904.3032851       -11202244.660936356        1032481978.4240960     
  -4231176252.6513925       -38173224.933451176        923947990.80231249     
  -4112289901.9949880       -22151633.994428396        913365432.62340462     
  -3994914023.8534718       -11164951.438373089        907826017.65581656     
  -3879048618.2268476       -5213177.2652888298        907329745.89954686     
  -3764693685.1151128       -4296311.4751713276        911876617.35460031     
  -4657198712.9647465       -36040857.669736385        809102894.47921896     
  -4523035479.1808424       -14740445.754225731        795683867.48576164     
  -4391159380.6635494       -1063818.0607602596        787754956.38448739     
  -4261570417.4128709        4989025.4106616974        785316161.17539489     
  -4134268589.4288058        3418084.6600389481        788367481.85848486     
  -5085634555.9898291       -34632505.219541311        694978449.90421069     
  -4934917374.2759600       -7670152.8868050575        677816847.55252612     
  -4787263990.5804253        9079539.3848087788        666592333.77388620     
  -4642674404.9032288        15616571.595305681        661304908.56829238     
  -4501148617.2443647        11940943.744681358        661954571.93574536     
  -3017459246.9933262       -17299714.897265315        1150183565.0669656     
  -2922674706.0288215       -10812939.856401324        1141771379.0065792     
  -2828791956.3671341       -7332135.8249202967        1138139301.4014289     
  -2735810998.0082636       -6857302.8028327227        1139287332.2515194     
  -2643731830.9522099       -9388440.7901318073        1145215471.5568476     
  -3392423904.3032851       -11202244.660936356        1032481978.4240960     
  -3286438338.3023944       -8234480.7936525345        1024152809.7576789     
  -3180912479.1044998       -6799072.9363595247        1020471785.2425346     
  -3075846326.7096004       -6896021.0890583992        1021438904.8786607     
  -2971239881.1177063       -8525325.2517553568        1027054168.6660604     
  -3764693685.1151128       -4296311.4751713276        911876617.35460031     
  -3647884134.9463091       -4960671.0420067310        904146231.33194470     
  -3531092207.0806813       -5683771.6194355488        900932025.15659261     
  -3414317901.5182371       -6465613.2074742317        902233998.82854497     
  -3297561218.2589731       -7306195.8061099052        908052152.34780157     
  -4134268589.4288058        3418084.6600389481        788367481.85848486     
  -4007012095.9605689       -991510.60146546364        781751643.72937667     
  -3879331140.2956910       -3986231.8741714954        779520021.14360476     
  -3751225722.4341736       -5566079.1580784321        781672614.10116839     
  -3622695842.3760204       -5731052.4531955719        788209422.60207152     
  -4501148617.2443647        11940943.744681358        661954571.93574536     
  -4363822221.3451672        3673000.5279788971        656969046.94997168     
  -4225629278.7495146       -1706453.7005355358        656235773.20356810     
  -4086569789.4574099       -4197418.9408726692        659754750.69653559     
  -3946643753.4688463       -3799895.1930212975        667525979.42886925     
  -2643731830.9522099       -9388440.7901318073        1145215471.5568476     
  -2539287346.5619540       -9423901.7266682386        1135359275.3315587     
  -2434741456.4619651       -9121343.6307553053        1129664009.9326584     
  -2330094160.6522331       -8480766.5023736954        1128129675.3601446     
  -2225345459.1327672       -7502170.3415360451        1130756271.6140175     
  -2971239881.1177063       -8525325.2517553568        1027054168.6660604     
  -2855393706.1676817       -7354072.1480373144        1017805981.7309333     
  -2739464546.3098402       -5906202.6849238873        1012888922.6984129     
  -2623452401.5441799       -4181716.8624165058        1012302991.5684985     
  -2507357271.8707085       -2180614.6805331707        1016048188.3411889     
  -3297561218.2589731       -7306195.8061099052        908052152.34780157     
  -3169827075.3885546       -4782345.4539432526        899390483.76726246     
  -3042028368.4122400       -2043281.4154539108        895230140.16554761     
  -2914165097.3300309        910996.30935621262        895571121.54265952     
  -2786237262.1419253        4080487.7204886675        900413427.89859557     
  -3622695842.3760204       -5731052.4531955719        788209422.60207152     
  -3482587454.2245817       -1708721.6443922520        780112781.44054651     
  -3342432922.7691665        2467420.1776669025        776687662.33406317     
  -3202232248.0097766        6797373.0129669905        777934065.28262794     
  -3061985429.9464068        11281136.861533642        783851990.28623426     
  -3946643753.4688463       -3799895.1930212975        667525979.42886925     
  -3793674842.6757588        1866799.2806036472        659972874.75078309     
  -3640678209.3806190        7625902.0944130421        657261489.20396090     
  -3487653853.5834241        13477413.248403072        659391822.78840339     
  -3334601775.2841725        19421332.742586613        666363875.50410736     
  -2225345459.1327672       -7502170.3415360451        1130756271.6140175     
  -2143598690.2970531       -14581286.392611504        1128779494.9352114     
  -2062716271.6151059       -24541569.622918844        1132778507.1538937     
  -1982698203.0869277       -37383020.032446861        1142753308.2700608     
  -1903544484.7125266       -53105637.621237874        1158703898.2837143     
  -2507357271.8707085       -2180614.6805331707        1016048188.3411889     
  -2411502922.6640644       -7370851.6191773415        1013416768.3769571     
  -2316469429.7809415       -15297276.302898645        1015225649.2361614     
  -2222256793.2213426       -25959888.731698036        1021474830.9188023     
  -2128865012.9852681       -39358688.905575633        1032164313.4248774     
  -2786237262.1419253        4080487.7204886675        900413427.89859557     
  -2680662441.3473525       -537002.74062621593        897178107.45089328     
  -2575864983.0460591       -7745701.5126696825        896847599.75257552     
  -2471844887.2380404       -17545608.595630884        899421904.80364418     
  -2368602153.9233007       -29936723.989517570        904901022.60409796     
  -3061985429.9464068        11281136.861533642        783851990.28623426     
  -2951077246.3469167        5920260.2430369854        780063512.15701556     
  -2840902931.4104524       -1886845.2522249222        777644358.70313036     
  -2731462485.1370153       -12140179.624244928        776594529.92458105     
  -2622755907.5266099       -24839742.873023987        776914025.82136357     
  -3334601775.2841725        19421332.742586613        666363875.50410736     
  -3222747337.6627545        12000937.331828237        662072982.49532604     
  -3111583274.8741236        2279292.4784495831        657615926.08783174     
  -3001109586.9182730       -9743601.8175379038        652992706.28161657     
  -2891326273.7952089       -24067745.556137443        648203323.07668781     
  -1903544484.7125266       -53105637.621237874        1158703898.2837143     
  -1788407588.0435576       -65423580.726818979        1143574385.3517344     
  -1677279052.6528141       -91102728.093145549        1117453806.6990616     
  -1570158878.5402732       -130143079.72016752        1080342162.3257005     
  -1467047065.7059588       -182544635.60792208        1032239452.2316399     
  -2128865012.9852681       -39358688.905575633        1032164313.4248774     
  -2032651194.8149161       -55882723.296142340        1012800252.0789298     
  -1938235319.6157506       -78399900.923998475        990841678.67435110     
  -1845617387.3877652       -106910221.78911000        966288593.21113515     
  -1754797398.1309564       -141413685.89149994        939140995.68929064     
  -2368602153.9233007       -29936723.989517570        904901022.60409796     
  -2267321260.9313908       -43469803.669008851        883881234.20238340     
  -2165627892.6036305       -55627965.562327862        868663487.40409982     
  -2063522048.9400165       -66411209.669485450        859247782.20924759     
  -1961003729.9405475       -75819535.990455747        855634118.61781430     
  -2622755907.5266099       -24839742.873023987        776914025.82136357     
  -2492417786.3929715       -28184821.845389843        756817331.72209597     
  -2359456771.6164489       -22786922.008145690        750919232.88831830     
  -2223872863.1970439       -8646043.3612778187        759219729.32002735     
  -2085666061.1347523        14237814.095200896        781718821.01722121     
  -2891326273.7952089       -24067745.556137443        648203323.07668781     
  -2707940771.1996756       -10027777.825337529        631608544.63806939     
  -2519721956.6542168        20123229.738553762        637608915.12700081     
  -2326669830.1588383        66385277.135478735        666204434.54347897     
  -2128784391.7135482        128758364.36548686        717395102.88750291     
  -5957883255.4589062       -1787364976.6376717        1150061416.3571758     
  -6088388618.1369677       -1502282629.8009152        1227906689.0761964     
  -6221605938.8097048       -1226240142.9464071        1268426648.9562016     
  -6357535217.4771166       -959237516.07414544        1271621295.9971912     
  -6496176454.1392012       -701274749.18413186        1237490630.1991653     
  -6810600438.7368364       -2043180131.6210508        1353761440.1901381     
  -6828512813.9686918       -1395536247.3615279        1202748643.1659777     
  -6897771629.9721251       -919047165.67393351        1092003102.2265072     
  -7018376886.7471399       -613712886.55826855        1021524817.3717265     
  -7190328584.2937307       -479533410.01453304        991313788.60163593     
  -8337947017.0377731       -2501384105.1113319        1712286825.5874124     
  -8021573350.7556934       -1424670767.2087235        1275675728.9136822     
  -7805180608.0220985       -681227174.46772599        956924457.24834728     
  -7688768788.8369837       -271053326.88833904        756033010.59140742     
  -7672337893.2003536       -194149224.47056341        673001388.94286275     
  -10539922990.361721       -3161976897.1085162        2225637572.5489979     
  -9667570228.4979725       -1589686189.3425024        1446687946.3193095     
  -8943832872.9596176       -512780169.32778263        863190714.02172196     
  -8368710923.7466469        68741162.935644627        475145875.65623403     
  -7942204380.8590622        154877807.44778109        282553431.22284663     
  -13416528358.708673       -4024958507.6126022        2893813681.0748949     
  -11766503447.195534       -1890582513.7628658        1715785295.3828599     
  -10313728424.784685       -413706150.25410414        810801872.54662991     
  -9058203291.4761276        405670582.91368580        178863412.56620613     
  -7999928047.2698650        567547685.74049807       -180030084.55841133     
  -6496176454.1392012       -701274749.18413186        1237490630.1991653     
  -6239248375.6986771       -375690581.91004872        1053325620.6636058     
  -6013267280.4591112       -153263025.30583239        908060167.68224049     
  -5818233168.4205065       -33992079.371484995        801694271.25506985     
  -5654146039.5828629       -17877744.107003927        734227931.38209617     
  -7190328584.2937307       -479533410.01453304        991313788.60163593     
  -6900531549.6476822       -304195241.13679481        846928442.91637027     
  -6623585388.9490347       -171693318.75040054        723599506.61877906     
  -6359490102.1977901       -82027642.855348349        621326979.70885897     
  -6108245689.3939486       -35198213.451638460        540110862.18661308     
  -7672337893.2003536       -194149224.47056341        673001388.94286275     
  -7400652322.8245554       -184351180.13190174        589507834.57037699     
  -7123721517.1426039       -157069018.10606050        509227542.41904110     
  -6841545476.1544971       -112302738.39303803        432160512.48885655     
  -6554124199.8602371       -50052340.992834568        358306744.77982217     
  -7942204380.8590622        154877807.44778109        282553431.22284663     
  -7739610695.2292957       -16158398.895369053        281063795.62562442     
  -7513675665.0398169       -109390123.37281322        264944275.08302796     
  -7264399290.2906284       -124817365.98455524        234194869.59506235     
  -6991781570.9817286       -62440126.730592728        188815579.16172299     
  -7999928047.2698650        567547685.74049807       -180030084.55841133     
  -7917406666.8619080        200383102.57280111       -78403673.917888954     
  -7793447832.6406794       -28656634.550663948       -9250295.3892621994     
  -7628051544.6061850       -119571525.62990093        27430051.027476013     
  -7421217802.7584181       -72361570.664906025        31637365.332314786     
  -5654146039.5828629       -17877744.107003927        734227931.38209617     
  -5520232154.5979538       -49446387.429636717        721143298.10172129     
  -5380842279.0041456       -62761728.722604275        710240173.42861426     
  -5235976412.8014383       -57823767.985906601        701518557.36277938     
  -5085634555.9898291       -34632505.219541311        694978449.90421069     
  -6108245689.3939486       -35198213.451638460        540110862.18661308     
  -5959159739.2794895       -36873360.596812010        533930858.72784263     
  -5808996786.2563496       -34958498.046392679        530341666.87435126     
  -5657756830.3245344       -29453625.800383568        529343286.62614220     
  -5505439871.4840403       -20358743.858783245        530935717.98321038     
  -6554124199.8602371       -50052340.992834568        358306744.77982217     
  -6388696747.4790525       -21483160.819396734        353899218.82573122     
  -6226591279.8894100       -3987263.2844414711        352491807.47492909     
  -6067807797.0913143        2435351.6120293140        354084510.72741801     
  -5912346299.0847616       -2215316.1299784184        358677328.58319747     
  -6991781570.9817286       -62440126.730592728        188815579.16172299     
  -6808843179.1966438       -3275788.0973911285        181048378.39538348     
  -6633625759.9033260        30151975.563258171        176690595.23034525     
  -6466129313.1017780        37843164.251340628        175742229.66660845     
  -6306353838.7919941        19797777.966873407        178203281.70417273     
  -7421217802.7584181       -72361570.664906025        31637365.332314786     
  -7219599034.4322634        17748757.569210052        15378337.436800484     
  -7030100226.2980967        67459218.496698856        2938030.1405992368     
  -6852721378.3559237        76769812.117545128       -5683556.5562880319     
  -6687462490.6057358        45680538.431768894       -10486422.653866328     
  -5085634555.9898291       -34632505.219541311        694978449.90421069     
  -4934917374.2759600       -7670152.8868050575        677816847.55252612     
  -4787263990.5804253        9079539.3848087788        666592333.77388620     
  -4642674404.9032288        15616571.595305681        661304908.56829238     
  -4501148617.2443647        11940943.744681358        661954571.93574536     
  -5505439871.4840403       -20358743.858783245        530935717.98321038     
  -5344800220.8054419       -8713521.7691688538        515540455.47310179     
  -5185202276.8179979       -540655.31674623489        505375495.18815136     
  -5026646039.5217037        4159855.4985060692        500440837.12836397     
  -4869131508.9165697        5388010.6765713692        500736481.29373449     
  -5912346299.0847616       -2215316.1299784184        358677328.58319747     
  -5743803569.0068235       -6493041.1531105042        347407512.46304595     
  -5574280454.2928562       -7502817.3894817829        340661212.22016221     
  -5403776954.9428616       -5244644.8390998840        338438427.85455602     
  -5232293070.9568424        281476.49804115295        340739159.36621928     
  -6306353838.7919941        19797777.966873407        178203281.70417273     
  -6131927418.8801031       -1008711.0386142731        173418018.52234748     
  -5954498523.0049992       -11806946.833397865        172449484.86991340     
  -5774067151.1666946       -12596929.417508602        175297680.74686384     
  -5590633303.3651800       -3378658.7909150124        181962606.15320563     
  -6687462490.6057358        45680538.431768894       -10486422.653866328     
  -6509171770.4252825        7739468.5743072033       -6428026.3489753408     
  -6325856482.9544382       -13453043.648517609        740313.13740952068     
  -6137516628.1932058       -17896998.236717463        11018595.805300748     
  -5944152206.1415825       -5592395.1902809143        24406821.654691614     
  -4501148617.2443647        11940943.744681358        661954571.93574536     
  -4363822221.3451672        3673000.5279788971        656969046.94997168     
  -4225629278.7495146       -1706453.7005355358        656235773.20356810     
  -4086569789.4574099       -4197418.9408726692        659754750.69653559     
  -3946643753.4688463       -3799895.1930212975        667525979.42886925     
  -4869131508.9165697        5388010.6765713692        500736481.29373449     
  -4719979392.1710768        2699344.3112397194        497662333.78973609     
  -4570713984.5930052        388314.05450129509        498145117.96243525     
  -4421335286.1823540       -1545080.0936355591        502184833.81182826     
  -4271843296.9391251       -3100838.1331760883        509781481.33791715     
  -5232293070.9568424        281476.49804115295        340739159.36621928     
  -5073301860.6869783        2576098.7875056267        338697590.83614224     
  -4914950615.4484158        2737504.3059692383        339517634.42008638     
  -4757239335.2411480        765693.05344295502        343199290.11805147     
  -4600168020.0651789       -3339334.9700703621        349742557.93003666     
  -5590633303.3651800       -3378658.7909150124        181962606.15320563     
  -5423789626.8928728        3303263.9567673206        180074818.08919036     
  -5258339171.3157415        5341117.0538673401        180353322.57652462     
  -5094281936.6337881        2734900.5003745556        182798119.61520430     
  -4931617922.8470106       -4515385.7037041187        187409209.20523041     
  -5944152206.1415825       -5592395.1902809143        24406821.654691614     
  -5771442690.7887573        4880839.8190422058        21794015.548880324     
  -5600879652.1949921        8199152.2981736660        20652182.431747444     
  -5432463090.3602715        4362542.2471513748        20981322.303279914     
  -5266193005.2846069       -6628990.3340544701        22781435.163498320     
  -3946643753.4688463       -3799895.1930212975        667525979.42886925     
  -3793674842.6757588        1866799.2806036472        659972874.75078309     
  -3640678209.3806190        7625902.0944130421        657261489.20396090     
  -3487653853.5834241        13477413.248403072        659391822.78840339     
  -3334601775.2841725        19421332.742586613        666363875.50410736     
  -4271843296.9391251       -3100838.1331760883        509781481.33791715     
  -4106956819.2899599        679912.25930857658        501320434.40137720     
  -3941710119.1259441        5661404.3679568768        497620245.31851250     
  -3776103196.4470906        11843638.192738056        498680914.08932745     
  -3610136051.2533860        19226613.733689785        504502440.71381634     
  -4600168020.0651789       -3339334.9700703621        349742557.93003666     
  -4423595007.7816038       -1513838.3252084255        340761485.41662848     
  -4246329272.9703913        2620733.4117705822        336460409.47931045     
  -4068370815.6315508        9064380.2408382893        336839330.11808264     
  -3889719635.7650723        17817102.162041426        341898247.33294374     
  -4931617922.8470106       -4515385.7037041187        187409209.20523041     
  -4743589408.1506977       -4714452.4729759693        178296027.79653966     
  -4554535670.9139614       -1496110.7741589546        173781981.68634769     
  -4364456711.1368103        5139639.3926942348        173867070.87466386     
  -4173352528.8192348        15192798.027644396        178551295.36148307     
  -5266193005.2846069       -6628990.3340544701        22781435.163498320     
  -5066940020.3972311       -8921930.1839485168        13924061.541105319     
  -4866329312.9566526       -6689128.1898255348        9584961.9396344461     
  -4664360882.9628677        69415.648323535919        9764136.3590764143     
  -4461034730.4158640        11353701.330521345        14461584.799443714     
  -3334601775.2841725        19421332.742586613        666363875.50410736     
  -3222747337.6627545        12000937.331828237        662072982.49532604     
  -3111583274.8741236        2279292.4784495831        657615926.08783174     
  -3001109586.9182730       -9743601.8175379038        652992706.28161657     
  -2891326273.7952089       -24067745.556137443        648203323.07668781     
  -3610136051.2533860        19226613.733689785        504502440.71381634     
  -3494845537.3212171        10859658.355324984        499568028.79964024     
  -3380275866.7000527        89891.940279722214        497661352.82343596     
  -3266427039.3898902       -13082685.511443377        498782412.78520375     
  -3153299055.3907380       -28658073.999847531        502931208.68494201     
  -3889719635.7650723        17817102.162041426        341898247.33294374     
  -3761867618.8458996        11241214.818952560        336284769.95544952     
  -3634766913.7159519        2160954.8451156616        336892927.85260731     
  -3508417520.3752289       -9423677.7594685555        343722721.02443063     
  -3382819438.8237281       -23512682.994796038        356774149.47091329     
  -4173352528.8192348        15192798.027644396        178551295.36148307     
  -4023813582.2368031        13145606.722716808        172223205.96273884     
  -3875056415.9218206        8492481.1929590702        175310651.17534581     
  -3727081029.8742828        1233421.4383869171        187813630.99929944     
  -3579887424.0941858       -8631572.5409913063        209732145.43460131     
  -4461034730.4158640        11353701.330521345        14461584.799443714     
  -4280683427.4939280        16572834.066612005        7383336.8215301912     
  -4101144373.3176565        19084470.983816862        12914522.791646279     
  -3922417567.8870525        18888612.082145452        31055142.709806871     
  -3744503011.2021112        15985257.361572981        61805196.576001875     
  -2891326273.7952089       -24067745.556137443        648203323.07668781     
  -2707940771.1996756       -10027777.825337529        631608544.63806939     
  -2519721956.6542168        20123229.738553762        637608915.12700081     
  -2326669830.1588383        66385277.135478735        666204434.54347897     
  -2128784391.7135482        128758364.36548686        717395102.88750291     
  -3153299055.3907380       -28658073.999847531        502931208.68494201     
  -2928362027.4920282       -8513680.6129372120        494453877.77470893     
  -2701268726.3666487        18818290.196229935        493935396.09564865     
  -2472019152.0145845        53337838.427682281        501375763.64776880     
  -2240613304.4358301        95044964.081402302        516774980.43105018     
  -3382819438.8237281       -23512682.994796038        356774149.47091329     
  -3158148884.7543502       -9809263.6915290356        353291054.24528223     
  -2933999096.1815314        2158270.6232033968        343130508.55446035     
  -2710370073.1052766        12389919.949398637        326292512.39843130     
  -2487261815.5255771        20885684.287071705        302777065.77720952     
  -3579887424.0941858       -8631572.5409913063        209732145.43460131     
  -3397301342.9866414       -13914527.061157703        208120074.04979870     
  -3217913066.0988774       -29856828.980604887        185194252.50342402     
  -3041722593.4309130       -56458478.299376488        140954680.79547665     
  -2868729924.9827499       -93719475.017486572        75401358.925963357     
  -3744503011.2021112        15985257.361572981        61805196.576001875     
  -3645819402.1888752       -20829470.721715450        58940937.188253134     
  -3553010636.1186781       -77227008.615123034        20126627.942554377     
  -3466076712.9915180       -153207356.31863892       -54637731.161088146     
  -3385017632.8073816       -248770513.83227587       -165352140.12268165     
 </DataArray>
 <DataArray  type="Float64" Name="VM" NumberOfComponents="1" format="ascii">
   12935517067.424250     
   11340741324.248783     
   10210298500.051233     
   9272897908.7838154     
   8304133963.5027113     
   10130243848.588268     
   9322014613.3810616     
   8826398357.8623734     
   8443600329.8717804     
   8035830549.7719793     
   7982315382.3694792     
   7734963820.8687544     
   7669166821.9255810     
   7669641042.4368525     
   7666462778.4840021     
   6491645361.3551722     
   6586875044.8715916     
   6757435591.5448551     
   6961255614.0985289     
   7171677999.0177231     
   5657787602.4745331     
   5890906443.4804993     
   6116392139.1441088     
   6331789375.0574827     
   6536877119.5776358     
   8304133963.5027113     
   8020735357.5361032     
   7779371889.6492167     
   7569388546.1120090     
   7385819131.8987036     
   8035830549.7719793     
   7746973094.3015337     
   7473753036.9998970     
   7214218894.1413774     
   6968373199.3045979     
   7666462778.4840021     
   7381287722.3974161     
   7101487504.9148092     
   6827137247.5787535     
   6558435235.1486702     
   7171677999.0177231     
   6911118325.3992615     
   6658438833.2698126     
   6409776600.4886847     
   6161984766.6022167     
   6536877119.5776358     
   6328818387.0652714     
   6142912503.6649151     
   5965251252.8170233     
   5786828299.1565390     
   7385819131.8987036     
   7228506866.7038383     
   7063765683.7807007     
   6890919300.7363396     
   6709782867.8779573     
   6968373199.3045979     
   6814393147.7028379     
   6655860513.7403345     
   6492497642.1909332     
   6324249118.6256151     
   6558435235.1486702     
   6407358768.0569372     
   6254709776.7133102     
   6100457903.9917641     
   5944630064.4428997     
   6161984766.6022167     
   6012393838.9008703     
   5864212875.9491291     
   5717482720.6544418     
   5572263363.3366137     
   5786828299.1565390     
   5635946409.2805634     
   5489386729.6191893     
   5347066315.2345667     
   5209040218.5911942     
   6709782867.8779573     
   6513454637.1551456     
   6320482347.5015421     
   6130778884.9751978     
   5944355393.5620241     
   6324249118.6256151     
   6139436149.2885923     
   5956861791.7887669     
   5776511514.1071596     
   5598424878.8162069     
   5944630064.4428997     
   5772569108.4464455     
   5601880485.0329695     
   5432588671.1412373     
   5264757101.2521458     
   5572263363.3366137     
   5414692770.5258427     
   5257909301.4211397     
   5101947302.2616663     
   4946901867.0417490     
   5209040218.5911942     
   5068242115.6143217     
   4927975877.1319847     
   4788262159.3716068     
   4649250481.3889503     
   5944355393.5620241     
   5774994225.0584812     
   5604251943.4679670     
   5432119542.0855980     
   5258614414.1808348     
   5598424878.8162069     
   5434123911.2899103     
   5269207927.2828093     
   5103701126.5655403     
   4937651378.6517830     
   5264757101.2521458     
   5107356045.6522942     
   4950277580.0139837     
   4793592964.4819107     
   4637402866.6687508     
   4946901867.0417490     
   4798076801.5304470     
   4650694104.1115580     
   4504879243.2102938     
   4360800702.5657806     
   4649250481.3889503     
   4510424394.7065001     
   4374347212.5133610     
   4241195129.8229280     
   4111207319.0155678     
   5258614414.1808348     
   5059728244.4737101     
   4862140177.1105804     
   4665834307.4745550     
   4470848799.9179001     
   4937651378.6517830     
   4750028532.4163465     
   4563755899.2312593     
   4378863078.0446119     
   4195435313.4545674     
   4637402866.6687508     
   4461847577.0258036     
   4287811618.5445848     
   4115387652.3764520     
   3944731752.6521397     
   4360800702.5657806     
   4198425021.9429579     
   4037887932.6014757     
   3879365439.5482612     
   3723111155.2555356     
   4111207319.0155678     
   3963448261.5377526     
   3818025603.2175083     
   3675217976.5632610     
   3535400891.2818666     
   4470848799.9179001     
   4295450520.6813984     
   4117809277.9161878     
   3937993978.2672892     
   3756467631.4977603     
   4195435313.4545674     
   4043884795.8488555     
   3891801954.5626287     
   3739406540.3007774     
   3587183810.5861702     
   3944731752.6521397     
   3811730584.4813828     
   3679409937.4899774     
   3548014391.0205588     
   3417933952.3932896     
   3723111155.2555356     
   3603111258.5851879     
   3484340896.7973032     
   3366977661.9822240     
   3251254046.7426114     
   3535400891.2818666     
   3422735040.7344284     
   3311047135.9953494     
   3200391257.4748564     
   3090831030.4260426     
   3756467631.4977603     
   3615741028.7077389     
   3481083260.5299301     
   3353177326.1662784     
   3235436630.8625517     
   3587183810.5861702     
   3401009224.1819706     
   3217079649.1778898     
   3035863404.1391459     
   2859071291.4403248     
   3417933952.3932896     
   3210139493.2122259     
   3003510232.7457490     
   2798151725.6449833     
   2594387561.6863728     
   3251254046.7426114     
   3047180205.4660645     
   2846503011.5399656     
   2649768328.7560897     
   2457827506.1694350     
   3090831030.4260426     
   2916359715.0739708     
   2751260181.0502696     
   2597728393.7090740     
   2459532657.7940917     
   5657787602.4745331     
   5890906443.4804993     
   6116392139.1441088     
   6331789375.0574827     
   6536877119.5776358     
   5151401453.9231319     
   5311317417.7574062     
   5467866310.8766565     
   5618154822.5966244     
   5760718836.6182642     
   4643421774.7388220     
   4755528261.2586184     
   4868755282.8544569     
   4980467736.8336515     
   5088740330.9271994     
   4134112160.8738632     
   4224376615.0676422     
   4320554934.6457605     
   4420987423.1156445     
   4524217161.3801937     
   3624991466.0091333     
   3719686754.4983792     
   3825624700.3982286     
   3942736545.3771329     
   4070924956.7617345     
   6536877119.5776358     
   6328818387.0652714     
   6142912503.6649151     
   5965251252.8170233     
   5786828299.1565390     
   5760718836.6182642     
   5652177182.0474110     
   5559613765.4111700     
   5473967516.3298435     
   5389698797.6527615     
   5088740330.9271994     
   5054035156.3998852     
   5029838009.4400959     
   5010942981.6205063     
   4994149271.3931541     
   4524217161.3801937     
   4538988010.7658157     
   4558448254.7781429     
   4580118951.3838558     
   4602276998.9211473     
   4070924956.7617345     
   4112364187.3089075     
   4151199564.0261097     
   4186536269.2092299     
   4217643920.3004637     
   5786828299.1565390     
   5635946409.2805634     
   5489386729.6191893     
   5347066315.2345667     
   5209040218.5911942     
   5389698797.6527615     
   5248609923.4395313     
   5110826013.1619892     
   4976390583.4890642     
   4845401713.9926405     
   4994149271.3931541     
   4867080225.5861034     
   4743226406.7521896     
   4622556452.4158039     
   4505112195.6654558     
   4602276998.9211473     
   4494028741.2285519     
   4389949577.5198879     
   4289720904.4932685     
   4193250543.9835815     
   4217643920.3004637     
   4133423781.0189400     
   4055549102.2937198     
   3983164332.4624925     
   3915968651.2722054     
   5209040218.5911942     
   5068242115.6143217     
   4927975877.1319847     
   4788262159.3716068     
   4649250481.3889503     
   4845401713.9926405     
   4720464526.4648218     
   4597066466.7573195     
   4475322892.1781654     
   4355455317.3520374     
   4505112195.6654558     
   4395262893.8946075     
   4287941039.1306982     
   4183329955.5244474     
   4081695941.1415358     
   4193250543.9835815     
   4097537315.8897066     
   4005267120.5316195     
   3916660546.6935534     
   3831999508.8076506     
   3915968651.2722054     
   3833185279.5228028     
   3754622671.8625164     
   3680506425.7068348     
   3611106712.6966014     
   4649250481.3889503     
   4510424394.7065001     
   4374347212.5133610     
   4241195129.8229280     
   4111207319.0155678     
   4355455317.3520374     
   4229286259.7920008     
   4106088370.6634035     
   3986079429.8708782     
   3869541754.0917740     
   4081695941.1415358     
   3968848521.7854843     
   3859312027.0868578     
   3753346371.6864095     
   3651280375.7218356     
   3831999508.8076506     
   3733283487.9076357     
   3638342893.8446927     
   3547475294.9505706     
   3461053691.7131267     
   3611106712.6966014     
   3527426557.0102816     
   3448106343.3475389     
   3373468628.8034225     
   3303919257.3994493     
   4111207319.0155678     
   3963448261.5377526     
   3818025603.2175083     
   3675217976.5632610     
   3535400891.2818666     
   3869541754.0917740     
   3735309076.7062922     
   3604307163.2845335     
   3476878706.8296528     
   3353465178.5403757     
   3651280375.7218356     
   3530718581.6040983     
   3414313771.5697060     
   3302455206.4850631     
   3195626765.7914577     
   3461053691.7131267     
   3354116730.4267602     
   3252255297.7790527     
   3155878932.5981126     
   3065481078.4423180     
   3303919257.3994493     
   3210263476.9041409     
   3122541615.6755471     
   3041150505.3992348     
   2966554975.8770432     
   3535400891.2818666     
   3422735040.7344284     
   3311047135.9953494     
   3200391257.4748564     
   3090831030.4260426     
   3353465178.5403757     
   3247272080.0122023     
   3143005368.9791508     
   3040848018.2483029     
   2941014534.8638086     
   3195626765.7914577     
   3099849078.8964300     
   3007392353.5799785     
   2918599195.9709840     
   2833874076.2027874     
   3065481078.4423180     
   2983806672.7378993     
   2907243837.0248737     
   2836291133.1536231     
   2771535098.5493350     
   2966554975.8770432     
   2902077376.0564194     
   2844793781.4709916     
   2795309978.9990153     
   2754332241.0582962     
   3090831030.4260426     
   2916359715.0739708     
   2751260181.0502696     
   2597728393.7090740     
   2459532657.7940917     
   2941014534.8638086     
   2805185808.8367829     
   2678316825.8118615     
   2561864067.5080481     
   2457926470.9750352     
   2833874076.2027874     
   2723448671.7061706     
   2619539842.1359553     
   2522838835.9865561     
   2434197623.9214716     
   2771535098.5493350     
   2673704850.7378988     
   2578001310.8071589     
   2484517707.5816431     
   2393393549.4026856     
   2754332241.0582962     
   2657630172.7508035     
   2557068703.3797722     
   2452348643.6646395     
   2343376984.3968625     
   3624991466.0091333     
   3719686754.4983792     
   3825624700.3982286     
   3942736545.3771329     
   4070924956.7617345     
   3138001512.1870108     
   3255505580.1359453     
   3382424160.9892201     
   3518285763.5905528     
   3662630503.6477923     
   2694777006.9659724     
   2830499751.9357390     
   2973538787.6736751     
   3122811846.6481647     
   3277407838.5531359     
   2298811161.0196486     
   2449463197.7872038     
   2604848904.3256660     
   2763048139.2829366     
   2922632796.4271369     
   1955321416.5700257     
   2119353609.2315216     
   2284760842.4832277     
   2448588236.8181286     
   2608881344.7117457     
   4070924956.7617345     
   4112364187.3089075     
   4151199564.0261097     
   4186536269.2092299     
   4217643920.3004637     
   3662630503.6477923     
   3702091027.7887454     
   3740193651.7840800     
   3776041782.1871438     
   3808887569.1261439     
   3277407838.5531359     
   3320710149.4407587     
   3364250589.5021968     
   3407206267.9509501     
   3448899196.3445449     
   2922632796.4271369     
   2975607239.5901690     
   3030769438.2923999     
   3087434677.2052016     
   3145068169.6953206     
   2608881344.7117457     
   2676834972.1278358     
   2749226317.9169960     
   2825542448.8193130     
   2905427272.0260735     
   4217643920.3004637     
   4133423781.0189400     
   4055549102.2937198     
   3983164332.4624925     
   3915968651.2722054     
   3808887569.1261439     
   3755903256.0544229     
   3708828692.6549177     
   3667188846.9846129     
   3630886757.2303820     
   3448899196.3445449     
   3422695654.1851959     
   3401602219.4601412     
   3385392010.2995710     
   3374051560.1908584     
   3145068169.6953206     
   3141424323.6377759     
   3141512837.9541578     
   3145238833.8373766     
   3152593017.0512395     
   2905427272.0260735     
   2920401558.6384029     
   2936964800.0800200     
   2955070925.0735130     
   2974688146.2909093     
   3915968651.2722054     
   3833185279.5228028     
   3754622671.8625164     
   3680506425.7068348     
   3611106712.6966014     
   3630886757.2303820     
   3560166613.1769934     
   3494153755.1564403     
   3433081432.9030046     
   3377228709.9083619     
   3374051560.1908584     
   3316185041.5166326     
   3263657073.4018302     
   3216692182.3809848     
   3175564367.2074223     
   3152593017.0512395     
   3108186804.1075015     
   3069882120.0416512     
   3037869602.7514844     
   3012396068.9285460     
   2974688146.2909093     
   2943935167.3125801     
   2920148580.7203550     
   2903453033.0973039     
   2894040789.5595474     
   3611106712.6966014     
   3527426557.0102816     
   3448106343.3475389     
   3373468628.8034225     
   3303919257.3994493     
   3377228709.9083619     
   3308030508.3573847     
   3244038384.0552649     
   3185577565.0835972     
   3133037301.5912147     
   3175564367.2074223     
   3120268038.0076385     
   3070947215.0934315     
   3027898644.2572541     
   2991462034.5604148     
   3012396068.9285460     
   2969921156.9488001     
   2934059806.5745215     
   2905051770.0899801     
   2883160678.2171826     
   2894040789.5595474     
   2862660900.0985832     
   2838354662.0093617     
   2821286988.7114806     
   2811633433.6015315     
   3303919257.3994493     
   3210263476.9041409     
   3122541615.6755471     
   3041150505.3992348     
   2966554975.8770432     
   3133037301.5912147     
   3052863856.2759414     
   2979343942.7190132     
   2912876520.3438663     
   2853917697.9213181     
   2991462034.5604148     
   2925114315.8562226     
   2866164954.1086493     
   2814986849.1403317     
   2771996712.9600096     
   2883160678.2171826     
   2830548596.7244768     
   2786063465.0009284     
   2750022735.3894763     
   2722774919.8862848     
   2811633433.6015315     
   2772081045.6577120     
   2741335891.5171943     
   2719637459.7436447     
   2707247702.3299623     
   2966554975.8770432     
   2902077376.0564194     
   2844793781.4709916     
   2795309978.9990153     
   2754332241.0582962     
   2853917697.9213181     
   2806066605.8861713     
   2765144906.0480900     
   2731600397.0767417     
   2705930364.6052694     
   2771996712.9600096     
   2738191876.0460863     
   2710732030.1800318     
   2689912981.0067434     
   2676047905.0833302     
   2722774919.8862848     
   2700318632.6687622     
   2683323213.1650529     
   2671956135.6022706     
   2666386225.1870079     
   2707247702.3299623     
   2693458346.9586854     
   2683989599.5198221     
   2678913873.4104862     
   2678300390.4996719     
   2754332241.0582962     
   2657630172.7508035     
   2557068703.3797722     
   2452348643.6646395     
   2343376984.3968625     
   2705930364.6052694     
   2608839568.2267518     
   2515252835.6160326     
   2425455069.9103041     
   2339796664.5489378     
   2676047905.0833302     
   2590471208.8304820     
   2516521489.3093958     
   2455025330.5056534     
   2406829944.1534982     
   2666386225.1870079     
   2601196330.6487055     
   2555954950.7493458     
   2531749798.4756279     
   2529700081.1823254     
   2678300390.4996719     
   2638787263.9601278     
   2627699586.6390295     
   2646106897.0186172     
   2695213122.0925221     
   1955321416.5700257     
   2119353609.2315216     
   2284760842.4832277     
   2448588236.8181286     
   2608881344.7117457     
   1653831403.1354532     
   1820286514.2823651     
   1988442977.8542690     
   2155607812.2159562     
   2320025500.5625315     
   1393695623.3243561     
   1571086948.0576944     
   1749472579.6106589     
   1926850371.5509872     
   2101971152.3226805     
   1207210457.0802274     
   1399170283.1313627     
   1590681962.7909679     
   1780968740.6370208     
   1969572124.2005026     
   1137010254.1798806     
   1335366010.5465212     
   1533986353.3239863     
   1732871282.9527783     
   1932020800.3147619     
   2608881344.7117457     
   2676834972.1278358     
   2749226317.9169960     
   2825542448.8193130     
   2905427272.0260735     
   2320025500.5625315     
   2407040232.9385710     
   2496461041.0885201     
   2587896939.8878698     
   2681071517.5757813     
   2101971152.3226805     
   2205675862.4201779     
   2309293895.4658093     
   2412589143.9179201     
   2515394760.1002135     
   1969572124.2005026     
   2086679156.8315291     
   2200979404.8607092     
   2312398253.1884189     
   2420883699.3582344     
   1932020800.3147619     
   2058609939.8632536     
   2179864726.4374976     
   2295785160.9006805     
   2406371247.1655521     
   2905427272.0260735     
   2920401558.6384029     
   2936964800.0800200     
   2955070925.0735130     
   2974688146.2909093     
   2681071517.5757813     
   2702995643.2124052     
   2727406630.5947852     
   2754290734.6137748     
   2783643145.3623867     
   2515394760.1002135     
   2544042610.4154296     
   2576088840.5105324     
   2611535119.3128791     
   2650387317.4283972     
   2420883699.3582344     
   2454656895.3141418     
   2492732624.5830350     
   2535113481.2984409     
   2581803265.1018600     
   2406371247.1655521     
   2442236906.4520912     
   2483297068.8092823     
   2529551774.8291645     
   2581001113.1317892     
   2974688146.2909093     
   2943935167.3125801     
   2920148580.7203550     
   2903453033.0973039     
   2894040789.5595474     
   2783643145.3623867     
   2767172156.6078062     
   2757706690.2297215     
   2755330713.6490908     
   2760162105.1907816     
   2650387317.4283972     
   2645251240.5726156     
   2646888321.8767753     
   2655338005.4153557     
   2670651273.1506910     
   2581803265.1018600     
   2584425786.4649949     
   2593317957.0068555     
   2608489050.4556360     
   2629949510.1446886     
   2581001113.1317892     
   2587505672.5681958     
   2599544855.3411150     
   2617119723.9171100     
   2640232575.5538187     
   2894040789.5595474     
   2862660900.0985832     
   2838354662.0093617     
   2821286988.7114806     
   2811633433.6015315     
   2760162105.1907816     
   2737722065.2210360     
   2722631666.9398685     
   2714998063.2863288     
   2714933491.1772470     
   2670651273.1506910     
   2655356087.8810725     
   2647633241.9809036     
   2647536233.3597994     
   2655120717.0672412     
   2629949510.1446886     
   2619458422.4864063     
   2616711903.7817554     
   2621724272.9504523     
   2634511221.3187232     
   2640232575.5538187     
   2631816227.1325774     
   2631277623.9558983     
   2638614401.5721755     
   2653825893.6951523     
   2811633433.6015315     
   2772081045.6577120     
   2741335891.5171943     
   2719637459.7436447     
   2707247702.3299623     
   2714933491.1772470     
   2685922851.4231954     
   2665686330.7366986     
   2654360717.9512758     
   2652091019.7882481     
   2655120717.0672412     
   2633631841.7780375     
   2620742574.2428637     
   2616510989.2814550     
   2620996720.5429668     
   2634511221.3187232     
   2617209970.6236982     
   2608218011.0666704     
   2607547820.2333760     
   2615212064.3464718     
   2653825893.6951523     
   2637304789.1461482     
   2628710807.0857482     
   2628045484.7464676     
   2635312617.8763165     
   2707247702.3299623     
   2693458346.9586854     
   2683989599.5198221     
   2678913873.4104862     
   2678300390.4996719     
   2652091019.7882481     
   2644062354.8405485     
   2641672154.1054664     
   2644982421.1027002     
   2654051482.2835336     
   2620996720.5429668     
   2617816600.1680903     
   2621611416.6688390     
   2632419243.6147532     
   2650275321.7067432     
   2615212064.3464718     
   2615166315.6709762     
   2623463593.3175683     
   2640116197.9525280     
   2665135350.1493716     
   2635312617.8763165     
   2635951289.8897262     
   2646359830.0500703     
   2666538517.7642345     
   2696487451.6311550     
   2678300390.4996719     
   2638787263.9601278     
   2627699586.6390295     
   2646106897.0186172     
   2695213122.0925221     
   2654051482.2835336     
   2633195092.2632847     
   2630856122.3462005     
   2647285621.2458010     
   2682779432.2215986     
   2650275321.7067432     
   2635833444.1305528     
   2630132365.7822046     
   2633172547.8398232     
   2644956947.5772319     
   2665135350.1493716     
   2648271256.9953814     
   2630145236.8123474     
   2610835864.7353277     
   2590477996.1283870     
   2696487451.6311550     
   2672104704.3913398     
   2636310094.8289900     
   2589495157.0760155     
   2532291981.6156402     
   1137010254.1798806     
   1335366010.5465212     
   1533986353.3239863     
   1732871282.9527783     
   1932020800.3147619     
   1207213612.4148552     
   1399205588.2172086     
   1590753287.1903391     
   1781081468.5640073     
   1969732695.0732439     
   1393719380.5877895     
   1571148439.1718063     
   1749582866.9637818     
   1927021705.5324438     
   2102216488.5660086     
   1653890262.7603676     
   1820362813.5361166     
   1988554989.6484675     
   2155774404.0512633     
   2320265292.4042592     
   1955426838.5050039     
   2119435490.0412080     
   2284842319.5899806     
   2448692785.5203700     
   2609031183.9093533     
   1932020800.3147619     
   2058609939.8632536     
   2179864726.4374976     
   2295785160.9006805     
   2406371247.1655521     
   1969732695.0732439     
   2086800574.1337841     
   2201053779.1779647     
   2312416859.0074654     
   2420837451.8542900     
   2102216488.5660086     
   2205884330.0569043     
   2309451069.0340657     
   2412680196.8714156     
   2515404576.4977193     
   2320265292.4042592     
   2407286578.9439721     
   2496695215.4387527     
   2588101173.4763613     
   2681228100.1331949     
   2609031183.9093533     
   2677068374.4939427     
   2749523230.2410316     
   2825885863.9544973     
   2905800893.8883462     
   2406371247.1655521     
   2442236906.4520912     
   2483297068.8092823     
   2529551774.8291645     
   2581001113.1317892     
   2420837451.8542900     
   2454907759.4031672     
   2493333872.3675981     
   2536119284.9551716     
   2583268114.5969925     
   2515404576.4977193     
   2544463282.2482944     
   2577016093.3966017     
   2613065709.4040022     
   2652618879.8094110     
   2681228100.1331949     
   2703472236.9745564     
   2728328114.6993318     
   2755782349.8403602     
   2785831628.6289072     
   2905800893.8883462     
   2920810311.3411465     
   2937547391.3035851     
   2955964446.0708613     
   2976031060.0462556     
   2581001113.1317892     
   2587505672.5681958     
   2599544855.3411150     
   2617119723.9171100     
   2640232575.5538187     
   2583268114.5969925     
   2584952851.7998414     
   2592848729.6448584     
   2606965587.7506104     
   2627318431.8169465     
   2652618879.8094110     
   2646294623.2669621     
   2646687354.5516620     
   2653835666.5726523     
   2667791319.2398610     
   2785831628.6289072     
   2768569913.9986010     
   2758321595.0425439     
   2755168869.5229068     
   2759220738.6040711     
   2976031060.0462556     
   2945414801.6405478     
   2921896151.6288195     
   2905602651.4038458     
   2896708162.0657182     
   2640232575.5538187     
   2631816227.1325774     
   2631277623.9558983     
   2638614401.5721755     
   2653825893.6951523     
   2627318431.8169465     
   2617992817.5909014     
   2616402232.7098789     
   2622559313.7247329     
   2636476942.6555600     
   2667791319.2398610     
   2654229708.8558474     
   2648152800.0222836     
   2649614425.5987792     
   2658669760.5191736     
   2759220738.6040711     
   2738556056.9522848     
   2725009795.5189471     
   2718692587.6934586     
   2719721062.8176045     
   2896708162.0657182     
   2866747824.8548341     
   2843425949.6209683     
   2826911349.6355896     
   2817387271.5799031     
   2653825893.6951523     
   2637304789.1461482     
   2628710807.0857482     
   2628045484.7464676     
   2635312617.8763165     
   2636476942.6555600     
   2617732767.9512348     
   2607361028.4510775     
   2605377855.1102905     
   2611801383.3390961     
   2658669760.5191736     
   2635119877.6176963     
   2620357412.0033908     
   2614440974.9555550     
   2617432067.2660184     
   2719721062.8176045     
   2688771337.2057314     
   2666971405.5923376     
   2654452054.1578207     
   2651350466.2565360     
   2817387271.5799031     
   2776612545.0819077     
   2745276264.3616376     
   2723607685.9658594     
   2711850546.3666716     
   2635312617.8763165     
   2635951289.8897262     
   2646359830.0500703     
   2666538517.7642345     
   2696487451.6311550     
   2611801383.3390961     
   2611837581.6670809     
   2620220103.2405925     
   2636961855.5218663     
   2662074526.4614105     
   2617432067.2660184     
   2614641692.8860793     
   2618820628.1297460     
   2630007319.5937614     
   2648237389.0593233     
   2651350466.2565360     
   2644246326.1247668     
   2642757236.0718560     
   2646944700.6327119     
   2656866791.0595636     
   2711850546.3666716     
   2699740791.5047855     
   2691905517.3025193     
   2688415508.2413054     
   2689338779.9574766     
   2696487451.6311550     
   2672104704.3913398     
   2636310094.8289900     
   2589495157.0760155     
   2532291981.6156402     
   2662074526.4614105     
   2634165380.8648925     
   2606637484.3773890     
   2579620569.7148972     
   2553297053.2603545     
   2648237389.0593233     
   2619943248.8096905     
   2603802903.6677527     
   2599797697.2302756     
   2607912936.0420809     
   2656866791.0595636     
   2626842618.0485873     
   2620832271.8815808     
   2638987016.7543464     
   2681513500.7238770     
   2689338779.9574766     
   2651911527.4929018     
   2651398692.3349771     
   2688810927.5695066     
   2765189335.3570585     
   1955426838.5050039     
   2119435490.0412080     
   2284842319.5899806     
   2448692785.5203700     
   2609031183.9093533     
   2298948018.7896671     
   2449549343.2604580     
   2604894311.9077725     
   2763062292.1686587     
   2922624167.9705272     
   2694905551.7805524     
   2830574838.9329596     
   2973559255.7555404     
   3122775537.2501330     
   3277311686.1075153     
   3138083713.6587758     
   3255557027.8367672     
   3382434634.1717763     
   3518243765.9973693     
   3662523482.5377460     
   3624990810.1823988     
   3719703825.4925232     
   3825641851.4891820     
   3942734841.9144359     
   4070884098.0568528     
   2609031183.9093533     
   2677068374.4939427     
   2749523230.2410316     
   2825885863.9544973     
   2905800893.8883462     
   2922624167.9705272     
   2975714859.4737430     
   3030991454.0356970     
   3087771899.6779823     
   3145522871.4336252     
   3277311686.1075153     
   3320717889.9604511     
   3364373939.4265695     
   3407458388.2344437     
   3449294366.7973256     
   3662523482.5377460     
   3702031033.4854708     
   3740202100.7319970     
   3776139375.0644021     
   3809094495.5461802     
   4070884098.0568528     
   4112270512.0982847     
   4151081478.4146218     
   4186418540.5181546     
   4217548110.5997481     
   2905800893.8883462     
   2920810311.3411465     
   2937547391.3035851     
   2955964446.0708613     
   2976031060.0462556     
   3145522871.4336252     
   3141590132.7856665     
   3141434568.7905617     
   3144960024.9056730     
   3152160177.7426772     
   3449294366.7973256     
   3422661158.0386262     
   3401113472.1409655     
   3384422761.1969881     
   3372575743.7431564     
   3809094495.5461802     
   3755740362.9294305     
   3708225087.0739160     
   3666072416.4572482     
   3629180292.8718648     
   4217548110.5997481     
   4133220460.9455457     
   4055140192.0669932     
   3982453902.1335764     
   3914850915.5462232     
   2976031060.0462556     
   2945414801.6405478     
   2921896151.6288195     
   2905602651.4038458     
   2896708162.0657182     
   3152160177.7426772     
   3108355195.9685659     
   3070790867.3174496     
   3039661116.3329930     
   3015206041.5142231     
   3372575743.7431564     
   3315343368.4222479     
   3263552141.9017258     
   3217431476.9084334     
   3177257898.9632301     
   3629180292.8718648     
   3558786676.3996363     
   3493126599.1899700     
   3432438640.7739992     
   3377008780.4503059     
   3914850915.5462232     
   3831837328.2743325     
   3752962014.9067392     
   3678454392.8939090     
   3608590459.2741499     
   2896708162.0657182     
   2866747824.8548341     
   2843425949.6209683     
   2826911349.6355896     
   2817387271.5799031     
   3015206041.5142231     
   2973224228.7117949     
   2937572219.9318256     
   2908485891.2157121     
   2886229193.6879978     
   3177257898.9632301     
   3121923351.3015714     
   3072463647.3969116     
   3029167809.8178229     
   2992369673.4772034     
   3377008780.4503059     
   3307486304.5868325     
   3243276452.1682506     
   3184699450.1250095     
   3132137343.2389202     
   3608590459.2741499     
   3524410205.5334926     
   3444917969.1194715     
   3370441429.7368217     
   3301384716.4379420     
   2817387271.5799031     
   2776612545.0819077     
   2745276264.3616376     
   2723607685.9658594     
   2711850546.3666716     
   2886229193.6879978     
   2833326828.0204639     
   2788926013.2482696     
   2753344533.7743955     
   2726927246.6926789     
   2992369673.4772034     
   2926147189.8428712     
   2867409123.4368086     
   2816534690.5589547     
   2773945538.8984928     
   3132137343.2389202     
   3052206017.1363692     
   2978696095.5896034     
   2912010437.7558336     
   2852607942.6983747     
   3301384716.4379420     
   3207999547.4076734     
   3119978104.2916193     
   3037709569.6734443     
   2961647009.9798832     
   2711850546.3666716     
   2699740791.5047855     
   2691905517.3025193     
   2688415508.2413054     
   2689338779.9574766     
   2726927246.6926789     
   2705608379.3463249     
   2689854065.0098224     
   2679822791.2403502     
   2675673932.2857108     
   2773945538.8984928     
   2740655666.8583775     
   2713983607.6914887     
   2694217928.4300184     
   2681662104.5803590     
   2852607942.6983747     
   2804497280.1629295     
   2763764179.7460856     
   2730863162.3071518     
   2706293800.1893411     
   2961647009.9798832     
   2895928344.6074128     
   2838016886.7789569     
   2788552631.5192776     
   2748271646.3477941     
   2689338779.9574766     
   2651911527.4929018     
   2651398692.3349771     
   2688810927.5695066     
   2765189335.3570585     
   2675673932.2857108     
   2618217396.7597933     
   2585630510.2720590     
   2579109473.2394958     
   2599740059.0022917     
   2681662104.5803590     
   2602939521.1012955     
   2536476922.0229878     
   2483202873.7004209     
   2444015719.1814313     
   2706293800.1893411     
   2611101465.6115279     
   2514802472.2687483     
   2417632987.7385983     
   2319943804.0645838     
   2748271646.3477941     
   2647445002.6725507     
   2532759179.3106685     
   2404040011.3247728     
   2261482461.8349695     
   3624990810.1823988     
   3719703825.4925232     
   3825641851.4891820     
   3942734841.9144359     
   4070884098.0568528     
   4134033240.3786860     
   4224349139.2121162     
   4320568895.4675140     
   4421033805.5577593     
   4524288109.6922455     
   4643309746.4109383     
   4755474167.1771727     
   4868756812.1205015     
   4980524888.1137562     
   5088855149.5127764     
   5151301179.1745911     
   5311253873.2414169     
   5467845098.9058189     
   5618183868.0954885     
   5760807111.5797548     
   5657743221.8037024     
   5890849948.1815662     
   6116337211.2392530     
   6331750668.2307053     
   6536867710.3881855     
   4070884098.0568528     
   4112270512.0982847     
   4151081478.4146218     
   4186418540.5181546     
   4217548110.5997481     
   4524288109.6922455     
   4538940576.5405111     
   4558289206.6177492     
   4579851748.3730459     
   4601904112.5558977     
   5088855149.5127764     
   5054017405.4500952     
   5029679556.5868149     
   5010633475.5421839     
   4993677796.9480572     
   5760807111.5797548     
   5652171986.4890184     
   5559497833.7272177     
   5473723695.3315859     
   5389309207.2090826     
   6536867710.3881855     
   6328808848.7081070     
   6142880530.3524799     
   5965178952.3530102     
   5786698163.9178772     
   4217548110.5997481     
   4133220460.9455457     
   4055140192.0669932     
   3982453902.1335764     
   3914850915.5462232     
   4601904112.5558977     
   4493837057.9376469     
   4389908997.0665493     
   4289802818.1970401     
   4193422787.6794219     
   4993677796.9480572     
   4866913400.4731140     
   4743383349.7752018     
   4623057261.7083426     
   4505977330.4356794     
   5389309207.2090826     
   5248471050.3445148     
   5110989131.0128584     
   4976907816.1058540     
   4846327665.4671593     
   5786698163.9178772     
   5635831386.5179024     
   5489354699.2841082     
   5347187443.6246071     
   5209389131.1443062     
   3914850915.5462232     
   3831837328.2743325     
   3752962014.9067392     
   3678454392.8939090     
   3608590459.2741499     
   4193422787.6794219     
   4097321176.1165786     
   4004555868.2252264     
   3915346369.7760439     
   3829976472.7104759     
   4505977330.4356794     
   4395797337.5355482     
   4288041969.0160933     
   4182889550.9085264     
   4080602847.6430092     
   4846327665.4671593     
   4721306399.5546503     
   4597747715.7154350     
   4475760585.0910559     
   4355558470.7637739     
   5209389131.1443062     
   5068917417.7441206     
   4928943205.5796461     
   4789482718.4967852     
   4650675326.1223516     
   3608590459.2741499     
   3524410205.5334926     
   3444917969.1194715     
   3370441429.7368217     
   3301384716.4379420     
   3829976472.7104759     
   3730998469.3061876     
   3636029587.9701228     
   3545374365.0992999     
   3459411672.8210440     
   4080602847.6430092     
   3967546917.1709394     
   3857928213.4782915     
   3752014318.1749606     
   3650143404.6993213     
   4355558470.7637739     
   4229134760.5290356     
   4105693176.8900714     
   3985458820.4478235     
   3868723101.1112914     
   4650675326.1223516     
   4511519830.1362715     
   4375005262.0295000     
   4241314207.9070520     
   4110691830.2164397     
   3301384716.4379420     
   3207999547.4076734     
   3119978104.2916193     
   3037709569.6734443     
   2961647009.9798832     
   3459411672.8210440     
   3352628159.7598572     
   3250592709.0356183     
   3153699651.9951220     
   3062423783.0354505     
   3650143404.6993213     
   3529784282.0013747     
   3413507882.0438948     
   3301689982.3094959     
   3194798422.6994677     
   3868723101.1112914     
   3734728287.1436992     
   3604142379.5787482     
   3477304785.5083060     
   3354652968.9348330     
   4110691830.2164397     
   3963047679.8264852     
   3818158905.7810898     
   3676317222.8761687     
   3537913374.0477915     
   2961647009.9798832     
   2895928344.6074128     
   2838016886.7789569     
   2788552631.5192776     
   2748271646.3477941     
   3062423783.0354505     
   2979709127.5041485     
   2902219548.8036919     
   2830484432.4528389     
   2765124865.8714538     
   3194798422.6994677     
   3098273318.9975500     
   3004695554.7983646     
   2914418340.0066452     
   2827861694.6767697     
   3354652968.9348330     
   3248362719.5372963     
   3143177520.8444324     
   3039271530.8428898     
   2936852599.5500588     
   3537913374.0477915     
   3426359922.1616502     
   3314577499.2807364     
   3202609950.8079948     
   3090511578.5222592     
   2748271646.3477941     
   2647445002.6725507     
   2532759179.3106685     
   2404040011.3247728     
   2261482461.8349695     
   2765124865.8714538     
   2664300419.6414328     
   2560516927.9347115     
   2453886490.4549756     
   2344593099.0973463     
   2827861694.6767697     
   2718053241.3035369     
   2614631509.2173185     
   2518017663.4559455     
   2428771515.1548438     
   2936852599.5500588     
   2803749253.3430285     
   2684293170.7378101     
   2579864600.4570045     
   2492619887.7807927     
   3090511578.5222592     
   2915935048.8677392     
   2760388380.8224869     
   2627497130.5190334     
   2523166205.4058237     
   5657743221.8037024     
   5890849948.1815662     
   6116337211.2392530     
   6331750668.2307053     
   6536867710.3881855     
   6491655412.6334925     
   6586841763.4463749     
   6757361616.1788015     
   6961144169.6716604     
   7171532872.3150606     
   7982333824.2518177     
   7734938296.6297293     
   7669089053.1995029     
   7669506292.6914148     
   7666268768.1502962     
   10130225533.560558     
   9321981091.4237213     
   8826333579.2826958     
   8443495342.7681923     
   8035681557.1470804     
   12935417546.038303     
   11340684171.969877     
   10210264097.816521     
   9272876493.4090824     
   8304127424.3860970     
   6536867710.3881855     
   6328808848.7081070     
   6142880530.3524799     
   5965178952.3530102     
   5786698163.9178772     
   7171532872.3150606     
   6911050927.0268316     
   6658447670.5073051     
   6409861976.5515432     
   6162147694.6755753     
   7666268768.1502962     
   7381184161.9448481     
   7101485834.3986807     
   6827248365.2780561     
   6558669924.2099228     
   8035681557.1470804     
   7746855211.1349440     
   7473684011.0630083     
   7214214783.9932041     
   6968449938.6293697     
   8304127424.3860970     
   8020625763.4148426     
   7779175601.5827408     
   7569123276.7894783     
   7385506188.8193636     
   5786698163.9178772     
   5635831386.5179024     
   5489354699.2841082     
   5347187443.6246071     
   5209389131.1443062     
   6162147694.6755753     
   6012358662.1854486     
   5863990007.4426804     
   5717084165.8921967     
   5571703242.8778257     
   6558669924.2099228     
   6407370149.2150545     
   6254468740.7706051     
   6099934603.0175581     
   5943794598.5643873     
   6968449938.6293697     
   6814424949.1938562     
   6655792626.3684263     
   6492273499.0421743     
   6323813067.6017218     
   7385506188.8193636     
   7228538830.8541670     
   7064073251.4066973     
   6891434025.9908552     
   6710443953.8188114     
   5209389131.1443062     
   5068917417.7441206     
   4928943205.5796461     
   4789482718.4967852     
   4650675326.1223516     
   5571703242.8778257     
   5414585780.6849747     
   5258301314.1182165     
   5102883589.3640337     
   4948425677.4689636     
   5943794598.5643873     
   5772010289.7619019     
   5601694944.5313215     
   5432873429.6409512     
   5265612324.4423475     
   6323813067.6017218     
   6138776015.8260221     
   5956098059.2563515     
   5775765097.6371527     
   5597824084.0337324     
   6710443953.8188114     
   6513054469.6943398     
   6319140831.4842358     
   6128617443.4355049     
   5941508373.7451496     
   4650675326.1223516     
   4511519830.1362715     
   4375005262.0295000     
   4241314207.9070520     
   4110691830.2164397     
   4948425677.4689636     
   4799370478.9190769     
   4651628427.5370293     
   4505324139.8269634     
   4360623802.8924255     
   5265612324.4423475     
   5108386820.3985395     
   4951365308.3716850     
   4794614324.6747856     
   4638227574.4656134     
   5597824084.0337324     
   5434399861.7562790     
   5270277671.6261368     
   5105476837.8101721     
   4940037874.7205725     
   5941508373.7451496     
   5774008051.6306925     
   5605097867.8039131     
   5434767175.9971552     
   5263029560.1731520     
   4110691830.2164397     
   3963047679.8264852     
   3818158905.7810898     
   3676317222.8761687     
   3537913374.0477915     
   4360623802.8924255     
   4198077379.2211151     
   4037611181.7827992     
   3879415727.1748586     
   3723765674.7809963     
   4638227574.4656134     
   4462045903.7025681     
   4287430988.5026579     
   4114484502.2734609     
   3943377113.6813631     
   4940037874.7205725     
   4751280637.1492777     
   4563724778.9018898     
   4377399891.2509813     
   4192391769.4089742     
   5263029560.1731520     
   5062542397.3041906     
   4863016537.1377239     
   4664426250.4668131     
   4466792634.6282749     
   3537913374.0477915     
   3426359922.1616502     
   3314577499.2807364     
   3202609950.8079948     
   3090511578.5222592     
   3723765674.7809963     
   3605651222.2689867     
   3488490973.0302939     
   3372437517.3643575     
   3257693684.5364013     
   3943377113.6813631     
   3812259782.3558407     
   3682374273.2718515     
   3553935288.3340473     
   3427294037.8735638     
   4192391769.4089742     
   4041426297.7893515     
   3891175229.3868904     
   3741864971.6671314     
   3593985410.8953180     
   4466792634.6282749     
   4289012924.0156851     
   4110780693.8971629     
   3932263806.7741032     
   3754047791.4713926     
   3090511578.5222592     
   2915935048.8677392     
   2760388380.8224869     
   2627497130.5190334     
   2523166205.4058237     
   3257693684.5364013     
   3046949198.7122169     
   2842526454.6581922     
   2645696267.5589733     
   2458355075.5436115     
   3427294037.8735638     
   3212081130.9446845     
   2994645781.4383402     
   2774750641.4959011     
   2552229921.1630707     
   3593985410.8953180     
   3409475045.1231871     
   3219110123.0928082     
   3023762148.7545085     
   2826056431.6263037     
   3754047791.4713926     
   3636882537.8286176     
   3515206317.0863738     
   3393388817.8893528     
   3280268671.5959582     
 </DataArray>
 <DataArray  type="Float64" Name="strain" NumberOfComponents="3" format="ascii">
  0.20348585201381242        0.0000000000000000       0.12539860524108637     
  0.18665676677729784       -2.7322593972031135E-002   7.4349358450876216E-002
  0.16982768154078320       -4.4673561867541477E-002   3.5133427318111837E-002
  0.15299859630426860       -5.2052903686531010E-002   7.7508118427932343E-003
  0.13616951106775402       -4.9460619428999736E-002  -7.7984879750795655E-003
  0.15985573989435617        0.0000000000000000        9.6444639508406704E-002
  0.15317849637372102       -2.1843000936239063E-002   6.2689025989434322E-002
  0.14650125285308588       -3.6172954834820678E-002   3.7403780244775059E-002
  0.13982400933245070       -4.2989861695744841E-002   2.0588902274428923E-002
  0.13314676581181556       -4.2293721519011548E-002   1.2244392078395866E-002
  0.12645839843061490        0.0000000000000000        7.4199556330950794E-002
  0.12657004874272654       -1.6363407900446984E-002   5.5278997044352823E-002
  0.12668169905483817       -2.7672347802099876E-002   4.1465857648935324E-002
  0.12679334936694978       -3.3926819704958665E-002   3.2760138144698261E-002
  0.12690499967906138       -3.5126823609023347E-002   2.9161838531641629E-002
  0.10329382762258862        0.0000000000000000        5.8663355708718633E-002
  0.10683142388431435       -1.0883814864654912E-002   5.2119271615631742E-002
  0.11036902014604008       -1.9171740769379077E-002   4.7319659530592625E-002
  0.11390661640776582       -2.4863777714172485E-002   4.4264519453601291E-002
  0.11744421266949155       -2.7959925699035160E-002   4.2953851384657751E-002
   9.0362027470277329E-002   0.0000000000000000        4.9836037641710226E-002
   9.3962621798484511E-002  -5.4042218288628367E-003   5.3209849703271056E-002
   9.7563216126691679E-002  -1.0671133736658275E-002   5.4965185889746998E-002
  0.10116381045489886       -1.5800735723386319E-002   5.5102046201138045E-002
  0.10476440478310603       -2.0793027789046965E-002   5.3620430637444198E-002
  0.13616951106775402       -4.9460619428999736E-002  -7.7984879750795655E-003
  0.13296006714737035       -4.2929247377393176E-002  -3.3932853831641491E-003
  0.12975062322698672       -3.8491325814156832E-002  -3.9836458860294244E-004
  0.12654117930660302       -3.6146854739290635E-002   1.1862744086040995E-003
  0.12333173538621942       -3.5895834152794709E-002   1.3606316084569525E-003
  0.13314676581181556       -4.2293721519011548E-002   1.2244392078395866E-002
  0.12891430359963846       -3.8430568233718779E-002   1.2181601644601994E-002
  0.12468184138746133       -3.5746435768964344E-002   1.1483056424575266E-002
  0.12044937917528424       -3.4241324124748410E-002   1.0148756418315835E-002
  0.11621691696310707       -3.3915233301070824E-002   8.1787016258236950E-003
  0.12690499967906138       -3.5126823609023347E-002   2.9161838531641629E-002
  0.12242404618621225       -3.3931889090044312E-002   2.5545484739970172E-002
  0.11794309269336306       -3.3001545723771904E-002   2.2067903173187436E-002
  0.11346213920051390       -3.2335793510206129E-002   1.8729093831293200E-002
  0.10898118570766477       -3.1934632449346953E-002   1.5529056714287774E-002
  0.11744421266949155       -2.7959925699035160E-002   4.2953851384657751E-002
  0.11348929490709174       -2.9433209946369887E-002   3.6698363902940526E-002
  0.10953437714469191       -3.0256655678579440E-002   3.1356175657233434E-002
  0.10557945938229209       -3.0430262895663848E-002   2.6927286647536366E-002
  0.10162454161989228       -2.9954031597623103E-002   2.3411696873849322E-002
  0.10476440478310603       -2.0793027789046965E-002   5.3620430637444198E-002
  0.10211004976227696       -2.4934530802695452E-002   4.5640239133513047E-002
   9.9455694741447873E-002  -2.7511765633386975E-002   3.9347873876713409E-002
   9.6801339720618801E-002  -2.8524732281121588E-002   3.4743334867045200E-002
   9.4146984699789701E-002  -2.7973430745899225E-002   3.1826622104508415E-002
  0.12333173538621942       -3.5895834152794709E-002   1.3606316084569525E-003
  0.12041631706242101       -3.6387650092153764E-002   6.5472475226482918E-004
  0.11750089873862253       -3.6271688594852323E-002   1.2307359313439015E-004
  0.11458548041482408       -3.5547949660890706E-002  -2.3432186893410090E-004
  0.11167006209102565       -3.4216433290268577E-002  -4.1746163394063007E-004
  0.11621691696310707       -3.3915233301070824E-002   8.1787016258236950E-003
  0.11346503821277899       -3.3985198012315268E-002   7.8385094073870620E-003
  0.11071315946245082       -3.3668252972865312E-002   7.6511406388290390E-003
  0.10796128071212271       -3.2964398182720761E-002   7.6165953201497508E-003
  0.10520940196179454       -3.1873633641881893E-002   7.7348734513491557E-003
  0.10898118570766477       -3.1934632449346953E-002   1.5529056714287774E-002
  0.10637141428362364       -3.1582745932476890E-002   1.5333711447640869E-002
  0.10376164285958252       -3.1064817350878137E-002   1.5269757383689495E-002
  0.10115187143554144       -3.0380846704550938E-002   1.5337194522433551E-002
   9.8542100011500336E-002  -2.9530833993495098E-002   1.5536022863873053E-002
  0.10162454161989228       -2.9954031597623103E-002   2.3411696873849322E-002
   9.9135445274954964E-002  -2.9180293852638425E-002   2.3140330873026447E-002
   9.6646348930017653E-002  -2.8461381728891073E-002   2.2978923827715759E-002
   9.4157252585080342E-002  -2.7797295226380997E-002   2.2927475737917195E-002
   9.1668156240143031E-002  -2.7188034345108247E-002   2.2985986603630843E-002
   9.4146984699789701E-002  -2.7973430745899225E-002   3.1826622104508415E-002
   9.1757131186772922E-002  -2.6777841772800029E-002   3.1258367683543606E-002
   8.9367277673756185E-002  -2.5857946106904020E-002   3.0778639970907642E-002
   8.6977424160739433E-002  -2.5213743748211188E-002   3.0387438966600649E-002
   8.4587570647722654E-002  -2.4845234696721480E-002   3.0084764670622516E-002
  0.11167006209102565       -3.4216433290268577E-002  -4.1746163394063007E-004
  0.10852534143133724       -3.2703357060148597E-002  -2.3538329618230658E-004
  0.10538062077164881       -3.1434938547692956E-002   6.4126073374665138E-005
  0.10223590011196039       -3.0411177752901610E-002   4.8106647473036834E-004
   9.9091179452271971E-002  -2.9632074675774833E-002   1.0154379078845532E-003
  0.10520940196179454       -3.1873633641881893E-002   7.7348734513491557E-003
  0.10220045842651676       -3.0661538033369823E-002   7.5342033941501463E-003
   9.9191514891238938E-002  -2.9593690040206025E-002   7.4876565539734041E-003
   9.6182571355961144E-002  -2.8670089662390364E-002   7.5952329308192415E-003
   9.3173627820683336E-002  -2.7890736899923108E-002   7.8569325246877764E-003
   9.8542100011500336E-002  -2.9530833993495098E-002   1.5536022863873053E-002
   9.5705625785857035E-002  -2.8619719006590993E-002   1.5053014514032542E-002
   9.2869151560213692E-002  -2.7752441532718990E-002   1.4760821566438584E-002
   9.0032677334570418E-002  -2.6929001571879066E-002   1.4659444021090807E-002
   8.7196203108927062E-002  -2.6149399124071299E-002   1.4748881877989714E-002
   9.1668156240143031E-002  -2.7188034345108247E-002   2.2985986603630843E-002
   8.9040843509358092E-002  -2.6577899979812136E-002   2.2321050063465204E-002
   8.6413530778573167E-002  -2.5911193025232006E-002   2.1883621110769698E-002
   8.3786218047788241E-002  -2.5187913481367792E-002   2.1673699745544717E-002
   8.1158905317003302E-002  -2.4408061348219531E-002   2.1691285967789877E-002
   8.4587570647722654E-002  -2.4845234696721480E-002   3.0084764670622516E-002
   8.2206111597019974E-002  -2.4536080953033376E-002   2.9338310042447732E-002
   7.9824652546317293E-002  -2.4069944517745030E-002   2.8856055186967267E-002
   7.7443193495614612E-002  -2.3446825390856546E-002   2.8638000104180973E-002
   7.5061734444911987E-002  -2.2666723572367820E-002   2.8684144794088873E-002
   9.9091179452271971E-002  -2.9632074675774833E-002   1.0154379078845532E-003
   9.6236921701930211E-002  -2.8921965864177279E-002   8.8002000785536438E-004
   9.3382663951588507E-002  -2.8105187865974171E-002   8.2829105347523302E-004
   9.0528406201246803E-002  -2.7181740681165831E-002   8.6025104474428404E-004
   8.7674148450905043E-002  -2.6151624309751709E-002   9.7589998166214276E-004
   9.3173627820683336E-002  -2.7890736899923108E-002   7.8569325246877764E-003
   9.0415421407517349E-002  -2.7150246377185105E-002   7.7606000972652023E-003
   8.7657214994351390E-002  -2.6343232718557694E-002   7.7726813985449783E-003
   8.4899008581185473E-002  -2.5469695924040841E-002   7.8931764285268408E-003
   8.2140802168019444E-002  -2.4529635993634336E-002   8.1220851872118582E-003
   8.7196203108927062E-002  -2.6149399124071299E-002   1.4748881877989714E-002
   8.4558772815990224E-002  -2.5378526890192876E-002   1.4651488872457694E-002
   8.1921342523053386E-002  -2.4581277571140932E-002   1.4687234378681351E-002
   7.9283912230116493E-002  -2.3757651166915625E-002   1.4856118396660605E-002
   7.6646481937179628E-002  -2.2907647677516851E-002   1.5158140926395641E-002
   8.1158905317003302E-002  -2.4408061348219531E-002   2.1691285967789877E-002
   7.8666975927348851E-002  -2.3606807403200536E-002   2.1552686333432273E-002
   7.6175046537694413E-002  -2.2819322423724201E-002   2.1571949993883663E-002
   7.3683117148039948E-002  -2.2045606409790579E-002   2.1749076949144401E-002
   7.1191187758385524E-002  -2.1285659361399478E-002   2.2084067199213901E-002
   7.5061734444911987E-002  -2.2666723572367820E-002   2.8684144794088873E-002
   7.2740030741593242E-002  -2.1835087916208348E-002   2.8464192480189610E-002
   7.0418327038274525E-002  -2.1057367276307595E-002   2.8426828244152852E-002
   6.8096623334955850E-002  -2.0333561652665384E-002   2.8572052085978406E-002
   6.5774919631637119E-002  -1.9663671045281994E-002   2.8899864005666576E-002
   8.7674148450905043E-002  -2.6151624309751709E-002   9.7589998166214276E-004
   8.4370542600752552E-002  -2.5115658507659067E-002   6.2388579303496172E-004
   8.1066936750600116E-002  -2.4174663030815308E-002   4.5812492036723107E-004
   7.7763330900447625E-002  -2.3328637879220522E-002   4.7861736365953367E-004
   7.4459725050295189E-002  -2.2577583052874162E-002   6.8536312291134216E-004
   8.2140802168019444E-002  -2.4529635993634336E-002   8.1220851872118582E-003
   7.9025463292707349E-002  -2.3588863251167269E-002   7.7310767910024891E-003
   7.5910124417395308E-002  -2.2713188020468705E-002   7.5303490285142938E-003
   7.2794785542083240E-002  -2.1902610301538471E-002   7.5199018997470363E-003
   6.9679446666771117E-002  -2.1157130094376253E-002   7.6997354047013133E-003
   7.6646481937179628E-002  -2.2907647677516851E-002   1.5158140926395641E-002
   7.3723437354469332E-002  -2.2062067994675361E-002   1.4758011136084631E-002
   7.0800392771759119E-002  -2.1251713010121756E-002   1.4552189297256338E-002
   6.7877348189048808E-002  -2.0476582723856194E-002   1.4540675409910594E-002
   6.4954303606338526E-002  -1.9736677135878289E-002   1.4723469474047152E-002
   7.1191187758385524E-002  -2.1285659361399478E-002   2.2084067199213901E-002
   6.8464464786038459E-002  -2.0535272738183452E-002   2.1704688828281617E-002
   6.5737741813691436E-002  -1.9790237999774980E-002   2.1523645726593470E-002
   6.3011018841344385E-002  -1.9050555146173917E-002   2.1540937894149237E-002
   6.0284295868997410E-002  -1.8316224177380352E-002   2.1756565330948878E-002
   6.5774919631637119E-002  -1.9663671045281994E-002   2.8899864005666576E-002
   6.3248545587414773E-002  -1.9008477481691599E-002   2.8571109867593564E-002
   6.0722171543192399E-002  -1.8328762989428149E-002   2.8444718316525758E-002
   5.8195797498970053E-002  -1.7624527568491796E-002   2.8520689352463463E-002
   5.5669423454747680E-002  -1.6895771218882527E-002   2.8799022975406485E-002
   7.4459725050295189E-002  -2.2577583052874162E-002   6.8536312291134216E-004
   7.1516907040510502E-002  -2.1787435647576625E-002   2.4712771920865073E-004
   6.8574089030725816E-002  -2.0824132759127784E-002   2.9581449325782883E-004
   6.5631271020941157E-002  -1.9687674387527478E-002   8.3142344505879318E-004
   6.2688453011156442E-002  -1.8378060532776130E-002   1.8539545746117936E-003
   6.9679446666771117E-002  -2.1157130094376253E-002   7.6997354047013133E-003
   6.7165726570476647E-002  -2.0382234707446767E-002   7.4073527370553949E-003
   6.4652006474182205E-002  -1.9483411449214449E-002   7.4862437186380415E-003
   6.2138286377887694E-002  -1.8460660319679481E-002   7.9364083494489895E-003
   5.9624566281593239E-002  -1.7313981318841321E-002   8.7578466294885304E-003
   6.4954303606338526E-002  -1.9736677135878289E-002   1.4723469474047152E-002
   6.2754032895010831E-002  -1.8977033767317159E-002   1.4527711930609449E-002
   6.0553762183683121E-002  -1.8142690139301546E-002   1.4587579507877507E-002
   5.8353491472355419E-002  -1.7233646251831481E-002   1.4903072205849847E-002
   5.6153220761027689E-002  -1.6249902104906622E-002   1.5474190024527656E-002
   6.0284295868997410E-002  -1.8316224177380352E-002   2.1756565330948878E-002
   5.8281826014112990E-002  -1.7571832827187536E-002   2.1608205299871647E-002
   5.6279356159228661E-002  -1.6801968829388537E-002   2.1599821860975813E-002
   5.4276886304344296E-002  -1.6006632183983259E-002   2.1731415014261873E-002
   5.2274416449459966E-002  -1.5185822890971978E-002   2.2002984759729408E-002
   5.5669423454747680E-002  -1.6895771218882527E-002   2.8799022975406485E-002
   5.3749105927783231E-002  -1.6166631887057858E-002   2.8648832844840821E-002
   5.1828788400818782E-002  -1.5461247519475252E-002   2.8522970777933615E-002
   4.9908470873854388E-002  -1.4779618116135221E-002   2.8421436774684311E-002
   4.7988153346889884E-002  -1.4121743677037113E-002   2.8344230835093409E-002
   6.2688453011156442E-002  -1.8378060532776130E-002   1.8539545746117936E-003
   6.0423674074557954E-002  -1.7263719509936104E-002   2.4896202175183069E-003
   5.8158895137959354E-002  -1.6713079634070926E-002   2.0702488503724359E-003
   5.5894116201360783E-002  -1.6726140905179113E-002   5.9584047317562394E-004
   5.3629337264762267E-002  -1.7302903323262342E-002  -1.9336049140741274E-003
   5.9624566281593239E-002  -1.7313981318841321E-002   8.7578466294885304E-003
   5.6526486036324597E-002  -1.6292215943828625E-002   8.7390610478103592E-003
   5.3428405791055955E-002  -1.5644205691769775E-002   8.1087098588434880E-003
   5.0330325545787230E-002  -1.5369950562664422E-002   6.8667930625891938E-003
   4.7232245300518616E-002  -1.5469450556513387E-002   5.0133106590453114E-003
   5.6153220761027689E-002  -1.6249902104906622E-002   1.5474190024527656E-002
   5.2665310609852439E-002  -1.5320712377721146E-002   1.4990899242285360E-002
   4.9177400458677203E-002  -1.4575331749468706E-002   1.4339514255518243E-002
   4.5689490307501947E-002  -1.4013760220149669E-002   1.3520035064226790E-002
   4.2201580156326690E-002  -1.3635997789763543E-002   1.2532461668409600E-002
   5.2274416449459966E-002  -1.5185822890971978E-002   2.2002984759729408E-002
   4.8840147795141613E-002  -1.4349208811613889E-002   2.1245134800943741E-002
   4.5405879140823169E-002  -1.3506457807167929E-002   2.0762662040396854E-002
   4.1971610486504725E-002  -1.2657569877634837E-002   2.0555566478088632E-002
   3.8537341832186364E-002  -1.1802545023014144E-002   2.0623848114018684E-002
   4.7988153346889884E-002  -1.4121743677037113E-002   2.8344230835093409E-002
   4.5050997592191888E-002  -1.3377705245506077E-002   2.7501767723785098E-002
   4.2113841837493837E-002  -1.2437583864867124E-002   2.7378153213478973E-002
   3.9176686082795842E-002  -1.1301379535119914E-002   2.7973387304175007E-002
   3.6239530328097791E-002  -9.9690922562647444E-003   2.9287469995872728E-002
   9.0362027470277329E-002   0.0000000000000000        4.9836037641710226E-002
   9.3962621798484511E-002  -5.4042218288628367E-003   5.3209849703271056E-002
   9.7563216126691679E-002  -1.0671133736658275E-002   5.4965185889746998E-002
  0.10116381045489886       -1.5800735723386319E-002   5.5102046201138045E-002
  0.10476440478310603       -2.0793027789046965E-002   5.3620430637444198E-002
   8.2424858242957366E-002   0.0000000000000000        4.4784758117972327E-002
   8.4635912452198550E-002  -4.5742762817947711E-003   4.8268058066737951E-002
   8.6846966661439734E-002  -9.0377406110205751E-003   5.0590753652656487E-002
   8.9058020870680932E-002  -1.3390392987677420E-002   5.1752844875727927E-002
   9.1269075079922088E-002  -1.7632233411765296E-002   5.1754331735952258E-002
   7.4244180209905128E-002   0.0000000000000000        4.0576673125551715E-002
   7.5523565812418120E-002  -3.7443307347267089E-003   4.4142962993023692E-002
   7.6802951414931112E-002  -7.4043474853828818E-003   4.7006520009886379E-002
   7.8082337017444103E-002  -1.0980050251968521E-002   4.9167344176139778E-002
   7.9361722619957067E-002  -1.4471439034483623E-002   5.0625435491783874E-002
   6.5819993371120600E-002   0.0000000000000000        3.7211782664448377E-002
   6.6625581879143178E-002  -2.9143851876586441E-003   4.0834564482128292E-002
   6.7431170387165770E-002  -5.7709543597451868E-003   4.4212484961436697E-002
   6.8236758895188376E-002  -8.5697075162596194E-003   4.7345544102373627E-002
   6.9042347403210955E-002  -1.1310644657201954E-002   5.0233741904939053E-002
   5.7152297726603768E-002   0.0000000000000000        3.4690086734662319E-002
   5.7941960652373767E-002  -2.0844396405905810E-003   3.8342862534051739E-002
   5.8731623578143766E-002  -4.1375612341074900E-003   4.2208648507307461E-002
   5.9521286503913758E-002  -6.1593647805507253E-003   4.6287444654429473E-002
   6.0310949429683736E-002  -8.1498502799202850E-003   5.0579250975417767E-002
  0.10476440478310603       -2.0793027789046965E-002   5.3620430637444198E-002
  0.10211004976227696       -2.4934530802695452E-002   4.5640239133513047E-002
   9.9455694741447873E-002  -2.7511765633386975E-002   3.9347873876713409E-002
   9.6801339720618801E-002  -2.8524732281121588E-002   3.4743334867045200E-002
   9.4146984699789701E-002  -2.7973430745899225E-002   3.1826622104508415E-002
   9.1269075079922088E-002  -1.7632233411765296E-002   5.1754331735952258E-002
   9.0065223806130565E-002  -2.1207891113460119E-002   4.6517705812733193E-002
   8.8861372532339056E-002  -2.3561995322937831E-002   4.2494261136457843E-002
   8.7657521258547547E-002  -2.4694546040198394E-002   3.9683997707126120E-002
   8.6453669984756037E-002  -2.4605543265241864E-002   3.8086915524738071E-002
   7.9361722619957067E-002  -1.4471439034483623E-002   5.0625435491783874E-002
   7.9133730093015345E-002  -1.7481251424224804E-002   4.7789660458537046E-002
   7.8905737566073636E-002  -1.9612225012488674E-002   4.5692421672046138E-002
   7.8677745039131886E-002  -2.0864359799275225E-002   4.4333719132311128E-002
   7.8449752512190163E-002  -2.1237655784584475E-002   4.3713552839332016E-002
   6.9042347403210955E-002  -1.1310644657201954E-002   5.0233741904939053E-002
   6.9315568622931270E-002  -1.3754611734989489E-002   4.9456103070924663E-002
   6.9588789842651544E-002  -1.5662454702039533E-002   4.8942355483478389E-002
   6.9862011062371859E-002  -1.7034173558352045E-002   4.8692499142600293E-002
   7.0135232282092147E-002  -1.7869768303927107E-002   4.8706534048290284E-002
   6.0310949429683736E-002  -8.1498502799202850E-003   5.0579250975417767E-002
   6.0610739395878299E-002  -1.0027972045754167E-002   5.1517033649895981E-002
   6.0910529362072835E-002  -1.1712684391590379E-002   5.2244062570754556E-002
   6.1210319328267378E-002  -1.3203987317428870E-002   5.2760337737993539E-002
   6.1510109294461934E-002  -1.4501880823269718E-002   5.3065859151612847E-002
   9.4146984699789701E-002  -2.7973430745899225E-002   3.1826622104508415E-002
   9.1757131186772922E-002  -2.6777841772800029E-002   3.1258367683543606E-002
   8.9367277673756185E-002  -2.5857946106904020E-002   3.0778639970907642E-002
   8.6977424160739433E-002  -2.5213743748211188E-002   3.0387438966600649E-002
   8.4587570647722654E-002  -2.4845234696721480E-002   3.0084764670622516E-002
   8.6453669984756037E-002  -2.4605543265241864E-002   3.8086915524738071E-002
   8.4196962183365837E-002  -2.3960365203601619E-002   3.7060229236512310E-002
   8.1940254381975663E-002  -2.3424390060811092E-002   3.6211307663210734E-002
   7.9683546580585449E-002  -2.2997617836870300E-002   3.5540150804833470E-002
   7.7426838779195303E-002  -2.2680048531779268E-002   3.5046758661380406E-002
   7.8449752512190163E-002  -2.1237655784584475E-002   4.3713552839332016E-002
   7.6415428429021909E-002  -2.1142888634403188E-002   4.2394925072198733E-002
   7.4381104345853655E-002  -2.0990834014718192E-002   4.1343300026585053E-002
   7.2346780262685373E-002  -2.0781491925529451E-002   4.0558677702490956E-002
   7.0312456179517147E-002  -2.0514862366836986E-002   4.0041058099916503E-002
   7.0135232282092147E-002  -1.7869768303927107E-002   4.8706534048290284E-002
   6.8412529923741153E-002  -1.8325412065204803E-002   4.7262455190602945E-002
   6.6689827565390186E-002  -1.8557277968625292E-002   4.6174617061030571E-002
   6.4967125207039206E-002  -1.8565366014188608E-002   4.5443019659573161E-002
   6.3244422848688225E-002  -1.8349676201894753E-002   4.5067662986230564E-002
   6.1510109294461934E-002  -1.4501880823269718E-002   5.3065859151612847E-002
   6.0188266667523568E-002  -1.5507935496006355E-002   5.1662819591724946E-002
   5.8866424040585209E-002  -1.6123721922532384E-002   5.0705258766547259E-002
   5.7544581413646850E-002  -1.6349240102847769E-002   5.0193176676079941E-002
   5.6222738786708484E-002  -1.6184490036952492E-002   5.0126573320322970E-002
   8.4587570647722654E-002  -2.4845234696721480E-002   3.0084764670622516E-002
   8.2206111597019974E-002  -2.4536080953033376E-002   2.9338310042447732E-002
   7.9824652546317293E-002  -2.4069944517745030E-002   2.8856055186967267E-002
   7.7443193495614612E-002  -2.3446825390856546E-002   2.8638000104180973E-002
   7.5061734444911987E-002  -2.2666723572367820E-002   2.8684144794088873E-002
   7.7426838779195303E-002  -2.2680048531779268E-002   3.5046758661380406E-002
   7.5298564592309408E-002  -2.2360285292720335E-002   3.4470925132370316E-002
   7.3170290405423499E-002  -2.1926931266876011E-002   3.4137261558299499E-002
   7.1042016218537618E-002  -2.1379986454246401E-002   3.4045767939167998E-002
   6.8913742031651723E-002  -2.0719450854831400E-002   3.4196444274975771E-002
   7.0312456179517147E-002  -2.0514862366836986E-002   4.0041058099916503E-002
   6.8415337038693180E-002  -2.0184489632407369E-002   3.9592453765256046E-002
   6.6518217897869214E-002  -1.9783918016007155E-002   3.9363989567780144E-002
   6.4621098757045234E-002  -1.9313147517636339E-002   3.9355665507488730E-002
   6.2723979616221240E-002  -1.8772178137294898E-002   3.9567481584381739E-002
   6.3244422848688225E-002  -1.8349676201894753E-002   4.5067662986230564E-002
   6.1556428936171331E-002  -1.8008693972094380E-002   4.4702895941105207E-002
   5.9868435023654402E-002  -1.7640904765138243E-002   4.4536239215409446E-002
   5.8180441111137488E-002  -1.7246308581026264E-002   4.4567692809143335E-002
   5.6492447198620607E-002  -1.6824905419758479E-002   4.4797256722306819E-002
   5.6222738786708484E-002  -1.6184490036952492E-002   5.0126573320322970E-002
   5.4721840284743806E-002  -1.5832898311781363E-002   4.9802251659917696E-002
   5.3220941782779106E-002  -1.5497891514269301E-002   4.9654010501187201E-002
   5.1720043280814407E-002  -1.5179469644416152E-002   4.9681849844131536E-002
   5.0219144778849728E-002  -1.4877632702222005E-002   4.9885769688750664E-002
   7.5061734444911987E-002  -2.2666723572367820E-002   2.8684144794088873E-002
   7.2740030741593242E-002  -2.1835087916208348E-002   2.8464192480189610E-002
   7.0418327038274525E-002  -2.1057367276307595E-002   2.8426828244152852E-002
   6.8096623334955850E-002  -2.0333561652665384E-002   2.8572052085978406E-002
   6.5774919631637119E-002  -1.9663671045281994E-002   2.8899864005666576E-002
   6.8913742031651723E-002  -2.0719450854831400E-002   3.4196444274975771E-002
   6.6777086546741762E-002  -2.0014018488017260E-002   3.3898325965329837E-002
   6.4640431061831788E-002  -1.9332383373190543E-002   3.3787716014638931E-002
   6.2503775576921869E-002  -1.8674545510350984E-002   3.3864614422903144E-002
   6.0367120092011867E-002  -1.8040504899498933E-002   3.4129021190122372E-002
   6.2723979616221240E-002  -1.8772178137294898E-002   3.9567481584381739E-002
   6.0777292630812788E-002  -1.8192949059826151E-002   3.9221315043260291E-002
   5.8830605645404301E-002  -1.7607399470073455E-002   3.9067577142186692E-002
   5.6883918659995814E-002  -1.7015529368036554E-002   3.9106267881160797E-002
   5.4937231674587361E-002  -1.6417338753715760E-002   3.9337387260182766E-002
   5.6492447198620607E-002  -1.6824905419758479E-002   4.4797256722306819E-002
   5.4740648993806297E-002  -1.6371879631635135E-002   4.4433159713981055E-002
   5.2988850788992008E-002  -1.5882415566956385E-002   4.4266411626796030E-002
   5.1237052584177725E-002  -1.5356513225722224E-002   4.4297012460751489E-002
   4.9485254379363429E-002  -1.4794172607932699E-002   4.4524962215847425E-002
   5.0219144778849728E-002  -1.4877632702222005E-002   4.9885769688750664E-002
   4.8667155635722353E-002  -1.4550810203444009E-002   4.9533859977492212E-002
   4.7115166492594951E-002  -1.4157431663839350E-002   4.9384219468467119E-002
   4.5563177349467562E-002  -1.3697497083407709E-002   4.9436848161675144E-002
   4.4011188206340174E-002  -1.3171006462149470E-002   4.9691746057116459E-002
   6.5774919631637119E-002  -1.9663671045281994E-002   2.8899864005666576E-002
   6.3248545587414773E-002  -1.9008477481691599E-002   2.8571109867593564E-002
   6.0722171543192399E-002  -1.8328762989428149E-002   2.8444718316525758E-002
   5.8195797498970053E-002  -1.7624527568491796E-002   2.8520689352463463E-002
   5.5669423454747680E-002  -1.6895771218882527E-002   2.8799022975406485E-002
   6.0367120092011867E-002  -1.8040504899498933E-002   3.4129021190122372E-002
   5.8041854663076084E-002  -1.7413176384060647E-002   3.3794371197447326E-002
   5.5716589234140246E-002  -1.6775474807463123E-002   3.3659575848339923E-002
   5.3391323805204442E-002  -1.6127400169705906E-002   3.3724635142800288E-002
   5.1066058376268625E-002  -1.5468952470789332E-002   3.3989549080828213E-002
   5.4937231674587361E-002  -1.6417338753715760E-002   3.9337387260182766E-002
   5.2810566917500364E-002  -1.5817875286429944E-002   3.8982693545392216E-002
   5.0683902160413394E-002  -1.5222186625498096E-002   3.8825346530731705E-002
   4.8557237403326438E-002  -1.4630272770920182E-002   3.8865346216201108E-002
   4.6430572646239426E-002  -1.4042133722696304E-002   3.9102692601800548E-002
   4.9485254379363429E-002  -1.4794172607932699E-002   4.4524962215847425E-002
   4.7554682350687591E-002  -1.4222574188799200E-002   4.4136076911427874E-002
   4.5624110322011746E-002  -1.3668898443533015E-002   4.3942030363700743E-002
   4.3693538293335922E-002  -1.3133145372134402E-002   4.3942822572665935E-002
   4.1762966264660063E-002  -1.2615314974603276E-002   4.4138453538323505E-002
   4.4011188206340174E-002  -1.3171006462149470E-002   4.9691746057116459E-002
   4.2274200962637759E-002  -1.2627273091168234E-002   4.9254521295554687E-002
   4.0537213718935386E-002  -1.2115610261568044E-002   4.9009627347247509E-002
   3.8800226475233006E-002  -1.1636017973348622E-002   4.8957064212194812E-002
   3.7063239231530626E-002  -1.1188496226510136E-002   4.9096831890396764E-002
   5.5669423454747680E-002  -1.6895771218882527E-002   2.8799022975406485E-002
   5.3749105927783231E-002  -1.6166631887057858E-002   2.8648832844840821E-002
   5.1828788400818782E-002  -1.5461247519475252E-002   2.8522970777933615E-002
   4.9908470873854388E-002  -1.4779618116135221E-002   2.8421436774684311E-002
   4.7988153346889884E-002  -1.4121743677037113E-002   2.8344230835093409E-002
   5.1066058376268625E-002  -1.5468952470789332E-002   3.3989549080828213E-002
   4.9197809785871446E-002  -1.4806473201568943E-002   3.3821946729224645E-002
   4.7329561195474337E-002  -1.4146303852900374E-002   3.3734154187097382E-002
   4.5461312605077166E-002  -1.3488444424783638E-002   3.3726171454446272E-002
   4.3593064014680050E-002  -1.2832894917218507E-002   3.3797998531271689E-002
   4.6430572646239426E-002  -1.4042133722696304E-002   3.9102692601800548E-002
   4.4669874738227790E-002  -1.3446314516080166E-002   3.8939123072849219E-002
   4.2909176830216056E-002  -1.2831360186325275E-002   3.8910845099192473E-002
   4.1148478922204391E-002  -1.2197270733431888E-002   3.9017858680830173E-002
   3.9387781014192685E-002  -1.1544046157399790E-002   3.9260163817762456E-002
   4.1762966264660063E-002  -1.2615314974603276E-002   4.4138453538323505E-002
   4.0165300784852052E-002  -1.2086155830591208E-002   4.4000361875714822E-002
   3.8567635305044048E-002  -1.1516416519750147E-002   4.4053043514218973E-002
   3.6969969825236003E-002  -1.0906097042080221E-002   4.4296498453835723E-002
   3.5372304345427978E-002  -1.0255197397581128E-002   4.4730726694565383E-002
   3.7063239231530626E-002  -1.1188496226510136E-002   4.9096831890396764E-002
   3.5684087925744429E-002  -1.0725997145102445E-002   4.9005663137821398E-002
   3.4304936619958218E-002  -1.0201472853175172E-002   4.9160749432176937E-002
   3.2925785314171986E-002  -9.6149233507286623E-003   4.9562090773463366E-002
   3.1546634008385810E-002  -8.9663486377623558E-003   5.0209687161680727E-002
   4.7988153346889884E-002  -1.4121743677037113E-002   2.8344230835093409E-002
   4.5050997592191888E-002  -1.3377705245506077E-002   2.7501767723785098E-002
   4.2113841837493837E-002  -1.2437583864867124E-002   2.7378153213478973E-002
   3.9176686082795842E-002  -1.1301379535119914E-002   2.7973387304175007E-002
   3.6239530328097791E-002  -9.9690922562647444E-003   2.9287469995872728E-002
   4.3593064014680050E-002  -1.2832894917218507E-002   3.3797998531271689E-002
   4.1254394394707877E-002  -1.2128736239477245E-002   3.3172784890416085E-002
   3.8915724774735733E-002  -1.1325049300831669E-002   3.3025694918010051E-002
   3.6577055154763616E-002  -1.0421834101281807E-002   3.3356728614053463E-002
   3.4238385534791527E-002  -9.4190906408277986E-003   3.4165885978547084E-002
   3.9387781014192685E-002  -1.1544046157399790E-002   3.9260163817762456E-002
   3.7406872596393956E-002  -1.0879767233448134E-002   3.8755644959155428E-002
   3.5425964178595309E-002  -1.0212514736796172E-002   3.8488524836445867E-002
   3.3445055760796552E-002  -9.5422886674437317E-003   3.8458803449633018E-002
   3.1464147342997933E-002  -8.8690890253907417E-003   3.8666480798717595E-002
   3.5372304345427978E-002  -1.0255197397581128E-002   4.4730726694565383E-002
   3.3508432197250235E-002  -9.6307982274191628E-003   4.4250347930003375E-002
   3.1644560049072519E-002  -9.0999801727606397E-003   4.3766642968786060E-002
   2.9780687900894793E-002  -8.6627432336055295E-003   4.3279611810913075E-002
   2.7916815752717108E-002  -8.3190874099537959E-003   4.2789254456385636E-002
   3.1546634008385810E-002  -8.9663486377623558E-003   5.0209687161680727E-002
   2.9559073197276631E-002  -8.3818292213901913E-003   4.9656893802959567E-002
   2.7571512386167410E-002  -7.9874456087252466E-003   4.8860049315030851E-002
   2.5583951575058182E-002  -7.7831977997674731E-003   4.7819153697894440E-002
   2.3596390763949038E-002  -7.7690857945167391E-003   4.6534206951550416E-002
   5.7152297726603768E-002   0.0000000000000000        3.4690086734662319E-002
   5.7941960652373767E-002  -2.0844396405905810E-003   3.8342862534051739E-002
   5.8731623578143766E-002  -4.1375612341074900E-003   4.2208648507307461E-002
   5.9521286503913758E-002  -6.1593647805507253E-003   4.6287444654429473E-002
   6.0310949429683736E-002  -8.1498502799202850E-003   5.0579250975417767E-002
   4.8652711726323489E-002   0.0000000000000000        3.2788649479538148E-002
   4.9590338655355407E-002  -1.7095956850598261E-003   3.6964946387126482E-002
   5.0527965584387317E-002  -3.4328310479974731E-003   4.1224161127372344E-002
   5.1465592513419242E-002  -5.1697060888129445E-003   4.5566293700275769E-002
   5.2403219442451146E-002  -6.9202208075062237E-003   4.9991344105836687E-002
   4.0732853820248584E-002   0.0000000000000000        3.1284535042420486E-002
   4.1688352411333653E-002  -1.3347517295290712E-003   3.5939395333256241E-002
   4.2643851002418715E-002  -2.7281008618874588E-003   4.0547081115540763E-002
   4.3599349593503783E-002  -4.1800473970751584E-003   4.5107592389274066E-002
   4.4554848184588859E-002  -5.6905913350921763E-003   4.9620929154456143E-002
   3.3392724008379046E-002   0.0000000000000000        3.0177743423309322E-002
   3.4236001920308512E-002  -9.5990777399831625E-004   3.5266209372441008E-002
   3.5079279832237971E-002  -2.0233706757774423E-003   4.0177408471812698E-002
   3.5922557744167430E-002  -3.1903887053373768E-003   4.4911340721424393E-002
   3.6765835656096882E-002  -4.4609618626781202E-003   4.9468006121276109E-002
   2.6632322290714886E-002   0.0000000000000000        2.9468274622204665E-002
   2.7233287182279974E-002  -5.8506381846756134E-004   3.4945388504680777E-002
   2.7834252073845062E-002  -1.3186404896674275E-003   4.0115143196188141E-002
   2.8435216965410154E-002  -2.2007300135995951E-003   4.4977538696726750E-002
   2.9036181856975242E-002  -3.2313323902640675E-003   4.9532575006296597E-002
   6.0310949429683736E-002  -8.1498502799202850E-003   5.0579250975417767E-002
   6.0610739395878299E-002  -1.0027972045754167E-002   5.1517033649895981E-002
   6.0910529362072835E-002  -1.1712684391590379E-002   5.2244062570754556E-002
   6.1210319328267378E-002  -1.3203987317428870E-002   5.2760337737993539E-002
   6.1510109294461934E-002  -1.4501880823269718E-002   5.3065859151612847E-002
   5.2403219442451146E-002  -6.9202208075062237E-003   4.9991344105836687E-002
   5.2530753868633338E-002  -8.5835452583362514E-003   5.1217698540093524E-002
   5.2658288294815524E-002  -1.0058849495561904E-002   5.2310295647945260E-002
   5.2785822720997716E-002  -1.1346133519183236E-002   5.3269135429391920E-002
   5.2913357147179894E-002  -1.2445397329200164E-002   5.4094217884433478E-002
   4.4554848184588859E-002  -5.6905913350921763E-003   4.9620929154456143E-002
   4.4587123497973238E-002  -7.1391184709183354E-003   5.1130466142098228E-002
   4.4619398811357611E-002  -8.4050145995334703E-003   5.2583242230549811E-002
   4.4651674124742004E-002  -9.4882797209375654E-003   5.3979257419810862E-002
   4.4683949438126369E-002  -1.0388913835130641E-002   5.5318511709881342E-002
   3.6765835656096882E-002  -4.4609618626781202E-003   4.9468006121276109E-002
   3.6779848283897999E-002  -5.6946916835004212E-003   5.1255336455910183E-002
   3.6793860911699124E-002  -6.7511797035050246E-003   5.3062902318568243E-002
   3.6807873539500234E-002  -7.6304259226919070E-003   5.4890703709250324E-002
   3.6821886167301351E-002  -8.3324303410610961E-003   5.6738740627956405E-002
   2.9036181856975242E-002  -3.2313323902640675E-003   4.9532575006296597E-002
   2.9108928226407635E-002  -4.2502648960825017E-003   5.1592309481529305E-002
   2.9181674595840031E-002  -5.0973448074765806E-003   5.3749275912000544E-002
   2.9254420965272424E-002  -5.7725721244462572E-003   5.6003474297710354E-002
   2.9327167334704821E-002  -6.2759468469915716E-003   5.8354904638658729E-002
   6.1510109294461934E-002  -1.4501880823269718E-002   5.3065859151612847E-002
   6.0188266667523568E-002  -1.5507935496006355E-002   5.1662819591724946E-002
   5.8866424040585209E-002  -1.6123721922532384E-002   5.0705258766547259E-002
   5.7544581413646850E-002  -1.6349240102847769E-002   5.0193176676079941E-002
   5.6222738786708484E-002  -1.6184490036952492E-002   5.0126573320322970E-002
   5.2913357147179894E-002  -1.2445397329200164E-002   5.4094217884433478E-002
   5.1986541497063381E-002  -1.3296705218923684E-002   5.3357150941482225E-002
   5.1059725846946874E-002  -1.3840121481664656E-002   5.2964659217464391E-002
   5.0132910196830374E-002  -1.4075646117423129E-002   5.2916742712379922E-002
   4.9206094546713854E-002  -1.4003279126198975E-002   5.3213401426228907E-002
   4.4683949438126369E-002  -1.0388913835130641E-002   5.5318511709881342E-002
   4.4051257249054829E-002  -1.1085474941840982E-002   5.5165040764638622E-002
   4.3418565059983302E-002  -1.1556521040796904E-002   5.5255241522552463E-002
   4.2785872870911776E-002  -1.1802052131998418E-002   5.5589113983622832E-002
   4.2153180681840249E-002  -1.1822068215445486E-002   5.6166658147849692E-002
   3.6821886167301351E-002  -8.3324303410610961E-003   5.6738740627956405E-002
   3.6382413923497912E-002  -8.8742446647582744E-003   5.7086489061194158E-002
   3.5942941679694473E-002  -9.2729205999291849E-003   5.7577005681811524E-002
   3.5503469435891034E-002  -9.5284581465737636E-003   5.8210290489808539E-002
   3.5063997192087602E-002  -9.6408573046919688E-003   5.8986343485185312E-002
   2.9327167334704821E-002  -6.2759468469915716E-003   5.8354904638658729E-002
   2.8980011520392607E-002  -6.6630143876755983E-003   5.9121495831148736E-002
   2.8632855706080401E-002  -6.9893201590614257E-003   5.9929951695241582E-002
   2.8285699891768195E-002  -7.2548641611490522E-003   6.0780272230937155E-002
   2.7938544077455982E-002  -7.4596463939384794E-003   6.1672457438235545E-002
   5.6222738786708484E-002  -1.6184490036952492E-002   5.0126573320322970E-002
   5.4721840284743806E-002  -1.5832898311781363E-002   4.9802251659917696E-002
   5.3220941782779106E-002  -1.5497891514269301E-002   4.9654010501187201E-002
   5.1720043280814407E-002  -1.5179469644416152E-002   4.9681849844131536E-002
   5.0219144778849728E-002  -1.4877632702222005E-002   4.9885769688750664E-002
   4.9206094546713854E-002  -1.4003279126198975E-002   5.3213401426228907E-002
   4.7886548436870999E-002  -1.3770379006119250E-002   5.2856376882926652E-002
   4.6567002327028151E-002  -1.3524304255310704E-002   5.2685976622193181E-002
   4.5247456217185303E-002  -1.3265054873773413E-002   5.2702200644028627E-002
   4.3927910107342441E-002  -1.2992630861507426E-002   5.2905048948432926E-002
   4.2153180681840249E-002  -1.1822068215445486E-002   5.6166658147849692E-002
   4.1025530745013306E-002  -1.1707859700457068E-002   5.5806690280038054E-002
   3.9897880808186369E-002  -1.1550716996352194E-002   5.5643890475689420E-002
   3.8770230871359425E-002  -1.1350640103130732E-002   5.5678258734803733E-002
   3.7642580934532488E-002  -1.1107629020792834E-002   5.5909795057380994E-002
   3.5063997192087602E-002  -9.6408573046919688E-003   5.8986343485185312E-002
   3.4138787209170678E-002  -9.6453403947949490E-003   5.8653191851252076E-002
   3.3213577226253760E-002  -9.5771297373936411E-003   5.8527752061675951E-002
   3.2288367243336828E-002  -9.4362253324880626E-003   5.8610024116456848E-002
   3.1363157260419904E-002  -9.2226271800782342E-003   5.8900008015594828E-002
   2.7938544077455982E-002  -7.4596463939384794E-003   6.1672457438235545E-002
   2.7226317829343150E-002  -7.5828210891328088E-003   6.1395881596568613E-002
   2.6514091581230324E-002  -7.6035424784351088E-003   6.1337561380152700E-002
   2.5801865333117496E-002  -7.5218105618453292E-003   6.1497496788987992E-002
   2.5089639085004667E-002  -7.3376253393636348E-003   6.1875687823074427E-002
   5.0219144778849728E-002  -1.4877632702222005E-002   4.9885769688750664E-002
   4.8667155635722353E-002  -1.4550810203444009E-002   4.9533859977492212E-002
   4.7115166492594951E-002  -1.4157431663839350E-002   4.9384219468467119E-002
   4.5563177349467562E-002  -1.3697497083407709E-002   4.9436848161675144E-002
   4.4011188206340174E-002  -1.3171006462149470E-002   4.9691746057116459E-002
   4.3927910107342441E-002  -1.2992630861507426E-002   5.2905048948432926E-002
   4.2576598422821112E-002  -1.2690069877551127E-002   5.2614280668983951E-002
   4.1225286738299796E-002  -1.2340409580943179E-002   5.2522598104513679E-002
   3.9873975053778467E-002  -1.1943649971683359E-002   5.2630001255022582E-002
   3.8522663369257151E-002  -1.1499791049771835E-002   5.2936490120510132E-002
   3.7642580934532488E-002  -1.1107629020792834E-002   5.5909795057380994E-002
   3.6488763221362859E-002  -1.0829329551658246E-002   5.5660711481566344E-002
   3.5334945508193216E-002  -1.0523387498047005E-002   5.5607530133476302E-002
   3.4181127795023601E-002  -1.0189802859959008E-002   5.5750251013110548E-002
   3.3027310081853951E-002  -9.8285756373942268E-003   5.6088874120469534E-002
   3.1363157260419904E-002  -9.2226271800782342E-003   5.8900008015594828E-002
   3.0403650031347575E-002  -8.9685892257653638E-003   5.8673152415239627E-002
   2.9444142802275256E-002  -8.7063654151508050E-003   5.8639015555354397E-002
   2.8484635573202931E-002  -8.4359557482346029E-003   5.8797597435939382E-002
   2.7525128344130609E-002  -8.1573602250166050E-003   5.9148898056994414E-002
   2.5089639085004667E-002  -7.3376253393636348E-003   6.1875687823074427E-002
   2.4321258852775265E-002  -7.1078488998724959E-003   6.1651603470003619E-002
   2.3552878620545885E-002  -6.8893433322547090E-003   6.1617054370148347E-002
   2.2784498388316480E-002  -6.6821086365102238E-003   6.1772040523509035E-002
   2.2016118156087103E-002  -6.4861448126389276E-003   6.2116561930085301E-002
   4.4011188206340174E-002  -1.3171006462149470E-002   4.9691746057116459E-002
   4.2274200962637759E-002  -1.2627273091168234E-002   4.9254521295554687E-002
   4.0537213718935386E-002  -1.2115610261568044E-002   4.9009627347247509E-002
   3.8800226475233006E-002  -1.1636017973348622E-002   4.8957064212194812E-002
   3.7063239231530626E-002  -1.1188496226510136E-002   4.9096831890396764E-002
   3.8522663369257151E-002  -1.1499791049771835E-002   5.2936490120510132E-002
   3.6983559538809579E-002  -1.1040031883777904E-002   5.2474304825694554E-002
   3.5444455708362028E-002  -1.0595571542270310E-002   5.2215555544134151E-002
   3.3905351877914464E-002  -1.0166410025249553E-002   5.2160242275828772E-002
   3.2366248047466933E-002  -9.7525473327153001E-003   5.2308365020778430E-002
   3.3027310081853951E-002  -9.8285756373942268E-003   5.6088874120469534E-002
   3.1697194864661694E-002  -9.4527906763872960E-003   5.5618500009294553E-002
   3.0367079647469420E-002  -9.0755328229726873E-003   5.5362667111375136E-002
   2.9036964430277173E-002  -8.6968020771503729E-003   5.5321375426711436E-002
   2.7706849213084882E-002  -8.3165984389203251E-003   5.5494624955303065E-002
   2.7525128344130609E-002  -8.1573602250166050E-003   5.9148898056994414E-002
   2.6415106940194118E-002  -7.8655494689968547E-003   5.8687106846354517E-002
   2.5305085536257602E-002  -7.5554941036750090E-003   5.8450962048970587E-002
   2.4195064132321094E-002  -7.2271941290512481E-003   5.8440463664842721E-002
   2.3085042728384596E-002  -6.8806495451255029E-003   5.8655611693970655E-002
   2.2016118156087103E-002  -6.4861448126389276E-003   6.2116561930085301E-002
   2.1137295765406822E-002  -6.2783082616063302E-003   6.1680125336874531E-002
   2.0258473374726547E-002  -6.0354553843773584E-003   6.1480440356920213E-002
   1.9379650984046263E-002  -5.7575861809520471E-003   6.1517506990222404E-002
   1.8500828593365978E-002  -5.4447006513305141E-003   6.1791325236780936E-002
   3.7063239231530626E-002  -1.1188496226510136E-002   4.9096831890396764E-002
   3.5684087925744429E-002  -1.0725997145102445E-002   4.9005663137821398E-002
   3.4304936619958218E-002  -1.0201472853175172E-002   4.9160749432176937E-002
   3.2925785314171986E-002  -9.6149233507286623E-003   4.9562090773463366E-002
   3.1546634008385810E-002  -8.9663486377623558E-003   5.0209687161680727E-002
   3.2366248047466933E-002  -9.7525473327153001E-003   5.2308365020778430E-002
   3.1214908762263557E-002  -9.3239842703204123E-003   5.2289707978900452E-002
   3.0063569477060195E-002  -8.8507216437175712E-003   5.2480419931257002E-002
   2.8912230191856833E-002  -8.3327594529070091E-003   5.2880500877848492E-002
   2.7760890906653485E-002  -7.7700976978886671E-003   5.3489950818674525E-002
   2.7706849213084882E-002  -8.3165984389203251E-003   5.5494624955303065E-002
   2.6746435895768216E-002  -7.9219713955383381E-003   5.5531153977810652E-002
   2.5786022578451574E-002  -7.4999704342600879E-003   5.5740165941856747E-002
   2.4825609261134918E-002  -7.0505955550855242E-003   5.6121660847441621E-002
   2.3865195943818231E-002  -6.5738467580148119E-003   5.6675638694565073E-002
   2.3085042728384596E-002  -6.8806495451255029E-003   5.8655611693970655E-002
   2.2278669326258480E-002  -6.5199585207563679E-003   5.8730001134552193E-002
   2.1472295924132356E-002  -6.1492192248024900E-003   5.8939987463976315E-002
   2.0665922522006240E-002  -5.7684316572642327E-003   5.9285570682242841E-002
   1.9859549119880117E-002  -5.3775958181409844E-003   5.9766750789351945E-002
   1.8500828593365978E-002  -5.4447006513305141E-003   6.1791325236780936E-002
   1.7811609053734259E-002  -5.1179456459743977E-003   6.1886249449125130E-002
   1.7122389514102519E-002  -4.7984680153450171E-003   6.2079884497615617E-002
   1.6433169974470783E-002  -4.4862677594425283E-003   6.2372230382252383E-002
   1.5743950434839060E-002  -4.1813448782672125E-003   6.2763287103035525E-002
   3.1546634008385810E-002  -8.9663486377623558E-003   5.0209687161680727E-002
   2.9559073197276631E-002  -8.3818292213901913E-003   4.9656893802959567E-002
   2.7571512386167410E-002  -7.9874456087252466E-003   4.8860049315030851E-002
   2.5583951575058182E-002  -7.7831977997674731E-003   4.7819153697894440E-002
   2.3596390763949038E-002  -7.7690857945167391E-003   4.6534206951550416E-002
   2.7760890906653485E-002  -7.7700976978886671E-003   5.3489950818674525E-002
   2.5651963845322090E-002  -7.2323029143445960E-003   5.2807605822403986E-002
   2.3543036783990667E-002  -6.7889416379577350E-003   5.2126579454896793E-002
   2.1434109722659224E-002  -6.4400138687273900E-003   5.1446871716152670E-002
   1.9325182661327878E-002  -6.1855196066540330E-003   5.0768482606171950E-002
   2.3865195943818231E-002  -6.5738467580148119E-003   5.6675638694565073E-002
   2.1880272390235572E-002  -6.0827766072992784E-003   5.5959444357295274E-002
   1.9895348836652869E-002  -5.5904376671901540E-003   5.5489938406759920E-002
   1.7910425283070179E-002  -5.0968299376874145E-003   5.5267120842958838E-002
   1.5925501729487507E-002  -4.6019534187913269E-003   5.5290991665891354E-002
   1.9859549119880117E-002  -5.3775958181409844E-003   5.9766750789351945E-002
   1.8243998832017098E-002  -4.9332503002535999E-003   5.9112409407633543E-002
   1.6628448544154083E-002  -4.3919336964224967E-003   5.8950126170620287E-002
   1.5012898256291053E-002  -3.7536460066476627E-003   5.9279901078311929E-002
   1.3397347968428029E-002  -3.0183872309286208E-003   6.0101734130709406E-002
   1.5743950434839060E-002  -4.1813448782672125E-003   6.2763287103035525E-002
   1.4743143170666675E-002  -3.7837239932083100E-003   6.2266500973418570E-002
   1.3742335906494277E-002  -3.1934297256551031E-003   6.2507142746477756E-002
   1.2741528642321850E-002  -2.4104620756074772E-003   6.3485212422213069E-002
   1.1740721378149466E-002  -1.4348210430659147E-003   6.5200710000624662E-002
   2.6632322290714886E-002   0.0000000000000000        2.9468274622204665E-002
   2.7233287182279974E-002  -5.8506381846756134E-004   3.4945388504680777E-002
   2.7834252073845062E-002  -1.3186404896674275E-003   4.0115143196188141E-002
   2.8435216965410154E-002  -2.2007300135995951E-003   4.4977538696726750E-002
   2.9036181856975242E-002  -3.2313323902640675E-003   4.9532575006296597E-002
   2.0114885175185997E-002   0.0000000000000000        2.9021295933332764E-002
   2.0447738217906967E-002  -4.3879956771993803E-004   3.4313952259554990E-002
   2.0780591260627937E-002  -9.8889829959496883E-004   3.9377744079057725E-002
   2.1113444303348907E-002  -1.6502961956250881E-003   4.4212671391840999E-002
   2.1446297346069881E-002  -2.4229932558103035E-003   4.8818734197904765E-002
   1.3503649169722274E-002   0.0000000000000000        2.8701974650919879E-002
   1.3646885047848400E-002  -2.9253531697231473E-004   3.3847387109465429E-002
   1.3790120925974526E-002  -6.5915610952251014E-004   3.8842429745540752E-002
   1.3933356804100653E-002  -1.0998623776505827E-003   4.3687102559145888E-002
   1.4076592682226779E-002  -1.6146541213565360E-003   4.8381405550280816E-002
   6.7986142743237197E-003   0.0000000000000000        2.8510310774966015E-002
   6.8307276721042767E-003  -1.4627106622469100E-004   3.3545693054412094E-002
   6.8628410698848312E-003  -3.2941391945004797E-004   3.8509200195637236E-002
   6.8949544676653865E-003  -5.4942855967607829E-004   4.3400832198641437E-002
   6.9270678654459409E-003  -8.0631498690276679E-004   4.8220589063424711E-002
  -2.1951100966435821E-007   0.0000000000000000        2.8446304305471164E-002
  -7.3390932540766396E-007  -6.8154770681283505E-009   3.3408870094394985E-002
  -1.2483076411501023E-006   3.2827062240725624E-007   3.8378055429347135E-002
  -1.7627059568934081E-006   1.0052582984313579E-006   4.3353860310327633E-002
  -2.2771042726358465E-006   2.0241475509963705E-006   4.8336284737336456E-002
   2.9036181856975242E-002  -3.2313323902640675E-003   4.9532575006296597E-002
   2.9108928226407635E-002  -4.2502648960825017E-003   5.1592309481529305E-002
   2.9181674595840031E-002  -5.0973448074765806E-003   5.3749275912000544E-002
   2.9254420965272424E-002  -5.7725721244462572E-003   5.6003474297710354E-002
   2.9327167334704821E-002  -6.2759468469915716E-003   5.8354904638658729E-002
   2.1446297346069881E-002  -2.4229932558103035E-003   4.8818734197904765E-002
   2.1587439489654182E-002  -3.1870040813180376E-003   5.1220074453080279E-002
   2.1728581633238479E-002  -3.8223432733157339E-003   5.3660974301321052E-002
   2.1869723776822784E-002  -4.3290108318034060E-003   5.6141433742627075E-002
   2.2010865920407085E-002  -4.7070067567810195E-003   5.8661452776998371E-002
   1.4076592682226779E-002  -1.6146541213565360E-003   4.8381405550280816E-002
   1.4228458237789683E-002  -2.1237432665535743E-003   5.1081170624484799E-002
   1.4380323793352596E-002  -2.5473417391549081E-003   5.3762822929580782E-002
   1.4532189348915498E-002  -2.8854495391605452E-003   5.6426362465568675E-002
   1.4684054904478407E-002  -3.1380666665704639E-003   5.9071789232448546E-002
   6.9270678654459409E-003  -8.0631498690276679E-004   4.8220589063424711E-002
   7.0319844708141566E-003  -1.0604824517891141E-003   5.1175597995742866E-002
   7.1369010761823748E-003  -1.2723402049940858E-003   5.4054821796779652E-002
   7.2418176815505888E-003  -1.4418882465176788E-003   5.6858260466535145E-002
   7.3467342869188062E-003  -1.5691265763599031E-003   5.9585914005009233E-002
  -2.2771042726358465E-006   2.0241475509963705E-006   4.8336284737336456E-002
  -1.9818112724110867E-006   2.7783629753487180E-006   5.1503356566854439E-002
  -1.6865182721837249E-006   2.6613291667454495E-006   5.4536970902917772E-002
  -1.3912252719580978E-006   1.6730461251725248E-006   5.7437127745526451E-002
  -1.0959322717316033E-006  -1.8648614935612429E-007   6.0203827094680487E-002
   2.9327167334704821E-002  -6.2759468469915716E-003   5.8354904638658729E-002
   2.8980011520392607E-002  -6.6630143876755983E-003   5.9121495831148736E-002
   2.8632855706080401E-002  -6.9893201590614257E-003   5.9929951695241582E-002
   2.8285699891768195E-002  -7.2548641611490522E-003   6.0780272230937155E-002
   2.7938544077455982E-002  -7.4596463939384794E-003   6.1672457438235545E-002
   2.2010865920407085E-002  -4.7070067567810195E-003   5.8661452776998371E-002
   2.1716586481116955E-002  -4.9974323321185371E-003   5.9482161488810942E-002
   2.1422307041826814E-002  -5.2413888416858751E-003   6.0366758279064896E-002
   2.1128027602536688E-002  -5.4388762854830457E-003   6.1315243147760219E-002
   2.0833748163246544E-002  -5.5898946635100366E-003   6.2327616094896947E-002
   1.4684054904478407E-002  -3.1380666665704639E-003   5.9071789232448546E-002
   1.4464675247048940E-002  -3.3318502765614603E-003   5.9932322760055667E-002
   1.4245295589619478E-002  -3.4934575243103097E-003   6.0878767772942724E-002
   1.4025915932190009E-002  -3.6228884098170253E-003   6.1911124271109744E-002
   1.3806536274760545E-002  -3.7201429330815938E-003   6.3029392254556699E-002
   7.3467342869188062E-003  -1.5691265763599031E-003   5.9585914005009233E-002
   7.2242778181885892E-003  -1.6662682210043843E-003   6.0471979644882837E-002
   7.1018213494583732E-003  -1.7455262069347587E-003   6.1465980176874997E-002
   6.9793648807281597E-003  -1.8069005341509979E-003   6.2567915600985666E-002
   6.8569084119979419E-003  -1.8503912026531649E-003   6.3777785917214919E-002
  -1.0959322717316033E-006  -1.8648614935612429E-007   6.0203827094680487E-002
  -4.6058054641081453E-006  -6.8616544732225115E-007   6.1101132143292533E-002
  -8.1156786564846872E-006   2.4051104408027990E-006   6.2128395490861722E-002
  -1.1625551848861229E-005   9.0873415150077505E-006   6.3285617137388062E-002
  -1.5135425041237771E-005   1.9360527775305614E-005   6.4572797082871516E-002
   2.7938544077455982E-002  -7.4596463939384794E-003   6.1672457438235545E-002
   2.7226317829343150E-002  -7.5828210891328088E-003   6.1395881596568613E-002
   2.6514091581230324E-002  -7.6035424784351088E-003   6.1337561380152700E-002
   2.5801865333117496E-002  -7.5218105618453292E-003   6.1497496788987992E-002
   2.5089639085004667E-002  -7.3376253393636348E-003   6.1875687823074427E-002
   2.0833748163246544E-002  -5.5898946635100366E-003   6.2327616094896947E-002
   2.0329805209423849E-002  -5.6815113070909154E-003   6.2206045802499353E-002
   1.9825862255601137E-002  -5.7007935475498484E-003   6.2282786473430884E-002
   1.9321919301778422E-002  -5.6477413848866620E-003   6.2557838107691485E-002
   1.8817976347955727E-002  -5.5223548191015714E-003   6.3031200705281107E-002
   1.3806536274760545E-002  -3.7201429330815938E-003   6.3029392254556699E-002
   1.3490931953305904E-002  -3.7802015250490879E-003   6.3032708608658505E-002
   1.3175327631851254E-002  -3.7980446166645636E-003   6.3214391264167336E-002
   1.2859723310396604E-002  -3.7736722079280234E-003   6.3574440221083189E-002
   1.2544118988941960E-002  -3.7070842988394942E-003   6.4112855479406150E-002
   6.8569084119979419E-003  -1.8503912026531649E-003   6.3777785917214919E-002
   6.7096980609893126E-003  -1.8788917430072275E-003   6.3875870015046118E-002
   6.5624877099806755E-003  -1.8952956857792910E-003   6.4132375752362261E-002
   6.4152773589720461E-003  -1.8996030309693704E-003   6.4547303129163389E-002
   6.2680670079634125E-003  -1.8918137785774239E-003   6.5120652145449653E-002
  -1.5135425041237771E-005   1.9360527775305614E-005   6.4572797082871516E-002
  -1.3896467525914905E-005   2.2418039034646786E-005   6.4735530021662060E-002
  -1.2657510010595507E-005   7.4532451059504401E-006   6.5036739938015592E-002
  -1.1418552495277845E-005  -2.5533854010642044E-005   6.5476426831932014E-002
  -1.0179594979953244E-005  -7.6543258315381335E-005   6.6054590703411409E-002
   2.5089639085004667E-002  -7.3376253393636348E-003   6.1875687823074427E-002
   2.4321258852775265E-002  -7.1078488998724959E-003   6.1651603470003619E-002
   2.3552878620545885E-002  -6.8893433322547090E-003   6.1617054370148347E-002
   2.2784498388316480E-002  -6.6821086365102238E-003   6.1772040523509035E-002
   2.2016118156087103E-002  -6.4861448126389276E-003   6.2116561930085301E-002
   1.8817976347955727E-002  -5.5223548191015714E-003   6.3031200705281107E-002
   1.8240079437382664E-002  -5.3624723750639314E-003   6.2798563039440813E-002
   1.7662182526809615E-002  -5.2059325776435891E-003   6.2757356763697425E-002
   1.7084285616236566E-002  -5.0527354268403765E-003   6.2907581878050983E-002
   1.6506388705663504E-002  -4.9028809226544234E-003   6.3249238382501349E-002
   1.2544118988941960E-002  -3.7070842988394942E-003   6.4112855479406150E-002
   1.2158601536906465E-002  -3.6170958502554987E-003   6.3879592726052509E-002
   1.1773084084870966E-002  -3.5225218230325005E-003   6.3839657499677002E-002
   1.1387566632835466E-002  -3.4233622171706132E-003   6.3993049800279686E-002
   1.1002049180799969E-002  -3.3196170326697805E-003   6.4339769627860532E-002
   6.2680670079634125E-003  -1.8918137785774239E-003   6.5120652145449653E-002
   6.0768251513466784E-003  -1.8717193254470278E-003   6.4894692529838732E-002
   5.8855832947299451E-003  -1.8391110684214517E-003   6.4863956578087259E-002
   5.6943414381132075E-003  -1.7939890075008356E-003   6.5028444290195150E-002
   5.5030995814964760E-003  -1.7363531426851514E-003   6.5388155666162406E-002
  -1.0179594979953244E-005  -7.6543258315381335E-005   6.6054590703411409E-002
  -5.2497192967078388E-006  -1.2634280063851533E-004   6.5843862450799512E-002
  -3.1984361346416856E-007  -1.5570031381032662E-004   6.5830253998928182E-002
   4.6100320697786343E-006  -1.6461579783105286E-004   6.6013765347797487E-002
   9.5399077530249066E-006  -1.5308925270057783E-004   6.6394396497407304E-002
   2.2016118156087103E-002  -6.4861448126389276E-003   6.2116561930085301E-002
   2.1137295765406822E-002  -6.2783082616063302E-003   6.1680125336874531E-002
   2.0258473374726547E-002  -6.0354553843773584E-003   6.1480440356920213E-002
   1.9379650984046263E-002  -5.7575861809520471E-003   6.1517506990222404E-002
   1.8500828593365978E-002  -5.4447006513305141E-003   6.1791325236780936E-002
   1.6506388705663504E-002  -4.9028809226544234E-003   6.3249238382501349E-002
   1.5859499339780030E-002  -4.7446399415599499E-003   6.2840939089706269E-002
   1.5212609973896545E-002  -4.5662833600313910E-003   6.2659754233248169E-002
   1.4565720608013069E-002  -4.3678111780688072E-003   6.2705683813127328E-002
   1.3918831242129580E-002  -4.1492233956721969E-003   6.2978727829343439E-002
   1.1002049180799969E-002  -3.3196170326697805E-003   6.4339769627860532E-002
   1.0577455662793958E-002  -3.2109716215135004E-003   6.3944706909718624E-002
   1.0152862144787949E-002  -3.0971113356854235E-003   6.3767121450994557E-002
   9.7282686267819371E-003  -2.9780361751855673E-003   6.3807013251688305E-002
   9.3036751087759266E-003  -2.8537461400137687E-003   6.4064382311799770E-002
   5.5030995814964760E-003  -1.7363531426851514E-003   6.5388155666162406E-002
   5.2911647344486019E-003  -1.6773033014671965E-003   6.4991428796911666E-002
   5.0792298874007234E-003  -1.6279393113394838E-003   6.4802542010159378E-002
   4.8672950403528441E-003  -1.5882611723022164E-003   6.4821495305905516E-002
   4.6553601933049709E-003  -1.5582688843554793E-003   6.5048288684150218E-002
   9.5399077530249066E-006  -1.5308925270057783E-004   6.6394396497407304E-002
   6.2655474395573174E-007  -1.4363498142064279E-004   6.5981104751285408E-002
  -8.2867982651186473E-006  -1.5876728699351639E-004   6.5766015910742603E-002
  -1.7200151274187822E-005  -1.9848616941901126E-004   6.5749129975779003E-002
  -2.6113504283262201E-005  -2.6279162869702333E-004   6.5930446946394550E-002
   1.8500828593365978E-002  -5.4447006513305141E-003   6.1791325236780936E-002
   1.7811609053734259E-002  -5.1179456459743977E-003   6.1886249449125130E-002
   1.7122389514102519E-002  -4.7984680153450171E-003   6.2079884497615617E-002
   1.6433169974470783E-002  -4.4862677594425283E-003   6.2372230382252383E-002
   1.5743950434839060E-002  -4.1813448782672125E-003   6.2763287103035525E-002
   1.3918831242129580E-002  -4.1492233956721969E-003   6.2978727829343439E-002
   1.3346509063080429E-002  -3.9236367203618894E-003   6.3051982189339634E-002
   1.2774186884031268E-002  -3.7041678596585331E-003   6.3260320434354589E-002
   1.2201864704982092E-002  -3.4908168135621385E-003   6.3603742564388444E-002
   1.1629542525932943E-002  -3.2835835820725912E-003   6.4082248579441115E-002
   9.3036751087759266E-003  -2.8537461400137687E-003   6.4064382311799770E-002
   8.8846233391818401E-003  -2.7293277947495198E-003   6.4117126379568137E-002
   8.4655715695877484E-003  -2.6098677039721532E-003   6.4341327381227692E-002
   8.0465197999936532E-003  -2.4953658676816915E-003   6.4736985316778628E-002
   7.6274680303995632E-003  -2.3858222858779976E-003   6.5304100186220945E-002
   4.6553601933049709E-003  -1.5582688843554793E-003   6.5048288684150218E-002
   4.4259518820384596E-003  -1.5350188691371919E-003   6.5081682019810627E-002
   4.1965435707719545E-003  -1.5155675482856103E-003   6.5322905338234843E-002
   3.9671352595054485E-003  -1.4999149218011621E-003   6.5771958639422881E-002
   3.7377269482389442E-003  -1.4880609896833902E-003   6.6428841923374699E-002
  -2.6113504283262201E-005  -2.6279162869702333E-004   6.5930446946394550E-002
  -2.9505308349671300E-005  -3.4070994352480843E-004   6.5945649110067117E-002
  -3.2897112416090807E-005  -4.2126739259930324E-004   6.6205054305376043E-002
  -3.6288916482503375E-005  -5.0446397592077488E-004   6.6708662532321342E-002
  -3.9680720548919413E-005  -5.9029969348883826E-004   6.7456473790902860E-002
   1.5743950434839060E-002  -4.1813448782672125E-003   6.2763287103035525E-002
   1.4743143170666675E-002  -3.7837239932083100E-003   6.2266500973418570E-002
   1.3742335906494277E-002  -3.1934297256551031E-003   6.2507142746477756E-002
   1.2741528642321850E-002  -2.4104620756074772E-003   6.3485212422213069E-002
   1.1740721378149466E-002  -1.4348210430659147E-003   6.5200710000624662E-002
   1.1629542525932943E-002  -3.2835835820725912E-003   6.4082248579441115E-002
   1.1237062508719385E-002  -3.0344379641506491E-003   6.3710003192462616E-002
   1.0844582491505848E-002  -2.6953497587569319E-003   6.3816984396725784E-002
   1.0452102474292270E-002  -2.2663189658916269E-003   6.4403192192230632E-002
   1.0059622457078726E-002  -1.7473455855546716E-003   6.5468626578977118E-002
   7.6274680303995632E-003  -2.3858222858779976E-003   6.5304100186220945E-002
   7.5851139487103265E-003  -2.2851519350932381E-003   6.4953664746858403E-002
   7.5427598670211003E-003  -2.1972697918592118E-003   6.4824254587302982E-002
   7.5004057853318602E-003  -2.1221758561759726E-003   6.4915869707554599E-002
   7.4580517036426375E-003  -2.0598701280435394E-003   6.5228510107613324E-002
   3.7377269482389442E-003  -1.4880609896833902E-003   6.6428841923374699E-002
   3.7872974906395266E-003  -1.5358659060356467E-003   6.5997485636605874E-002
   3.8368680330401099E-003  -1.6991898249611552E-003   6.5528953318209404E-002
   3.8864385754406950E-003  -1.9780327464602758E-003   6.5023244968185331E-002
   3.9360091178412826E-003  -2.3723946705323518E-003   6.4480360586534169E-002
  -3.9680720548919413E-005  -5.9029969348883826E-004   6.7456473790902860E-002
  -1.5638686549304670E-004  -7.8657987697827725E-004   6.6841465861704752E-002
  -2.7309301043716011E-004  -1.2011098580634733E-003   6.5931080589444663E-002
  -3.8979915538128913E-004  -1.8338896367444783E-003   6.4725317974122745E-002
  -5.0650530032540775E-004  -2.6849192130211641E-003   6.3224178015738763E-002
  -2.1951100966435821E-007   0.0000000000000000        2.8446304305471164E-002
  -7.3390932540766396E-007  -6.8154770681283505E-009   3.3408870094394985E-002
  -1.2483076411501023E-006   3.2827062240725624E-007   3.8378055429347135E-002
  -1.7627059568934081E-006   1.0052582984313579E-006   4.3353860310327633E-002
  -2.2771042726358465E-006   2.0241475509963705E-006   4.8336284737336456E-002
  -6.7991198088291540E-003   0.0000000000000000        2.8510135249742011E-002
  -6.8321738645271187E-003   1.4644734191328595E-004   3.3545986338112413E-002
  -6.8652279202250834E-003   3.3011005803907680E-004   3.8510138565690036E-002
  -6.8982819759230455E-003   5.5098814837737948E-004   4.3402591932474879E-002
  -6.9313360316210102E-003   8.0908161292818966E-004   4.8223346438466944E-002
  -1.3504354241686027E-002   0.0000000000000000        2.8701983615085226E-002
  -1.3648266361587330E-002   2.9290149930363916E-004   3.3847993475538185E-002
  -1.3792178481488634E-002   6.5989184545574980E-004   3.8843986068377238E-002
  -1.3936090601389940E-002   1.1009710384563319E-003   4.3689961393602393E-002
  -1.4080002721291240E-002   1.6161390783053860E-003   4.8385919451213649E-002
  -2.0115922809580283E-002   0.0000000000000000        2.9021849401500818E-002
  -2.0449011400506045E-002   4.3935565669399280E-004   3.4314891506672288E-002
  -2.0782099991431807E-002   9.8967363287242021E-004   3.9379597937408736E-002
  -2.1115188582357565E-002   1.6509539285352840E-003   4.4215968693710153E-002
  -2.1448277173283330E-002   2.4231965436825788E-003   4.8824003775576573E-002
  -2.6633825512511915E-002   0.0000000000000000        2.9469732608988775E-002
  -2.7234408981283254E-002   5.8580981408434644E-004   3.4946680431514721E-002
  -2.7834992450054597E-002   1.3194554202890906E-003   4.0116974172784522E-002
  -2.8435575918825937E-002   2.2009368186142342E-003   4.4980613832798201E-002
  -2.9036159387597273E-002   3.2302540090597765E-003   4.9537599411555729E-002
  -2.2771042726358465E-006   2.0241475509963705E-006   4.8336284737336456E-002
  -1.9818112724110867E-006   2.7783629753487180E-006   5.1503356566854439E-002
  -1.6865182721837249E-006   2.6613291667454495E-006   5.4536970902917772E-002
  -1.3912252719580978E-006   1.6730461251725248E-006   5.7437127745526451E-002
  -1.0959322717316033E-006  -1.8648614935612429E-007   6.0203827094680487E-002
  -6.9313360316210102E-003   8.0908161292818966E-004   4.8223346438466944E-002
  -7.0357593730364931E-003   1.0641734997549669E-003   5.1177504475255230E-002
  -7.1401827144519751E-003   1.2760468569211721E-003   5.4055682736666714E-002
  -7.2446060558674606E-003   1.4447016844268265E-003   5.6857881222701426E-002
  -7.3490293972829409E-003   1.5701379822718742E-003   5.9584099933359350E-002
  -1.4080002721291240E-002   1.6161390783053860E-003   4.8385919451213649E-002
  -1.4231666979044575E-002   2.1255686365345811E-003   5.1084816414844622E-002
  -1.4383331236797909E-002   2.5494323846756125E-003   5.3765211321176683E-002
  -1.4534995494551237E-002   2.8877303227284631E-003   5.6427104170209817E-002
  -1.4686659752304574E-002   3.1404624506931322E-003   5.9070494961944026E-002
  -2.1448277173283330E-002   2.4231965436825788E-003   4.8824003775576573E-002
  -2.1589704629296651E-002   3.1869637733142010E-003   5.1225292385622651E-002
  -2.1731132085309971E-002   3.8228179124300461E-003   5.3665556656447663E-002
  -2.1872559541323288E-002   4.3307589610301015E-003   5.6144796588051625E-002
  -2.2013986997336619E-002   4.7107869191143764E-003   5.8663012180434508E-002
  -2.9036159387597273E-002   3.2302540090597765E-003   4.9537599411555729E-002
  -2.9109872323792724E-002   4.2483589100938178E-003   5.1598932387589287E-002
  -2.9183585259988171E-002   5.0962034401844797E-003   5.3756718742479642E-002
  -2.9257298196183629E-002   5.7737875993317429E-003   5.6010958476226794E-002
  -2.9331011132379074E-002   6.2811113875356206E-003   5.8361651588830762E-002
  -1.0959322717316033E-006  -1.8648614935612429E-007   6.0203827094680487E-002
  -4.6058054641081453E-006  -6.8616544732225115E-007   6.1101132143292533E-002
  -8.1156786564846872E-006   2.4051104408027990E-006   6.2128395490861722E-002
  -1.1625551848861229E-005   9.0873415150077505E-006   6.3285617137388062E-002
  -1.5135425041237771E-005   1.9360527775305614E-005   6.4572797082871516E-002
  -7.3490293972829409E-003   1.5701379822718742E-003   5.9584099933359350E-002
  -7.2329530070294520E-003   1.6669648726601871E-003   6.0476131391416318E-002
  -7.1168766167759596E-003   1.7497914777955155E-003   6.1477377077407844E-002
  -7.0008002265224707E-003   1.8186177976779226E-003   6.2587836991333939E-002
  -6.8847238362689765E-003   1.8734438323072672E-003   6.3807511133194730E-002
  -1.4686659752304574E-002   3.1404624506931322E-003   5.9070494961944026E-002
  -1.4471741169627737E-002   3.3346159107676965E-003   5.9939661589006779E-002
  -1.4256822586950910E-002   3.4971778451502438E-003   6.0897298372981606E-002
  -1.4041904004274075E-002   3.6281482538407825E-003   6.1943405313868515E-002
  -1.3826985421597248E-002   3.7275271368392773E-003   6.3077982411667483E-002
  -2.2013986997336619E-002   4.7107869191143764E-003   5.8663012180434508E-002
  -2.1720970293258972E-002   5.0022669488752267E-003   5.9491722736064019E-002
  -2.1427953589181325E-002   5.2445642125049921E-003   6.0388159377583087E-002
  -2.1134936885103692E-002   5.4376787100036562E-003   6.1352322104991697E-002
  -2.0841920181026045E-002   5.5816104413712493E-003   6.2384210918289863E-002
  -2.9331011132379074E-002   6.2811113875356206E-003   5.8361651588830762E-002
  -2.8980640377923150E-002   6.6699179869827048E-003   5.9132314832587990E-002
  -2.8630269623467222E-002   6.9919505798596952E-003   5.9949960091212222E-002
  -2.8279898869011291E-002   7.2472091661665251E-003   6.0814587364703493E-002
  -2.7929528114555364E-002   7.4356937459032352E-003   6.1726196653061796E-002
  -1.5135425041237771E-005   1.9360527775305614E-005   6.4572797082871516E-002
  -1.3896467525914905E-005   2.2418039034646786E-005   6.4735530021662060E-002
  -1.2657510010595507E-005   7.4532451059504401E-006   6.5036739938015592E-002
  -1.1418552495277845E-005  -2.5533854010642044E-005   6.5476426831932014E-002
  -1.0179594979953244E-005  -7.6543258315381335E-005   6.6054590703411409E-002
  -6.8847238362689765E-003   1.8734438323072672E-003   6.3807511133194730E-002
  -6.7352798238861124E-003   1.9052629476369945E-003   6.3882281045922140E-002
  -6.5858358115032465E-003   1.9050685096202204E-003   6.4114984090821753E-002
  -6.4363917991203867E-003   1.8728605182570532E-003   6.4505620267893499E-002
  -6.2869477867375165E-003   1.8086389735473551E-003   6.5054189577137420E-002
  -1.3826985421597248E-002   3.7275271368392773E-003   6.3077982411667483E-002
  -1.3509880199737605E-002   3.7881078562392936E-003   6.3050798050173357E-002
  -1.3192774977877957E-002   3.8026837741344365E-003   6.3201002975460649E-002
  -1.2875669756018313E-002   3.7712548905247489E-003   6.3528597187529304E-002
  -1.2558564534158670E-002   3.6938212054101055E-003   6.4033580686379349E-002
  -2.0841920181026045E-002   5.5816104413712493E-003   6.2384210918289863E-002
  -2.0337697595080386E-002   5.6709527648416448E-003   6.2241081034415724E-002
  -1.9833475009134734E-002   5.7002990386487073E-003   6.2294796591932190E-002
  -1.9329252423189083E-002   5.6696492627924446E-003   6.2545357590839276E-002
  -1.8825029837243420E-002   5.5790034372728212E-003   6.2992764031137016E-002
  -2.7929528114555364E-002   7.4356937459032352E-003   6.1726196653061796E-002
  -2.7218732009914457E-002   7.5537976734439752E-003   6.1453129998649200E-002
  -2.6507935905273568E-002   7.5979143031629746E-003   6.1396364940236460E-002
  -2.5797139800632668E-002   7.5680436350601807E-003   6.1555901477823541E-002
  -2.5086343695991761E-002   7.4641856691355923E-003   6.1931739611410547E-002
  -1.0179594979953244E-005  -7.6543258315381335E-005   6.6054590703411409E-002
  -5.2497192967078388E-006  -1.2634280063851533E-004   6.5843862450799512E-002
  -3.1984361346416856E-007  -1.5570031381032662E-004   6.5830253998928182E-002
   4.6100320697786343E-006  -1.6461579783105286E-004   6.6013765347797487E-002
   9.5399077530249066E-006  -1.5308925270057783E-004   6.6394396497407304E-002
  -6.2869477867375165E-003   1.8086389735473551E-003   6.5054189577137420E-002
  -6.0866048688150431E-003   1.7333413717009610E-003   6.4862057744472582E-002
  -5.8862619508925716E-003   1.6679052089271368E-003   6.4863632195545640E-002
  -5.6859190329700904E-003   1.6123304852263300E-003   6.5058912930356497E-002
  -5.4855761150476266E-003   1.5666172005981693E-003   6.5447899948905292E-002
  -1.2558564534158670E-002   3.6938212054101055E-003   6.4033580686379349E-002
  -1.2166222090999681E-002   3.5930255440402223E-003   6.3849464683583129E-002
  -1.1773879647840690E-002   3.4915107316647424E-003   6.3855641447522121E-002
  -1.1381537204681698E-002   3.3892767682836859E-003   6.4052110978196145E-002
  -1.0989194761522705E-002   3.2863236538969443E-003   6.4438873275605463E-002
  -1.8825029837243420E-002   5.5790034372728212E-003   6.2992764031137016E-002
  -1.8244101385850628E-002   5.4527097163795633E-003   6.2806083268131044E-002
  -1.7663172934457832E-002   5.3151162544023602E-003   6.2806281754857529E-002
  -1.7082244483065032E-002   5.1662230513410002E-003   6.2993359491316417E-002
  -1.6501316031672243E-002   5.0060301071957053E-003   6.3367316477507846E-002
  -2.5086343695991761E-002   7.4641856691355923E-003   6.1931739611410547E-002
  -2.4320242753367874E-002   7.3123938887189599E-003   6.1731913498116409E-002
  -2.3554141810743986E-002   7.1387217771398809E-003   6.1715553117551947E-002
  -2.2788040868120092E-002   6.9431693343984559E-003   6.1882658469717300E-002
  -2.2021939925496208E-002   6.7257365604944663E-003   6.2233229554612413E-002
   9.5399077530249066E-006  -1.5308925270057783E-004   6.6394396497407304E-002
   6.2655474395573174E-007  -1.4363498142064279E-004   6.5981104751285408E-002
  -8.2867982651186473E-006  -1.5876728699351639E-004   6.5766015910742603E-002
  -1.7200151274187822E-005  -1.9848616941901126E-004   6.5749129975779003E-002
  -2.6113504283262201E-005  -2.6279162869702333E-004   6.5930446946394550E-002
  -5.4855761150476266E-003   1.5666172005981693E-003   6.5447899948905292E-002
  -5.2900365429223179E-003   1.5170826498393936E-003   6.5011310324570762E-002
  -5.0944969707970109E-003   1.4500441277465262E-003   6.4785423644925996E-002
  -4.8989573986717065E-003   1.3655016343193400E-003   6.4770239909970717E-002
  -4.7034178265464022E-003   1.2634551695582252E-003   6.4965759119705146E-002
  -1.0989194761522705E-002   3.2863236538969443E-003   6.4438873275605463E-002
  -1.0576702225152546E-002   3.1778002810996103E-003   6.3986068378576871E-002
  -1.0164209688782384E-002   3.0588555424865688E-003   6.3756466465348341E-002
  -9.7517171524122235E-003   2.9294894380578022E-003   6.3750067535919969E-002
  -9.3392246160420630E-003   2.7897019678133628E-003   6.3966871590291560E-002
  -1.6501316031672243E-002   5.0060301071957053E-003   6.3367316477507846E-002
  -1.5859370491946738E-002   4.8385179123597646E-003   6.2905378913303556E-002
  -1.5217424952221252E-002   4.6676669572265836E-003   6.2679144372009915E-002
  -1.4575479412495759E-002   4.4934772417962367E-003   6.2688612853626757E-002
  -1.3933533872770262E-002   4.3159487660686668E-003   6.2933784358154193E-002
  -2.2021939925496208E-002   6.7257365604944663E-003   6.2233229554612413E-002
  -2.1138041343304905E-002   6.4992355436198912E-003   6.1769241928750912E-002
  -2.0254142761113605E-002   6.2764783719666817E-003   6.1553457364910524E-002
  -1.9370244178922295E-002   6.0574650455345949E-003   6.1585875863091194E-002
  -1.8486345596730992E-002   5.8421955643238044E-003   6.1866497423292865E-002
  -2.6113504283262201E-005  -2.6279162869702333E-004   6.5930446946394550E-002
  -2.9505308349671300E-005  -3.4070994352480843E-004   6.5945649110067117E-002
  -3.2897112416090807E-005  -4.2126739259930324E-004   6.6205054305376043E-002
  -3.6288916482503375E-005  -5.0446397592077488E-004   6.6708662532321342E-002
  -3.9680720548919413E-005  -5.9029969348883826E-004   6.7456473790902860E-002
  -4.7034178265464022E-003   1.2634551695582252E-003   6.4965759119705146E-002
  -4.4807905478103267E-003   1.1528213718668134E-003   6.5003119952924876E-002
  -4.2581632690742357E-003   1.0425168796495271E-003   6.5248315920113237E-002
  -4.0355359903381620E-003   9.3254169290624481E-004   6.5701347021270270E-002
  -3.8129087116020761E-003   8.2289581163685899E-004   6.6362213256396074E-002
  -9.3392246160420630E-003   2.7897019678133628E-003   6.3966871590291560E-002
  -8.9269461521711974E-003   2.6463526872585186E-003   6.4029359532779481E-002
  -8.5146676883003300E-003   2.5063011518984754E-003   6.4263314711568070E-002
  -8.1023892244294626E-003   2.3695473617330442E-003   6.4668737126657827E-002
  -7.6901107605585814E-003   2.2360913167625840E-003   6.5245626778048391E-002
  -1.3933533872770262E-002   4.3159487660686668E-003   6.2933784358154193E-002
  -1.3367972121432306E-002   4.1398840026502376E-003   6.3024367849630836E-002
  -1.2802410370094344E-002   3.9700854241473647E-003   6.3250050679740655E-002
  -1.2236848618756391E-002   3.8065530305600092E-003   6.3610832848483637E-002
  -1.1671286867418423E-002   3.6492868218881841E-003   6.4106714355859962E-002
  -1.8486345596730992E-002   5.8421955643238044E-003   6.1866497423292865E-002
  -1.7803868455593660E-002   5.6334153180418733E-003   6.1988144903478926E-002
  -1.7121391314456308E-002   5.4338696963962263E-003   6.2208523824630657E-002
  -1.6438914173318966E-002   5.2435586993868286E-003   6.2527634186747894E-002
  -1.5756437032181624E-002   5.0624823270139507E-003   6.2945475989830635E-002
  -3.9680720548919413E-005  -5.9029969348883826E-004   6.7456473790902860E-002
  -1.5638686549304670E-004  -7.8657987697827725E-004   6.6841465861704752E-002
  -2.7309301043716011E-004  -1.2011098580634733E-003   6.5931080589444663E-002
  -3.8979915538128913E-004  -1.8338896367444783E-003   6.4725317974122745E-002
  -5.0650530032540775E-004  -2.6849192130211641E-003   6.3224178015738763E-002
  -3.8129087116020761E-003   8.2289581163685899E-004   6.6362213256396074E-002
  -4.0743025988023221E-003   6.5923172730733559E-004   6.5630613115505360E-002
  -4.3356964860025767E-003   3.8720193138361281E-004   6.4905014833164354E-002
  -4.5970903732028452E-003   6.8064238654616527E-006   6.4185418409373196E-002
  -4.8584842604030912E-003  -4.8195479524704155E-004   6.3471823844131525E-002
  -7.6901107605585814E-003   2.2360913167625840E-003   6.5245626778048391E-002
  -7.7948131884033010E-003   2.1050433315929484E-003   6.4507318511466710E-002
  -7.8995156162480276E-003   1.9755137208305254E-003   6.4076391305046276E-002
  -8.0042180440927542E-003   1.8475024844752889E-003   6.3952845158787117E-002
  -8.1089204719374877E-003   1.7210096225271920E-003   6.4136680072689578E-002
  -1.1671286867418423E-002   3.6492868218881841E-003   6.4106714355859962E-002
  -1.1317918634295945E-002   3.5508549358785058E-003   6.3471582049588665E-002
  -1.0964550401173476E-002   3.5638255102775247E-003   6.3445210005090277E-002
  -1.0611182168051021E-002   3.6881985450850059E-003   6.4027598222364826E-002
  -1.0257813934928544E-002   3.9239740403014256E-003   6.5218746701412741E-002
  -1.5756437032181624E-002   5.0624823270139507E-003   6.2945475989830635E-002
  -1.4643618936480300E-002   4.9966665401640631E-003   6.2523403729871141E-002
  -1.3530800840778973E-002   5.1521372997243992E-003   6.3011470933296371E-002
  -1.2417982745077634E-002   5.5288946056949416E-003   6.4409677600106283E-002
  -1.1305164649376323E-002   6.1269384580755482E-003   6.6718023730300668E-002
  -2.6633825512511915E-002   0.0000000000000000        2.9469732608988775E-002
  -2.7234408981283254E-002   5.8580981408434644E-004   3.4946680431514721E-002
  -2.7834992450054597E-002   1.3194554202890906E-003   4.0116974172784522E-002
  -2.8435575918825937E-002   2.2009368186142342E-003   4.4980613832798201E-002
  -2.9036159387597273E-002   3.2302540090597765E-003   4.9537599411555729E-002
  -3.3394492465389260E-002   0.0000000000000000        3.0180062262240237E-002
  -3.4236890412597837E-002   9.6033521151590515E-004   3.5268141041828370E-002
  -3.5079288359806421E-002   2.0238060691060685E-003   4.0179244945798158E-002
  -3.5921686307014998E-002   3.1904125727705013E-003   4.4913373974149594E-002
  -3.6764084254223575E-002   4.4601547225091862E-003   4.9470528126882692E-002
  -4.0734353783120639E-002   0.0000000000000000        3.1287267385946324E-002
  -4.1688887003128672E-002   1.3348606089474643E-003   3.5941776976550502E-002
  -4.2643420223136691E-002   2.7281567179230524E-003   4.0548990897174127E-002
  -4.3597953443144731E-002   4.1798883269267640E-003   4.5108909147817219E-002
  -4.4552486663152757E-002   5.6900554359586020E-003   4.9621531728479738E-002
  -4.8653409465706059E-002   0.0000000000000000        3.2791347980107036E-002
  -4.9590398752875742E-002   1.7093860063790219E-003   3.6967588235681130E-002
  -5.0527388040045432E-002   3.4325073667400316E-003   4.1226212026912470E-002
  -5.1464377327215115E-002   5.1693640810830301E-003   4.5567219353801050E-002
  -5.2401366614384798E-002   6.9199561494080117E-003   4.9990610216346869E-002
  -5.7151659513145520E-002   0.0000000000000000        3.4692304044722386E-002
  -5.7941425661839074E-002   2.0839114038105813E-003   3.8345574819220248E-002
  -5.8731191810532615E-002   4.1368580155570142E-003   4.2210908335013154E-002
  -5.9520957959226177E-002   6.1588398352392919E-003   4.6288304592101086E-002
  -6.0310724107919704E-002   8.1498568628574266E-003   5.0577763590484062E-002
  -2.9036159387597273E-002   3.2302540090597765E-003   4.9537599411555729E-002
  -2.9109872323792724E-002   4.2483589100938178E-003   5.1598932387589287E-002
  -2.9183585259988171E-002   5.0962034401844797E-003   5.3756718742479642E-002
  -2.9257298196183629E-002   5.7737875993317429E-003   5.6010958476226794E-002
  -2.9331011132379074E-002   6.2811113875356206E-003   5.8361651588830762E-002
  -3.6764084254223575E-002   4.4601547225091862E-003   4.9470528126882692E-002
  -3.6779534075124853E-002   5.6933096604874188E-003   5.1259908076781463E-002
  -3.6794983896026132E-002   6.7501545288704730E-003   5.3069360878411798E-002
  -3.6810433716927396E-002   7.6306893276583366E-003   5.4898886531773668E-002
  -3.6825883537828667E-002   8.3349140568509950E-003   5.6748485036867122E-002
  -4.4552486663152757E-002   5.6900554359586020E-003   4.9621531728479738E-002
  -4.4586053895885096E-002   7.1382604108810119E-003   5.1132908953591939E-002
  -4.4619621128617434E-002   8.4041056175564385E-003   5.2587978503310449E-002
  -4.4653188361349787E-002   9.4875910559848956E-003   5.3986740377635282E-002
  -4.4686755594082118E-002   1.0388716726166369E-002   5.5329194576566404E-002
  -5.2401366614384798E-002   6.9199561494080117E-003   4.9990610216346869E-002
  -5.2529431786073458E-002   8.5832111612745964E-003   5.1217935018020688E-002
  -5.2657496957762118E-002   1.0058056706242425E-002   5.2312571617175584E-002
  -5.2785562129450757E-002   1.1344492784311473E-002   5.3274520013811562E-002
  -5.2913627301139417E-002   1.2442519395481723E-002   5.4103780207928553E-002
  -6.0310724107919704E-002   8.1498568628574266E-003   5.0577763590484062E-002
  -6.0609667745689932E-002   1.0028161911668203E-002   5.1514986270067738E-002
  -6.0908611383460140E-002   1.1712007794928397E-002   5.2243140220007221E-002
  -6.1207555021230368E-002   1.3201394512638059E-002   5.2762225440302526E-002
  -6.1506498659000562E-002   1.4496322064797111E-002   5.3072241930953674E-002
  -2.9331011132379074E-002   6.2811113875356206E-003   5.8361651588830762E-002
  -2.8980640377923150E-002   6.6699179869827048E-003   5.9132314832587990E-002
  -2.8630269623467222E-002   6.9919505798596952E-003   5.9949960091212222E-002
  -2.8279898869011291E-002   7.2472091661665251E-003   6.0814587364703493E-002
  -2.7929528114555364E-002   7.4356937459032352E-003   6.1726196653061796E-002
  -3.6825883537828667E-002   8.3349140568509950E-003   5.6748485036867122E-002
  -3.6379517819232599E-002   8.8775254268048179E-003   5.7095316251367330E-002
  -3.5933152100636509E-002   9.2732201478761545E-003   5.7587155379280781E-002
  -3.5486786382040426E-002   9.5219982200649596E-003   5.8224002420607560E-002
  -3.5040420663444337E-002   9.6238596433712992E-003   5.9005857375347588E-002
  -4.4686755594082118E-002   1.0388716726166369E-002   5.5329194576566404E-002
  -4.4046369012799617E-002   1.1085132866626915E-002   5.5172051119497162E-002
  -4.3405982431517109E-002   1.1554489715892574E-002   5.5257941474387499E-002
  -4.2765595850234622E-002   1.1796787273963395E-002   5.5586865641237396E-002
  -4.2125209268952114E-002   1.1812025540839315E-002   5.6158823620046816E-002
  -5.2913627301139417E-002   1.2442519395481723E-002   5.4103780207928553E-002
  -5.1981193958624237E-002   1.3292740306449020E-002   5.3362519436977590E-002
  -5.1048760616109037E-002   1.3835759283909028E-002   5.2962318376532404E-002
  -5.0116327273593851E-002   1.4071576327861801E-002   5.2903177026593008E-002
  -4.9183893931078672E-002   1.4000191438307368E-002   5.3185095387159487E-002
  -6.1506498659000562E-002   1.4496322064797111E-002   5.3072241930953674E-002
  -6.0183992656706438E-002   1.5500347746271122E-002   5.1666721203808517E-002
  -5.8861486654412293E-002   1.6117028851925452E-002   5.0700286085715446E-002
  -5.7538980652118168E-002   1.6346365381760257E-002   5.0172936576674487E-002
  -5.6216474649824023E-002   1.6188357335775408E-002   5.0084672676685579E-002
  -2.7929528114555364E-002   7.4356937459032352E-003   6.1726196653061796E-002
  -2.7218732009914457E-002   7.5537976734439752E-003   6.1453129998649200E-002
  -2.6507935905273568E-002   7.5979143031629746E-003   6.1396364940236460E-002
  -2.5797139800632668E-002   7.5680436350601807E-003   6.1555901477823541E-002
  -2.5086343695991761E-002   7.4641856691355923E-003   6.1931739611410547E-002
  -3.5040420663444337E-002   9.6238596433712992E-003   5.9005857375347588E-002
  -3.4117885840618263E-002   9.6247883126336156E-003   5.8689863707987934E-002
  -3.3195351017792189E-002   9.5707681226904588E-003   5.8581045880998758E-002
  -3.2272816194966122E-002   9.4617990735420092E-003   5.8679403894380047E-002
  -3.1350281372140042E-002   9.2978811651880655E-003   5.8984937748131849E-002
  -4.2125209268952114E-002   1.1812025540839315E-002   5.6158823620046816E-002
  -4.1000061483570237E-002   1.1695778951823266E-002   5.5818941378356413E-002
  -3.9874913698188352E-002   1.1543621942218167E-002   5.5677109221407131E-002
  -3.8749765912806454E-002   1.1355554512023878E-002   5.5733327149199000E-002
  -3.7624618127424583E-002   1.1131576661240566E-002   5.5987595161731921E-002
  -4.9183893931078672E-002   1.4000191438307368E-002   5.3185095387159487E-002
  -4.7865258938770354E-002   1.3766769591012940E-002   5.2840363009754698E-002
  -4.6546623946462015E-002   1.3516475761745736E-002   5.2684554961461655E-002
  -4.5227988954153690E-002   1.3249309950505783E-002   5.2717671242280377E-002
  -4.3909353961845386E-002   1.2965272157293081E-002   5.2939711852210858E-002
  -5.6216474649824023E-002   1.6188357335775408E-002   5.0084672676685579E-002
  -5.4713478206218608E-002   1.5837760230202579E-002   4.9754128602182715E-002
  -5.3210481762613226E-002   1.5489329581273362E-002   4.9603383101162295E-002
  -5.1707485319007838E-002   1.5143065388987589E-002   4.9632436173624159E-002
  -5.0204488875402437E-002   1.4798967653345541E-002   4.9841287819568508E-002
  -2.5086343695991761E-002   7.4641856691355923E-003   6.1931739611410547E-002
  -2.4320242753367874E-002   7.3123938887189599E-003   6.1731913498116409E-002
  -2.3554141810743986E-002   7.1387217771398809E-003   6.1715553117551947E-002
  -2.2788040868120092E-002   6.9431693343984559E-003   6.1882658469717300E-002
  -2.2021939925496208E-002   6.7257365604944663E-003   6.2233229554612413E-002
  -3.1350281372140042E-002   9.2978811651880655E-003   5.8984937748131849E-002
  -3.0397755659245088E-002   9.0925848830068351E-003   5.8752827483437006E-002
  -2.9445229946350127E-002   8.8594807123765634E-003   5.8710101026554523E-002
  -2.8492704233455179E-002   8.5985686532974136E-003   5.8856758377484525E-002
  -2.7540178520560211E-002   8.3098487057688686E-003   5.9192799536226720E-002
  -3.7624618127424583E-002   1.1131576661240566E-002   5.5987595161731921E-002
  -3.6479749569175900E-002   1.0872775877294849E-002   5.5717273188349750E-002
  -3.5334881010927216E-002   1.0580239647613433E-002   5.5642253097862644E-002
  -3.4190012452678553E-002   1.0253967972196259E-002   5.5762534890270624E-002
  -3.3045143894429883E-002   9.8939608510433263E-003   5.6078118565573556E-002
  -4.3909353961845386E-002   1.2965272157293081E-002   5.2939711852210858E-002
  -4.2566224483160345E-002   1.2652966871582835E-002   5.2625250612854724E-002
  -4.1223095004475276E-002   1.2300998582850126E-002   5.2512009331476130E-002
  -3.9879965525790234E-002   1.1909367291095159E-002   5.2599988008075450E-002
  -3.8536836047105193E-002   1.1478072996317784E-002   5.2889186642652290E-002
  -5.0204488875402437E-002   1.4798967653345541E-002   4.9841287819568508E-002
  -4.8657180401198354E-002   1.4433157865870752E-002   4.9476759756951760E-002
  -4.7109871926994298E-002   1.4021757518087000E-002   4.9319369727395257E-002
  -4.5562563452790229E-002   1.3564766609994106E-002   4.9369117730899179E-002
  -4.4015254978586174E-002   1.3062185141592186E-002   4.9626003767463400E-002
  -2.2021939925496208E-002   6.7257365604944663E-003   6.2233229554612413E-002
  -2.1138041343304905E-002   6.4992355436198912E-003   6.1769241928750912E-002
  -2.0254142761113605E-002   6.2764783719666817E-003   6.1553457364910524E-002
  -1.9370244178922295E-002   6.0574650455345949E-003   6.1585875863091194E-002
  -1.8486345596730992E-002   5.8421955643238044E-003   6.1866497423292865E-002
  -2.7540178520560211E-002   8.3098487057688686E-003   5.9192799536226720E-002
  -2.6416563883790892E-002   8.0092695837229166E-003   5.8737514816434272E-002
  -2.5292949247021589E-002   7.7127800010910394E-003   5.8513459143776828E-002
  -2.4169334610252273E-002   7.4203799578731310E-003   5.8520632518254297E-002
  -2.3045719973482971E-002   7.1320694540690233E-003   5.8759034939866700E-002
  -3.3045143894429883E-002   9.8939608510433263E-003   5.6078118565573556E-002
  -3.1698787217968614E-002   9.5193036238259282E-003   5.5631882446042662E-002
  -3.0352430541507349E-002   9.1490816302152861E-003   5.5399901358760814E-002
  -2.9006073865046098E-002   8.7832948702114451E-003   5.5382175303727764E-002
  -2.7659717188584849E-002   8.4219433438143809E-003   5.5578704280943692E-002
  -3.8536836047105193E-002   1.1478072996317784E-002   5.2889186642652290E-002
  -3.6984711345838070E-002   1.1029337663928836E-002   5.2452344817575977E-002
  -3.5432586644570933E-002   1.0585383259339533E-002   5.2212784009862484E-002
  -3.3880461943303797E-002   1.0146209782549870E-002   5.2170504219511880E-002
  -3.2328337242036695E-002   9.7118172335596692E-003   5.2325505446524014E-002
  -4.4015254978586174E-002   1.3062185141592186E-002   4.9626003767463400E-002
  -4.2274336267399223E-002   1.2539371704031965E-002   4.9198901931034211E-002
  -4.0533417556212308E-002   1.2021684888463904E-002   4.8952107097081865E-002
  -3.8792498845025350E-002   1.1509124694888271E-002   4.8885619265606264E-002
  -3.7051580133838441E-002   1.1001691123304902E-002   4.8999438436607423E-002
  -1.8486345596730992E-002   5.8421955643238044E-003   6.1866497423292865E-002
  -1.7803868455593660E-002   5.6334153180418733E-003   6.1988144903478926E-002
  -1.7121391314456308E-002   5.4338696963962263E-003   6.2208523824630657E-002
  -1.6438914173318966E-002   5.2435586993868286E-003   6.2527634186747894E-002
  -1.5756437032181624E-002   5.0624823270139507E-003   6.2945475989830635E-002
  -2.3045719973482971E-002   7.1320694540690233E-003   5.8759034939866700E-002
  -2.2244483964972722E-002   6.8438044914334029E-003   5.8848705091889775E-002
  -2.1443247956462484E-002   6.5515410717204015E-003   5.9077161537693143E-002
  -2.0642011947952232E-002   6.2552791949301578E-003   5.9444404277276659E-002
  -1.9840775939441994E-002   5.9550188610625887E-003   5.9950433310640427E-002
  -2.7659717188584849E-002   8.4219433438143809E-003   5.5578704280943692E-002
  -2.6699667459886969E-002   8.0541936648251405E-003   5.5623164023089991E-002
  -2.5739617731189119E-002   7.6692124470448680E-003   5.5846464911831276E-002
  -2.4779568002491252E-002   7.2669996904737126E-003   5.6248606947167566E-002
  -2.3819518273793416E-002   6.8475553951112544E-003   5.6829590129098786E-002
  -3.2328337242036695E-002   9.7118172335596692E-003   5.2325505446524014E-002
  -3.1169418940336480E-002   9.2645828382167186E-003   5.2311521697079852E-002
  -3.0010500638636251E-002   8.7868838223692167E-003   5.2516433947045388E-002
  -2.8851582336936028E-002   8.2787201860169326E-003   5.2940242196420718E-002
  -2.7692664035235810E-002   7.7400919291599063E-003   5.3582946445205823E-002
  -3.7051580133838441E-002   1.1001691123304902E-002   4.8999438436607423E-002
  -3.5653738406321162E-002   1.0474972011608408E-002   4.8913778113859163E-002
  -3.4255896678803840E-002   9.9045551976935514E-003   4.9087068643335396E-002
  -3.2858054951286561E-002   9.2904406815605238E-003   4.9519310025035970E-002
  -3.1460213223769254E-002   8.6326284632086692E-003   5.0210502258960954E-002
  -1.5756437032181624E-002   5.0624823270139507E-003   6.2945475989830635E-002
  -1.4643618936480300E-002   4.9966665401640631E-003   6.2523403729871141E-002
  -1.3530800840778973E-002   5.1521372997243992E-003   6.3011470933296371E-002
  -1.2417982745077634E-002   5.5288946056949416E-003   6.4409677600106283E-002
  -1.1305164649376323E-002   6.1269384580755482E-003   6.6718023730300668E-002
  -1.9840775939441994E-002   5.9550188610625887E-003   5.9950433310640427E-002
  -1.7991120752599496E-002   5.7104111371491517E-003   5.9628950363044442E-002
  -1.6141465565756959E-002   5.5811070902212351E-003   5.9871002134346069E-002
  -1.4291810378914483E-002   5.5671067202792794E-003   6.0676588624545197E-002
  -1.2442155192071952E-002   5.6684100273227678E-003   6.2045709833642437E-002
  -2.3819518273793416E-002   6.8475553951112544E-003   5.6829590129098786E-002
  -2.1579630740296681E-002   6.4241557341340738E-003   5.6502713624441717E-002
  -1.9339743206800000E-002   6.0100768807180224E-003   5.6392767094195349E-002
  -1.7099855673303268E-002   5.6053188348634247E-003   5.6499750538359650E-002
  -1.4859968139806584E-002   5.2098815965699874E-003   5.6823663956934667E-002
  -2.7692664035235810E-002   7.7400919291599063E-003   5.3582946445205823E-002
  -2.5409148899571930E-002   7.1379003311190237E-003   5.3144693514063021E-002
  -2.3125633763908044E-002   6.4390466712148896E-003   5.2576765812844151E-002
  -2.0842118628244220E-002   5.6435309494476107E-003   5.1879163341548809E-002
  -1.8558603492580282E-002   4.7513531658172070E-003   5.1051886100177468E-002
  -3.1460213223769254E-002   8.6326284632086692E-003   5.0210502258960954E-002
  -2.9479675230425204E-002   7.8516449281041401E-003   4.9554890031908494E-002
  -2.7499137237081174E-002   6.8680164617116457E-003   4.8422998290292674E-002
  -2.5518599243737051E-002   5.6817430640319078E-003   4.6814827034113687E-002
  -2.3538061250393039E-002   4.2928247350644266E-003   4.4730376263371063E-002
  -5.7151659513145520E-002   0.0000000000000000        3.4692304044722386E-002
  -5.7941425661839074E-002   2.0839114038105813E-003   3.8345574819220248E-002
  -5.8731191810532615E-002   4.1368580155570142E-003   4.2210908335013154E-002
  -5.9520957959226177E-002   6.1588398352392919E-003   4.6288304592101086E-002
  -6.0310724107919704E-002   8.1498568628574266E-003   5.0577763590484062E-002
  -6.5818143051877540E-002   0.0000000000000000        3.7213330061109912E-002
  -6.6624533079815931E-002   2.9139083680253322E-003   4.0836409336397678E-002
  -6.7430923107754337E-002   5.7703170062365292E-003   4.4214178111900725E-002
  -6.8237313135692729E-002   8.5692259146335908E-003   4.7346636387619045E-002
  -6.9043703163631134E-002   1.1310635093216516E-002   5.0233784163552640E-002
  -7.4241899208340636E-002   0.0000000000000000        4.0577620510587178E-002
  -7.5522286356603657E-002   3.7439053322400823E-003   4.4143973348914872E-002
  -7.6802673504866650E-002   7.4037759969160432E-003   4.7007642446378062E-002
  -7.8083060653129657E-002   1.0979611994027891E-002   4.9168627802976775E-002
  -7.9363447801392650E-002   1.4471413323575617E-002   5.0626929418710997E-002
  -8.2422927982534810E-002   0.0000000000000000        4.4785175393154193E-002
  -8.4634685492202183E-002   4.5739022964548324E-003   4.8268266856771803E-002
  -8.6846443001869542E-002   9.0372349875955590E-003   5.0591301338445173E-002
  -8.9058200511536928E-002   1.3389998073422187E-002   5.1754278838174302E-002
  -9.1269958021204287E-002   1.7632191553934702E-002   5.1757199355959189E-002
  -9.0361229374460075E-002   0.0000000000000000        4.9835994708810949E-002
  -9.3961730486611550E-002   5.4038992606695833E-003   5.3209289859968513E-002
  -9.7562231598763052E-002   1.0670693978275074E-002   5.4965154788102065E-002
 -0.10116273271091454        1.5800384152816489E-002   5.5103589493211619E-002
 -0.10476323382306603        2.0792969784293808E-002   5.3624593975297161E-002
  -6.0310724107919704E-002   8.1498568628574266E-003   5.0577763590484062E-002
  -6.0609667745689932E-002   1.0028161911668203E-002   5.1514986270067738E-002
  -6.0908611383460140E-002   1.1712007794928397E-002   5.2243140220007221E-002
  -6.1207555021230368E-002   1.3201394512638059E-002   5.2762225440302526E-002
  -6.1506498659000562E-002   1.4496322064797111E-002   5.3072241930953674E-002
  -6.9043703163631134E-002   1.1310635093216516E-002   5.0233784163552640E-002
  -6.9314876008504778E-002   1.3754804478749307E-002   4.9455361272708574E-002
  -6.9586048853378421E-002   1.5661994007995891E-002   4.8941548697301822E-002
  -6.9857221698252078E-002   1.7032203680956301E-002   4.8692346437332383E-002
  -7.0128394543125722E-002   1.7865433497630583E-002   4.8707754492800265E-002
  -7.9363447801392650E-002   1.4471413323575617E-002   5.0626929418710997E-002
  -7.9133170808288245E-002   1.7481447045830389E-002   4.7790340266703583E-002
  -7.8902893815183839E-002   1.9611980221063377E-002   4.5692040475214982E-002
  -7.8672616822079433E-002   2.0863012849274585E-002   4.4332030044245165E-002
  -7.8442339828975027E-002   2.1234544930464016E-002   4.3710308973794160E-002
  -9.1269958021204287E-002   1.7632191553934702E-002   5.1757199355959189E-002
  -9.0064552145040319E-002   2.1208089612911488E-002   4.6519923252052835E-002
  -8.8859146268876366E-002   2.3561966434130881E-002   4.2494615553746777E-002
  -8.7653740392712426E-002   2.4693822017592858E-002   3.9681276261040968E-002
  -8.6448334516548445E-002   2.4603656363297449E-002   3.8079905373935491E-002
 -0.10476323382306603        2.0792969784293808E-002   5.3624593975297161E-002
 -0.10210902001876104        2.4934732179992574E-002   4.5644110228756252E-002
  -9.9454806214456029E-002   2.7511952647198353E-002   3.9349273932897090E-002
  -9.6800592410151029E-002   2.8524631185911122E-002   3.4740085087719696E-002
  -9.4146378605846029E-002   2.7972767796130914E-002   3.1816543693224168E-002
  -6.1506498659000562E-002   1.4496322064797111E-002   5.3072241930953674E-002
  -6.0183992656706438E-002   1.5500347746271122E-002   5.1666721203808517E-002
  -5.8861486654412293E-002   1.6117028851925452E-002   5.0700286085715446E-002
  -5.7538980652118168E-002   1.6346365381760257E-002   5.0172936576674487E-002
  -5.6216474649824023E-002   1.6188357335775408E-002   5.0084672676685579E-002
  -7.0128394543125722E-002   1.7865433497630583E-002   4.8707754492800265E-002
  -6.8409872127954963E-002   1.8319524388660632E-002   4.7262793882344570E-002
  -6.6691349712784218E-002   1.8552317284688445E-002   4.6170780488590038E-002
  -6.4972827297613459E-002   1.8563812185714051E-002   4.5431714311536642E-002
  -6.3254304882442727E-002   1.8354009091737442E-002   4.5045595351184388E-002
  -7.8442339828975027E-002   2.1234544930464016E-002   4.3710308973794160E-002
  -7.6413939393278590E-002   2.1138701031050144E-002   4.2391955060845372E-002
  -7.4385538957582154E-002   2.0987605717451396E-002   4.1340409972246778E-002
  -7.2357138521885703E-002   2.0781258989667841E-002   4.0555673707998376E-002
  -7.0328738086189280E-002   2.0519660847699440E-002   4.0037746268100208E-002
  -8.6448334516548445E-002   2.4603656363297449E-002   3.8079905373935491E-002
  -8.4196194452677273E-002   2.3957877673439640E-002   3.7054204739310877E-002
  -8.1944054388806101E-002   2.3422894150214368E-002   3.6209174536685602E-002
  -7.9691914324934929E-002   2.2998705793621607E-002   3.5544814766059571E-002
  -7.7439774261063757E-002   2.2685312603661457E-002   3.5061125427432824E-002
  -9.4146378605846029E-002   2.7972767796130914E-002   3.1816543693224168E-002
  -9.1756637306151051E-002   2.6777054315829156E-002   3.1249542917741256E-002
  -8.9366896006456087E-002   2.5858182582977327E-002   3.0777074181906620E-002
  -8.6977154706761109E-002   2.5216152597575415E-002   3.0399137485720443E-002
  -8.4587413407066117E-002   2.4850964359623459E-002   3.0115732829182465E-002
  -5.6216474649824023E-002   1.6188357335775408E-002   5.0084672676685579E-002
  -5.4713478206218608E-002   1.5837760230202579E-002   4.9754128602182715E-002
  -5.3210481762613226E-002   1.5489329581273362E-002   4.9603383101162295E-002
  -5.1707485319007838E-002   1.5143065388987589E-002   4.9632436173624159E-002
  -5.0204488875402437E-002   1.4798967653345541E-002   4.9841287819568508E-002
  -6.3254304882442727E-002   1.8354009091737442E-002   4.5045595351184388E-002
  -6.1561825457269584E-002   1.8015007920135134E-002   4.4670666861836336E-002
  -5.9869346032096399E-002   1.7638908588283892E-002   4.4494905762141379E-002
  -5.8176866606923242E-002   1.7225711096183562E-002   4.4518312052099530E-002
  -5.6484387181750070E-002   1.6775415443834152E-002   4.4740885731710825E-002
  -7.0328738086189280E-002   2.0519660847699440E-002   4.0037746268100208E-002
  -6.8427406863277668E-002   2.0192255610067805E-002   3.9579168747014198E-002
  -6.6526075640366000E-002   1.9788487595294474E-002   3.9339127431752052E-002
  -6.4624744417454347E-002   1.9308356803379424E-002   3.9317622322313700E-002
  -6.2723413194542693E-002   1.8751863234322708E-002   3.9514653418699350E-002
  -7.7439774261063757E-002   2.2685312603661457E-002   3.5061125427432824E-002
  -7.5310222424242901E-002   2.2369503300000447E-002   3.4479634257716336E-002
  -7.3180670587422017E-002   2.1938066602305073E-002   3.4136048109994453E-002
  -7.1051118750601161E-002   2.1391002510575383E-002   3.4030366984267112E-002
  -6.8921566913780291E-002   2.0728311024811347E-002   3.4162590880534346E-002
  -8.4587413407066117E-002   2.4850964359623459E-002   3.0115732829182465E-002
  -8.2210272140165297E-002   2.4546750989933044E-002   2.9372063393942799E-002
  -7.9833130873264463E-002   2.4087645609315606E-002   2.8885667796868401E-002
  -7.7455989606363670E-002   2.3473648217771235E-002   2.8656546037959339E-002
  -7.5078848339462823E-002   2.2704758815299847E-002   2.8684698117215635E-002
  -5.0204488875402437E-002   1.4798967653345541E-002   4.9841287819568508E-002
  -4.8657180401198354E-002   1.4433157865870752E-002   4.9476759756951760E-002
  -4.7109871926994298E-002   1.4021757518087000E-002   4.9319369727395257E-002
  -4.5562563452790229E-002   1.3564766609994106E-002   4.9369117730899179E-002
  -4.4015254978586174E-002   1.3062185141592186E-002   4.9626003767463400E-002
  -5.6484387181750070E-002   1.6775415443834152E-002   4.4740885731710825E-002
  -5.4732799901071646E-002   1.6294950344951098E-002   4.4379955089499420E-002
  -5.2981212620393202E-002   1.5791244513249841E-002   4.4220444027176502E-002
  -5.1229625339714716E-002   1.5264297948730361E-002   4.4262352544741965E-002
  -4.9478038059036326E-002   1.4714110651392609E-002   4.4505680642195955E-002
  -6.2723413194542693E-002   1.8751863234322708E-002   3.9514653418699350E-002
  -6.0773265560561791E-002   1.8156742824031437E-002   3.9179670024384272E-002
  -5.8823117926580848E-002   1.7560731508412815E-002   3.9040387756785679E-002
  -5.6872970292599911E-002   1.6963829287466613E-002   3.9096806615903618E-002
  -5.4922822658619003E-002   1.6366036161193032E-002   3.9348926601738068E-002
  -6.8921566913780291E-002   2.0728311024811347E-002   3.4162590880534346E-002
  -6.6778577379668816E-002   2.0018535303111751E-002   3.3875904561606322E-002
  -6.4635587845557327E-002   1.9330218503575598E-002   3.3779200916222871E-002
  -6.2492598311445838E-002   1.8663360626202895E-002   3.3872479944383964E-002
  -6.0349608777334363E-002   1.8017961670993510E-002   3.4155741646089768E-002
  -7.5078848339462823E-002   2.2704758815299847E-002   2.8684698117215635E-002
  -7.2748735358392672E-002   2.1880327782192149E-002   2.8468658701165439E-002
  -7.0418622377322576E-002   2.1099705498738651E-002   2.8436883505487953E-002
  -6.8088509396252467E-002   2.0362891964939171E-002   2.8589372530183212E-002
  -6.5758396415182330E-002   1.9669887180793877E-002   2.8926125775250999E-002
  -4.4015254978586174E-002   1.3062185141592186E-002   4.9626003767463400E-002
  -4.2274336267399223E-002   1.2539371704031965E-002   4.9198901931034211E-002
  -4.0533417556212308E-002   1.2021684888463904E-002   4.8952107097081865E-002
  -3.8792498845025350E-002   1.1509124694888271E-002   4.8885619265606264E-002
  -3.7051580133838441E-002   1.1001691123304902E-002   4.8999438436607423E-002
  -4.9478038059036326E-002   1.4714110651392609E-002   4.4505680642195955E-002
  -4.7553124742054503E-002   1.4154400661704453E-002   4.4104925875007112E-002
  -4.5628211425072715E-002   1.3598886020133802E-002   4.3891853316931226E-002
  -4.3703298108090920E-002   1.3047566726680625E-002   4.3866462967968270E-002
  -4.1778384791109145E-002   1.2500442781344656E-002   4.4028754828118188E-002
  -5.4922822658619003E-002   1.6366036161193032E-002   3.9348926601738068E-002
  -5.2806539529206192E-002   1.5769429619377051E-002   3.8973587629914708E-002
  -5.0690256399793403E-002   1.5176087151803637E-002   3.8793306073840399E-002
  -4.8573973270380627E-002   1.4586008758472756E-002   3.8808081933515245E-002
  -4.6457690140967865E-002   1.3999194439384438E-002   3.9017915208939144E-002
  -6.0349608777334363E-002   1.8017961670993510E-002   3.4155741646089768E-002
  -5.8034580628854401E-002   1.7384458577049705E-002   3.3804887195757014E-002
  -5.5719552480374440E-002   1.6753288283473614E-002   3.3656465367809404E-002
  -5.3404524331894444E-002   1.6124450790264998E-002   3.3710476162247212E-002
  -5.1089496183414448E-002   1.5497946097424262E-002   3.3966919579070151E-002
  -6.5758396415182330E-002   1.9669887180793877E-002   2.8926125775250999E-002
  -6.3237248040999006E-002   1.8999487534722193E-002   2.8598824572533932E-002
  -6.0716099666815723E-002   1.8330489415143314E-002   2.8481331198838306E-002
  -5.8194951292632420E-002   1.7662892822057172E-002   2.8573645654164148E-002
  -5.5673802918449145E-002   1.6996697755463974E-002   2.8875767938511321E-002
  -3.7051580133838441E-002   1.1001691123304902E-002   4.8999438436607423E-002
  -3.5653738406321162E-002   1.0474972011608408E-002   4.8913778113859163E-002
  -3.4255896678803840E-002   9.9045551976935514E-003   4.9087068643335396E-002
  -3.2858054951286561E-002   9.2904406815605238E-003   4.9519310025035970E-002
  -3.1460213223769254E-002   8.6326284632086692E-003   5.0210502258960954E-002
  -4.1778384791109145E-002   1.2500442781344656E-002   4.4028754828118188E-002
  -4.0154861119638521E-002   1.1934667086334033E-002   4.3914726629668138E-002
  -3.8531337448167863E-002   1.1327392543856396E-002   4.3993111466900325E-002
  -3.6907813776697218E-002   1.0678619153911745E-002   4.4263909339814764E-002
  -3.5284290105226587E-002   9.9883469165000793E-003   4.4727120248411356E-002
  -4.6457690140967865E-002   1.3999194439384438E-002   3.9017915208939144E-002
  -4.4675022342086076E-002   1.3394362161059659E-002   3.8877717989538707E-002
  -4.2892354543204309E-002   1.2750229890019137E-002   3.8863395989278272E-002
  -4.1109686744322527E-002   1.2066797626263023E-002   3.8974949208157916E-002
  -3.9327018945440759E-002   1.1344065369791212E-002   3.9212377646177576E-002
  -5.1089496183414448E-002   1.5497946097424262E-002   3.3966919579070151E-002
  -4.9214222073663799E-002   1.4854057235785201E-002   3.3802752193470675E-002
  -4.7338947963913081E-002   1.4173067236181846E-002   3.3697922210468981E-002
  -4.5463673854162369E-002   1.3454976098614329E-002   3.3652429630065178E-002
  -4.3588399744411713E-002   1.2699783823082650E-002   3.3666274452259087E-002
  -5.5673802918449145E-002   1.6996697755463974E-002   2.8875767938511321E-002
  -5.3772460314371717E-002   1.6313752310510909E-002   2.8689829241464126E-002
  -5.1871117710294304E-002   1.5595904582344777E-002   2.8496690130472707E-002
  -4.9969775106216856E-002   1.4843154570965730E-002   2.8296350605536716E-002
  -4.8068432502139463E-002   1.4055502276373755E-002   2.8088810666656472E-002
  -3.1460213223769254E-002   8.6326284632086692E-003   5.0210502258960954E-002
  -2.9479675230425204E-002   7.8516449281041401E-003   4.9554890031908494E-002
  -2.7499137237081174E-002   6.8680164617116457E-003   4.8422998290292674E-002
  -2.5518599243737051E-002   5.6817430640319078E-003   4.6814827034113687E-002
  -2.3538061250393039E-002   4.2928247350644266E-003   4.4730376263371063E-002
  -3.5284290105226587E-002   9.9883469165000793E-003   4.4727120248411356E-002
  -3.3598106297101228E-002   9.2318772524722092E-003   4.3888010923420290E-002
  -3.1911922488975848E-002   8.3845115826787775E-003   4.2936472742555215E-002
  -3.0225738680850534E-002   7.4462499071203253E-003   4.1872505705815855E-002
  -2.8539554872725109E-002   6.4170922257964502E-003   4.0696109813202597E-002
  -3.9327018945440759E-002   1.1344065369791212E-002   3.9212377646177576E-002
  -3.7571338663844801E-002   1.0612109576840140E-002   3.8301520148769946E-002
  -3.5815658382248865E-002   9.9010067036460203E-003   3.7642084454177660E-002
  -3.4059978100652852E-002   9.2107567502086596E-003   3.7234070562400731E-002
  -3.2304297819056846E-002   8.5413597165284738E-003   3.7077478473438619E-002
  -4.3588399744411713E-002   1.2699783823082650E-002   3.3666274452259087E-002
  -4.1399372330655909E-002   1.1992341901208362E-002   3.2795417707957492E-002
  -3.9210344916900092E-002   1.1417501824613152E-002   3.2539833425160460E-002
  -3.7021317503144344E-002   1.0975263593297258E-002   3.2899521603867853E-002
  -3.4832290089388540E-002   1.0665627207260442E-002   3.3874482244079587E-002
  -4.8068432502139463E-002   1.4055502276373755E-002   2.8088810666656472E-002
  -4.5082207297534566E-002   1.3372574225576084E-002   2.7369703600983009E-002
  -4.2095982092929710E-002   1.2933996945580312E-002   2.7629719655503371E-002
  -3.9109756888324694E-002   1.2739770436385502E-002   2.8868858830217420E-002
  -3.6123531683719901E-002   1.2789894697992521E-002   3.1087121125125128E-002
  -9.0361229374460075E-002   0.0000000000000000        4.9835994708810949E-002
  -9.3961730486611550E-002   5.4038992606695833E-003   5.3209289859968513E-002
  -9.7562231598763052E-002   1.0670693978275074E-002   5.4965154788102065E-002
 -0.10116273271091454        1.5800384152816489E-002   5.5103589493211619E-002
 -0.10476323382306603        2.0792969784293808E-002   5.3624593975297161E-002
 -0.10329410665417535        0.0000000000000000        5.8662995741572653E-002
 -0.10683086566267055        1.0883626613817995E-002   5.2119107870525705E-002
 -0.11036762467116576        1.9171405388628403E-002   4.7320134429815308E-002
 -0.11390438367966099        2.4863336324431225E-002   4.4266075419441483E-002
 -0.11744114268815618        2.7959419421226435E-002   4.2956930839404224E-002
 -0.12645886309173957        0.0000000000000000        7.4199095775454540E-002
 -0.12656953534321794        1.6363353966966410E-002   5.5279281586259561E-002
 -0.12668020759469634        2.7672116798981721E-002   4.1466726480761718E-002
 -0.12679087984617471        3.3926288496045939E-002   3.2761430458960988E-002
 -0.12690155209765308        3.5125869058159044E-002   2.9163393520857384E-002
 -0.15985549868715276        0.0000000000000000        9.6444294810456577E-002
 -0.15317773952825370        2.1843081320114824E-002   6.2689811007170082E-002
 -0.14649998036935469        3.6172828209335033E-002   3.7404930940941286E-002
 -0.13982222121045568        4.2989240667660647E-002   2.0589654611770140E-002
 -0.13314446205155661        4.2292318695091660E-002   1.2243982019656688E-002
 -0.20348401344041489        0.0000000000000000       0.12539859284657878     
 -0.18665547821777789        2.7322808673263234E-002   7.4350696133257260E-002
 -0.16982694299514089        4.4673539619688354E-002   3.5134747810353965E-002
 -0.15299840777250390        5.2052192839275403E-002   7.7507478778689326E-003
 -0.13616987254986690        4.9458768332024290E-002  -7.8013036641978242E-003
 -0.10476323382306603        2.0792969784293808E-002   5.3624593975297161E-002
 -0.10210902001876104        2.4934732179992574E-002   4.5644110228756252E-002
  -9.9454806214456029E-002   2.7511952647198353E-002   3.9349273932897090E-002
  -9.6800592410151029E-002   2.8524631185911122E-002   3.4740085087719696E-002
  -9.4146378605846029E-002   2.7972767796130914E-002   3.1816543693224168E-002
 -0.11744114268815618        2.7959419421226435E-002   4.2956930839404224E-002
 -0.11348788295511072        2.9432737062625162E-002   3.6700232526376046E-002
 -0.10953462322206525        3.0256371632238505E-002   3.1355978620147093E-002
 -0.10558136348901977        3.0430323130066481E-002   2.6924169120717222E-002
 -0.10162810375597428        2.9954591556109099E-002   2.3404804028086569E-002
 -0.12690155209765308        3.5125869058159044E-002   2.9163393520857384E-002
 -0.12242244947974974        3.3930741945257741E-002   2.5545339498049671E-002
 -0.11794334686184643        3.3000790617278682E-002   2.2066526838158448E-002
 -0.11346424424394309        3.2336015074221854E-002   1.8726955541183785E-002
 -0.10898514162603978        3.1936415316087277E-002   1.5526625607125628E-002
 -0.13314446205155661        4.2292318695091660E-002   1.2243982019656688E-002
 -0.12891271959267808        3.8428746827890325E-002   1.2179431143777059E-002
 -0.12468097713379955        3.5745209602318868E-002   1.1480918586931212E-002
 -0.12044923467492102        3.4241707018377220E-002   1.0148444349119368E-002
 -0.11621749221604251        3.3918239076065435E-002   8.1820084303413296E-003
 -0.13616987254986690        4.9458768332024290E-002  -7.8013036641978242E-003
 -0.13295869329389581        4.2926751710522897E-002  -3.3974925364418547E-003
 -0.12974751403792467        3.8489628587359000E-002  -4.0084613353469530E-004
 -0.12653633478195359        3.6147398962532579E-002   1.1886355445239606E-003
 -0.12332515552598244        3.5900062836043661E-002   1.3709524977336407E-003
  -9.4146378605846029E-002   2.7972767796130914E-002   3.1816543693224168E-002
  -9.1756637306151051E-002   2.6777054315829156E-002   3.1249542917741256E-002
  -8.9366896006456087E-002   2.5858182582977327E-002   3.0777074181906620E-002
  -8.6977154706761109E-002   2.5216152597575415E-002   3.0399137485720443E-002
  -8.4587413407066117E-002   2.4850964359623459E-002   3.0115732829182465E-002
 -0.10162810375597428        2.9954591556109099E-002   2.3404804028086569E-002
  -9.9134962185007419E-002   2.9181242686450577E-002   2.3137003878206514E-002
  -9.6641820614040530E-002   2.8462342297175203E-002   2.2981472231221888E-002
  -9.4148679043073655E-002   2.7797890388282946E-002   2.2938209087132830E-002
  -9.1655537472106752E-002   2.7187886959773810E-002   2.3007214445939117E-002
 -0.10898514162603978        3.1936415316087277E-002   1.5526625607125628E-002
 -0.10637086332055390        3.1585431057071983E-002   1.5335632815781685E-002
 -0.10375658501506797        3.1066502011373030E-002   1.5274644990580261E-002
 -0.10114230670958206        3.0379628178990394E-002   1.5343662131521447E-002
  -9.8528028404096135E-002   2.9524809559924169E-002   1.5542684238605223E-002
 -0.11621749221604251        3.3918239076065435E-002   8.1820084303413296E-003
 -0.11346434071279043        3.3989619427693366E-002   7.8454297304666170E-003
 -0.11071118920953840        3.3670661725570934E-002   7.6565924599816277E-003
 -0.10795803770628634        3.2961365969697905E-002   7.6154966188863660E-003
 -0.10520488620303427        3.1861732160074527E-002   7.7221422071808181E-003
 -0.12332515552598244        3.5900062836043661E-002   1.3709524977336407E-003
 -0.12041539436171711        3.6393807798314817E-002   6.6639462226135426E-004
 -0.11750563319745178        3.6274821439768797E-002   1.2731463942596694E-004
 -0.11459587203318645        3.5543103760405370E-002  -2.4628745077248139E-004
 -0.11168611086892111        3.4198654760224823E-002  -4.5441164833420755E-004
  -8.4587413407066117E-002   2.4850964359623459E-002   3.0115732829182465E-002
  -8.2210272140165297E-002   2.4546750989933044E-002   2.9372063393942799E-002
  -7.9833130873264463E-002   2.4087645609315606E-002   2.8885667796868401E-002
  -7.7455989606363670E-002   2.3473648217771235E-002   2.8656546037959339E-002
  -7.5078848339462823E-002   2.2704758815299847E-002   2.8684698117215635E-002
  -9.1655537472106752E-002   2.7187886959773810E-002   2.3007214445939117E-002
  -8.9036436071244854E-002   2.6578775741207726E-002   2.2340086403834412E-002
  -8.6417334670382900E-002   2.5917000462144221E-002   2.1899604791486560E-002
  -8.3798233269520919E-002   2.5202561122583619E-002   2.1685769608895771E-002
  -8.1179131868659007E-002   2.4435457722525700E-002   2.1698580856061828E-002
  -9.8528028404096135E-002   2.9524809559924169E-002   1.5542684238605223E-002
  -9.5697594277681514E-002   2.8610800492482276E-002   1.5054325540065326E-002
  -9.2867160151266864E-002   2.7746355314972916E-002   1.4761985862873696E-002
  -9.0036726024852187E-002   2.6931474027395975E-002   1.4665665207030762E-002
  -8.7206291898437580E-002   2.6166156629751566E-002   1.4765363572536168E-002
 -0.10520488620303427        3.1861732160074527E-002   7.7221422071808181E-003
 -0.10219374675947532        3.0642825243756947E-002   7.5147808026350578E-003
  -9.9182607315916327E-002   2.9575710167801698E-002   7.4728110110295811E-003
  -9.6171467872357363E-002   2.8660386932208327E-002   7.5962328323641000E-003
  -9.3160328428798414E-002   2.7896855536977315E-002   7.8850462666389103E-003
 -0.11168611086892111        3.4198654760224823E-002  -4.5441164833420755E-004
 -0.10852489351662625        3.2674849995031535E-002  -2.7854780845559812E-004
 -0.10536367616433137        3.1405065020630230E-002   3.2080235954412561E-005
 -0.10220245881203650        3.0389299837020739E-002   4.7747248489636573E-004
  -9.9041241459741636E-002   2.9627554444203230E-002   1.0576289383699700E-003
  -7.5078848339462823E-002   2.2704758815299847E-002   2.8684698117215635E-002
  -7.2748735358392672E-002   2.1880327782192149E-002   2.8468658701165439E-002
  -7.0418622377322576E-002   2.1099705498738651E-002   2.8436883505487953E-002
  -6.8088509396252467E-002   2.0362891964939171E-002   2.8589372530183212E-002
  -6.5758396415182330E-002   1.9669887180793877E-002   2.8926125775250999E-002
  -8.1179131868659007E-002   2.4435457722525700E-002   2.1698580856061828E-002
  -7.8679819924407479E-002   2.3644886032709381E-002   2.1565367797555232E-002
  -7.6180507980155937E-002   2.2860041823873384E-002   2.1586288445038862E-002
  -7.3681196035904381E-002   2.2080925096017841E-002   2.1761342798512558E-002
  -7.1181884091652867E-002   2.1307535849142689E-002   2.2090530857976409E-002
  -8.7206291898437580E-002   2.6166156629751566E-002   1.4765363572536168E-002
  -8.4567911505387172E-002   2.5409444283226654E-002   1.4676895602899497E-002
  -8.1929531112336779E-002   2.4620378149008231E-002   1.4712430824870410E-002
  -7.9291150719286357E-002   2.3798958227096458E-002   1.4871969238448897E-002
  -7.6652770326235964E-002   2.2945184517491390E-002   1.5155510843634923E-002
  -9.3160328428798414E-002   2.7896855536977315E-002   7.8850462666389103E-003
  -9.0413010101331723E-002   2.7174002533743823E-002   7.8032421171982495E-003
  -8.7665691773865032E-002   2.6380714474143162E-002   7.8153106449827328E-003
  -8.4918373446398340E-002   2.5516991358175183E-002   7.9212518499921867E-003
  -8.2171055118931649E-002   2.4582833185839981E-002   8.1210657322266511E-003
  -9.9041241459741636E-002   2.9627554444203230E-002   1.0576289383699700E-003
  -9.6215115712241173E-002   2.8938560784261158E-002   9.4440734045148078E-004
  -9.3388989964740737E-002   2.8141050799277853E-002   8.9492790537572253E-004
  -9.0562864217240288E-002   2.7235024489253881E-002   9.0919063314212969E-004
  -8.7736738469739839E-002   2.6220481854188793E-002   9.8719552375159392E-004
  -6.5758396415182330E-002   1.9669887180793877E-002   2.8926125775250999E-002
  -6.3237248040999006E-002   1.8999487534722193E-002   2.8598824572533932E-002
  -6.0716099666815723E-002   1.8330489415143314E-002   2.8481331198838306E-002
  -5.8194951292632420E-002   1.7662892822057172E-002   2.8573645654164148E-002
  -5.5673802918449145E-002   1.6996697755463974E-002   2.8875767938511321E-002
  -7.1181884091652867E-002   2.1307535849142689E-002   2.2090530857976409E-002
  -6.8452679882795867E-002   2.0546115967438272E-002   2.1723885490726347E-002
  -6.5723475673938853E-002   1.9802907335095668E-002   2.1563543963802209E-002
  -6.2994271465081866E-002   1.9077909952114423E-002   2.1609506277204191E-002
  -6.0265067256224880E-002   1.8371123818495094E-002   2.1861772430932042E-002
  -7.6652770326235964E-002   2.2945184517491390E-002   1.5155510843634923E-002
  -7.3719014271400693E-002   2.2092744400154546E-002   1.4766331034720567E-002
  -7.0785258216565380E-002   2.1275325255048133E-002   1.4579951077436787E-002
  -6.7851502161730040E-002   2.0492927082171729E-002   1.4596370971783582E-002
  -6.4917746106894741E-002   1.9745549881526048E-002   1.4815590717760896E-002
  -8.2171055118931649E-002   2.4582833185839981E-002   8.1210657322266511E-003
  -7.9036251206813415E-002   2.3639372832870556E-002   7.7261612045167183E-003
  -7.5901447294695223E-002   2.2747743175000487E-002   7.5305525397417333E-003
  -7.2766643382576976E-002   2.1907944212228952E-002   7.5342397379021004E-003
  -6.9631839470458812E-002   2.1119975944556918E-002   7.7372227989975992E-003
  -8.7736738469739839E-002   2.6220481854188793E-002   9.8719552375159392E-004
  -8.4404390689034103E-002   2.5186001265587010E-002   6.0337600011456383E-004
  -8.1072042908328423E-002   2.4220161094952841E-002   4.1534835071749265E-004
  -7.7739695127622743E-002   2.3322961342286397E-002   4.2311257555997794E-004
  -7.4407347346917008E-002   2.2494402007588010E-002   6.2666867464256093E-004
  -5.5673802918449145E-002   1.6996697755463974E-002   2.8875767938511321E-002
  -5.3772460314371717E-002   1.6313752310510909E-002   2.8689829241464126E-002
  -5.1871117710294304E-002   1.5595904582344777E-002   2.8496690130472707E-002
  -4.9969775106216856E-002   1.4843154570965730E-002   2.8296350605536716E-002
  -4.8068432502139463E-002   1.4055502276373755E-002   2.8088810666656472E-002
  -6.0265067256224880E-002   1.8371123818495094E-002   2.1861772430932042E-002
  -5.8301723913796913E-002   1.7655221992528169E-002   2.1647947914651078E-002
  -5.6338380571368946E-002   1.6902877532504926E-002   2.1565325289015558E-002
  -5.4375037228940951E-002   1.6114090438425394E-002   2.1613904554025495E-002
  -5.2411693886513067E-002   1.5288860710289565E-002   2.1793685709680821E-002
  -6.4917746106894741E-002   1.9745549881526048E-002   1.4815590717760896E-002
  -6.2753999721526427E-002   1.8996691674545374E-002   1.4572340031402814E-002
  -6.0590253336158112E-002   1.8209850482665019E-002   1.4598693540279650E-002
  -5.8426506950789804E-002   1.7385026305885003E-002   1.4894651244391995E-002
  -5.6262760565421489E-002   1.6522219144205375E-002   1.5460213143739576E-002
  -6.9631839470458812E-002   2.1119975944556918E-002   7.7372227989975992E-003
  -6.7129287737560314E-002   2.0338161356562634E-002   7.4630055917186827E-003
  -6.4626736004661803E-002   1.9516823432825084E-002   7.5967948842649846E-003
  -6.2124184271763312E-002   1.8655962173344528E-002   8.1385906766363088E-003
  -5.9621632538864808E-002   1.7755577578121073E-002   9.0883929688327231E-003
  -7.4407347346917008E-002   2.2494402007588010E-002   6.2666867464256093E-004
  -7.1427587961898520E-002   2.1679631038579839E-002   3.1994459559964161E-004
  -6.8447828576880032E-002   2.0823796382985232E-002   5.5962932097133877E-004
  -6.5468069191861600E-002   1.9926898040804351E-002   1.3457228507582977E-003
  -6.2488309806843056E-002   1.8988936012036772E-002   2.6782251849600813E-003
  -4.8068432502139463E-002   1.4055502276373755E-002   2.8088810666656472E-002
  -4.5082207297534566E-002   1.3372574225576084E-002   2.7369703600983009E-002
  -4.2095982092929710E-002   1.2933996945580312E-002   2.7629719655503371E-002
  -3.9109756888324694E-002   1.2739770436385502E-002   2.8868858830217420E-002
  -3.6123531683719901E-002   1.2789894697992521E-002   3.1087121125125128E-002
  -5.2411693886513067E-002   1.5288860710289565E-002   2.1793685709680821E-002
  -4.8763465388469124E-002   1.4499915460577856E-002   2.1426334703570721E-002
  -4.5115236890425292E-002   1.3819981801770409E-002   2.1403867164144774E-002
  -4.1467008392381488E-002   1.3249059733867627E-002   2.1726283091403314E-002
  -3.7818779894337518E-002   1.2787149256869190E-002   2.2393582485345509E-002
  -5.6262760565421489E-002   1.6522219144205375E-002   1.5460213143739576E-002
  -5.2586768427448187E-002   1.5627256695579600E-002   1.5309279017295563E-002
  -4.8910776289474878E-002   1.4705966657961048E-002   1.4868988704026614E-002
  -4.5234784151501603E-002   1.3758349031349693E-002   1.4139342203932023E-002
  -4.1558792013528315E-002   1.2784403815745748E-002   1.3120339517012414E-002
  -5.9621632538864808E-002   1.7755577578121073E-002   9.0883929688327231E-003
  -5.6552116414471575E-002   1.6754597930580581E-002   9.0185365421579441E-003
  -5.3482600290078265E-002   1.5591951514150972E-002   8.0250842751483746E-003
  -5.0413084165684997E-002   1.4267638328831623E-002   6.1080361678039884E-003
  -4.7343568041291736E-002   1.2781658374622307E-002   3.2673922201250788E-003
  -6.2488309806843056E-002   1.8988936012036772E-002   2.6782251849600813E-003
  -6.0659509349539342E-002   1.7881939165582450E-002   2.5541072781576357E-003
  -5.8830708892235684E-002   1.6477936370341340E-002   8.7215387751068962E-004
  -5.7001908434932108E-002   1.4776927626313607E-002  -2.3676350169804863E-003
  -5.5173107977628311E-002   1.2778912933498976E-002  -7.1652594053162044E-003
 </DataArray>
 </PointData>
 </Piece>
 <Piece  NumberOfPoints="          1600 "  NumberOfCells="         1024 ">
 <Points>
 <DataArray  type="Float64" NumberOfComponents="3"  format="ascii" >
  0.50000000000000000        0.0000000000000000        0.0000000000000000     
  0.53125000000000000        0.0000000000000000        0.0000000000000000     
  0.56250000000000000        0.0000000000000000        0.0000000000000000     
  0.59375000000000000        0.0000000000000000        0.0000000000000000     
  0.62500000000000000        0.0000000000000000        0.0000000000000000     
  0.50000000000000000        3.1250000000000000E-002   0.0000000000000000     
  0.53125000000000000        3.1250000000000000E-002   0.0000000000000000     
  0.56250000000000000        3.1250000000000000E-002   0.0000000000000000     
  0.59375000000000000        3.1250000000000000E-002   0.0000000000000000     
  0.62500000000000000        3.1250000000000000E-002   0.0000000000000000     
  0.50000000000000000        6.2500000000000000E-002   0.0000000000000000     
  0.53125000000000000        6.2500000000000000E-002   0.0000000000000000     
  0.56250000000000000        6.2500000000000000E-002   0.0000000000000000     
  0.59375000000000000        6.2500000000000000E-002   0.0000000000000000     
  0.62500000000000000        6.2500000000000000E-002   0.0000000000000000     
  0.50000000000000000        9.3750000000000000E-002   0.0000000000000000     
  0.53125000000000000        9.3750000000000000E-002   0.0000000000000000     
  0.56250000000000000        9.3750000000000000E-002   0.0000000000000000     
  0.59375000000000000        9.3750000000000000E-002   0.0000000000000000     
  0.62500000000000000        9.3750000000000000E-002   0.0000000000000000     
  0.50000000000000000       0.12500000000000000        0.0000000000000000     
  0.53125000000000000       0.12500000000000000        0.0000000000000000     
  0.56250000000000000       0.12500000000000000        0.0000000000000000     
  0.59375000000000000       0.12500000000000000        0.0000000000000000     
  0.62500000000000000       0.12500000000000000        0.0000000000000000     
  0.62500000000000000        0.0000000000000000        0.0000000000000000     
  0.65625000000000000        0.0000000000000000        0.0000000000000000     
  0.68750000000000000        0.0000000000000000        0.0000000000000000     
  0.71875000000000000        0.0000000000000000        0.0000000000000000     
  0.75000000000000000        0.0000000000000000        0.0000000000000000     
  0.62500000000000000        3.1250000000000000E-002   0.0000000000000000     
  0.65625000000000000        3.1250000000000000E-002   0.0000000000000000     
  0.68750000000000000        3.1250000000000000E-002   0.0000000000000000     
  0.71875000000000000        3.1250000000000000E-002   0.0000000000000000     
  0.75000000000000000        3.1250000000000000E-002   0.0000000000000000     
  0.62500000000000000        6.2500000000000000E-002   0.0000000000000000     
  0.65625000000000000        6.2500000000000000E-002   0.0000000000000000     
  0.68750000000000000        6.2500000000000000E-002   0.0000000000000000     
  0.71875000000000000        6.2500000000000000E-002   0.0000000000000000     
  0.75000000000000000        6.2500000000000000E-002   0.0000000000000000     
  0.62500000000000000        9.3750000000000000E-002   0.0000000000000000     
  0.65625000000000000        9.3750000000000000E-002   0.0000000000000000     
  0.68750000000000000        9.3750000000000000E-002   0.0000000000000000     
  0.71875000000000000        9.3750000000000000E-002   0.0000000000000000     
  0.75000000000000000        9.3750000000000000E-002   0.0000000000000000     
  0.62500000000000000       0.12500000000000000        0.0000000000000000     
  0.65625000000000000       0.12500000000000000        0.0000000000000000     
  0.68750000000000000       0.12500000000000000        0.0000000000000000     
  0.71875000000000000       0.12500000000000000        0.0000000000000000     
  0.75000000000000000       0.12500000000000000        0.0000000000000000     
  0.75000000000000000        0.0000000000000000        0.0000000000000000     
  0.78125000000000000        0.0000000000000000        0.0000000000000000     
  0.81250000000000000        0.0000000000000000        0.0000000000000000     
  0.84375000000000000        0.0000000000000000        0.0000000000000000     
  0.87500000000000000        0.0000000000000000        0.0000000000000000     
  0.75000000000000000        3.1250000000000000E-002   0.0000000000000000     
  0.78125000000000000        3.1250000000000000E-002   0.0000000000000000     
  0.81250000000000000        3.1250000000000000E-002   0.0000000000000000     
  0.84375000000000000        3.1250000000000000E-002   0.0000000000000000     
  0.87500000000000000        3.1250000000000000E-002   0.0000000000000000     
  0.75000000000000000        6.2500000000000000E-002   0.0000000000000000     
  0.78125000000000000        6.2500000000000000E-002   0.0000000000000000     
  0.81250000000000000        6.2500000000000000E-002   0.0000000000000000     
  0.84375000000000000        6.2500000000000000E-002   0.0000000000000000     
  0.87500000000000000        6.2500000000000000E-002   0.0000000000000000     
  0.75000000000000000        9.3750000000000000E-002   0.0000000000000000     
  0.78125000000000000        9.3750000000000000E-002   0.0000000000000000     
  0.81250000000000000        9.3750000000000000E-002   0.0000000000000000     
  0.84375000000000000        9.3750000000000000E-002   0.0000000000000000     
  0.87500000000000000        9.3750000000000000E-002   0.0000000000000000     
  0.75000000000000000       0.12500000000000000        0.0000000000000000     
  0.78125000000000000       0.12500000000000000        0.0000000000000000     
  0.81250000000000000       0.12500000000000000        0.0000000000000000     
  0.84375000000000000       0.12500000000000000        0.0000000000000000     
  0.87500000000000000       0.12500000000000000        0.0000000000000000     
  0.87500000000000000        0.0000000000000000        0.0000000000000000     
  0.90625000000000000        0.0000000000000000        0.0000000000000000     
  0.93750000000000000        0.0000000000000000        0.0000000000000000     
  0.96875000000000000        0.0000000000000000        0.0000000000000000     
   1.0000000000000000        0.0000000000000000        0.0000000000000000     
  0.87500000000000000        3.1250000000000000E-002   0.0000000000000000     
  0.90625000000000000        3.1250000000000000E-002   0.0000000000000000     
  0.93750000000000000        3.1250000000000000E-002   0.0000000000000000     
  0.96875000000000000        3.1250000000000000E-002   0.0000000000000000     
   1.0000000000000000        3.1250000000000000E-002   0.0000000000000000     
  0.87500000000000000        6.2500000000000000E-002   0.0000000000000000     
  0.90625000000000000        6.2500000000000000E-002   0.0000000000000000     
  0.93750000000000000        6.2500000000000000E-002   0.0000000000000000     
  0.96875000000000000        6.2500000000000000E-002   0.0000000000000000     
   1.0000000000000000        6.2500000000000000E-002   0.0000000000000000     
  0.87500000000000000        9.3750000000000000E-002   0.0000000000000000     
  0.90625000000000000        9.3750000000000000E-002   0.0000000000000000     
  0.93750000000000000        9.3750000000000000E-002   0.0000000000000000     
  0.96875000000000000        9.3750000000000000E-002   0.0000000000000000     
   1.0000000000000000        9.3750000000000000E-002   0.0000000000000000     
  0.87500000000000000       0.12500000000000000        0.0000000000000000     
  0.90625000000000000       0.12500000000000000        0.0000000000000000     
  0.93750000000000000       0.12500000000000000        0.0000000000000000     
  0.96875000000000000       0.12500000000000000        0.0000000000000000     
   1.0000000000000000       0.12500000000000000        0.0000000000000000     
   1.0000000000000000        0.0000000000000000        0.0000000000000000     
   1.0312500000000000        0.0000000000000000        0.0000000000000000     
   1.0625000000000000        0.0000000000000000        0.0000000000000000     
   1.0937500000000000        0.0000000000000000        0.0000000000000000     
   1.1250000000000000        0.0000000000000000        0.0000000000000000     
   1.0000000000000000        3.1250000000000000E-002   0.0000000000000000     
   1.0312500000000000        3.1250000000000000E-002   0.0000000000000000     
   1.0625000000000000        3.1250000000000000E-002   0.0000000000000000     
   1.0937500000000000        3.1250000000000000E-002   0.0000000000000000     
   1.1250000000000000        3.1250000000000000E-002   0.0000000000000000     
   1.0000000000000000        6.2500000000000000E-002   0.0000000000000000     
   1.0312500000000000        6.2500000000000000E-002   0.0000000000000000     
   1.0625000000000000        6.2500000000000000E-002   0.0000000000000000     
   1.0937500000000000        6.2500000000000000E-002   0.0000000000000000     
   1.1250000000000000        6.2500000000000000E-002   0.0000000000000000     
   1.0000000000000000        9.3750000000000000E-002   0.0000000000000000     
   1.0312500000000000        9.3750000000000000E-002   0.0000000000000000     
   1.0625000000000000        9.3750000000000000E-002   0.0000000000000000     
   1.0937500000000000        9.3750000000000000E-002   0.0000000000000000     
   1.1250000000000000        9.3750000000000000E-002   0.0000000000000000     
   1.0000000000000000       0.12500000000000000        0.0000000000000000     
   1.0312500000000000       0.12500000000000000        0.0000000000000000     
   1.0625000000000000       0.12500000000000000        0.0000000000000000     
   1.0937500000000000       0.12500000000000000        0.0000000000000000     
   1.1250000000000000       0.12500000000000000        0.0000000000000000     
   1.1250000000000000        0.0000000000000000        0.0000000000000000     
   1.1562500000000000        0.0000000000000000        0.0000000000000000     
   1.1875000000000000        0.0000000000000000        0.0000000000000000     
   1.2187500000000000        0.0000000000000000        0.0000000000000000     
   1.2500000000000000        0.0000000000000000        0.0000000000000000     
   1.1250000000000000        3.1250000000000000E-002   0.0000000000000000     
   1.1562500000000000        3.1250000000000000E-002   0.0000000000000000     
   1.1875000000000000        3.1250000000000000E-002   0.0000000000000000     
   1.2187500000000000        3.1250000000000000E-002   0.0000000000000000     
   1.2500000000000000        3.1250000000000000E-002   0.0000000000000000     
   1.1250000000000000        6.2500000000000000E-002   0.0000000000000000     
   1.1562500000000000        6.2500000000000000E-002   0.0000000000000000     
   1.1875000000000000        6.2500000000000000E-002   0.0000000000000000     
   1.2187500000000000        6.2500000000000000E-002   0.0000000000000000     
   1.2500000000000000        6.2500000000000000E-002   0.0000000000000000     
   1.1250000000000000        9.3750000000000000E-002   0.0000000000000000     
   1.1562500000000000        9.3750000000000000E-002   0.0000000000000000     
   1.1875000000000000        9.3750000000000000E-002   0.0000000000000000     
   1.2187500000000000        9.3750000000000000E-002   0.0000000000000000     
   1.2500000000000000        9.3750000000000000E-002   0.0000000000000000     
   1.1250000000000000       0.12500000000000000        0.0000000000000000     
   1.1562500000000000       0.12500000000000000        0.0000000000000000     
   1.1875000000000000       0.12500000000000000        0.0000000000000000     
   1.2187500000000000       0.12500000000000000        0.0000000000000000     
   1.2500000000000000       0.12500000000000000        0.0000000000000000     
   1.2500000000000000        0.0000000000000000        0.0000000000000000     
   1.2812500000000000        0.0000000000000000        0.0000000000000000     
   1.3125000000000000        0.0000000000000000        0.0000000000000000     
   1.3437500000000000        0.0000000000000000        0.0000000000000000     
   1.3750000000000000        0.0000000000000000        0.0000000000000000     
   1.2500000000000000        3.1250000000000000E-002   0.0000000000000000     
   1.2812500000000000        3.1250000000000000E-002   0.0000000000000000     
   1.3125000000000000        3.1250000000000000E-002   0.0000000000000000     
   1.3437500000000000        3.1250000000000000E-002   0.0000000000000000     
   1.3750000000000000        3.1250000000000000E-002   0.0000000000000000     
   1.2500000000000000        6.2500000000000000E-002   0.0000000000000000     
   1.2812500000000000        6.2500000000000000E-002   0.0000000000000000     
   1.3125000000000000        6.2500000000000000E-002   0.0000000000000000     
   1.3437500000000000        6.2500000000000000E-002   0.0000000000000000     
   1.3750000000000000        6.2500000000000000E-002   0.0000000000000000     
   1.2500000000000000        9.3750000000000000E-002   0.0000000000000000     
   1.2812500000000000        9.3750000000000000E-002   0.0000000000000000     
   1.3125000000000000        9.3750000000000000E-002   0.0000000000000000     
   1.3437500000000000        9.3750000000000000E-002   0.0000000000000000     
   1.3750000000000000        9.3750000000000000E-002   0.0000000000000000     
   1.2500000000000000       0.12500000000000000        0.0000000000000000     
   1.2812500000000000       0.12500000000000000        0.0000000000000000     
   1.3125000000000000       0.12500000000000000        0.0000000000000000     
   1.3437500000000000       0.12500000000000000        0.0000000000000000     
   1.3750000000000000       0.12500000000000000        0.0000000000000000     
   1.3750000000000000        0.0000000000000000        0.0000000000000000     
   1.4062500000000000        0.0000000000000000        0.0000000000000000     
   1.4375000000000000        0.0000000000000000        0.0000000000000000     
   1.4687500000000000        0.0000000000000000        0.0000000000000000     
   1.5000000000000000        0.0000000000000000        0.0000000000000000     
   1.3750000000000000        3.1250000000000000E-002   0.0000000000000000     
   1.4062500000000000        3.1250000000000000E-002   0.0000000000000000     
   1.4375000000000000        3.1250000000000000E-002   0.0000000000000000     
   1.4687500000000000        3.1250000000000000E-002   0.0000000000000000     
   1.5000000000000000        3.1250000000000000E-002   0.0000000000000000     
   1.3750000000000000        6.2500000000000000E-002   0.0000000000000000     
   1.4062500000000000        6.2500000000000000E-002   0.0000000000000000     
   1.4375000000000000        6.2500000000000000E-002   0.0000000000000000     
   1.4687500000000000        6.2500000000000000E-002   0.0000000000000000     
   1.5000000000000000        6.2500000000000000E-002   0.0000000000000000     
   1.3750000000000000        9.3750000000000000E-002   0.0000000000000000     
   1.4062500000000000        9.3750000000000000E-002   0.0000000000000000     
   1.4375000000000000        9.3750000000000000E-002   0.0000000000000000     
   1.4687500000000000        9.3750000000000000E-002   0.0000000000000000     
   1.5000000000000000        9.3750000000000000E-002   0.0000000000000000     
   1.3750000000000000       0.12500000000000000        0.0000000000000000     
   1.4062500000000000       0.12500000000000000        0.0000000000000000     
   1.4375000000000000       0.12500000000000000        0.0000000000000000     
   1.4687500000000000       0.12500000000000000        0.0000000000000000     
   1.5000000000000000       0.12500000000000000        0.0000000000000000     
  0.50000000000000000       0.12500000000000000        0.0000000000000000     
  0.53125000000000000       0.12500000000000000        0.0000000000000000     
  0.56250000000000000       0.12500000000000000        0.0000000000000000     
  0.59375000000000000       0.12500000000000000        0.0000000000000000     
  0.62500000000000000       0.12500000000000000        0.0000000000000000     
  0.50000000000000000       0.15625000000000000        0.0000000000000000     
  0.53125000000000000       0.15625000000000000        0.0000000000000000     
  0.56250000000000000       0.15625000000000000        0.0000000000000000     
  0.59375000000000000       0.15625000000000000        0.0000000000000000     
  0.62500000000000000       0.15625000000000000        0.0000000000000000     
  0.50000000000000000       0.18750000000000000        0.0000000000000000     
  0.53125000000000000       0.18750000000000000        0.0000000000000000     
  0.56250000000000000       0.18750000000000000        0.0000000000000000     
  0.59375000000000000       0.18750000000000000        0.0000000000000000     
  0.62500000000000000       0.18750000000000000        0.0000000000000000     
  0.50000000000000000       0.21875000000000000        0.0000000000000000     
  0.53125000000000000       0.21875000000000000        0.0000000000000000     
  0.56250000000000000       0.21875000000000000        0.0000000000000000     
  0.59375000000000000       0.21875000000000000        0.0000000000000000     
  0.62500000000000000       0.21875000000000000        0.0000000000000000     
  0.50000000000000000       0.25000000000000000        0.0000000000000000     
  0.53125000000000000       0.25000000000000000        0.0000000000000000     
  0.56250000000000000       0.25000000000000000        0.0000000000000000     
  0.59375000000000000       0.25000000000000000        0.0000000000000000     
  0.62500000000000000       0.25000000000000000        0.0000000000000000     
  0.62500000000000000       0.12500000000000000        0.0000000000000000     
  0.65625000000000000       0.12500000000000000        0.0000000000000000     
  0.68750000000000000       0.12500000000000000        0.0000000000000000     
  0.71875000000000000       0.12500000000000000        0.0000000000000000     
  0.75000000000000000       0.12500000000000000        0.0000000000000000     
  0.62500000000000000       0.15625000000000000        0.0000000000000000     
  0.65625000000000000       0.15625000000000000        0.0000000000000000     
  0.68750000000000000       0.15625000000000000        0.0000000000000000     
  0.71875000000000000       0.15625000000000000        0.0000000000000000     
  0.75000000000000000       0.15625000000000000        0.0000000000000000     
  0.62500000000000000       0.18750000000000000        0.0000000000000000     
  0.65625000000000000       0.18750000000000000        0.0000000000000000     
  0.68750000000000000       0.18750000000000000        0.0000000000000000     
  0.71875000000000000       0.18750000000000000        0.0000000000000000     
  0.75000000000000000       0.18750000000000000        0.0000000000000000     
  0.62500000000000000       0.21875000000000000        0.0000000000000000     
  0.65625000000000000       0.21875000000000000        0.0000000000000000     
  0.68750000000000000       0.21875000000000000        0.0000000000000000     
  0.71875000000000000       0.21875000000000000        0.0000000000000000     
  0.75000000000000000       0.21875000000000000        0.0000000000000000     
  0.62500000000000000       0.25000000000000000        0.0000000000000000     
  0.65625000000000000       0.25000000000000000        0.0000000000000000     
  0.68750000000000000       0.25000000000000000        0.0000000000000000     
  0.71875000000000000       0.25000000000000000        0.0000000000000000     
  0.75000000000000000       0.25000000000000000        0.0000000000000000     
  0.75000000000000000       0.12500000000000000        0.0000000000000000     
  0.78125000000000000       0.12500000000000000        0.0000000000000000     
  0.81250000000000000       0.12500000000000000        0.0000000000000000     
  0.84375000000000000       0.12500000000000000        0.0000000000000000     
  0.87500000000000000       0.12500000000000000        0.0000000000000000     
  0.75000000000000000       0.15625000000000000        0.0000000000000000     
  0.78125000000000000       0.15625000000000000        0.0000000000000000     
  0.81250000000000000       0.15625000000000000        0.0000000000000000     
  0.84375000000000000       0.15625000000000000        0.0000000000000000     
  0.87500000000000000       0.15625000000000000        0.0000000000000000     
  0.75000000000000000       0.18750000000000000        0.0000000000000000     
  0.78125000000000000       0.18750000000000000        0.0000000000000000     
  0.81250000000000000       0.18750000000000000        0.0000000000000000     
  0.84375000000000000       0.18750000000000000        0.0000000000000000     
  0.87500000000000000       0.18750000000000000        0.0000000000000000     
  0.75000000000000000       0.21875000000000000        0.0000000000000000     
  0.78125000000000000       0.21875000000000000        0.0000000000000000     
  0.81250000000000000       0.21875000000000000        0.0000000000000000     
  0.84375000000000000       0.21875000000000000        0.0000000000000000     
  0.87500000000000000       0.21875000000000000        0.0000000000000000     
  0.75000000000000000       0.25000000000000000        0.0000000000000000     
  0.78125000000000000       0.25000000000000000        0.0000000000000000     
  0.81250000000000000       0.25000000000000000        0.0000000000000000     
  0.84375000000000000       0.25000000000000000        0.0000000000000000     
  0.87500000000000000       0.25000000000000000        0.0000000000000000     
  0.87500000000000000       0.12500000000000000        0.0000000000000000     
  0.90625000000000000       0.12500000000000000        0.0000000000000000     
  0.93750000000000000       0.12500000000000000        0.0000000000000000     
  0.96875000000000000       0.12500000000000000        0.0000000000000000     
   1.0000000000000000       0.12500000000000000        0.0000000000000000     
  0.87500000000000000       0.15625000000000000        0.0000000000000000     
  0.90625000000000000       0.15625000000000000        0.0000000000000000     
  0.93750000000000000       0.15625000000000000        0.0000000000000000     
  0.96875000000000000       0.15625000000000000        0.0000000000000000     
   1.0000000000000000       0.15625000000000000        0.0000000000000000     
  0.87500000000000000       0.18750000000000000        0.0000000000000000     
  0.90625000000000000       0.18750000000000000        0.0000000000000000     
  0.93750000000000000       0.18750000000000000        0.0000000000000000     
  0.96875000000000000       0.18750000000000000        0.0000000000000000     
   1.0000000000000000       0.18750000000000000        0.0000000000000000     
  0.87500000000000000       0.21875000000000000        0.0000000000000000     
  0.90625000000000000       0.21875000000000000        0.0000000000000000     
  0.93750000000000000       0.21875000000000000        0.0000000000000000     
  0.96875000000000000       0.21875000000000000        0.0000000000000000     
   1.0000000000000000       0.21875000000000000        0.0000000000000000     
  0.87500000000000000       0.25000000000000000        0.0000000000000000     
  0.90625000000000000       0.25000000000000000        0.0000000000000000     
  0.93750000000000000       0.25000000000000000        0.0000000000000000     
  0.96875000000000000       0.25000000000000000        0.0000000000000000     
   1.0000000000000000       0.25000000000000000        0.0000000000000000     
   1.0000000000000000       0.12500000000000000        0.0000000000000000     
   1.0312500000000000       0.12500000000000000        0.0000000000000000     
   1.0625000000000000       0.12500000000000000        0.0000000000000000     
   1.0937500000000000       0.12500000000000000        0.0000000000000000     
   1.1250000000000000       0.12500000000000000        0.0000000000000000     
   1.0000000000000000       0.15625000000000000        0.0000000000000000     
   1.0312500000000000       0.15625000000000000        0.0000000000000000     
   1.0625000000000000       0.15625000000000000        0.0000000000000000     
   1.0937500000000000       0.15625000000000000        0.0000000000000000     
   1.1250000000000000       0.15625000000000000        0.0000000000000000     
   1.0000000000000000       0.18750000000000000        0.0000000000000000     
   1.0312500000000000       0.18750000000000000        0.0000000000000000     
   1.0625000000000000       0.18750000000000000        0.0000000000000000     
   1.0937500000000000       0.18750000000000000        0.0000000000000000     
   1.1250000000000000       0.18750000000000000        0.0000000000000000     
   1.0000000000000000       0.21875000000000000        0.0000000000000000     
   1.0312500000000000       0.21875000000000000        0.0000000000000000     
   1.0625000000000000       0.21875000000000000        0.0000000000000000     
   1.0937500000000000       0.21875000000000000        0.0000000000000000     
   1.1250000000000000       0.21875000000000000        0.0000000000000000     
   1.0000000000000000       0.25000000000000000        0.0000000000000000     
   1.0312500000000000       0.25000000000000000        0.0000000000000000     
   1.0625000000000000       0.25000000000000000        0.0000000000000000     
   1.0937500000000000       0.25000000000000000        0.0000000000000000     
   1.1250000000000000       0.25000000000000000        0.0000000000000000     
   1.1250000000000000       0.12500000000000000        0.0000000000000000     
   1.1562500000000000       0.12500000000000000        0.0000000000000000     
   1.1875000000000000       0.12500000000000000        0.0000000000000000     
   1.2187500000000000       0.12500000000000000        0.0000000000000000     
   1.2500000000000000       0.12500000000000000        0.0000000000000000     
   1.1250000000000000       0.15625000000000000        0.0000000000000000     
   1.1562500000000000       0.15625000000000000        0.0000000000000000     
   1.1875000000000000       0.15625000000000000        0.0000000000000000     
   1.2187500000000000       0.15625000000000000        0.0000000000000000     
   1.2500000000000000       0.15625000000000000        0.0000000000000000     
   1.1250000000000000       0.18750000000000000        0.0000000000000000     
   1.1562500000000000       0.18750000000000000        0.0000000000000000     
   1.1875000000000000       0.18750000000000000        0.0000000000000000     
   1.2187500000000000       0.18750000000000000        0.0000000000000000     
   1.2500000000000000       0.18750000000000000        0.0000000000000000     
   1.1250000000000000       0.21875000000000000        0.0000000000000000     
   1.1562500000000000       0.21875000000000000        0.0000000000000000     
   1.1875000000000000       0.21875000000000000        0.0000000000000000     
   1.2187500000000000       0.21875000000000000        0.0000000000000000     
   1.2500000000000000       0.21875000000000000        0.0000000000000000     
   1.1250000000000000       0.25000000000000000        0.0000000000000000     
   1.1562500000000000       0.25000000000000000        0.0000000000000000     
   1.1875000000000000       0.25000000000000000        0.0000000000000000     
   1.2187500000000000       0.25000000000000000        0.0000000000000000     
   1.2500000000000000       0.25000000000000000        0.0000000000000000     
   1.2500000000000000       0.12500000000000000        0.0000000000000000     
   1.2812500000000000       0.12500000000000000        0.0000000000000000     
   1.3125000000000000       0.12500000000000000        0.0000000000000000     
   1.3437500000000000       0.12500000000000000        0.0000000000000000     
   1.3750000000000000       0.12500000000000000        0.0000000000000000     
   1.2500000000000000       0.15625000000000000        0.0000000000000000     
   1.2812500000000000       0.15625000000000000        0.0000000000000000     
   1.3125000000000000       0.15625000000000000        0.0000000000000000     
   1.3437500000000000       0.15625000000000000        0.0000000000000000     
   1.3750000000000000       0.15625000000000000        0.0000000000000000     
   1.2500000000000000       0.18750000000000000        0.0000000000000000     
   1.2812500000000000       0.18750000000000000        0.0000000000000000     
   1.3125000000000000       0.18750000000000000        0.0000000000000000     
   1.3437500000000000       0.18750000000000000        0.0000000000000000     
   1.3750000000000000       0.18750000000000000        0.0000000000000000     
   1.2500000000000000       0.21875000000000000        0.0000000000000000     
   1.2812500000000000       0.21875000000000000        0.0000000000000000     
   1.3125000000000000       0.21875000000000000        0.0000000000000000     
   1.3437500000000000       0.21875000000000000        0.0000000000000000     
   1.3750000000000000       0.21875000000000000        0.0000000000000000     
   1.2500000000000000       0.25000000000000000        0.0000000000000000     
   1.2812500000000000       0.25000000000000000        0.0000000000000000     
   1.3125000000000000       0.25000000000000000        0.0000000000000000     
   1.3437500000000000       0.25000000000000000        0.0000000000000000     
   1.3750000000000000       0.25000000000000000        0.0000000000000000     
   1.3750000000000000       0.12500000000000000        0.0000000000000000     
   1.4062500000000000       0.12500000000000000        0.0000000000000000     
   1.4375000000000000       0.12500000000000000        0.0000000000000000     
   1.4687500000000000       0.12500000000000000        0.0000000000000000     
   1.5000000000000000       0.12500000000000000        0.0000000000000000     
   1.3750000000000000       0.15625000000000000        0.0000000000000000     
   1.4062500000000000       0.15625000000000000        0.0000000000000000     
   1.4375000000000000       0.15625000000000000        0.0000000000000000     
   1.4687500000000000       0.15625000000000000        0.0000000000000000     
   1.5000000000000000       0.15625000000000000        0.0000000000000000     
   1.3750000000000000       0.18750000000000000        0.0000000000000000     
   1.4062500000000000       0.18750000000000000        0.0000000000000000     
   1.4375000000000000       0.18750000000000000        0.0000000000000000     
   1.4687500000000000       0.18750000000000000        0.0000000000000000     
   1.5000000000000000       0.18750000000000000        0.0000000000000000     
   1.3750000000000000       0.21875000000000000        0.0000000000000000     
   1.4062500000000000       0.21875000000000000        0.0000000000000000     
   1.4375000000000000       0.21875000000000000        0.0000000000000000     
   1.4687500000000000       0.21875000000000000        0.0000000000000000     
   1.5000000000000000       0.21875000000000000        0.0000000000000000     
   1.3750000000000000       0.25000000000000000        0.0000000000000000     
   1.4062500000000000       0.25000000000000000        0.0000000000000000     
   1.4375000000000000       0.25000000000000000        0.0000000000000000     
   1.4687500000000000       0.25000000000000000        0.0000000000000000     
   1.5000000000000000       0.25000000000000000        0.0000000000000000     
  0.50000000000000000       0.25000000000000000        0.0000000000000000     
  0.53125000000000000       0.25000000000000000        0.0000000000000000     
  0.56250000000000000       0.25000000000000000        0.0000000000000000     
  0.59375000000000000       0.25000000000000000        0.0000000000000000     
  0.62500000000000000       0.25000000000000000        0.0000000000000000     
  0.50000000000000000       0.28125000000000000        0.0000000000000000     
  0.53125000000000000       0.28125000000000000        0.0000000000000000     
  0.56250000000000000       0.28125000000000000        0.0000000000000000     
  0.59375000000000000       0.28125000000000000        0.0000000000000000     
  0.62500000000000000       0.28125000000000000        0.0000000000000000     
  0.50000000000000000       0.31250000000000000        0.0000000000000000     
  0.53125000000000000       0.31250000000000000        0.0000000000000000     
  0.56250000000000000       0.31250000000000000        0.0000000000000000     
  0.59375000000000000       0.31250000000000000        0.0000000000000000     
  0.62500000000000000       0.31250000000000000        0.0000000000000000     
  0.50000000000000000       0.34375000000000000        0.0000000000000000     
  0.53125000000000000       0.34375000000000000        0.0000000000000000     
  0.56250000000000000       0.34375000000000000        0.0000000000000000     
  0.59375000000000000       0.34375000000000000        0.0000000000000000     
  0.62500000000000000       0.34375000000000000        0.0000000000000000     
  0.50000000000000000       0.37500000000000000        0.0000000000000000     
  0.53125000000000000       0.37500000000000000        0.0000000000000000     
  0.56250000000000000       0.37500000000000000        0.0000000000000000     
  0.59375000000000000       0.37500000000000000        0.0000000000000000     
  0.62500000000000000       0.37500000000000000        0.0000000000000000     
  0.62500000000000000       0.25000000000000000        0.0000000000000000     
  0.65625000000000000       0.25000000000000000        0.0000000000000000     
  0.68750000000000000       0.25000000000000000        0.0000000000000000     
  0.71875000000000000       0.25000000000000000        0.0000000000000000     
  0.75000000000000000       0.25000000000000000        0.0000000000000000     
  0.62500000000000000       0.28125000000000000        0.0000000000000000     
  0.65625000000000000       0.28125000000000000        0.0000000000000000     
  0.68750000000000000       0.28125000000000000        0.0000000000000000     
  0.71875000000000000       0.28125000000000000        0.0000000000000000     
  0.75000000000000000       0.28125000000000000        0.0000000000000000     
  0.62500000000000000       0.31250000000000000        0.0000000000000000     
  0.65625000000000000       0.31250000000000000        0.0000000000000000     
  0.68750000000000000       0.31250000000000000        0.0000000000000000     
  0.71875000000000000       0.31250000000000000        0.0000000000000000     
  0.75000000000000000       0.31250000000000000        0.0000000000000000     
  0.62500000000000000       0.34375000000000000        0.0000000000000000     
  0.65625000000000000       0.34375000000000000        0.0000000000000000     
  0.68750000000000000       0.34375000000000000        0.0000000000000000     
  0.71875000000000000       0.34375000000000000        0.0000000000000000     
  0.75000000000000000       0.34375000000000000        0.0000000000000000     
  0.62500000000000000       0.37500000000000000        0.0000000000000000     
  0.65625000000000000       0.37500000000000000        0.0000000000000000     
  0.68750000000000000       0.37500000000000000        0.0000000000000000     
  0.71875000000000000       0.37500000000000000        0.0000000000000000     
  0.75000000000000000       0.37500000000000000        0.0000000000000000     
  0.75000000000000000       0.25000000000000000        0.0000000000000000     
  0.78125000000000000       0.25000000000000000        0.0000000000000000     
  0.81250000000000000       0.25000000000000000        0.0000000000000000     
  0.84375000000000000       0.25000000000000000        0.0000000000000000     
  0.87500000000000000       0.25000000000000000        0.0000000000000000     
  0.75000000000000000       0.28125000000000000        0.0000000000000000     
  0.78125000000000000       0.28125000000000000        0.0000000000000000     
  0.81250000000000000       0.28125000000000000        0.0000000000000000     
  0.84375000000000000       0.28125000000000000        0.0000000000000000     
  0.87500000000000000       0.28125000000000000        0.0000000000000000     
  0.75000000000000000       0.31250000000000000        0.0000000000000000     
  0.78125000000000000       0.31250000000000000        0.0000000000000000     
  0.81250000000000000       0.31250000000000000        0.0000000000000000     
  0.84375000000000000       0.31250000000000000        0.0000000000000000     
  0.87500000000000000       0.31250000000000000        0.0000000000000000     
  0.75000000000000000       0.34375000000000000        0.0000000000000000     
  0.78125000000000000       0.34375000000000000        0.0000000000000000     
  0.81250000000000000       0.34375000000000000        0.0000000000000000     
  0.84375000000000000       0.34375000000000000        0.0000000000000000     
  0.87500000000000000       0.34375000000000000        0.0000000000000000     
  0.75000000000000000       0.37500000000000000        0.0000000000000000     
  0.78125000000000000       0.37500000000000000        0.0000000000000000     
  0.81250000000000000       0.37500000000000000        0.0000000000000000     
  0.84375000000000000       0.37500000000000000        0.0000000000000000     
  0.87500000000000000       0.37500000000000000        0.0000000000000000     
  0.87500000000000000       0.25000000000000000        0.0000000000000000     
  0.90625000000000000       0.25000000000000000        0.0000000000000000     
  0.93750000000000000       0.25000000000000000        0.0000000000000000     
  0.96875000000000000       0.25000000000000000        0.0000000000000000     
   1.0000000000000000       0.25000000000000000        0.0000000000000000     
  0.87500000000000000       0.28125000000000000        0.0000000000000000     
  0.90625000000000000       0.28125000000000000        0.0000000000000000     
  0.93750000000000000       0.28125000000000000        0.0000000000000000     
  0.96875000000000000       0.28125000000000000        0.0000000000000000     
   1.0000000000000000       0.28125000000000000        0.0000000000000000     
  0.87500000000000000       0.31250000000000000        0.0000000000000000     
  0.90625000000000000       0.31250000000000000        0.0000000000000000     
  0.93750000000000000       0.31250000000000000        0.0000000000000000     
  0.96875000000000000       0.31250000000000000        0.0000000000000000     
   1.0000000000000000       0.31250000000000000        0.0000000000000000     
  0.87500000000000000       0.34375000000000000        0.0000000000000000     
  0.90625000000000000       0.34375000000000000        0.0000000000000000     
  0.93750000000000000       0.34375000000000000        0.0000000000000000     
  0.96875000000000000       0.34375000000000000        0.0000000000000000     
   1.0000000000000000       0.34375000000000000        0.0000000000000000     
  0.87500000000000000       0.37500000000000000        0.0000000000000000     
  0.90625000000000000       0.37500000000000000        0.0000000000000000     
  0.93750000000000000       0.37500000000000000        0.0000000000000000     
  0.96875000000000000       0.37500000000000000        0.0000000000000000     
   1.0000000000000000       0.37500000000000000        0.0000000000000000     
   1.0000000000000000       0.25000000000000000        0.0000000000000000     
   1.0312500000000000       0.25000000000000000        0.0000000000000000     
   1.0625000000000000       0.25000000000000000        0.0000000000000000     
   1.0937500000000000       0.25000000000000000        0.0000000000000000     
   1.1250000000000000       0.25000000000000000        0.0000000000000000     
   1.0000000000000000       0.28125000000000000        0.0000000000000000     
   1.0312500000000000       0.28125000000000000        0.0000000000000000     
   1.0625000000000000       0.28125000000000000        0.0000000000000000     
   1.0937500000000000       0.28125000000000000        0.0000000000000000     
   1.1250000000000000       0.28125000000000000        0.0000000000000000     
   1.0000000000000000       0.31250000000000000        0.0000000000000000     
   1.0312500000000000       0.31250000000000000        0.0000000000000000     
   1.0625000000000000       0.31250000000000000        0.0000000000000000     
   1.0937500000000000       0.31250000000000000        0.0000000000000000     
   1.1250000000000000       0.31250000000000000        0.0000000000000000     
   1.0000000000000000       0.34375000000000000        0.0000000000000000     
   1.0312500000000000       0.34375000000000000        0.0000000000000000     
   1.0625000000000000       0.34375000000000000        0.0000000000000000     
   1.0937500000000000       0.34375000000000000        0.0000000000000000     
   1.1250000000000000       0.34375000000000000        0.0000000000000000     
   1.0000000000000000       0.37500000000000000        0.0000000000000000     
   1.0312500000000000       0.37500000000000000        0.0000000000000000     
   1.0625000000000000       0.37500000000000000        0.0000000000000000     
   1.0937500000000000       0.37500000000000000        0.0000000000000000     
   1.1250000000000000       0.37500000000000000        0.0000000000000000     
   1.1250000000000000       0.25000000000000000        0.0000000000000000     
   1.1562500000000000       0.25000000000000000        0.0000000000000000     
   1.1875000000000000       0.25000000000000000        0.0000000000000000     
   1.2187500000000000       0.25000000000000000        0.0000000000000000     
   1.2500000000000000       0.25000000000000000        0.0000000000000000     
   1.1250000000000000       0.28125000000000000        0.0000000000000000     
   1.1562500000000000       0.28125000000000000        0.0000000000000000     
   1.1875000000000000       0.28125000000000000        0.0000000000000000     
   1.2187500000000000       0.28125000000000000        0.0000000000000000     
   1.2500000000000000       0.28125000000000000        0.0000000000000000     
   1.1250000000000000       0.31250000000000000        0.0000000000000000     
   1.1562500000000000       0.31250000000000000        0.0000000000000000     
   1.1875000000000000       0.31250000000000000        0.0000000000000000     
   1.2187500000000000       0.31250000000000000        0.0000000000000000     
   1.2500000000000000       0.31250000000000000        0.0000000000000000     
   1.1250000000000000       0.34375000000000000        0.0000000000000000     
   1.1562500000000000       0.34375000000000000        0.0000000000000000     
   1.1875000000000000       0.34375000000000000        0.0000000000000000     
   1.2187500000000000       0.34375000000000000        0.0000000000000000     
   1.2500000000000000       0.34375000000000000        0.0000000000000000     
   1.1250000000000000       0.37500000000000000        0.0000000000000000     
   1.1562500000000000       0.37500000000000000        0.0000000000000000     
   1.1875000000000000       0.37500000000000000        0.0000000000000000     
   1.2187500000000000       0.37500000000000000        0.0000000000000000     
   1.2500000000000000       0.37500000000000000        0.0000000000000000     
   1.2500000000000000       0.25000000000000000        0.0000000000000000     
   1.2812500000000000       0.25000000000000000        0.0000000000000000     
   1.3125000000000000       0.25000000000000000        0.0000000000000000     
   1.3437500000000000       0.25000000000000000        0.0000000000000000     
   1.3750000000000000       0.25000000000000000        0.0000000000000000     
   1.2500000000000000       0.28125000000000000        0.0000000000000000     
   1.2812500000000000       0.28125000000000000        0.0000000000000000     
   1.3125000000000000       0.28125000000000000        0.0000000000000000     
   1.3437500000000000       0.28125000000000000        0.0000000000000000     
   1.3750000000000000       0.28125000000000000        0.0000000000000000     
   1.2500000000000000       0.31250000000000000        0.0000000000000000     
   1.2812500000000000       0.31250000000000000        0.0000000000000000     
   1.3125000000000000       0.31250000000000000        0.0000000000000000     
   1.3437500000000000       0.31250000000000000        0.0000000000000000     
   1.3750000000000000       0.31250000000000000        0.0000000000000000     
   1.2500000000000000       0.34375000000000000        0.0000000000000000     
   1.2812500000000000       0.34375000000000000        0.0000000000000000     
   1.3125000000000000       0.34375000000000000        0.0000000000000000     
   1.3437500000000000       0.34375000000000000        0.0000000000000000     
   1.3750000000000000       0.34375000000000000        0.0000000000000000     
   1.2500000000000000       0.37500000000000000        0.0000000000000000     
   1.2812500000000000       0.37500000000000000        0.0000000000000000     
   1.3125000000000000       0.37500000000000000        0.0000000000000000     
   1.3437500000000000       0.37500000000000000        0.0000000000000000     
   1.3750000000000000       0.37500000000000000        0.0000000000000000     
   1.3750000000000000       0.25000000000000000        0.0000000000000000     
   1.4062500000000000       0.25000000000000000        0.0000000000000000     
   1.4375000000000000       0.25000000000000000        0.0000000000000000     
   1.4687500000000000       0.25000000000000000        0.0000000000000000     
   1.5000000000000000       0.25000000000000000        0.0000000000000000     
   1.3750000000000000       0.28125000000000000        0.0000000000000000     
   1.4062500000000000       0.28125000000000000        0.0000000000000000     
   1.4375000000000000       0.28125000000000000        0.0000000000000000     
   1.4687500000000000       0.28125000000000000        0.0000000000000000     
   1.5000000000000000       0.28125000000000000        0.0000000000000000     
   1.3750000000000000       0.31250000000000000        0.0000000000000000     
   1.4062500000000000       0.31250000000000000        0.0000000000000000     
   1.4375000000000000       0.31250000000000000        0.0000000000000000     
   1.4687500000000000       0.31250000000000000        0.0000000000000000     
   1.5000000000000000       0.31250000000000000        0.0000000000000000     
   1.3750000000000000       0.34375000000000000        0.0000000000000000     
   1.4062500000000000       0.34375000000000000        0.0000000000000000     
   1.4375000000000000       0.34375000000000000        0.0000000000000000     
   1.4687500000000000       0.34375000000000000        0.0000000000000000     
   1.5000000000000000       0.34375000000000000        0.0000000000000000     
   1.3750000000000000       0.37500000000000000        0.0000000000000000     
   1.4062500000000000       0.37500000000000000        0.0000000000000000     
   1.4375000000000000       0.37500000000000000        0.0000000000000000     
   1.4687500000000000       0.37500000000000000        0.0000000000000000     
   1.5000000000000000       0.37500000000000000        0.0000000000000000     
  0.50000000000000000       0.37500000000000000        0.0000000000000000     
  0.53125000000000000       0.37500000000000000        0.0000000000000000     
  0.56250000000000000       0.37500000000000000        0.0000000000000000     
  0.59375000000000000       0.37500000000000000        0.0000000000000000     
  0.62500000000000000       0.37500000000000000        0.0000000000000000     
  0.50000000000000000       0.40625000000000000        0.0000000000000000     
  0.53125000000000000       0.40625000000000000        0.0000000000000000     
  0.56250000000000000       0.40625000000000000        0.0000000000000000     
  0.59375000000000000       0.40625000000000000        0.0000000000000000     
  0.62500000000000000       0.40625000000000000        0.0000000000000000     
  0.50000000000000000       0.43750000000000000        0.0000000000000000     
  0.53125000000000000       0.43750000000000000        0.0000000000000000     
  0.56250000000000000       0.43750000000000000        0.0000000000000000     
  0.59375000000000000       0.43750000000000000        0.0000000000000000     
  0.62500000000000000       0.43750000000000000        0.0000000000000000     
  0.50000000000000000       0.46875000000000000        0.0000000000000000     
  0.53125000000000000       0.46875000000000000        0.0000000000000000     
  0.56250000000000000       0.46875000000000000        0.0000000000000000     
  0.59375000000000000       0.46875000000000000        0.0000000000000000     
  0.62500000000000000       0.46875000000000000        0.0000000000000000     
  0.50000000000000000       0.50000000000000000        0.0000000000000000     
  0.53125000000000000       0.50000000000000000        0.0000000000000000     
  0.56250000000000000       0.50000000000000000        0.0000000000000000     
  0.59375000000000000       0.50000000000000000        0.0000000000000000     
  0.62500000000000000       0.50000000000000000        0.0000000000000000     
  0.62500000000000000       0.37500000000000000        0.0000000000000000     
  0.65625000000000000       0.37500000000000000        0.0000000000000000     
  0.68750000000000000       0.37500000000000000        0.0000000000000000     
  0.71875000000000000       0.37500000000000000        0.0000000000000000     
  0.75000000000000000       0.37500000000000000        0.0000000000000000     
  0.62500000000000000       0.40625000000000000        0.0000000000000000     
  0.65625000000000000       0.40625000000000000        0.0000000000000000     
  0.68750000000000000       0.40625000000000000        0.0000000000000000     
  0.71875000000000000       0.40625000000000000        0.0000000000000000     
  0.75000000000000000       0.40625000000000000        0.0000000000000000     
  0.62500000000000000       0.43750000000000000        0.0000000000000000     
  0.65625000000000000       0.43750000000000000        0.0000000000000000     
  0.68750000000000000       0.43750000000000000        0.0000000000000000     
  0.71875000000000000       0.43750000000000000        0.0000000000000000     
  0.75000000000000000       0.43750000000000000        0.0000000000000000     
  0.62500000000000000       0.46875000000000000        0.0000000000000000     
  0.65625000000000000       0.46875000000000000        0.0000000000000000     
  0.68750000000000000       0.46875000000000000        0.0000000000000000     
  0.71875000000000000       0.46875000000000000        0.0000000000000000     
  0.75000000000000000       0.46875000000000000        0.0000000000000000     
  0.62500000000000000       0.50000000000000000        0.0000000000000000     
  0.65625000000000000       0.50000000000000000        0.0000000000000000     
  0.68750000000000000       0.50000000000000000        0.0000000000000000     
  0.71875000000000000       0.50000000000000000        0.0000000000000000     
  0.75000000000000000       0.50000000000000000        0.0000000000000000     
  0.75000000000000000       0.37500000000000000        0.0000000000000000     
  0.78125000000000000       0.37500000000000000        0.0000000000000000     
  0.81250000000000000       0.37500000000000000        0.0000000000000000     
  0.84375000000000000       0.37500000000000000        0.0000000000000000     
  0.87500000000000000       0.37500000000000000        0.0000000000000000     
  0.75000000000000000       0.40625000000000000        0.0000000000000000     
  0.78125000000000000       0.40625000000000000        0.0000000000000000     
  0.81250000000000000       0.40625000000000000        0.0000000000000000     
  0.84375000000000000       0.40625000000000000        0.0000000000000000     
  0.87500000000000000       0.40625000000000000        0.0000000000000000     
  0.75000000000000000       0.43750000000000000        0.0000000000000000     
  0.78125000000000000       0.43750000000000000        0.0000000000000000     
  0.81250000000000000       0.43750000000000000        0.0000000000000000     
  0.84375000000000000       0.43750000000000000        0.0000000000000000     
  0.87500000000000000       0.43750000000000000        0.0000000000000000     
  0.75000000000000000       0.46875000000000000        0.0000000000000000     
  0.78125000000000000       0.46875000000000000        0.0000000000000000     
  0.81250000000000000       0.46875000000000000        0.0000000000000000     
  0.84375000000000000       0.46875000000000000        0.0000000000000000     
  0.87500000000000000       0.46875000000000000        0.0000000000000000     
  0.75000000000000000       0.50000000000000000        0.0000000000000000     
  0.78125000000000000       0.50000000000000000        0.0000000000000000     
  0.81250000000000000       0.50000000000000000        0.0000000000000000     
  0.84375000000000000       0.50000000000000000        0.0000000000000000     
  0.87500000000000000       0.50000000000000000        0.0000000000000000     
  0.87500000000000000       0.37500000000000000        0.0000000000000000     
  0.90625000000000000       0.37500000000000000        0.0000000000000000     
  0.93750000000000000       0.37500000000000000        0.0000000000000000     
  0.96875000000000000       0.37500000000000000        0.0000000000000000     
   1.0000000000000000       0.37500000000000000        0.0000000000000000     
  0.87500000000000000       0.40625000000000000        0.0000000000000000     
  0.90625000000000000       0.40625000000000000        0.0000000000000000     
  0.93750000000000000       0.40625000000000000        0.0000000000000000     
  0.96875000000000000       0.40625000000000000        0.0000000000000000     
   1.0000000000000000       0.40625000000000000        0.0000000000000000     
  0.87500000000000000       0.43750000000000000        0.0000000000000000     
  0.90625000000000000       0.43750000000000000        0.0000000000000000     
  0.93750000000000000       0.43750000000000000        0.0000000000000000     
  0.96875000000000000       0.43750000000000000        0.0000000000000000     
   1.0000000000000000       0.43750000000000000        0.0000000000000000     
  0.87500000000000000       0.46875000000000000        0.0000000000000000     
  0.90625000000000000       0.46875000000000000        0.0000000000000000     
  0.93750000000000000       0.46875000000000000        0.0000000000000000     
  0.96875000000000000       0.46875000000000000        0.0000000000000000     
   1.0000000000000000       0.46875000000000000        0.0000000000000000     
  0.87500000000000000       0.50000000000000000        0.0000000000000000     
  0.90625000000000000       0.50000000000000000        0.0000000000000000     
  0.93750000000000000       0.50000000000000000        0.0000000000000000     
  0.96875000000000000       0.50000000000000000        0.0000000000000000     
   1.0000000000000000       0.50000000000000000        0.0000000000000000     
   1.0000000000000000       0.37500000000000000        0.0000000000000000     
   1.0312500000000000       0.37500000000000000        0.0000000000000000     
   1.0625000000000000       0.37500000000000000        0.0000000000000000     
   1.0937500000000000       0.37500000000000000        0.0000000000000000     
   1.1250000000000000       0.37500000000000000        0.0000000000000000     
   1.0000000000000000       0.40625000000000000        0.0000000000000000     
   1.0312500000000000       0.40625000000000000        0.0000000000000000     
   1.0625000000000000       0.40625000000000000        0.0000000000000000     
   1.0937500000000000       0.40625000000000000        0.0000000000000000     
   1.1250000000000000       0.40625000000000000        0.0000000000000000     
   1.0000000000000000       0.43750000000000000        0.0000000000000000     
   1.0312500000000000       0.43750000000000000        0.0000000000000000     
   1.0625000000000000       0.43750000000000000        0.0000000000000000     
   1.0937500000000000       0.43750000000000000        0.0000000000000000     
   1.1250000000000000       0.43750000000000000        0.0000000000000000     
   1.0000000000000000       0.46875000000000000        0.0000000000000000     
   1.0312500000000000       0.46875000000000000        0.0000000000000000     
   1.0625000000000000       0.46875000000000000        0.0000000000000000     
   1.0937500000000000       0.46875000000000000        0.0000000000000000     
   1.1250000000000000       0.46875000000000000        0.0000000000000000     
   1.0000000000000000       0.50000000000000000        0.0000000000000000     
   1.0312500000000000       0.50000000000000000        0.0000000000000000     
   1.0625000000000000       0.50000000000000000        0.0000000000000000     
   1.0937500000000000       0.50000000000000000        0.0000000000000000     
   1.1250000000000000       0.50000000000000000        0.0000000000000000     
   1.1250000000000000       0.37500000000000000        0.0000000000000000     
   1.1562500000000000       0.37500000000000000        0.0000000000000000     
   1.1875000000000000       0.37500000000000000        0.0000000000000000     
   1.2187500000000000       0.37500000000000000        0.0000000000000000     
   1.2500000000000000       0.37500000000000000        0.0000000000000000     
   1.1250000000000000       0.40625000000000000        0.0000000000000000     
   1.1562500000000000       0.40625000000000000        0.0000000000000000     
   1.1875000000000000       0.40625000000000000        0.0000000000000000     
   1.2187500000000000       0.40625000000000000        0.0000000000000000     
   1.2500000000000000       0.40625000000000000        0.0000000000000000     
   1.1250000000000000       0.43750000000000000        0.0000000000000000     
   1.1562500000000000       0.43750000000000000        0.0000000000000000     
   1.1875000000000000       0.43750000000000000        0.0000000000000000     
   1.2187500000000000       0.43750000000000000        0.0000000000000000     
   1.2500000000000000       0.43750000000000000        0.0000000000000000     
   1.1250000000000000       0.46875000000000000        0.0000000000000000     
   1.1562500000000000       0.46875000000000000        0.0000000000000000     
   1.1875000000000000       0.46875000000000000        0.0000000000000000     
   1.2187500000000000       0.46875000000000000        0.0000000000000000     
   1.2500000000000000       0.46875000000000000        0.0000000000000000     
   1.1250000000000000       0.50000000000000000        0.0000000000000000     
   1.1562500000000000       0.50000000000000000        0.0000000000000000     
   1.1875000000000000       0.50000000000000000        0.0000000000000000     
   1.2187500000000000       0.50000000000000000        0.0000000000000000     
   1.2500000000000000       0.50000000000000000        0.0000000000000000     
   1.2500000000000000       0.37500000000000000        0.0000000000000000     
   1.2812500000000000       0.37500000000000000        0.0000000000000000     
   1.3125000000000000       0.37500000000000000        0.0000000000000000     
   1.3437500000000000       0.37500000000000000        0.0000000000000000     
   1.3750000000000000       0.37500000000000000        0.0000000000000000     
   1.2500000000000000       0.40625000000000000        0.0000000000000000     
   1.2812500000000000       0.40625000000000000        0.0000000000000000     
   1.3125000000000000       0.40625000000000000        0.0000000000000000     
   1.3437500000000000       0.40625000000000000        0.0000000000000000     
   1.3750000000000000       0.40625000000000000        0.0000000000000000     
   1.2500000000000000       0.43750000000000000        0.0000000000000000     
   1.2812500000000000       0.43750000000000000        0.0000000000000000     
   1.3125000000000000       0.43750000000000000        0.0000000000000000     
   1.3437500000000000       0.43750000000000000        0.0000000000000000     
   1.3750000000000000       0.43750000000000000        0.0000000000000000     
   1.2500000000000000       0.46875000000000000        0.0000000000000000     
   1.2812500000000000       0.46875000000000000        0.0000000000000000     
   1.3125000000000000       0.46875000000000000        0.0000000000000000     
   1.3437500000000000       0.46875000000000000        0.0000000000000000     
   1.3750000000000000       0.46875000000000000        0.0000000000000000     
   1.2500000000000000       0.50000000000000000        0.0000000000000000     
   1.2812500000000000       0.50000000000000000        0.0000000000000000     
   1.3125000000000000       0.50000000000000000        0.0000000000000000     
   1.3437500000000000       0.50000000000000000        0.0000000000000000     
   1.3750000000000000       0.50000000000000000        0.0000000000000000     
   1.3750000000000000       0.37500000000000000        0.0000000000000000     
   1.4062500000000000       0.37500000000000000        0.0000000000000000     
   1.4375000000000000       0.37500000000000000        0.0000000000000000     
   1.4687500000000000       0.37500000000000000        0.0000000000000000     
   1.5000000000000000       0.37500000000000000        0.0000000000000000     
   1.3750000000000000       0.40625000000000000        0.0000000000000000     
   1.4062500000000000       0.40625000000000000        0.0000000000000000     
   1.4375000000000000       0.40625000000000000        0.0000000000000000     
   1.4687500000000000       0.40625000000000000        0.0000000000000000     
   1.5000000000000000       0.40625000000000000        0.0000000000000000     
   1.3750000000000000       0.43750000000000000        0.0000000000000000     
   1.4062500000000000       0.43750000000000000        0.0000000000000000     
   1.4375000000000000       0.43750000000000000        0.0000000000000000     
   1.4687500000000000       0.43750000000000000        0.0000000000000000     
   1.5000000000000000       0.43750000000000000        0.0000000000000000     
   1.3750000000000000       0.46875000000000000        0.0000000000000000     
   1.4062500000000000       0.46875000000000000        0.0000000000000000     
   1.4375000000000000       0.46875000000000000        0.0000000000000000     
   1.4687500000000000       0.46875000000000000        0.0000000000000000     
   1.5000000000000000       0.46875000000000000        0.0000000000000000     
   1.3750000000000000       0.50000000000000000        0.0000000000000000     
   1.4062500000000000       0.50000000000000000        0.0000000000000000     
   1.4375000000000000       0.50000000000000000        0.0000000000000000     
   1.4687500000000000       0.50000000000000000        0.0000000000000000     
   1.5000000000000000       0.50000000000000000        0.0000000000000000     
  0.50000000000000000       0.50000000000000000        0.0000000000000000     
  0.53125000000000000       0.50000000000000000        0.0000000000000000     
  0.56250000000000000       0.50000000000000000        0.0000000000000000     
  0.59375000000000000       0.50000000000000000        0.0000000000000000     
  0.62500000000000000       0.50000000000000000        0.0000000000000000     
  0.50000000000000000       0.53125000000000000        0.0000000000000000     
  0.53125000000000000       0.53125000000000000        0.0000000000000000     
  0.56250000000000000       0.53125000000000000        0.0000000000000000     
  0.59375000000000000       0.53125000000000000        0.0000000000000000     
  0.62500000000000000       0.53125000000000000        0.0000000000000000     
  0.50000000000000000       0.56250000000000000        0.0000000000000000     
  0.53125000000000000       0.56250000000000000        0.0000000000000000     
  0.56250000000000000       0.56250000000000000        0.0000000000000000     
  0.59375000000000000       0.56250000000000000        0.0000000000000000     
  0.62500000000000000       0.56250000000000000        0.0000000000000000     
  0.50000000000000000       0.59375000000000000        0.0000000000000000     
  0.53125000000000000       0.59375000000000000        0.0000000000000000     
  0.56250000000000000       0.59375000000000000        0.0000000000000000     
  0.59375000000000000       0.59375000000000000        0.0000000000000000     
  0.62500000000000000       0.59375000000000000        0.0000000000000000     
  0.50000000000000000       0.62500000000000000        0.0000000000000000     
  0.53125000000000000       0.62500000000000000        0.0000000000000000     
  0.56250000000000000       0.62500000000000000        0.0000000000000000     
  0.59375000000000000       0.62500000000000000        0.0000000000000000     
  0.62500000000000000       0.62500000000000000        0.0000000000000000     
  0.62500000000000000       0.50000000000000000        0.0000000000000000     
  0.65625000000000000       0.50000000000000000        0.0000000000000000     
  0.68750000000000000       0.50000000000000000        0.0000000000000000     
  0.71875000000000000       0.50000000000000000        0.0000000000000000     
  0.75000000000000000       0.50000000000000000        0.0000000000000000     
  0.62500000000000000       0.53125000000000000        0.0000000000000000     
  0.65625000000000000       0.53125000000000000        0.0000000000000000     
  0.68750000000000000       0.53125000000000000        0.0000000000000000     
  0.71875000000000000       0.53125000000000000        0.0000000000000000     
  0.75000000000000000       0.53125000000000000        0.0000000000000000     
  0.62500000000000000       0.56250000000000000        0.0000000000000000     
  0.65625000000000000       0.56250000000000000        0.0000000000000000     
  0.68750000000000000       0.56250000000000000        0.0000000000000000     
  0.71875000000000000       0.56250000000000000        0.0000000000000000     
  0.75000000000000000       0.56250000000000000        0.0000000000000000     
  0.62500000000000000       0.59375000000000000        0.0000000000000000     
  0.65625000000000000       0.59375000000000000        0.0000000000000000     
  0.68750000000000000       0.59375000000000000        0.0000000000000000     
  0.71875000000000000       0.59375000000000000        0.0000000000000000     
  0.75000000000000000       0.59375000000000000        0.0000000000000000     
  0.62500000000000000       0.62500000000000000        0.0000000000000000     
  0.65625000000000000       0.62500000000000000        0.0000000000000000     
  0.68750000000000000       0.62500000000000000        0.0000000000000000     
  0.71875000000000000       0.62500000000000000        0.0000000000000000     
  0.75000000000000000       0.62500000000000000        0.0000000000000000     
  0.75000000000000000       0.50000000000000000        0.0000000000000000     
  0.78125000000000000       0.50000000000000000        0.0000000000000000     
  0.81250000000000000       0.50000000000000000        0.0000000000000000     
  0.84375000000000000       0.50000000000000000        0.0000000000000000     
  0.87500000000000000       0.50000000000000000        0.0000000000000000     
  0.75000000000000000       0.53125000000000000        0.0000000000000000     
  0.78125000000000000       0.53125000000000000        0.0000000000000000     
  0.81250000000000000       0.53125000000000000        0.0000000000000000     
  0.84375000000000000       0.53125000000000000        0.0000000000000000     
  0.87500000000000000       0.53125000000000000        0.0000000000000000     
  0.75000000000000000       0.56250000000000000        0.0000000000000000     
  0.78125000000000000       0.56250000000000000        0.0000000000000000     
  0.81250000000000000       0.56250000000000000        0.0000000000000000     
  0.84375000000000000       0.56250000000000000        0.0000000000000000     
  0.87500000000000000       0.56250000000000000        0.0000000000000000     
  0.75000000000000000       0.59375000000000000        0.0000000000000000     
  0.78125000000000000       0.59375000000000000        0.0000000000000000     
  0.81250000000000000       0.59375000000000000        0.0000000000000000     
  0.84375000000000000       0.59375000000000000        0.0000000000000000     
  0.87500000000000000       0.59375000000000000        0.0000000000000000     
  0.75000000000000000       0.62500000000000000        0.0000000000000000     
  0.78125000000000000       0.62500000000000000        0.0000000000000000     
  0.81250000000000000       0.62500000000000000        0.0000000000000000     
  0.84375000000000000       0.62500000000000000        0.0000000000000000     
  0.87500000000000000       0.62500000000000000        0.0000000000000000     
  0.87500000000000000       0.50000000000000000        0.0000000000000000     
  0.90625000000000000       0.50000000000000000        0.0000000000000000     
  0.93750000000000000       0.50000000000000000        0.0000000000000000     
  0.96875000000000000       0.50000000000000000        0.0000000000000000     
   1.0000000000000000       0.50000000000000000        0.0000000000000000     
  0.87500000000000000       0.53125000000000000        0.0000000000000000     
  0.90625000000000000       0.53125000000000000        0.0000000000000000     
  0.93750000000000000       0.53125000000000000        0.0000000000000000     
  0.96875000000000000       0.53125000000000000        0.0000000000000000     
   1.0000000000000000       0.53125000000000000        0.0000000000000000     
  0.87500000000000000       0.56250000000000000        0.0000000000000000     
  0.90625000000000000       0.56250000000000000        0.0000000000000000     
  0.93750000000000000       0.56250000000000000        0.0000000000000000     
  0.96875000000000000       0.56250000000000000        0.0000000000000000     
   1.0000000000000000       0.56250000000000000        0.0000000000000000     
  0.87500000000000000       0.59375000000000000        0.0000000000000000     
  0.90625000000000000       0.59375000000000000        0.0000000000000000     
  0.93750000000000000       0.59375000000000000        0.0000000000000000     
  0.96875000000000000       0.59375000000000000        0.0000000000000000     
   1.0000000000000000       0.59375000000000000        0.0000000000000000     
  0.87500000000000000       0.62500000000000000        0.0000000000000000     
  0.90625000000000000       0.62500000000000000        0.0000000000000000     
  0.93750000000000000       0.62500000000000000        0.0000000000000000     
  0.96875000000000000       0.62500000000000000        0.0000000000000000     
   1.0000000000000000       0.62500000000000000        0.0000000000000000     
   1.0000000000000000       0.50000000000000000        0.0000000000000000     
   1.0312500000000000       0.50000000000000000        0.0000000000000000     
   1.0625000000000000       0.50000000000000000        0.0000000000000000     
   1.0937500000000000       0.50000000000000000        0.0000000000000000     
   1.1250000000000000       0.50000000000000000        0.0000000000000000     
   1.0000000000000000       0.53125000000000000        0.0000000000000000     
   1.0312500000000000       0.53125000000000000        0.0000000000000000     
   1.0625000000000000       0.53125000000000000        0.0000000000000000     
   1.0937500000000000       0.53125000000000000        0.0000000000000000     
   1.1250000000000000       0.53125000000000000        0.0000000000000000     
   1.0000000000000000       0.56250000000000000        0.0000000000000000     
   1.0312500000000000       0.56250000000000000        0.0000000000000000     
   1.0625000000000000       0.56250000000000000        0.0000000000000000     
   1.0937500000000000       0.56250000000000000        0.0000000000000000     
   1.1250000000000000       0.56250000000000000        0.0000000000000000     
   1.0000000000000000       0.59375000000000000        0.0000000000000000     
   1.0312500000000000       0.59375000000000000        0.0000000000000000     
   1.0625000000000000       0.59375000000000000        0.0000000000000000     
   1.0937500000000000       0.59375000000000000        0.0000000000000000     
   1.1250000000000000       0.59375000000000000        0.0000000000000000     
   1.0000000000000000       0.62500000000000000        0.0000000000000000     
   1.0312500000000000       0.62500000000000000        0.0000000000000000     
   1.0625000000000000       0.62500000000000000        0.0000000000000000     
   1.0937500000000000       0.62500000000000000        0.0000000000000000     
   1.1250000000000000       0.62500000000000000        0.0000000000000000     
   1.1250000000000000       0.50000000000000000        0.0000000000000000     
   1.1562500000000000       0.50000000000000000        0.0000000000000000     
   1.1875000000000000       0.50000000000000000        0.0000000000000000     
   1.2187500000000000       0.50000000000000000        0.0000000000000000     
   1.2500000000000000       0.50000000000000000        0.0000000000000000     
   1.1250000000000000       0.53125000000000000        0.0000000000000000     
   1.1562500000000000       0.53125000000000000        0.0000000000000000     
   1.1875000000000000       0.53125000000000000        0.0000000000000000     
   1.2187500000000000       0.53125000000000000        0.0000000000000000     
   1.2500000000000000       0.53125000000000000        0.0000000000000000     
   1.1250000000000000       0.56250000000000000        0.0000000000000000     
   1.1562500000000000       0.56250000000000000        0.0000000000000000     
   1.1875000000000000       0.56250000000000000        0.0000000000000000     
   1.2187500000000000       0.56250000000000000        0.0000000000000000     
   1.2500000000000000       0.56250000000000000        0.0000000000000000     
   1.1250000000000000       0.59375000000000000        0.0000000000000000     
   1.1562500000000000       0.59375000000000000        0.0000000000000000     
   1.1875000000000000       0.59375000000000000        0.0000000000000000     
   1.2187500000000000       0.59375000000000000        0.0000000000000000     
   1.2500000000000000       0.59375000000000000        0.0000000000000000     
   1.1250000000000000       0.62500000000000000        0.0000000000000000     
   1.1562500000000000       0.62500000000000000        0.0000000000000000     
   1.1875000000000000       0.62500000000000000        0.0000000000000000     
   1.2187500000000000       0.62500000000000000        0.0000000000000000     
   1.2500000000000000       0.62500000000000000        0.0000000000000000     
   1.2500000000000000       0.50000000000000000        0.0000000000000000     
   1.2812500000000000       0.50000000000000000        0.0000000000000000     
   1.3125000000000000       0.50000000000000000        0.0000000000000000     
   1.3437500000000000       0.50000000000000000        0.0000000000000000     
   1.3750000000000000       0.50000000000000000        0.0000000000000000     
   1.2500000000000000       0.53125000000000000        0.0000000000000000     
   1.2812500000000000       0.53125000000000000        0.0000000000000000     
   1.3125000000000000       0.53125000000000000        0.0000000000000000     
   1.3437500000000000       0.53125000000000000        0.0000000000000000     
   1.3750000000000000       0.53125000000000000        0.0000000000000000     
   1.2500000000000000       0.56250000000000000        0.0000000000000000     
   1.2812500000000000       0.56250000000000000        0.0000000000000000     
   1.3125000000000000       0.56250000000000000        0.0000000000000000     
   1.3437500000000000       0.56250000000000000        0.0000000000000000     
   1.3750000000000000       0.56250000000000000        0.0000000000000000     
   1.2500000000000000       0.59375000000000000        0.0000000000000000     
   1.2812500000000000       0.59375000000000000        0.0000000000000000     
   1.3125000000000000       0.59375000000000000        0.0000000000000000     
   1.3437500000000000       0.59375000000000000        0.0000000000000000     
   1.3750000000000000       0.59375000000000000        0.0000000000000000     
   1.2500000000000000       0.62500000000000000        0.0000000000000000     
   1.2812500000000000       0.62500000000000000        0.0000000000000000     
   1.3125000000000000       0.62500000000000000        0.0000000000000000     
   1.3437500000000000       0.62500000000000000        0.0000000000000000     
   1.3750000000000000       0.62500000000000000        0.0000000000000000     
   1.3750000000000000       0.50000000000000000        0.0000000000000000     
   1.4062500000000000       0.50000000000000000        0.0000000000000000     
   1.4375000000000000       0.50000000000000000        0.0000000000000000     
   1.4687500000000000       0.50000000000000000        0.0000000000000000     
   1.5000000000000000       0.50000000000000000        0.0000000000000000     
   1.3750000000000000       0.53125000000000000        0.0000000000000000     
   1.4062500000000000       0.53125000000000000        0.0000000000000000     
   1.4375000000000000       0.53125000000000000        0.0000000000000000     
   1.4687500000000000       0.53125000000000000        0.0000000000000000     
   1.5000000000000000       0.53125000000000000        0.0000000000000000     
   1.3750000000000000       0.56250000000000000        0.0000000000000000     
   1.4062500000000000       0.56250000000000000        0.0000000000000000     
   1.4375000000000000       0.56250000000000000        0.0000000000000000     
   1.4687500000000000       0.56250000000000000        0.0000000000000000     
   1.5000000000000000       0.56250000000000000        0.0000000000000000     
   1.3750000000000000       0.59375000000000000        0.0000000000000000     
   1.4062500000000000       0.59375000000000000        0.0000000000000000     
   1.4375000000000000       0.59375000000000000        0.0000000000000000     
   1.4687500000000000       0.59375000000000000        0.0000000000000000     
   1.5000000000000000       0.59375000000000000        0.0000000000000000     
   1.3750000000000000       0.62500000000000000        0.0000000000000000     
   1.4062500000000000       0.62500000000000000        0.0000000000000000     
   1.4375000000000000       0.62500000000000000        0.0000000000000000     
   1.4687500000000000       0.62500000000000000        0.0000000000000000     
   1.5000000000000000       0.62500000000000000        0.0000000000000000     
  0.50000000000000000       0.62500000000000000        0.0000000000000000     
  0.53125000000000000       0.62500000000000000        0.0000000000000000     
  0.56250000000000000       0.62500000000000000        0.0000000000000000     
  0.59375000000000000       0.62500000000000000        0.0000000000000000     
  0.62500000000000000       0.62500000000000000        0.0000000000000000     
  0.50000000000000000       0.65625000000000000        0.0000000000000000     
  0.53125000000000000       0.65625000000000000        0.0000000000000000     
  0.56250000000000000       0.65625000000000000        0.0000000000000000     
  0.59375000000000000       0.65625000000000000        0.0000000000000000     
  0.62500000000000000       0.65625000000000000        0.0000000000000000     
  0.50000000000000000       0.68750000000000000        0.0000000000000000     
  0.53125000000000000       0.68750000000000000        0.0000000000000000     
  0.56250000000000000       0.68750000000000000        0.0000000000000000     
  0.59375000000000000       0.68750000000000000        0.0000000000000000     
  0.62500000000000000       0.68750000000000000        0.0000000000000000     
  0.50000000000000000       0.71875000000000000        0.0000000000000000     
  0.53125000000000000       0.71875000000000000        0.0000000000000000     
  0.56250000000000000       0.71875000000000000        0.0000000000000000     
  0.59375000000000000       0.71875000000000000        0.0000000000000000     
  0.62500000000000000       0.71875000000000000        0.0000000000000000     
  0.50000000000000000       0.75000000000000000        0.0000000000000000     
  0.53125000000000000       0.75000000000000000        0.0000000000000000     
  0.56250000000000000       0.75000000000000000        0.0000000000000000     
  0.59375000000000000       0.75000000000000000        0.0000000000000000     
  0.62500000000000000       0.75000000000000000        0.0000000000000000     
  0.62500000000000000       0.62500000000000000        0.0000000000000000     
  0.65625000000000000       0.62500000000000000        0.0000000000000000     
  0.68750000000000000       0.62500000000000000        0.0000000000000000     
  0.71875000000000000       0.62500000000000000        0.0000000000000000     
  0.75000000000000000       0.62500000000000000        0.0000000000000000     
  0.62500000000000000       0.65625000000000000        0.0000000000000000     
  0.65625000000000000       0.65625000000000000        0.0000000000000000     
  0.68750000000000000       0.65625000000000000        0.0000000000000000     
  0.71875000000000000       0.65625000000000000        0.0000000000000000     
  0.75000000000000000       0.65625000000000000        0.0000000000000000     
  0.62500000000000000       0.68750000000000000        0.0000000000000000     
  0.65625000000000000       0.68750000000000000        0.0000000000000000     
  0.68750000000000000       0.68750000000000000        0.0000000000000000     
  0.71875000000000000       0.68750000000000000        0.0000000000000000     
  0.75000000000000000       0.68750000000000000        0.0000000000000000     
  0.62500000000000000       0.71875000000000000        0.0000000000000000     
  0.65625000000000000       0.71875000000000000        0.0000000000000000     
  0.68750000000000000       0.71875000000000000        0.0000000000000000     
  0.71875000000000000       0.71875000000000000        0.0000000000000000     
  0.75000000000000000       0.71875000000000000        0.0000000000000000     
  0.62500000000000000       0.75000000000000000        0.0000000000000000     
  0.65625000000000000       0.75000000000000000        0.0000000000000000     
  0.68750000000000000       0.75000000000000000        0.0000000000000000     
  0.71875000000000000       0.75000000000000000        0.0000000000000000     
  0.75000000000000000       0.75000000000000000        0.0000000000000000     
  0.75000000000000000       0.62500000000000000        0.0000000000000000     
  0.78125000000000000       0.62500000000000000        0.0000000000000000     
  0.81250000000000000       0.62500000000000000        0.0000000000000000     
  0.84375000000000000       0.62500000000000000        0.0000000000000000     
  0.87500000000000000       0.62500000000000000        0.0000000000000000     
  0.75000000000000000       0.65625000000000000        0.0000000000000000     
  0.78125000000000000       0.65625000000000000        0.0000000000000000     
  0.81250000000000000       0.65625000000000000        0.0000000000000000     
  0.84375000000000000       0.65625000000000000        0.0000000000000000     
  0.87500000000000000       0.65625000000000000        0.0000000000000000     
  0.75000000000000000       0.68750000000000000        0.0000000000000000     
  0.78125000000000000       0.68750000000000000        0.0000000000000000     
  0.81250000000000000       0.68750000000000000        0.0000000000000000     
  0.84375000000000000       0.68750000000000000        0.0000000000000000     
  0.87500000000000000       0.68750000000000000        0.0000000000000000     
  0.75000000000000000       0.71875000000000000        0.0000000000000000     
  0.78125000000000000       0.71875000000000000        0.0000000000000000     
  0.81250000000000000       0.71875000000000000        0.0000000000000000     
  0.84375000000000000       0.71875000000000000        0.0000000000000000     
  0.87500000000000000       0.71875000000000000        0.0000000000000000     
  0.75000000000000000       0.75000000000000000        0.0000000000000000     
  0.78125000000000000       0.75000000000000000        0.0000000000000000     
  0.81250000000000000       0.75000000000000000        0.0000000000000000     
  0.84375000000000000       0.75000000000000000        0.0000000000000000     
  0.87500000000000000       0.75000000000000000        0.0000000000000000     
  0.87500000000000000       0.62500000000000000        0.0000000000000000     
  0.90625000000000000       0.62500000000000000        0.0000000000000000     
  0.93750000000000000       0.62500000000000000        0.0000000000000000     
  0.96875000000000000       0.62500000000000000        0.0000000000000000     
   1.0000000000000000       0.62500000000000000        0.0000000000000000     
  0.87500000000000000       0.65625000000000000        0.0000000000000000     
  0.90625000000000000       0.65625000000000000        0.0000000000000000     
  0.93750000000000000       0.65625000000000000        0.0000000000000000     
  0.96875000000000000       0.65625000000000000        0.0000000000000000     
   1.0000000000000000       0.65625000000000000        0.0000000000000000     
  0.87500000000000000       0.68750000000000000        0.0000000000000000     
  0.90625000000000000       0.68750000000000000        0.0000000000000000     
  0.93750000000000000       0.68750000000000000        0.0000000000000000     
  0.96875000000000000       0.68750000000000000        0.0000000000000000     
   1.0000000000000000       0.68750000000000000        0.0000000000000000     
  0.87500000000000000       0.71875000000000000        0.0000000000000000     
  0.90625000000000000       0.71875000000000000        0.0000000000000000     
  0.93750000000000000       0.71875000000000000        0.0000000000000000     
  0.96875000000000000       0.71875000000000000        0.0000000000000000     
   1.0000000000000000       0.71875000000000000        0.0000000000000000     
  0.87500000000000000       0.75000000000000000        0.0000000000000000     
  0.90625000000000000       0.75000000000000000        0.0000000000000000     
  0.93750000000000000       0.75000000000000000        0.0000000000000000     
  0.96875000000000000       0.75000000000000000        0.0000000000000000     
   1.0000000000000000       0.75000000000000000        0.0000000000000000     
   1.0000000000000000       0.62500000000000000        0.0000000000000000     
   1.0312500000000000       0.62500000000000000        0.0000000000000000     
   1.0625000000000000       0.62500000000000000        0.0000000000000000     
   1.0937500000000000       0.62500000000000000        0.0000000000000000     
   1.1250000000000000       0.62500000000000000        0.0000000000000000     
   1.0000000000000000       0.65625000000000000        0.0000000000000000     
   1.0312500000000000       0.65625000000000000        0.0000000000000000     
   1.0625000000000000       0.65625000000000000        0.0000000000000000     
   1.0937500000000000       0.65625000000000000        0.0000000000000000     
   1.1250000000000000       0.65625000000000000        0.0000000000000000     
   1.0000000000000000       0.68750000000000000        0.0000000000000000     
   1.0312500000000000       0.68750000000000000        0.0000000000000000     
   1.0625000000000000       0.68750000000000000        0.0000000000000000     
   1.0937500000000000       0.68750000000000000        0.0000000000000000     
   1.1250000000000000       0.68750000000000000        0.0000000000000000     
   1.0000000000000000       0.71875000000000000        0.0000000000000000     
   1.0312500000000000       0.71875000000000000        0.0000000000000000     
   1.0625000000000000       0.71875000000000000        0.0000000000000000     
   1.0937500000000000       0.71875000000000000        0.0000000000000000     
   1.1250000000000000       0.71875000000000000        0.0000000000000000     
   1.0000000000000000       0.75000000000000000        0.0000000000000000     
   1.0312500000000000       0.75000000000000000        0.0000000000000000     
   1.0625000000000000       0.75000000000000000        0.0000000000000000     
   1.0937500000000000       0.75000000000000000        0.0000000000000000     
   1.1250000000000000       0.75000000000000000        0.0000000000000000     
   1.1250000000000000       0.62500000000000000        0.0000000000000000     
   1.1562500000000000       0.62500000000000000        0.0000000000000000     
   1.1875000000000000       0.62500000000000000        0.0000000000000000     
   1.2187500000000000       0.62500000000000000        0.0000000000000000     
   1.2500000000000000       0.62500000000000000        0.0000000000000000     
   1.1250000000000000       0.65625000000000000        0.0000000000000000     
   1.1562500000000000       0.65625000000000000        0.0000000000000000     
   1.1875000000000000       0.65625000000000000        0.0000000000000000     
   1.2187500000000000       0.65625000000000000        0.0000000000000000     
   1.2500000000000000       0.65625000000000000        0.0000000000000000     
   1.1250000000000000       0.68750000000000000        0.0000000000000000     
   1.1562500000000000       0.68750000000000000        0.0000000000000000     
   1.1875000000000000       0.68750000000000000        0.0000000000000000     
   1.2187500000000000       0.68750000000000000        0.0000000000000000     
   1.2500000000000000       0.68750000000000000        0.0000000000000000     
   1.1250000000000000       0.71875000000000000        0.0000000000000000     
   1.1562500000000000       0.71875000000000000        0.0000000000000000     
   1.1875000000000000       0.71875000000000000        0.0000000000000000     
   1.2187500000000000       0.71875000000000000        0.0000000000000000     
   1.2500000000000000       0.71875000000000000        0.0000000000000000     
   1.1250000000000000       0.75000000000000000        0.0000000000000000     
   1.1562500000000000       0.75000000000000000        0.0000000000000000     
   1.1875000000000000       0.75000000000000000        0.0000000000000000     
   1.2187500000000000       0.75000000000000000        0.0000000000000000     
   1.2500000000000000       0.75000000000000000        0.0000000000000000     
   1.2500000000000000       0.62500000000000000        0.0000000000000000     
   1.2812500000000000       0.62500000000000000        0.0000000000000000     
   1.3125000000000000       0.62500000000000000        0.0000000000000000     
   1.3437500000000000       0.62500000000000000        0.0000000000000000     
   1.3750000000000000       0.62500000000000000        0.0000000000000000     
   1.2500000000000000       0.65625000000000000        0.0000000000000000     
   1.2812500000000000       0.65625000000000000        0.0000000000000000     
   1.3125000000000000       0.65625000000000000        0.0000000000000000     
   1.3437500000000000       0.65625000000000000        0.0000000000000000     
   1.3750000000000000       0.65625000000000000        0.0000000000000000     
   1.2500000000000000       0.68750000000000000        0.0000000000000000     
   1.2812500000000000       0.68750000000000000        0.0000000000000000     
   1.3125000000000000       0.68750000000000000        0.0000000000000000     
   1.3437500000000000       0.68750000000000000        0.0000000000000000     
   1.3750000000000000       0.68750000000000000        0.0000000000000000     
   1.2500000000000000       0.71875000000000000        0.0000000000000000     
   1.2812500000000000       0.71875000000000000        0.0000000000000000     
   1.3125000000000000       0.71875000000000000        0.0000000000000000     
   1.3437500000000000       0.71875000000000000        0.0000000000000000     
   1.3750000000000000       0.71875000000000000        0.0000000000000000     
   1.2500000000000000       0.75000000000000000        0.0000000000000000     
   1.2812500000000000       0.75000000000000000        0.0000000000000000     
   1.3125000000000000       0.75000000000000000        0.0000000000000000     
   1.3437500000000000       0.75000000000000000        0.0000000000000000     
   1.3750000000000000       0.75000000000000000        0.0000000000000000     
   1.3750000000000000       0.62500000000000000        0.0000000000000000     
   1.4062500000000000       0.62500000000000000        0.0000000000000000     
   1.4375000000000000       0.62500000000000000        0.0000000000000000     
   1.4687500000000000       0.62500000000000000        0.0000000000000000     
   1.5000000000000000       0.62500000000000000        0.0000000000000000     
   1.3750000000000000       0.65625000000000000        0.0000000000000000     
   1.4062500000000000       0.65625000000000000        0.0000000000000000     
   1.4375000000000000       0.65625000000000000        0.0000000000000000     
   1.4687500000000000       0.65625000000000000        0.0000000000000000     
   1.5000000000000000       0.65625000000000000        0.0000000000000000     
   1.3750000000000000       0.68750000000000000        0.0000000000000000     
   1.4062500000000000       0.68750000000000000        0.0000000000000000     
   1.4375000000000000       0.68750000000000000        0.0000000000000000     
   1.4687500000000000       0.68750000000000000        0.0000000000000000     
   1.5000000000000000       0.68750000000000000        0.0000000000000000     
   1.3750000000000000       0.71875000000000000        0.0000000000000000     
   1.4062500000000000       0.71875000000000000        0.0000000000000000     
   1.4375000000000000       0.71875000000000000        0.0000000000000000     
   1.4687500000000000       0.71875000000000000        0.0000000000000000     
   1.5000000000000000       0.71875000000000000        0.0000000000000000     
   1.3750000000000000       0.75000000000000000        0.0000000000000000     
   1.4062500000000000       0.75000000000000000        0.0000000000000000     
   1.4375000000000000       0.75000000000000000        0.0000000000000000     
   1.4687500000000000       0.75000000000000000        0.0000000000000000     
   1.5000000000000000       0.75000000000000000        0.0000000000000000     
  0.50000000000000000       0.75000000000000000        0.0000000000000000     
  0.53125000000000000       0.75000000000000000        0.0000000000000000     
  0.56250000000000000       0.75000000000000000        0.0000000000000000     
  0.59375000000000000       0.75000000000000000        0.0000000000000000     
  0.62500000000000000       0.75000000000000000        0.0000000000000000     
  0.50000000000000000       0.78125000000000000        0.0000000000000000     
  0.53125000000000000       0.78125000000000000        0.0000000000000000     
  0.56250000000000000       0.78125000000000000        0.0000000000000000     
  0.59375000000000000       0.78125000000000000        0.0000000000000000     
  0.62500000000000000       0.78125000000000000        0.0000000000000000     
  0.50000000000000000       0.81250000000000000        0.0000000000000000     
  0.53125000000000000       0.81250000000000000        0.0000000000000000     
  0.56250000000000000       0.81250000000000000        0.0000000000000000     
  0.59375000000000000       0.81250000000000000        0.0000000000000000     
  0.62500000000000000       0.81250000000000000        0.0000000000000000     
  0.50000000000000000       0.84375000000000000        0.0000000000000000     
  0.53125000000000000       0.84375000000000000        0.0000000000000000     
  0.56250000000000000       0.84375000000000000        0.0000000000000000     
  0.59375000000000000       0.84375000000000000        0.0000000000000000     
  0.62500000000000000       0.84375000000000000        0.0000000000000000     
  0.50000000000000000       0.87500000000000000        0.0000000000000000     
  0.53125000000000000       0.87500000000000000        0.0000000000000000     
  0.56250000000000000       0.87500000000000000        0.0000000000000000     
  0.59375000000000000       0.87500000000000000        0.0000000000000000     
  0.62500000000000000       0.87500000000000000        0.0000000000000000     
  0.62500000000000000       0.75000000000000000        0.0000000000000000     
  0.65625000000000000       0.75000000000000000        0.0000000000000000     
  0.68750000000000000       0.75000000000000000        0.0000000000000000     
  0.71875000000000000       0.75000000000000000        0.0000000000000000     
  0.75000000000000000       0.75000000000000000        0.0000000000000000     
  0.62500000000000000       0.78125000000000000        0.0000000000000000     
  0.65625000000000000       0.78125000000000000        0.0000000000000000     
  0.68750000000000000       0.78125000000000000        0.0000000000000000     
  0.71875000000000000       0.78125000000000000        0.0000000000000000     
  0.75000000000000000       0.78125000000000000        0.0000000000000000     
  0.62500000000000000       0.81250000000000000        0.0000000000000000     
  0.65625000000000000       0.81250000000000000        0.0000000000000000     
  0.68750000000000000       0.81250000000000000        0.0000000000000000     
  0.71875000000000000       0.81250000000000000        0.0000000000000000     
  0.75000000000000000       0.81250000000000000        0.0000000000000000     
  0.62500000000000000       0.84375000000000000        0.0000000000000000     
  0.65625000000000000       0.84375000000000000        0.0000000000000000     
  0.68750000000000000       0.84375000000000000        0.0000000000000000     
  0.71875000000000000       0.84375000000000000        0.0000000000000000     
  0.75000000000000000       0.84375000000000000        0.0000000000000000     
  0.62500000000000000       0.87500000000000000        0.0000000000000000     
  0.65625000000000000       0.87500000000000000        0.0000000000000000     
  0.68750000000000000       0.87500000000000000        0.0000000000000000     
  0.71875000000000000       0.87500000000000000        0.0000000000000000     
  0.75000000000000000       0.87500000000000000        0.0000000000000000     
  0.75000000000000000       0.75000000000000000        0.0000000000000000     
  0.78125000000000000       0.75000000000000000        0.0000000000000000     
  0.81250000000000000       0.75000000000000000        0.0000000000000000     
  0.84375000000000000       0.75000000000000000        0.0000000000000000     
  0.87500000000000000       0.75000000000000000        0.0000000000000000     
  0.75000000000000000       0.78125000000000000        0.0000000000000000     
  0.78125000000000000       0.78125000000000000        0.0000000000000000     
  0.81250000000000000       0.78125000000000000        0.0000000000000000     
  0.84375000000000000       0.78125000000000000        0.0000000000000000     
  0.87500000000000000       0.78125000000000000        0.0000000000000000     
  0.75000000000000000       0.81250000000000000        0.0000000000000000     
  0.78125000000000000       0.81250000000000000        0.0000000000000000     
  0.81250000000000000       0.81250000000000000        0.0000000000000000     
  0.84375000000000000       0.81250000000000000        0.0000000000000000     
  0.87500000000000000       0.81250000000000000        0.0000000000000000     
  0.75000000000000000       0.84375000000000000        0.0000000000000000     
  0.78125000000000000       0.84375000000000000        0.0000000000000000     
  0.81250000000000000       0.84375000000000000        0.0000000000000000     
  0.84375000000000000       0.84375000000000000        0.0000000000000000     
  0.87500000000000000       0.84375000000000000        0.0000000000000000     
  0.75000000000000000       0.87500000000000000        0.0000000000000000     
  0.78125000000000000       0.87500000000000000        0.0000000000000000     
  0.81250000000000000       0.87500000000000000        0.0000000000000000     
  0.84375000000000000       0.87500000000000000        0.0000000000000000     
  0.87500000000000000       0.87500000000000000        0.0000000000000000     
  0.87500000000000000       0.75000000000000000        0.0000000000000000     
  0.90625000000000000       0.75000000000000000        0.0000000000000000     
  0.93750000000000000       0.75000000000000000        0.0000000000000000     
  0.96875000000000000       0.75000000000000000        0.0000000000000000     
   1.0000000000000000       0.75000000000000000        0.0000000000000000     
  0.87500000000000000       0.78125000000000000        0.0000000000000000     
  0.90625000000000000       0.78125000000000000        0.0000000000000000     
  0.93750000000000000       0.78125000000000000        0.0000000000000000     
  0.96875000000000000       0.78125000000000000        0.0000000000000000     
   1.0000000000000000       0.78125000000000000        0.0000000000000000     
  0.87500000000000000       0.81250000000000000        0.0000000000000000     
  0.90625000000000000       0.81250000000000000        0.0000000000000000     
  0.93750000000000000       0.81250000000000000        0.0000000000000000     
  0.96875000000000000       0.81250000000000000        0.0000000000000000     
   1.0000000000000000       0.81250000000000000        0.0000000000000000     
  0.87500000000000000       0.84375000000000000        0.0000000000000000     
  0.90625000000000000       0.84375000000000000        0.0000000000000000     
  0.93750000000000000       0.84375000000000000        0.0000000000000000     
  0.96875000000000000       0.84375000000000000        0.0000000000000000     
   1.0000000000000000       0.84375000000000000        0.0000000000000000     
  0.87500000000000000       0.87500000000000000        0.0000000000000000     
  0.90625000000000000       0.87500000000000000        0.0000000000000000     
  0.93750000000000000       0.87500000000000000        0.0000000000000000     
  0.96875000000000000       0.87500000000000000        0.0000000000000000     
   1.0000000000000000       0.87500000000000000        0.0000000000000000     
   1.0000000000000000       0.75000000000000000        0.0000000000000000     
   1.0312500000000000       0.75000000000000000        0.0000000000000000     
   1.0625000000000000       0.75000000000000000        0.0000000000000000     
   1.0937500000000000       0.75000000000000000        0.0000000000000000     
   1.1250000000000000       0.75000000000000000        0.0000000000000000     
   1.0000000000000000       0.78125000000000000        0.0000000000000000     
   1.0312500000000000       0.78125000000000000        0.0000000000000000     
   1.0625000000000000       0.78125000000000000        0.0000000000000000     
   1.0937500000000000       0.78125000000000000        0.0000000000000000     
   1.1250000000000000       0.78125000000000000        0.0000000000000000     
   1.0000000000000000       0.81250000000000000        0.0000000000000000     
   1.0312500000000000       0.81250000000000000        0.0000000000000000     
   1.0625000000000000       0.81250000000000000        0.0000000000000000     
   1.0937500000000000       0.81250000000000000        0.0000000000000000     
   1.1250000000000000       0.81250000000000000        0.0000000000000000     
   1.0000000000000000       0.84375000000000000        0.0000000000000000     
   1.0312500000000000       0.84375000000000000        0.0000000000000000     
   1.0625000000000000       0.84375000000000000        0.0000000000000000     
   1.0937500000000000       0.84375000000000000        0.0000000000000000     
   1.1250000000000000       0.84375000000000000        0.0000000000000000     
   1.0000000000000000       0.87500000000000000        0.0000000000000000     
   1.0312500000000000       0.87500000000000000        0.0000000000000000     
   1.0625000000000000       0.87500000000000000        0.0000000000000000     
   1.0937500000000000       0.87500000000000000        0.0000000000000000     
   1.1250000000000000       0.87500000000000000        0.0000000000000000     
   1.1250000000000000       0.75000000000000000        0.0000000000000000     
   1.1562500000000000       0.75000000000000000        0.0000000000000000     
   1.1875000000000000       0.75000000000000000        0.0000000000000000     
   1.2187500000000000       0.75000000000000000        0.0000000000000000     
   1.2500000000000000       0.75000000000000000        0.0000000000000000     
   1.1250000000000000       0.78125000000000000        0.0000000000000000     
   1.1562500000000000       0.78125000000000000        0.0000000000000000     
   1.1875000000000000       0.78125000000000000        0.0000000000000000     
   1.2187500000000000       0.78125000000000000        0.0000000000000000     
   1.2500000000000000       0.78125000000000000        0.0000000000000000     
   1.1250000000000000       0.81250000000000000        0.0000000000000000     
   1.1562500000000000       0.81250000000000000        0.0000000000000000     
   1.1875000000000000       0.81250000000000000        0.0000000000000000     
   1.2187500000000000       0.81250000000000000        0.0000000000000000     
   1.2500000000000000       0.81250000000000000        0.0000000000000000     
   1.1250000000000000       0.84375000000000000        0.0000000000000000     
   1.1562500000000000       0.84375000000000000        0.0000000000000000     
   1.1875000000000000       0.84375000000000000        0.0000000000000000     
   1.2187500000000000       0.84375000000000000        0.0000000000000000     
   1.2500000000000000       0.84375000000000000        0.0000000000000000     
   1.1250000000000000       0.87500000000000000        0.0000000000000000     
   1.1562500000000000       0.87500000000000000        0.0000000000000000     
   1.1875000000000000       0.87500000000000000        0.0000000000000000     
   1.2187500000000000       0.87500000000000000        0.0000000000000000     
   1.2500000000000000       0.87500000000000000        0.0000000000000000     
   1.2500000000000000       0.75000000000000000        0.0000000000000000     
   1.2812500000000000       0.75000000000000000        0.0000000000000000     
   1.3125000000000000       0.75000000000000000        0.0000000000000000     
   1.3437500000000000       0.75000000000000000        0.0000000000000000     
   1.3750000000000000       0.75000000000000000        0.0000000000000000     
   1.2500000000000000       0.78125000000000000        0.0000000000000000     
   1.2812500000000000       0.78125000000000000        0.0000000000000000     
   1.3125000000000000       0.78125000000000000        0.0000000000000000     
   1.3437500000000000       0.78125000000000000        0.0000000000000000     
   1.3750000000000000       0.78125000000000000        0.0000000000000000     
   1.2500000000000000       0.81250000000000000        0.0000000000000000     
   1.2812500000000000       0.81250000000000000        0.0000000000000000     
   1.3125000000000000       0.81250000000000000        0.0000000000000000     
   1.3437500000000000       0.81250000000000000        0.0000000000000000     
   1.3750000000000000       0.81250000000000000        0.0000000000000000     
   1.2500000000000000       0.84375000000000000        0.0000000000000000     
   1.2812500000000000       0.84375000000000000        0.0000000000000000     
   1.3125000000000000       0.84375000000000000        0.0000000000000000     
   1.3437500000000000       0.84375000000000000        0.0000000000000000     
   1.3750000000000000       0.84375000000000000        0.0000000000000000     
   1.2500000000000000       0.87500000000000000        0.0000000000000000     
   1.2812500000000000       0.87500000000000000        0.0000000000000000     
   1.3125000000000000       0.87500000000000000        0.0000000000000000     
   1.3437500000000000       0.87500000000000000        0.0000000000000000     
   1.3750000000000000       0.87500000000000000        0.0000000000000000     
   1.3750000000000000       0.75000000000000000        0.0000000000000000     
   1.4062500000000000       0.75000000000000000        0.0000000000000000     
   1.4375000000000000       0.75000000000000000        0.0000000000000000     
   1.4687500000000000       0.75000000000000000        0.0000000000000000     
   1.5000000000000000       0.75000000000000000        0.0000000000000000     
   1.3750000000000000       0.78125000000000000        0.0000000000000000     
   1.4062500000000000       0.78125000000000000        0.0000000000000000     
   1.4375000000000000       0.78125000000000000        0.0000000000000000     
   1.4687500000000000       0.78125000000000000        0.0000000000000000     
   1.5000000000000000       0.78125000000000000        0.0000000000000000     
   1.3750000000000000       0.81250000000000000        0.0000000000000000     
   1.4062500000000000       0.81250000000000000        0.0000000000000000     
   1.4375000000000000       0.81250000000000000        0.0000000000000000     
   1.4687500000000000       0.81250000000000000        0.0000000000000000     
   1.5000000000000000       0.81250000000000000        0.0000000000000000     
   1.3750000000000000       0.84375000000000000        0.0000000000000000     
   1.4062500000000000       0.84375000000000000        0.0000000000000000     
   1.4375000000000000       0.84375000000000000        0.0000000000000000     
   1.4687500000000000       0.84375000000000000        0.0000000000000000     
   1.5000000000000000       0.84375000000000000        0.0000000000000000     
   1.3750000000000000       0.87500000000000000        0.0000000000000000     
   1.4062500000000000       0.87500000000000000        0.0000000000000000     
   1.4375000000000000       0.87500000000000000        0.0000000000000000     
   1.4687500000000000       0.87500000000000000        0.0000000000000000     
   1.5000000000000000       0.87500000000000000        0.0000000000000000     
  0.50000000000000000       0.87500000000000000        0.0000000000000000     
  0.53125000000000000       0.87500000000000000        0.0000000000000000     
  0.56250000000000000       0.87500000000000000        0.0000000000000000     
  0.59375000000000000       0.87500000000000000        0.0000000000000000     
  0.62500000000000000       0.87500000000000000        0.0000000000000000     
  0.50000000000000000       0.90625000000000000        0.0000000000000000     
  0.53125000000000000       0.90625000000000000        0.0000000000000000     
  0.56250000000000000       0.90625000000000000        0.0000000000000000     
  0.59375000000000000       0.90625000000000000        0.0000000000000000     
  0.62500000000000000       0.90625000000000000        0.0000000000000000     
  0.50000000000000000       0.93750000000000000        0.0000000000000000     
  0.53125000000000000       0.93750000000000000        0.0000000000000000     
  0.56250000000000000       0.93750000000000000        0.0000000000000000     
  0.59375000000000000       0.93750000000000000        0.0000000000000000     
  0.62500000000000000       0.93750000000000000        0.0000000000000000     
  0.50000000000000000       0.96875000000000000        0.0000000000000000     
  0.53125000000000000       0.96875000000000000        0.0000000000000000     
  0.56250000000000000       0.96875000000000000        0.0000000000000000     
  0.59375000000000000       0.96875000000000000        0.0000000000000000     
  0.62500000000000000       0.96875000000000000        0.0000000000000000     
  0.50000000000000000        1.0000000000000000        0.0000000000000000     
  0.53125000000000000        1.0000000000000000        0.0000000000000000     
  0.56250000000000000        1.0000000000000000        0.0000000000000000     
  0.59375000000000000        1.0000000000000000        0.0000000000000000     
  0.62500000000000000        1.0000000000000000        0.0000000000000000     
  0.62500000000000000       0.87500000000000000        0.0000000000000000     
  0.65625000000000000       0.87500000000000000        0.0000000000000000     
  0.68750000000000000       0.87500000000000000        0.0000000000000000     
  0.71875000000000000       0.87500000000000000        0.0000000000000000     
  0.75000000000000000       0.87500000000000000        0.0000000000000000     
  0.62500000000000000       0.90625000000000000        0.0000000000000000     
  0.65625000000000000       0.90625000000000000        0.0000000000000000     
  0.68750000000000000       0.90625000000000000        0.0000000000000000     
  0.71875000000000000       0.90625000000000000        0.0000000000000000     
  0.75000000000000000       0.90625000000000000        0.0000000000000000     
  0.62500000000000000       0.93750000000000000        0.0000000000000000     
  0.65625000000000000       0.93750000000000000        0.0000000000000000     
  0.68750000000000000       0.93750000000000000        0.0000000000000000     
  0.71875000000000000       0.93750000000000000        0.0000000000000000     
  0.75000000000000000       0.93750000000000000        0.0000000000000000     
  0.62500000000000000       0.96875000000000000        0.0000000000000000     
  0.65625000000000000       0.96875000000000000        0.0000000000000000     
  0.68750000000000000       0.96875000000000000        0.0000000000000000     
  0.71875000000000000       0.96875000000000000        0.0000000000000000     
  0.75000000000000000       0.96875000000000000        0.0000000000000000     
  0.62500000000000000        1.0000000000000000        0.0000000000000000     
  0.65625000000000000        1.0000000000000000        0.0000000000000000     
  0.68750000000000000        1.0000000000000000        0.0000000000000000     
  0.71875000000000000        1.0000000000000000        0.0000000000000000     
  0.75000000000000000        1.0000000000000000        0.0000000000000000     
  0.75000000000000000       0.87500000000000000        0.0000000000000000     
  0.78125000000000000       0.87500000000000000        0.0000000000000000     
  0.81250000000000000       0.87500000000000000        0.0000000000000000     
  0.84375000000000000       0.87500000000000000        0.0000000000000000     
  0.87500000000000000       0.87500000000000000        0.0000000000000000     
  0.75000000000000000       0.90625000000000000        0.0000000000000000     
  0.78125000000000000       0.90625000000000000        0.0000000000000000     
  0.81250000000000000       0.90625000000000000        0.0000000000000000     
  0.84375000000000000       0.90625000000000000        0.0000000000000000     
  0.87500000000000000       0.90625000000000000        0.0000000000000000     
  0.75000000000000000       0.93750000000000000        0.0000000000000000     
  0.78125000000000000       0.93750000000000000        0.0000000000000000     
  0.81250000000000000       0.93750000000000000        0.0000000000000000     
  0.84375000000000000       0.93750000000000000        0.0000000000000000     
  0.87500000000000000       0.93750000000000000        0.0000000000000000     
  0.75000000000000000       0.96875000000000000        0.0000000000000000     
  0.78125000000000000       0.96875000000000000        0.0000000000000000     
  0.81250000000000000       0.96875000000000000        0.0000000000000000     
  0.84375000000000000       0.96875000000000000        0.0000000000000000     
  0.87500000000000000       0.96875000000000000        0.0000000000000000     
  0.75000000000000000        1.0000000000000000        0.0000000000000000     
  0.78125000000000000        1.0000000000000000        0.0000000000000000     
  0.81250000000000000        1.0000000000000000        0.0000000000000000     
  0.84375000000000000        1.0000000000000000        0.0000000000000000     
  0.87500000000000000        1.0000000000000000        0.0000000000000000     
  0.87500000000000000       0.87500000000000000        0.0000000000000000     
  0.90625000000000000       0.87500000000000000        0.0000000000000000     
  0.93750000000000000       0.87500000000000000        0.0000000000000000     
  0.96875000000000000       0.87500000000000000        0.0000000000000000     
   1.0000000000000000       0.87500000000000000        0.0000000000000000     
  0.87500000000000000       0.90625000000000000        0.0000000000000000     
  0.90625000000000000       0.90625000000000000        0.0000000000000000     
  0.93750000000000000       0.90625000000000000        0.0000000000000000     
  0.96875000000000000       0.90625000000000000        0.0000000000000000     
   1.0000000000000000       0.90625000000000000        0.0000000000000000     
  0.87500000000000000       0.93750000000000000        0.0000000000000000     
  0.90625000000000000       0.93750000000000000        0.0000000000000000     
  0.93750000000000000       0.93750000000000000        0.0000000000000000     
  0.96875000000000000       0.93750000000000000        0.0000000000000000     
   1.0000000000000000       0.93750000000000000        0.0000000000000000     
  0.87500000000000000       0.96875000000000000        0.0000000000000000     
  0.90625000000000000       0.96875000000000000        0.0000000000000000     
  0.93750000000000000       0.96875000000000000        0.0000000000000000     
  0.96875000000000000       0.96875000000000000        0.0000000000000000     
   1.0000000000000000       0.96875000000000000        0.0000000000000000     
  0.87500000000000000        1.0000000000000000        0.0000000000000000     
  0.90625000000000000        1.0000000000000000        0.0000000000000000     
  0.93750000000000000        1.0000000000000000        0.0000000000000000     
  0.96875000000000000        1.0000000000000000        0.0000000000000000     
   1.0000000000000000        1.0000000000000000        0.0000000000000000     
   1.0000000000000000       0.87500000000000000        0.0000000000000000     
   1.0312500000000000       0.87500000000000000        0.0000000000000000     
   1.0625000000000000       0.87500000000000000        0.0000000000000000     
   1.0937500000000000       0.87500000000000000        0.0000000000000000     
   1.1250000000000000       0.87500000000000000        0.0000000000000000     
   1.0000000000000000       0.90625000000000000        0.0000000000000000     
   1.0312500000000000       0.90625000000000000        0.0000000000000000     
   1.0625000000000000       0.90625000000000000        0.0000000000000000     
   1.0937500000000000       0.90625000000000000        0.0000000000000000     
   1.1250000000000000       0.90625000000000000        0.0000000000000000     
   1.0000000000000000       0.93750000000000000        0.0000000000000000     
   1.0312500000000000       0.93750000000000000        0.0000000000000000     
   1.0625000000000000       0.93750000000000000        0.0000000000000000     
   1.0937500000000000       0.93750000000000000        0.0000000000000000     
   1.1250000000000000       0.93750000000000000        0.0000000000000000     
   1.0000000000000000       0.96875000000000000        0.0000000000000000     
   1.0312500000000000       0.96875000000000000        0.0000000000000000     
   1.0625000000000000       0.96875000000000000        0.0000000000000000     
   1.0937500000000000       0.96875000000000000        0.0000000000000000     
   1.1250000000000000       0.96875000000000000        0.0000000000000000     
   1.0000000000000000        1.0000000000000000        0.0000000000000000     
   1.0312500000000000        1.0000000000000000        0.0000000000000000     
   1.0625000000000000        1.0000000000000000        0.0000000000000000     
   1.0937500000000000        1.0000000000000000        0.0000000000000000     
   1.1250000000000000        1.0000000000000000        0.0000000000000000     
   1.1250000000000000       0.87500000000000000        0.0000000000000000     
   1.1562500000000000       0.87500000000000000        0.0000000000000000     
   1.1875000000000000       0.87500000000000000        0.0000000000000000     
   1.2187500000000000       0.87500000000000000        0.0000000000000000     
   1.2500000000000000       0.87500000000000000        0.0000000000000000     
   1.1250000000000000       0.90625000000000000        0.0000000000000000     
   1.1562500000000000       0.90625000000000000        0.0000000000000000     
   1.1875000000000000       0.90625000000000000        0.0000000000000000     
   1.2187500000000000       0.90625000000000000        0.0000000000000000     
   1.2500000000000000       0.90625000000000000        0.0000000000000000     
   1.1250000000000000       0.93750000000000000        0.0000000000000000     
   1.1562500000000000       0.93750000000000000        0.0000000000000000     
   1.1875000000000000       0.93750000000000000        0.0000000000000000     
   1.2187500000000000       0.93750000000000000        0.0000000000000000     
   1.2500000000000000       0.93750000000000000        0.0000000000000000     
   1.1250000000000000       0.96875000000000000        0.0000000000000000     
   1.1562500000000000       0.96875000000000000        0.0000000000000000     
   1.1875000000000000       0.96875000000000000        0.0000000000000000     
   1.2187500000000000       0.96875000000000000        0.0000000000000000     
   1.2500000000000000       0.96875000000000000        0.0000000000000000     
   1.1250000000000000        1.0000000000000000        0.0000000000000000     
   1.1562500000000000        1.0000000000000000        0.0000000000000000     
   1.1875000000000000        1.0000000000000000        0.0000000000000000     
   1.2187500000000000        1.0000000000000000        0.0000000000000000     
   1.2500000000000000        1.0000000000000000        0.0000000000000000     
   1.2500000000000000       0.87500000000000000        0.0000000000000000     
   1.2812500000000000       0.87500000000000000        0.0000000000000000     
   1.3125000000000000       0.87500000000000000        0.0000000000000000     
   1.3437500000000000       0.87500000000000000        0.0000000000000000     
   1.3750000000000000       0.87500000000000000        0.0000000000000000     
   1.2500000000000000       0.90625000000000000        0.0000000000000000     
   1.2812500000000000       0.90625000000000000        0.0000000000000000     
   1.3125000000000000       0.90625000000000000        0.0000000000000000     
   1.3437500000000000       0.90625000000000000        0.0000000000000000     
   1.3750000000000000       0.90625000000000000        0.0000000000000000     
   1.2500000000000000       0.93750000000000000        0.0000000000000000     
   1.2812500000000000       0.93750000000000000        0.0000000000000000     
   1.3125000000000000       0.93750000000000000        0.0000000000000000     
   1.3437500000000000       0.93750000000000000        0.0000000000000000     
   1.3750000000000000       0.93750000000000000        0.0000000000000000     
   1.2500000000000000       0.96875000000000000        0.0000000000000000     
   1.2812500000000000       0.96875000000000000        0.0000000000000000     
   1.3125000000000000       0.96875000000000000        0.0000000000000000     
   1.3437500000000000       0.96875000000000000        0.0000000000000000     
   1.3750000000000000       0.96875000000000000        0.0000000000000000     
   1.2500000000000000        1.0000000000000000        0.0000000000000000     
   1.2812500000000000        1.0000000000000000        0.0000000000000000     
   1.3125000000000000        1.0000000000000000        0.0000000000000000     
   1.3437500000000000        1.0000000000000000        0.0000000000000000     
   1.3750000000000000        1.0000000000000000        0.0000000000000000     
   1.3750000000000000       0.87500000000000000        0.0000000000000000     
   1.4062500000000000       0.87500000000000000        0.0000000000000000     
   1.4375000000000000       0.87500000000000000        0.0000000000000000     
   1.4687500000000000       0.87500000000000000        0.0000000000000000     
   1.5000000000000000       0.87500000000000000        0.0000000000000000     
   1.3750000000000000       0.90625000000000000        0.0000000000000000     
   1.4062500000000000       0.90625000000000000        0.0000000000000000     
   1.4375000000000000       0.90625000000000000        0.0000000000000000     
   1.4687500000000000       0.90625000000000000        0.0000000000000000     
   1.5000000000000000       0.90625000000000000        0.0000000000000000     
   1.3750000000000000       0.93750000000000000        0.0000000000000000     
   1.4062500000000000       0.93750000000000000        0.0000000000000000     
   1.4375000000000000       0.93750000000000000        0.0000000000000000     
   1.4687500000000000       0.93750000000000000        0.0000000000000000     
   1.5000000000000000       0.93750000000000000        0.0000000000000000     
   1.3750000000000000       0.96875000000000000        0.0000000000000000     
   1.4062500000000000       0.96875000000000000        0.0000000000000000     
   1.4375000000000000       0.96875000000000000        0.0000000000000000     
   1.4687500000000000       0.96875000000000000        0.0000000000000000     
   1.5000000000000000       0.96875000000000000        0.0000000000000000     
   1.3750000000000000        1.0000000000000000        0.0000000000000000     
   1.4062500000000000        1.0000000000000000        0.0000000000000000     
   1.4375000000000000        1.0000000000000000        0.0000000000000000     
   1.4687500000000000        1.0000000000000000        0.0000000000000000     
   1.5000000000000000        1.0000000000000000        0.0000000000000000     
 </DataArray>
 </Points>
 <Cells>
 <DataArray  type="Int32"  Name="connectivity"  format="ascii">
           0           1           6           5
           1           2           7           6
           2           3           8           7
           3           4           9           8
           5           6          11          10
           6           7          12          11
           7           8          13          12
           8           9          14          13
          10          11          16          15
          11          12          17          16
          12          13          18          17
          13          14          19          18
          15          16          21          20
          16          17          22          21
          17          18          23          22
          18          19          24          23
          25          26          31          30
          26          27          32          31
          27          28          33          32
          28          29          34          33
          30          31          36          35
          31          32          37          36
          32          33          38          37
          33          34          39          38
          35          36          41          40
          36          37          42          41
          37          38          43          42
          38          39          44          43
          40          41          46          45
          41          42          47          46
          42          43          48          47
          43          44          49          48
          50          51          56          55
          51          52          57          56
          52          53          58          57
          53          54          59          58
          55          56          61          60
          56          57          62          61
          57          58          63          62
          58          59          64          63
          60          61          66          65
          61          62          67          66
          62          63          68          67
          63          64          69          68
          65          66          71          70
          66          67          72          71
          67          68          73          72
          68          69          74          73
          75          76          81          80
          76          77          82          81
          77          78          83          82
          78          79          84          83
          80          81          86          85
          81          82          87          86
          82          83          88          87
          83          84          89          88
          85          86          91          90
          86          87          92          91
          87          88          93          92
          88          89          94          93
          90          91          96          95
          91          92          97          96
          92          93          98          97
          93          94          99          98
         100         101         106         105
         101         102         107         106
         102         103         108         107
         103         104         109         108
         105         106         111         110
         106         107         112         111
         107         108         113         112
         108         109         114         113
         110         111         116         115
         111         112         117         116
         112         113         118         117
         113         114         119         118
         115         116         121         120
         116         117         122         121
         117         118         123         122
         118         119         124         123
         125         126         131         130
         126         127         132         131
         127         128         133         132
         128         129         134         133
         130         131         136         135
         131         132         137         136
         132         133         138         137
         133         134         139         138
         135         136         141         140
         136         137         142         141
         137         138         143         142
         138         139         144         143
         140         141         146         145
         141         142         147         146
         142         143         148         147
         143         144         149         148
         150         151         156         155
         151         152         157         156
         152         153         158         157
         153         154         159         158
         155         156         161         160
         156         157         162         161
         157         158         163         162
         158         159         164         163
         160         161         166         165
         161         162         167         166
         162         163         168         167
         163         164         169         168
         165         166         171         170
         166         167         172         171
         167         168         173         172
         168         169         174         173
         175         176         181         180
         176         177         182         181
         177         178         183         182
         178         179         184         183
         180         181         186         185
         181         182         187         186
         182         183         188         187
         183         184         189         188
         185         186         191         190
         186         187         192         191
         187         188         193         192
         188         189         194         193
         190         191         196         195
         191         192         197         196
         192         193         198         197
         193         194         199         198
         200         201         206         205
         201         202         207         206
         202         203         208         207
         203         204         209         208
         205         206         211         210
         206         207         212         211
         207         208         213         212
         208         209         214         213
         210         211         216         215
         211         212         217         216
         212         213         218         217
         213         214         219         218
         215         216         221         220
         216         217         222         221
         217         218         223         222
         218         219         224         223
         225         226         231         230
         226         227         232         231
         227         228         233         232
         228         229         234         233
         230         231         236         235
         231         232         237         236
         232         233         238         237
         233         234         239         238
         235         236         241         240
         236         237         242         241
         237         238         243         242
         238         239         244         243
         240         241         246         245
         241         242         247         246
         242         243         248         247
         243         244         249         248
         250         251         256         255
         251         252         257         256
         252         253         258         257
         253         254         259         258
         255         256         261         260
         256         257         262         261
         257         258         263         262
         258         259         264         263
         260         261         266         265
         261         262         267         266
         262         263         268         267
         263         264         269         268
         265         266         271         270
         266         267         272         271
         267         268         273         272
         268         269         274         273
         275         276         281         280
         276         277         282         281
         277         278         283         282
         278         279         284         283
         280         281         286         285
         281         282         287         286
         282         283         288         287
         283         284         289         288
         285         286         291         290
         286         287         292         291
         287         288         293         292
         288         289         294         293
         290         291         296         295
         291         292         297         296
         292         293         298         297
         293         294         299         298
         300         301         306         305
         301         302         307         306
         302         303         308         307
         303         304         309         308
         305         306         311         310
         306         307         312         311
         307         308         313         312
         308         309         314         313
         310         311         316         315
         311         312         317         316
         312         313         318         317
         313         314         319         318
         315         316         321         320
         316         317         322         321
         317         318         323         322
         318         319         324         323
         325         326         331         330
         326         327         332         331
         327         328         333         332
         328         329         334         333
         330         331         336         335
         331         332         337         336
         332         333         338         337
         333         334         339         338
         335         336         341         340
         336         337         342         341
         337         338         343         342
         338         339         344         343
         340         341         346         345
         341         342         347         346
         342         343         348         347
         343         344         349         348
         350         351         356         355
         351         352         357         356
         352         353         358         357
         353         354         359         358
         355         356         361         360
         356         357         362         361
         357         358         363         362
         358         359         364         363
         360         361         366         365
         361         362         367         366
         362         363         368         367
         363         364         369         368
         365         366         371         370
         366         367         372         371
         367         368         373         372
         368         369         374         373
         375         376         381         380
         376         377         382         381
         377         378         383         382
         378         379         384         383
         380         381         386         385
         381         382         387         386
         382         383         388         387
         383         384         389         388
         385         386         391         390
         386         387         392         391
         387         388         393         392
         388         389         394         393
         390         391         396         395
         391         392         397         396
         392         393         398         397
         393         394         399         398
         400         401         406         405
         401         402         407         406
         402         403         408         407
         403         404         409         408
         405         406         411         410
         406         407         412         411
         407         408         413         412
         408         409         414         413
         410         411         416         415
         411         412         417         416
         412         413         418         417
         413         414         419         418
         415         416         421         420
         416         417         422         421
         417         418         423         422
         418         419         424         423
         425         426         431         430
         426         427         432         431
         427         428         433         432
         428         429         434         433
         430         431         436         435
         431         432         437         436
         432         433         438         437
         433         434         439         438
         435         436         441         440
         436         437         442         441
         437         438         443         442
         438         439         444         443
         440         441         446         445
         441         442         447         446
         442         443         448         447
         443         444         449         448
         450         451         456         455
         451         452         457         456
         452         453         458         457
         453         454         459         458
         455         456         461         460
         456         457         462         461
         457         458         463         462
         458         459         464         463
         460         461         466         465
         461         462         467         466
         462         463         468         467
         463         464         469         468
         465         466         471         470
         466         467         472         471
         467         468         473         472
         468         469         474         473
         475         476         481         480
         476         477         482         481
         477         478         483         482
         478         479         484         483
         480         481         486         485
         481         482         487         486
         482         483         488         487
         483         484         489         488
         485         486         491         490
         486         487         492         491
         487         488         493         492
         488         489         494         493
         490         491         496         495
         491         492         497         496
         492         493         498         497
         493         494         499         498
         500         501         506         505
         501         502         507         506
         502         503         508         507
         503         504         509         508
         505         506         511         510
         506         507         512         511
         507         508         513         512
         508         509         514         513
         510         511         516         515
         511         512         517         516
         512         513         518         517
         513         514         519         518
         515         516         521         520
         516         517         522         521
         517         518         523         522
         518         519         524         523
         525         526         531         530
         526         527         532         531
         527         528         533         532
         528         529         534         533
         530         531         536         535
         531         532         537         536
         532         533         538         537
         533         534         539         538
         535         536         541         540
         536         537         542         541
         537         538         543         542
         538         539         544         543
         540         541         546         545
         541         542         547         546
         542         543         548         547
         543         544         549         548
         550         551         556         555
         551         552         557         556
         552         553         558         557
         553         554         559         558
         555         556         561         560
         556         557         562         561
         557         558         563         562
         558         559         564         563
         560         561         566         565
         561         562         567         566
         562         563         568         567
         563         564         569         568
         565         566         571         570
         566         567         572         571
         567         568         573         572
         568         569         574         573
         575         576         581         580
         576         577         582         581
         577         578         583         582
         578         579         584         583
         580         581         586         585
         581         582         587         586
         582         583         588         587
         583         584         589         588
         585         586         591         590
         586         587         592         591
         587         588         593         592
         588         589         594         593
         590         591         596         595
         591         592         597         596
         592         593         598         597
         593         594         599         598
         600         601         606         605
         601         602         607         606
         602         603         608         607
         603         604         609         608
         605         606         611         610
         606         607         612         611
         607         608         613         612
         608         609         614         613
         610         611         616         615
         611         612         617         616
         612         613         618         617
         613         614         619         618
         615         616         621         620
         616         617         622         621
         617         618         623         622
         618         619         624         623
         625         626         631         630
         626         627         632         631
         627         628         633         632
         628         629         634         633
         630         631         636         635
         631         632         637         636
         632         633         638         637
         633         634         639         638
         635         636         641         640
         636         637         642         641
         637         638         643         642
         638         639         644         643
         640         641         646         645
         641         642         647         646
         642         643         648         647
         643         644         649         648
         650         651         656         655
         651         652         657         656
         652         653         658         657
         653         654         659         658
         655         656         661         660
         656         657         662         661
         657         658         663         662
         658         659         664         663
         660         661         666         665
         661         662         667         666
         662         663         668         667
         663         664         669         668
         665         666         671         670
         666         667         672         671
         667         668         673         672
         668         669         674         673
         675         676         681         680
         676         677         682         681
         677         678         683         682
         678         679         684         683
         680         681         686         685
         681         682         687         686
         682         683         688         687
         683         684         689         688
         685         686         691         690
         686         687         692         691
         687         688         693         692
         688         689         694         693
         690         691         696         695
         691         692         697         696
         692         693         698         697
         693         694         699         698
         700         701         706         705
         701         702         707         706
         702         703         708         707
         703         704         709         708
         705         706         711         710
         706         707         712         711
         707         708         713         712
         708         709         714         713
         710         711         716         715
         711         712         717         716
         712         713         718         717
         713         714         719         718
         715         716         721         720
         716         717         722         721
         717         718         723         722
         718         719         724         723
         725         726         731         730
         726         727         732         731
         727         728         733         732
         728         729         734         733
         730         731         736         735
         731         732         737         736
         732         733         738         737
         733         734         739         738
         735         736         741         740
         736         737         742         741
         737         738         743         742
         738         739         744         743
         740         741         746         745
         741         742         747         746
         742         743         748         747
         743         744         749         748
         750         751         756         755
         751         752         757         756
         752         753         758         757
         753         754         759         758
         755         756         761         760
         756         757         762         761
         757         758         763         762
         758         759         764         763
         760         761         766         765
         761         762         767         766
         762         763         768         767
         763         764         769         768
         765         766         771         770
         766         767         772         771
         767         768         773         772
         768         769         774         773
         775         776         781         780
         776         777         782         781
         777         778         783         782
         778         779         784         783
         780         781         786         785
         781         782         787         786
         782         783         788         787
         783         784         789         788
         785         786         791         790
         786         787         792         791
         787         788         793         792
         788         789         794         793
         790         791         796         795
         791         792         797         796
         792         793         798         797
         793         794         799         798
         800         801         806         805
         801         802         807         806
         802         803         808         807
         803         804         809         808
         805         806         811         810
         806         807         812         811
         807         808         813         812
         808         809         814         813
         810         811         816         815
         811         812         817         816
         812         813         818         817
         813         814         819         818
         815         816         821         820
         816         817         822         821
         817         818         823         822
         818         819         824         823
         825         826         831         830
         826         827         832         831
         827         828         833         832
         828         829         834         833
         830         831         836         835
         831         832         837         836
         832         833         838         837
         833         834         839         838
         835         836         841         840
         836         837         842         841
         837         838         843         842
         838         839         844         843
         840         841         846         845
         841         842         847         846
         842         843         848         847
         843         844         849         848
         850         851         856         855
         851         852         857         856
         852         853         858         857
         853         854         859         858
         855         856         861         860
         856         857         862         861
         857         858         863         862
         858         859         864         863
         860         861         866         865
         861         862         867         866
         862         863         868         867
         863         864         869         868
         865         866         871         870
         866         867         872         871
         867         868         873         872
         868         869         874         873
         875         876         881         880
         876         877         882         881
         877         878         883         882
         878         879         884         883
         880         881         886         885
         881         882         887         886
         882         883         888         887
         883         884         889         888
         885         886         891         890
         886         887         892         891
         887         888         893         892
         888         889         894         893
         890         891         896         895
         891         892         897         896
         892         893         898         897
         893         894         899         898
         900         901         906         905
         901         902         907         906
         902         903         908         907
         903         904         909         908
         905         906         911         910
         906         907         912         911
         907         908         913         912
         908         909         914         913
         910         911         916         915
         911         912         917         916
         912         913         918         917
         913         914         919         918
         915         916         921         920
         916         917         922         921
         917         918         923         922
         918         919         924         923
         925         926         931         930
         926         927         932         931
         927         928         933         932
         928         929         934         933
         930         931         936         935
         931         932         937         936
         932         933         938         937
         933         934         939         938
         935         936         941         940
         936         937         942         941
         937         938         943         942
         938         939         944         943
         940         941         946         945
         941         942         947         946
         942         943         948         947
         943         944         949         948
         950         951         956         955
         951         952         957         956
         952         953         958         957
         953         954         959         958
         955         956         961         960
         956         957         962         961
         957         958         963         962
         958         959         964         963
         960         961         966         965
         961         962         967         966
         962         963         968         967
         963         964         969         968
         965         966         971         970
         966         967         972         971
         967         968         973         972
         968         969         974         973
         975         976         981         980
         976         977         982         981
         977         978         983         982
         978         979         984         983
         980         981         986         985
         981         982         987         986
         982         983         988         987
         983         984         989         988
         985         986         991         990
         986         987         992         991
         987         988         993         992
         988         989         994         993
         990         991         996         995
         991         992         997         996
         992         993         998         997
         993         994         999         998
        1000        1001        1006        1005
        1001        1002        1007        1006
        1002        1003        1008        1007
        1003        1004        1009        1008
        1005        1006        1011        1010
        1006        1007        1012        1011
        1007        1008        1013        1012
        1008        1009        1014        1013
        1010        1011        1016        1015
        1011        1012        1017        1016
        1012        1013        1018        1017
        1013        1014        1019        1018
        1015        1016        1021        1020
        1016        1017        1022        1021
        1017        1018        1023        1022
        1018        1019        1024        1023
        1025        1026        1031        1030
        1026        1027        1032        1031
        1027        1028        1033        1032
        1028        1029        1034        1033
        1030        1031        1036        1035
        1031        1032        1037        1036
        1032        1033        1038        1037
        1033        1034        1039        1038
        1035        1036        1041        1040
        1036        1037        1042        1041
        1037        1038        1043        1042
        1038        1039        1044        1043
        1040        1041        1046        1045
        1041        1042        1047        1046
        1042        1043        1048        1047
        1043        1044        1049        1048
        1050        1051        1056        1055
        1051        1052        1057        1056
        1052        1053        1058        1057
        1053        1054        1059        1058
        1055        1056        1061        1060
        1056        1057        1062        1061
        1057        1058        1063        1062
        1058        1059        1064        1063
        1060        1061        1066        1065
        1061        1062        1067        1066
        1062        1063        1068        1067
        1063        1064        1069        1068
        1065        1066        1071        1070
        1066        1067        1072        1071
        1067        1068        1073        1072
        1068        1069        1074        1073
        1075        1076        1081        1080
        1076        1077        1082        1081
        1077        1078        1083        1082
        1078        1079        1084        1083
        1080        1081        1086        1085
        1081        1082        1087        1086
        1082        1083        1088        1087
        1083        1084        1089        1088
        1085        1086        1091        1090
        1086        1087        1092        1091
        1087        1088        1093        1092
        1088        1089        1094        1093
        1090        1091        1096        1095
        1091        1092        1097        1096
        1092        1093        1098        1097
        1093        1094        1099        1098
        1100        1101        1106        1105
        1101        1102        1107        1106
        1102        1103        1108        1107
        1103        1104        1109        1108
        1105        1106        1111        1110
        1106        1107        1112        1111
        1107        1108        1113        1112
        1108        1109        1114        1113
        1110        1111        1116        1115
        1111        1112        1117        1116
        1112        1113        1118        1117
        1113        1114        1119        1118
        1115        1116        1121        1120
        1116        1117        1122        1121
        1117        1118        1123        1122
        1118        1119        1124        1123
        1125        1126        1131        1130
        1126        1127        1132        1131
        1127        1128        1133        1132
        1128        1129        1134        1133
        1130        1131        1136        1135
        1131        1132        1137        1136
        1132        1133        1138        1137
        1133        1134        1139        1138
        1135        1136        1141        1140
        1136        1137        1142        1141
        1137        1138        1143        1142
        1138        1139        1144        1143
        1140        1141        1146        1145
        1141        1142        1147        1146
        1142        1143        1148        1147
        1143        1144        1149        1148
        1150        1151        1156        1155
        1151        1152        1157        1156
        1152        1153        1158        1157
        1153        1154        1159        1158
        1155        1156        1161        1160
        1156        1157        1162        1161
        1157        1158        1163        1162
        1158        1159        1164        1163
        1160        1161        1166        1165
        1161        1162        1167        1166
        1162        1163        1168        1167
        1163        1164        1169        1168
        1165        1166        1171        1170
        1166        1167        1172        1171
        1167        1168        1173        1172
        1168        1169        1174        1173
        1175        1176        1181        1180
        1176        1177        1182        1181
        1177        1178        1183        1182
        1178        1179        1184        1183
        1180        1181        1186        1185
        1181        1182        1187        1186
        1182        1183        1188        1187
        1183        1184        1189        1188
        1185        1186        1191        1190
        1186        1187        1192        1191
        1187        1188        1193        1192
        1188        1189        1194        1193
        1190        1191        1196        1195
        1191        1192        1197        1196
        1192        1193        1198        1197
        1193        1194        1199        1198
        1200        1201        1206        1205
        1201        1202        1207        1206
        1202        1203        1208        1207
        1203        1204        1209        1208
        1205        1206        1211        1210
        1206        1207        1212        1211
        1207        1208        1213        1212
        1208        1209        1214        1213
        1210        1211        1216        1215
        1211        1212        1217        1216
        1212        1213        1218        1217
        1213        1214        1219        1218
        1215        1216        1221        1220
        1216        1217        1222        1221
        1217        1218        1223        1222
        1218        1219        1224        1223
        1225        1226        1231        1230
        1226        1227        1232        1231
        1227        1228        1233        1232
        1228        1229        1234        1233
        1230        1231        1236        1235
        1231        1232        1237        1236
        1232        1233        1238        1237
        1233        1234        1239        1238
        1235        1236        1241        1240
        1236        1237        1242        1241
        1237        1238        1243        1242
        1238        1239        1244        1243
        1240        1241        1246        1245
        1241        1242        1247        1246
        1242        1243        1248        1247
        1243        1244        1249        1248
        1250        1251        1256        1255
        1251        1252        1257        1256
        1252        1253        1258        1257
        1253        1254        1259        1258
        1255        1256        1261        1260
        1256        1257        1262        1261
        1257        1258        1263        1262
        1258        1259        1264        1263
        1260        1261        1266        1265
        1261        1262        1267        1266
        1262        1263        1268        1267
        1263        1264        1269        1268
        1265        1266        1271        1270
        1266        1267        1272        1271
        1267        1268        1273        1272
        1268        1269        1274        1273
        1275        1276        1281        1280
        1276        1277        1282        1281
        1277        1278        1283        1282
        1278        1279        1284        1283
        1280        1281        1286        1285
        1281        1282        1287        1286
        1282        1283        1288        1287
        1283        1284        1289        1288
        1285        1286        1291        1290
        1286        1287        1292        1291
        1287        1288        1293        1292
        1288        1289        1294        1293
        1290        1291        1296        1295
        1291        1292        1297        1296
        1292        1293        1298        1297
        1293        1294        1299        1298
        1300        1301        1306        1305
        1301        1302        1307        1306
        1302        1303        1308        1307
        1303        1304        1309        1308
        1305        1306        1311        1310
        1306        1307        1312        1311
        1307        1308        1313        1312
        1308        1309        1314        1313
        1310        1311        1316        1315
        1311        1312        1317        1316
        1312        1313        1318        1317
        1313        1314        1319        1318
        1315        1316        1321        1320
        1316        1317        1322        1321
        1317        1318        1323        1322
        1318        1319        1324        1323
        1325        1326        1331        1330
        1326        1327        1332        1331
        1327        1328        1333        1332
        1328        1329        1334        1333
        1330        1331        1336        1335
        1331        1332        1337        1336
        1332        1333        1338        1337
        1333        1334        1339        1338
        1335        1336        1341        1340
        1336        1337        1342        1341
        1337        1338        1343        1342
        1338        1339        1344        1343
        1340        1341        1346        1345
        1341        1342        1347        1346
        1342        1343        1348        1347
        1343        1344        1349        1348
        1350        1351        1356        1355
        1351        1352        1357        1356
        1352        1353        1358        1357
        1353        1354        1359        1358
        1355        1356        1361        1360
        1356        1357        1362        1361
        1357        1358        1363        1362
        1358        1359        1364        1363
        1360        1361        1366        1365
        1361        1362        1367        1366
        1362        1363        1368        1367
        1363        1364        1369        1368
        1365        1366        1371        1370
        1366        1367        1372        1371
        1367        1368        1373        1372
        1368        1369        1374        1373
        1375        1376        1381        1380
        1376        1377        1382        1381
        1377        1378        1383        1382
        1378        1379        1384        1383
        1380        1381        1386        1385
        1381        1382        1387        1386
        1382        1383        1388        1387
        1383        1384        1389        1388
        1385        1386        1391        1390
        1386        1387        1392        1391
        1387        1388        1393        1392
        1388        1389        1394        1393
        1390        1391        1396        1395
        1391        1392        1397        1396
        1392        1393        1398        1397
        1393        1394        1399        1398
        1400        1401        1406        1405
        1401        1402        1407        1406
        1402        1403        1408        1407
        1403        1404        1409        1408
        1405        1406        1411        1410
        1406        1407        1412        1411
        1407        1408        1413        1412
        1408        1409        1414        1413
        1410        1411        1416        1415
        1411        1412        1417        1416
        1412        1413        1418        1417
        1413        1414        1419        1418
        1415        1416        1421        1420
        1416        1417        1422        1421
        1417        1418        1423        1422
        1418        1419        1424        1423
        1425        1426        1431        1430
        1426        1427        1432        1431
        1427        1428        1433        1432
        1428        1429        1434        1433
        1430        1431        1436        1435
        1431        1432        1437        1436
        1432        1433        1438        1437
        1433        1434        1439        1438
        1435        1436        1441        1440
        1436        1437        1442        1441
        1437        1438        1443        1442
        1438        1439        1444        1443
        1440        1441        1446        1445
        1441        1442        1447        1446
        1442        1443        1448        1447
        1443        1444        1449        1448
        1450        1451        1456        1455
        1451        1452        1457        1456
        1452        1453        1458        1457
        1453        1454        1459        1458
        1455        1456        1461        1460
        1456        1457        1462        1461
        1457        1458        1463        1462
        1458        1459        1464        1463
        1460        1461        1466        1465
        1461        1462        1467        1466
        1462        1463        1468        1467
        1463        1464        1469        1468
        1465        1466        1471        1470
        1466        1467        1472        1471
        1467        1468        1473        1472
        1468        1469        1474        1473
        1475        1476        1481        1480
        1476        1477        1482        1481
        1477        1478        1483        1482
        1478        1479        1484        1483
        1480        1481        1486        1485
        1481        1482        1487        1486
        1482        1483        1488        1487
        1483        1484        1489        1488
        1485        1486        1491        1490
        1486        1487        1492        1491
        1487        1488        1493        1492
        1488        1489        1494        1493
        1490        1491        1496        1495
        1491        1492        1497        1496
        1492        1493        1498        1497
        1493        1494        1499        1498
        1500        1501        1506        1505
        1501        1502        1507        1506
        1502        1503        1508        1507
        1503        1504        1509        1508
        1505        1506        1511        1510
        1506        1507        1512        1511
        1507        1508        1513        1512
        1508        1509        1514        1513
        1510        1511        1516        1515
        1511        1512        1517        1516
        1512        1513        1518        1517
        1513        1514        1519        1518
        1515        1516        1521        1520
        1516        1517        1522        1521
        1517        1518        1523        1522
        1518        1519        1524        1523
        1525        1526        1531        1530
        1526        1527        1532        1531
        1527        1528        1533        1532
        1528        1529        1534        1533
        1530        1531        1536        1535
        1531        1532        1537        1536
        1532        1533        1538        1537
        1533        1534        1539        1538
        1535        1536        1541        1540
        1536        1537        1542        1541
        1537        1538        1543        1542
        1538        1539        1544        1543
        1540        1541        1546        1545
        1541        1542        1547        1546
        1542        1543        1548        1547
        1543        1544        1549        1548
        1550        1551        1556        1555
        1551        1552        1557        1556
        1552        1553        1558        1557
        1553        1554        1559        1558
        1555        1556        1561        1560
        1556        1557        1562        1561
        1557        1558        1563        1562
        1558        1559        1564        1563
        1560        1561        1566        1565
        1561        1562        1567        1566
        1562        1563        1568        1567
        1563        1564        1569        1568
        1565        1566        1571        1570
        1566        1567        1572        1571
        1567        1568        1573        1572
        1568        1569        1574        1573
        1575        1576        1581        1580
        1576        1577        1582        1581
        1577        1578        1583        1582
        1578        1579        1584        1583
        1580        1581        1586        1585
        1581        1582        1587        1586
        1582        1583        1588        1587
        1583        1584        1589        1588
        1585        1586        1591        1590
        1586        1587        1592        1591
        1587        1588        1593        1592
        1588        1589        1594        1593
        1590        1591        1596        1595
        1591        1592        1597        1596
        1592        1593        1598        1597
        1593        1594        1599        1598
 </DataArray>
 <DataArray  type="Int32"  Name="offsets"  format="ascii"> 
           4
           8
          12
          16
          20
          24
          28
          32
          36
          40
          44
          48
          52
          56
          60
          64
          68
          72
          76
          80
          84
          88
          92
          96
         100
         104
         108
         112
         116
         120
         124
         128
         132
         136
         140
         144
         148
         152
         156
         160
         164
         168
         172
         176
         180
         184
         188
         192
         196
         200
         204
         208
         212
         216
         220
         224
         228
         232
         236
         240
         244
         248
         252
         256
         260
         264
         268
         272
         276
         280
         284
         288
         292
         296
         300
         304
         308
         312
         316
         320
         324
         328
         332
         336
         340
         344
         348
         352
         356
         360
         364
         368
         372
         376
         380
         384
         388
         392
         396
         400
         404
         408
         412
         416
         420
         424
         428
         432
         436
         440
         444
         448
         452
         456
         460
         464
         468
         472
         476
         480
         484
         488
         492
         496
         500
         504
         508
         512
         516
         520
         524
         528
         532
         536
         540
         544
         548
         552
         556
         560
         564
         568
         572
         576
         580
         584
         588
         592
         596
         600
         604
         608
         612
         616
         620
         624
         628
         632
         636
         640
         644
         648
         652
         656
         660
         664
         668
         672
         676
         680
         684
         688
         692
         696
         700
         704
         708
         712
         716
         720
         724
         728
         732
         736
         740
         744
         748
         752
         756
         760
         764
         768
         772
         776
         780
         784
         788
         792
         796
         800
         804
         808
         812
         816
         820
         824
         828
         832
         836
         840
         844
         848
         852
         856
         860
         864
         868
         872
         876
         880
         884
         888
         892
         896
         900
         904
         908
         912
         916
         920
         924
         928
         932
         936
         940
         944
         948
         952
         956
         960
         964
         968
         972
         976
         980
         984
         988
         992
         996
        1000
        1004
        1008
        1012
        1016
        1020
        1024
        1028
        1032
        1036
        1040
        1044
        1048
        1052
        1056
        1060
        1064
        1068
        1072
        1076
        1080
        1084
        1088
        1092
        1096
        1100
        1104
        1108
        1112
        1116
        1120
        1124
        1128
        1132
        1136
        1140
        1144
        1148
        1152
        1156
        1160
        1164
        1168
        1172
        1176
        1180
        1184
        1188
        1192
        1196
        1200
        1204
        1208
        1212
        1216
        1220
        1224
        1228
        1232
        1236
        1240
        1244
        1248
        1252
        1256
        1260
        1264
        1268
        1272
        1276
        1280
        1284
        1288
        1292
        1296
        1300
        1304
        1308
        1312
        1316
        1320
        1324
        1328
        1332
        1336
        1340
        1344
        1348
        1352
        1356
        1360
        1364
        1368
        1372
        1376
        1380
        1384
        1388
        1392
        1396
        1400
        1404
        1408
        1412
        1416
        1420
        1424
        1428
        1432
        1436
        1440
        1444
        1448
        1452
        1456
        1460
        1464
        1468
        1472
        1476
        1480
        1484
        1488
        1492
        1496
        1500
        1504
        1508
        1512
        1516
        1520
        1524
        1528
        1532
        1536
        1540
        1544
        1548
        1552
        1556
        1560
        1564
        1568
        1572
        1576
        1580
        1584
        1588
        1592
        1596
        1600
        1604
        1608
        1612
        1616
        1620
        1624
        1628
        1632
        1636
        1640
        1644
        1648
        1652
        1656
        1660
        1664
        1668
        1672
        1676
        1680
        1684
        1688
        1692
        1696
        1700
        1704
        1708
        1712
        1716
        1720
        1724
        1728
        1732
        1736
        1740
        1744
        1748
        1752
        1756
        1760
        1764
        1768
        1772
        1776
        1780
        1784
        1788
        1792
        1796
        1800
        1804
        1808
        1812
        1816
        1820
        1824
        1828
        1832
        1836
        1840
        1844
        1848
        1852
        1856
        1860
        1864
        1868
        1872
        1876
        1880
        1884
        1888
        1892
        1896
        1900
        1904
        1908
        1912
        1916
        1920
        1924
        1928
        1932
        1936
        1940
        1944
        1948
        1952
        1956
        1960
        1964
        1968
        1972
        1976
        1980
        1984
        1988
        1992
        1996
        2000
        2004
        2008
        2012
        2016
        2020
        2024
        2028
        2032
        2036
        2040
        2044
        2048
        2052
        2056
        2060
        2064
        2068
        2072
        2076
        2080
        2084
        2088
        2092
        2096
        2100
        2104
        2108
        2112
        2116
        2120
        2124
        2128
        2132
        2136
        2140
        2144
        2148
        2152
        2156
        2160
        2164
        2168
        2172
        2176
        2180
        2184
        2188
        2192
        2196
        2200
        2204
        2208
        2212
        2216
        2220
        2224
        2228
        2232
        2236
        2240
        2244
        2248
        2252
        2256
        2260
        2264
        2268
        2272
        2276
        2280
        2284
        2288
        2292
        2296
        2300
        2304
        2308
        2312
        2316
        2320
        2324
        2328
        2332
        2336
        2340
        2344
        2348
        2352
        2356
        2360
        2364
        2368
        2372
        2376
        2380
        2384
        2388
        2392
        2396
        2400
        2404
        2408
        2412
        2416
        2420
        2424
        2428
        2432
        2436
        2440
        2444
        2448
        2452
        2456
        2460
        2464
        2468
        2472
        2476
        2480
        2484
        2488
        2492
        2496
        2500
        2504
        2508
        2512
        2516
        2520
        2524
        2528
        2532
        2536
        2540
        2544
        2548
        2552
        2556
        2560
        2564
        2568
        2572
        2576
        2580
        2584
        2588
        2592
        2596
        2600
        2604
        2608
        2612
        2616
        2620
        2624
        2628
        2632
        2636
        2640
        2644
        2648
        2652
        2656
        2660
        2664
        2668
        2672
        2676
        2680
        2684
        2688
        2692
        2696
        2700
        2704
        2708
        2712
        2716
        2720
        2724
        2728
        2732
        2736
        2740
        2744
        2748
        2752
        2756
        2760
        2764
        2768
        2772
        2776
        2780
        2784
        2788
        2792
        2796
        2800
        2804
        2808
        2812
        2816
        2820
        2824
        2828
        2832
        2836
        2840
        2844
        2848
        2852
        2856
        2860
        2864
        2868
        2872
        2876
        2880
        2884
        2888
        2892
        2896
        2900
        2904
        2908
        2912
        2916
        2920
        2924
        2928
        2932
        2936
        2940
        2944
        2948
        2952
        2956
        2960
        2964
        2968
        2972
        2976
        2980
        2984
        2988
        2992
        2996
        3000
        3004
        3008
        3012
        3016
        3020
        3024
        3028
        3032
        3036
        3040
        3044
        3048
        3052
        3056
        3060
        3064
        3068
        3072
        3076
        3080
        3084
        3088
        3092
        3096
        3100
        3104
        3108
        3112
        3116
        3120
        3124
        3128
        3132
        3136
        3140
        3144
        3148
        3152
        3156
        3160
        3164
        3168
        3172
        3176
        3180
        3184
        3188
        3192
        3196
        3200
        3204
        3208
        3212
        3216
        3220
        3224
        3228
        3232
        3236
        3240
        3244
        3248
        3252
        3256
        3260
        3264
        3268
        3272
        3276
        3280
        3284
        3288
        3292
        3296
        3300
        3304
        3308
        3312
        3316
        3320
        3324
        3328
        3332
        3336
        3340
        3344
        3348
        3352
        3356
        3360
        3364
        3368
        3372
        3376
        3380
        3384
        3388
        3392
        3396
        3400
        3404
        3408
        3412
        3416
        3420
        3424
        3428
        3432
        3436
        3440
        3444
        3448
        3452
        3456
        3460
        3464
        3468
        3472
        3476
        3480
        3484
        3488
        3492
        3496
        3500
        3504
        3508
        3512
        3516
        3520
        3524
        3528
        3532
        3536
        3540
        3544
        3548
        3552
        3556
        3560
        3564
        3568
        3572
        3576
        3580
        3584
        3588
        3592
        3596
        3600
        3604
        3608
        3612
        3616
        3620
        3624
        3628
        3632
        3636
        3640
        3644
        3648
        3652
        3656
        3660
        3664
        3668
        3672
        3676
        3680
        3684
        3688
        3692
        3696
        3700
        3704
        3708
        3712
        3716
        3720
        3724
        3728
        3732
        3736
        3740
        3744
        3748
        3752
        3756
        3760
        3764
        3768
        3772
        3776
        3780
        3784
        3788
        3792
        3796
        3800
        3804
        3808
        3812
        3816
        3820
        3824
        3828
        3832
        3836
        3840
        3844
        3848
        3852
        3856
        3860
        3864
        3868
        3872
        3876
        3880
        3884
        3888
        3892
        3896
        3900
        3904
        3908
        3912
        3916
        3920
        3924
        3928
        3932
        3936
        3940
        3944
        3948
        3952
        3956
        3960
        3964
        3968
        3972
        3976
        3980
        3984
        3988
        3992
        3996
        4000
        4004
        4008
        4012
        4016
        4020
        4024
        4028
        4032
        4036
        4040
        4044
        4048
        4052
        4056
        4060
        4064
        4068
        4072
        4076
        4080
        4084
        4088
        4092
        4096
 </DataArray>
 <DataArray  type="UInt8"  Name="types"  format="ascii">
 9
 9
 9
 9
 9
 9
 9
 9
 9
 9
 9
 9
 9
 9
 9
 9
 9
 9
 9
 9
 9
 9
 9
 9
 9
 9
 9
 9
 9
 9
 9
 9
 9
 9
 9
 9
 9
 9
 9
 9
 9
 9
 9
 9
 9
 9
 9
 9
 9
 9
 9
 9
 9
 9
 9
 9
 9
 9
 9
 9
 9
 9
 9
 9
 9
 9
 9
 9
 9
 9
 9
 9
 9
 9
 9
 9
 9
 9
 9
 9
 9
 9
 9
 9
 9
 9
 9
 9
 9
 9
 9
 9
 9
 9
 9
 9
 9
 9
 9
 9
 9
 9
 9
 9
 9
 9
 9
 9
 9
 9
 9
 9
 9
 9
 9
 9
 9
 9
 9
 9
 9
 9
 9
 9
 9
 9
 9
 9
 9
 9
 9
 9
 9
 9
 9
 9
 9
 9
 9
 9
 9
 9
 9
 9
 9
 9
 9
 9
 9
 9
 9
 9
 9
 9
 9
 9
 9
 9
 9
 9
 9
 9
 9
 9
 9
 9
 9
 9
 9
 9
 9
 9
 9
 9
 9
 9
 9
 9
 9
 9
 9
 9
 9
 9
 9
 9
 9
 9
 9
 9
 9
 9
 9
 9
 9
 9
 9
 9
 9
 9
 9
 9
 9
 9
 9
 9
 9
 9
 9
 9
 9
 9
 9
 9
 9
 9
 9
 9
 9
 9
 9
 9
 9
 9
 9
 9
 9
 9
 9
 9
 9
 9
 9
 9
 9
 9
 9
 9
 9
 9
 9
 9
 9
 9
 9
 9
 9
 9
 9
 9
 9
 9
 9
 9
 9
 9
 9
 9
 9
 9
 9
 9
 9
 9
 9
 9
 9
 9
 9
 9
 9
 9
 9
 9
 9
 9
 9
 9
 9
 9
 9
 9
 9
 9
 9
 9
 9
 9
 9
 9
 9
 9
 9
 9
 9
 9
 9
 9
 9
 9
 9
 9
 9
 9
 9
 9
 9
 9
 9
 9
 9
 9
 9
 9
 9
 9
 9
 9
 9
 9
 9
 9
 9
 9
 9
 9
 9
 9
 9
 9
 9
 9
 9
 9
 9
 9
 9
 9
 9
 9
 9
 9
 9
 9
 9
 9
 9
 9
 9
 9
 9
 9
 9
 9
 9
 9
 9
 9
 9
 9
 9
 9
 9
 9
 9
 9
 9
 9
 9
 9
 9
 9
 9
 9
 9
 9
 9
 9
 9
 9
 9
 9
 9
 9
 9
 9
 9
 9
 9
 9
 9
 9
 9
 9
 9
 9
 9
 9
 9
 9
 9
 9
 9
 9
 9
 9
 9
 9
 9
 9
 9
 9
 9
 9
 9
 9
 9
 9
 9
 9
 9
 9
 9
 9
 9
 9
 9
 9
 9
 9
 9
 9
 9
 9
 9
 9
 9
 9
 9
 9
 9
 9
 9
 9
 9
 9
 9
 9
 9
 9
 9
 9
 9
 9
 9
 9
 9
 9
 9
 9
 9
 9
 9
 9
 9
 9
 9
 9
 9
 9
 9
 9
 9
 9
 9
 9
 9
 9
 9
 9
 9
 9
 9
 9
 9
 9
 9
 9
 9
 9
 9
 9
 9
 9
 9
 9
 9
 9
 9
 9
 9
 9
 9
 9
 9
 9
 9
 9
 9
 9
 9
 9
 9
 9
 9
 9
 9
 9
 9
 9
 9
 9
 9
 9
 9
 9
 9
 9
 9
 9
 9
 9
 9
 9
 9
 9
 9
 9
 9
 9
 9
 9
 9
 9
 9
 9
 9
 9
 9
 9
 9
 9
 9
 9
 9
 9
 9
 9
 9
 9
 9
 9
 9
 9
 9
 9
 9
 9
 9
 9
 9
 9
 9
 9
 9
 9
 9
 9
 9
 9
 9
 9
 9
 9
 9
 9
 9
 9
 9
 9
 9
 9
 9
 9
 9
 9
 9
 9
 9
 9
 9
 9
 9
 9
 9
 9
 9
 9
 9
 9
 9
 9
 9
 9
 9
 9
 9
 9
 9
 9
 9
 9
 9
 9
 9
 9
 9
 9
 9
 9
 9
 9
 9
 9
 9
 9
 9
 9
 9
 9
 9
 9
 9
 9
 9
 9
 9
 9
 9
 9
 9
 9
 9
 9
 9
 9
 9
 9
 9
 9
 9
 9
 9
 9
 9
 9
 9
 9
 9
 9
 9
 9
 9
 9
 9
 9
 9
 9
 9
 9
 9
 9
 9
 9
 9
 9
 9
 9
 9
 9
 9
 9
 9
 9
 9
 9
 9
 9
 9
 9
 9
 9
 9
 9
 9
 9
 9
 9
 9
 9
 9
 9
 9
 9
 9
 9
 9
 9
 9
 9
 9
 9
 9
 9
 9
 9
 9
 9
 9
 9
 9
 9
 9
 9
 9
 9
 9
 9
 9
 9
 9
 9
 9
 9
 9
 9
 9
 9
 9
 9
 9
 9
 9
 9
 9
 9
 9
 9
 9
 9
 9
 9
 9
 9
 9
 9
 9
 9
 9
 9
 9
 9
 9
 9
 9
 9
 9
 9
 9
 9
 9
 9
 9
 9
 9
 9
 9
 9
 9
 9
 9
 9
 9
 9
 9
 9
 9
 9
 9
 9
 9
 9
 9
 9
 9
 9
 9
 9
 9
 9
 9
 9
 9
 9
 9
 9
 9
 9
 9
 9
 9
 9
 9
 9
 9
 9
 9
 9
 9
 9
 9
 9
 9
 9
 9
 9
 9
 9
 9
 9
 9
 9
 9
 9
 9
 9
 9
 9
 9
 9
 9
 9
 9
 9
 9
 9
 9
 9
 9
 9
 9
 9
 9
 9
 9
 9
 9
 9
 9
 9
 9
 9
 9
 9
 9
 9
 9
 9
 9
 9
 9
 9
 9
 9
 9
 9
 9
 9
 9
 9
 9
 9
 9
 9
 9
 9
 9
 9
 9
 9
 9
 9
 9
 9
 9
 9
 9
 9
 9
 9
 9
 9
 9
 9
 9
 9
 9
 9
 9
 9
 9
 9
 9
 9
 9
 9
 9
 9
 9
 9
 9
 9
 9
 9
 9
 9
 9
 9
 9
 9
 9
 9
 9
 9
 9
 9
 9
 9
 9
 9
 9
 9
 9
 9
 9
 9
 9
 9
 9
 9
 9
 9
 9
 9
 9
 9
 9
 9
 9
 9
 9
 9
 9
 9
 9
 9
 9
 9
 9
 9
 9
 9
 9
 9
 9
 9
 9
 9
 9
 9
 9
 9
 9
 9
 9
 9
 9
 9
 9
 9
 9
 9
 9
 9
 9
 9
 9
 9
 9
 9
 9
 9
 9
 9
 9
 9
 9
 9
 9
 9
 9
 9
 9
 9
 </DataArray>
 </Cells> 
 <PointData>
 <DataArray  type="Float64" Name="disp" NumberOfComponents="3" format="ascii">
   6.5142537527235034E-002   6.2752902079843978E-002   0.0000000000000000     
   6.8345050561241655E-002   6.8161611045234438E-002   0.0000000000000000     
   7.1394715265908293E-002   7.3742412952503944E-002   0.0000000000000000     
   7.4291531641234962E-002   7.9495307801652537E-002   0.0000000000000000     
   7.7035499687221648E-002   8.5420295592680162E-002   0.0000000000000000     
   6.0111723511589589E-002   6.1887756672228553E-002   0.0000000000000000     
   6.3011364807819464E-002   6.7300461322561622E-002   0.0000000000000000     
   6.5807347589319637E-002   7.2893300905924607E-002   0.0000000000000000     
   6.8499671856090155E-002   7.8666275422317453E-002   0.0000000000000000     
   7.1088337608130991E-002   8.4619384871740227E-002   0.0000000000000000     
   5.5209656082372896E-002   6.1059683576051030E-002   0.0000000000000000     
   5.7857617378321388E-002   6.6486628791276689E-002   0.0000000000000000     
   6.0431775276454242E-002   7.2097728294174393E-002   0.0000000000000000     
   6.2932129776771428E-002   7.7892982084744128E-002   0.0000000000000000     
   6.5358680879272990E-002   8.3872390162985894E-002   0.0000000000000000     
   5.0436335239584948E-002   6.0268682791311402E-002   0.0000000000000000     
   5.2883808272747461E-002   6.5720113451379625E-002   0.0000000000000000     
   5.5267998327312072E-002   7.1355695117253343E-002   0.0000000000000000     
   5.7588905403278781E-002   7.7175427788932507E-002   0.0000000000000000     
   5.9846529500647623E-002   8.3179311466417147E-002   0.0000000000000000     
   4.5791760983225752E-002   5.9514754318009684E-002   0.0000000000000000     
   4.8089937491097662E-002   6.5000915302870443E-002   0.0000000000000000     
   5.0316016741893149E-002   7.0667201375161429E-002   0.0000000000000000     
   5.2469998735612228E-002   7.6513612534882591E-002   0.0000000000000000     
   5.4551883472254883E-002   8.2540148782033987E-002   0.0000000000000000     
   7.7035499687221648E-002   8.5420295592680162E-002   0.0000000000000000     
   7.9665883160958392E-002   9.1511191683788157E-002   0.0000000000000000     
   8.2221945819535236E-002   9.7761811433177748E-002   0.0000000000000000     
   8.4703687662952165E-002  0.10417215484084895        0.0000000000000000     
   8.7111108691209208E-002  0.11074222190680180        0.0000000000000000     
   7.1088337608130991E-002   8.4619384871740227E-002   0.0000000000000000     
   7.3585265704204914E-002   9.0741863844929188E-002   0.0000000000000000     
   7.6002377003074675E-002   9.7022946932620577E-002   0.0000000000000000     
   7.8339671504740291E-002  0.10346263413481442        0.0000000000000000     
   8.0597149209201718E-002  0.11006092545151071        0.0000000000000000     
   6.5358680879272990E-002   8.3872390162985894E-002   0.0000000000000000     
   6.7708037233486451E-002   9.0022955867362447E-002   0.0000000000000000     
   6.9976807488939405E-002   9.6331682536336533E-002   0.0000000000000000     
   7.2164991645631824E-002  0.10279857016990816        0.0000000000000000     
   7.4272589703563721E-002  0.10942361876807730        0.0000000000000000     
   5.9846529500647623E-002   8.3179311466417147E-002   0.0000000000000000     
   6.2034197748802991E-002   8.9354467751087963E-002   0.0000000000000000     
   6.4145237277129383E-002   9.5688018244325629E-002   0.0000000000000000     
   6.6179648085626791E-002  0.10217996294613016        0.0000000000000000     
   6.8137430174295202E-002  0.10883030185650155        0.0000000000000000     
   5.4551883472254883E-002   8.2540148782033987E-002   0.0000000000000000     
   5.6563747250154547E-002   8.8736399496105706E-002   0.0000000000000000     
   5.8507666367644644E-002   9.5091954056587838E-002   0.0000000000000000     
   6.0383640824725179E-002  0.10160681246348044        0.0000000000000000     
   6.2191670621396140E-002  0.10828097471678348        0.0000000000000000     
   8.7111108691209208E-002  0.11074222190680180        0.0000000000000000     
   8.9428800410353199E-002  0.11745827429033558        0.0000000000000000     
   9.1641354326431002E-002  0.12430657365074964        0.0000000000000000     
   9.3748770439442602E-002  0.13128711998804396        0.0000000000000000     
   9.5751048749388029E-002  0.13839991330221857        0.0000000000000000     
   8.0597149209201718E-002  0.11006092545151071        0.0000000000000000     
   8.2765817172342632E-002  0.11680464030890254        0.0000000000000000     
   8.4836682450046663E-002  0.12368059813318308        0.0000000000000000     
   8.6809745042313785E-002  0.13068879892435226        0.0000000000000000     
   8.8685004949143983E-002  0.13782924268241012        0.0000000000000000     
   7.4272589703563721E-002  0.10942361876807730        0.0000000000000000     
   7.6294331045452635E-002  0.11619380459459168        0.0000000000000000     
   7.8224945054016060E-002  0.12309610391319910        0.0000000000000000     
   8.0064431729253996E-002  0.13013051672389947        0.0000000000000000     
   8.1812791071166485E-002  0.13729704302669285        0.0000000000000000     
   6.8137430174295202E-002  0.10883030185650155        0.0000000000000000     
   7.0014342029683152E-002  0.11562576714740298        0.0000000000000000     
   7.1806142138339177E-002  0.12255309099079767        0.0000000000000000     
   7.3512830500263304E-002  0.12961227338668560        0.0000000000000000     
   7.5134407115455507E-002  0.13680331433506679        0.0000000000000000     
   6.2191670621396140E-002  0.10828097471678348        0.0000000000000000     
   6.3925850125034211E-002  0.11510052796733644        0.0000000000000000     
   6.5580273703016043E-002  0.12205155936597883        0.0000000000000000     
   6.7154941355341655E-002  0.12913406891271065        0.0000000000000000     
   6.8649853082011034E-002  0.13634805660753191        0.0000000000000000     
   9.5751048749388029E-002  0.13839991330221857        0.0000000000000000     
   9.7655456021656095E-002  0.14563409865121663        0.0000000000000000     
   9.9469259021635684E-002  0.15297882109298128        0.0000000000000000     
  0.10119245774932677       0.16043408062751249        0.0000000000000000     
  0.10282505220472934       0.16799987725481036        0.0000000000000000     
   8.8685004949143983E-002  0.13782924268241012        0.0000000000000000     
   9.0469338869589952E-002  0.14509081208820374        0.0000000000000000     
   9.2169623502704287E-002  0.15246238982258015        0.0000000000000000     
   9.3785858848487030E-002  0.15994397588553938        0.0000000000000000     
   9.5318044906938126E-002  0.16753557027708144        0.0000000000000000     
   8.1812791071166485E-002  0.13729704302669285        0.0000000000000000     
   8.3476414466486959E-002  0.14458453124359169        0.0000000000000000     
   8.5061693301948918E-002  0.15198182979660832        0.0000000000000000     
   8.6568627577552321E-002  0.15948893868574282        0.0000000000000000     
   8.7997217293297209E-002  0.16710585791099519        0.0000000000000000     
   7.5134407115455507E-002  0.13680331433506679        0.0000000000000000     
   7.6676682812347116E-002  0.14411525611738041        0.0000000000000000     
   7.8145468419369493E-002  0.15153714101506577        0.0000000000000000     
   7.9540763936522652E-002  0.15906896902812287        0.0000000000000000     
   8.0862569363806550E-002  0.16671074015655166        0.0000000000000000     
   6.8649853082011034E-002  0.13634805660753191        0.0000000000000000     
   7.0070143907170424E-002  0.14368298670957005        0.0000000000000000     
   7.1420948854966082E-002  0.15112832347795260        0.0000000000000000     
   7.2702267925397995E-002  0.15868406691267947        0.0000000000000000     
   7.3914101118466149E-002  0.16635021701375075        0.0000000000000000     
  0.10282505220472934       0.16799987725481036        0.0000000000000000     
  0.10436976630380239       0.17566559387191233        0.0000000000000000     
  0.10582932396250491       0.18342061337585597        0.0000000000000000     
  0.10720372518083690       0.19126493576664130        0.0000000000000000     
  0.10849296995879833       0.19919856104426828        0.0000000000000000     
   9.5318044906938126E-002  0.16753557027708144        0.0000000000000000     
   9.6766137554591569E-002  0.17522706346774200        0.0000000000000000     
   9.8130092667981256E-002  0.18300834592805681        0.0000000000000000     
   9.9409910247107186E-002  0.19087941765802593        0.0000000000000000     
  0.10060559029196939       0.19884027865764925        0.0000000000000000     
   8.7997217293297209E-002  0.16710585791099519        0.0000000000000000     
   8.9345564049553655E-002  0.17482264991882246        0.0000000000000000     
   9.0611769446691748E-002  0.18262937715568181        0.0000000000000000     
   9.1795833484711473E-002  0.19052603962157316        0.0000000000000000     
   9.2897756163612871E-002  0.19851263731649663        0.0000000000000000     
   8.0862569363806550E-002  0.16671074015655166        0.0000000000000000     
   8.2108045788688647E-002  0.17445235322515379        0.0000000000000000     
   8.3274354298636388E-002  0.18228370705873093        0.0000000000000000     
   8.4361494893649802E-002  0.19020480165728321        0.0000000000000000     
   8.5369467573728819E-002  0.19821563702081044        0.0000000000000000     
   7.3914101118466149E-002  0.16635021701375075        0.0000000000000000     
   7.5053582771996558E-002  0.17411617338673585        0.0000000000000000     
   7.6117847223815205E-002  0.18197133563720419        0.0000000000000000     
   7.7106894473922077E-002  0.18991570376515576        0.0000000000000000     
   7.8020724522317231E-002  0.19794927777059063        0.0000000000000000     
  0.10849296995879833       0.19919856104426828        0.0000000000000000     
  0.10970181177052463       0.20721777150882431        0.0000000000000000     
  0.11083500409015117       0.21531884946039673        0.0000000000000000     
  0.11189254691767796       0.22350179489898550        0.0000000000000000     
  0.11287444025310500       0.23176660782459066        0.0000000000000000     
  0.10060559029196939       0.19884027865764925        0.0000000000000000     
  0.10172263102221982       0.20688489995657428        0.0000000000000000     
  0.10276653065751046       0.21500725258444831        0.0000000000000000     
  0.10373728919784131       0.22320733654127151        0.0000000000000000     
  0.10463490664321237       0.23148515182704371        0.0000000000000000     
   9.2897756163612871E-002  0.19851263731649663        0.0000000000000000     
   9.3922666141918590E-002  0.20658184463084109        0.0000000000000000     
   9.4875692078151275E-002  0.21472633595499563        0.0000000000000000     
   9.5756833972310926E-002  0.22294611128896011        0.0000000000000000     
   9.6566091824397585E-002  0.23124117063273469        0.0000000000000000     
   8.5369467573728819E-002  0.19821563702081044        0.0000000000000000     
   8.6301917129620973E-002  0.20630860553162483        0.0000000000000000     
   8.7162488352073630E-002  0.21447609957203848        0.0000000000000000     
   8.7951181241086848E-002  0.22271811914205142        0.0000000000000000     
   8.8667995796660612E-002  0.23103466424166355        0.0000000000000000     
   7.8020724522317231E-002  0.19794927777059063        0.0000000000000000     
   7.8860383985326937E-002  0.20606518265892543        0.0000000000000000     
   7.9626919479277539E-002  0.21425654343557701        0.0000000000000000     
   8.0320331004169049E-002  0.22252336010054535        0.0000000000000000     
   8.0940618560001468E-002  0.23086563265383039        0.0000000000000000     
  0.11287444025310500       0.23176660782459066        0.0000000000000000     
  0.11380901961040601       0.24012975568633449        0.0000000000000000     
  0.11472462050355468       0.24860770593333922        0.0000000000000000     
  0.11562124293255104       0.25720045856560492        0.0000000000000000     
  0.11649888689739507       0.26590801358313149        0.0000000000000000     
  0.10463490664321237       0.23148515182704371        0.0000000000000000     
  0.10546437195547019       0.23986404240540407        0.0000000000000000     
  0.10623067409646131       0.24836735223999162        0.0000000000000000     
  0.10693381306618568       0.25699508133080640        0.0000000000000000     
  0.10757378886464336       0.26574722967784836        0.0000000000000000     
   9.6566091824397585E-002  0.23124117063273469        0.0000000000000000     
   9.7294169279942583E-002  0.23963782488284086        0.0000000000000000     
   9.7931769984477349E-002  0.24816238493580037        0.0000000000000000     
   9.8478893938001869E-002  0.25681485079161309        0.0000000000000000     
   9.8935541140516170E-002  0.26559522245027911        0.0000000000000000     
   8.8667995796660612E-002  0.23103466424166355        0.0000000000000000     
   8.9298411583823178E-002  0.23945110311864493        0.0000000000000000     
   8.9827908167602860E-002  0.24799280402076535        0.0000000000000000     
   9.0256485547999629E-002  0.25665976694802489        0.0000000000000000     
   9.0584143725013486E-002  0.26545199190042357        0.0000000000000000     
   8.0940618560001468E-002  0.23086563265383039        0.0000000000000000     
   8.1477098867111991E-002  0.23930387711281617        0.0000000000000000     
   8.1919088645837815E-002  0.24785860949488664        0.0000000000000000     
   8.2266587896178911E-002  0.25652982980004180        0.0000000000000000     
   8.2519596618135321E-002  0.26531753802828173        0.0000000000000000     
  0.11649888689739507       0.26590801358313149        0.0000000000000000     
  0.11729787481544890       0.27489501105821001        0.0000000000000000     
  0.11795852910407464       0.28432609106313145        0.0000000000000000     
  0.11848084976327232       0.29420125359789578        0.0000000000000000     
  0.11886483679304194       0.30452049866250308        0.0000000000000000     
  0.10757378886464336       0.26574722967784836        0.0000000000000000     
  0.10813164711619641       0.27475599389234406        0.0000000000000000     
  0.10858843344520694       0.28415357058551982        0.0000000000000000     
  0.10894414785167497       0.29393995975737575        0.0000000000000000     
  0.10919879033560045       0.30411516140791178        0.0000000000000000     
   9.8935541140516170E-002  0.26559522245027911        0.0000000000000000     
   9.9312776685322610E-002  0.27460184711610108        0.0000000000000000     
   9.9621665665723599E-002  0.28393307199338169        0.0000000000000000     
   9.9862208081719125E-002  0.29358889708212105        0.0000000000000000     
  0.10003440393330920       0.30356932238231915        0.0000000000000000     
   9.0584143725013486E-002  0.26545199190042357        0.0000000000000000     
   9.0841263522827467E-002  0.27443257072948096        0.0000000000000000     
   9.1058225765624570E-002  0.28366459528671706        0.0000000000000000     
   9.1235030453404808E-002  0.29314806557213180        0.0000000000000000     
   9.1371677586168154E-002  0.30288298158572513        0.0000000000000000     
   8.2519596618135321E-002  0.26531753802828173        0.0000000000000000     
   8.2717107628710984E-002  0.27424816473248392        0.0000000000000000     
   8.2898113744909865E-002  0.28334814046552592        0.0000000000000000     
   8.3062614966731979E-002  0.29261746522740789        0.0000000000000000     
   8.3210611294177311E-002  0.30205613901812978        0.0000000000000000     
   4.5791760983225752E-002   5.9514754318009684E-002   0.0000000000000000     
   4.8089937491097662E-002   6.5000915302870443E-002   0.0000000000000000     
   5.0316016741893149E-002   7.0667201375161429E-002   0.0000000000000000     
   5.2469998735612228E-002   7.6513612534882591E-002   0.0000000000000000     
   5.4551883472254883E-002   8.2540148782033987E-002   0.0000000000000000     
   4.1305249211108008E-002   5.8817247041225935E-002   0.0000000000000000     
   4.3463985740532042E-002   6.4337857680341351E-002   0.0000000000000000     
   4.5537848262279572E-002   7.0033994778159275E-002   0.0000000000000000     
   4.7526836776350591E-002   7.5905658334679701E-002   0.0000000000000000     
   4.9430951282745106E-002   8.1952848349902657E-002   0.0000000000000000     
   3.7006115821044405E-002   5.8195509846040244E-002   0.0000000000000000     
   3.8993933728210618E-002   6.3739763918384554E-002   0.0000000000000000     
   4.0895510630553397E-002   6.9457823036507521E-002   0.0000000000000000     
   4.2710846528072714E-002   7.5349687200409132E-002   0.0000000000000000     
   4.4439941420768604E-002   8.1415356410089387E-002   0.0000000000000000     
   3.2894360813034949E-002   5.7649542732452590E-002   0.0000000000000000     
   3.4679781454133411E-002   6.3206634017000052E-002   0.0000000000000000     
   3.6389003846714632E-002   6.8938686150206152E-002   0.0000000000000000     
   3.8022027990778626E-002   7.4845699132070842E-002   0.0000000000000000     
   3.9578853886325364E-002   8.0927672962594191E-002   0.0000000000000000     
   2.8969984187079644E-002   5.7179345700462979E-002   0.0000000000000000     
   3.0521528918300407E-002   6.2738467976187845E-002   0.0000000000000000     
   3.2018327910763283E-002   6.8476584119255154E-002   0.0000000000000000     
   3.3460381164468284E-002   7.4393694129664886E-002   0.0000000000000000     
   3.4847688679415401E-002   8.0489798007417040E-002   0.0000000000000000     
   5.4551883472254883E-002   8.2540148782033987E-002   0.0000000000000000     
   5.6563747250154547E-002   8.8736399496105706E-002   0.0000000000000000     
   5.8507666367644644E-002   9.5091954056587838E-002   0.0000000000000000     
   6.0383640824725179E-002  0.10160681246348044        0.0000000000000000     
   6.2191670621396140E-002  0.10828097471678348        0.0000000000000000     
   4.9430951282745106E-002   8.1952848349902657E-002   0.0000000000000000     
   5.1263542948359109E-002   8.8168012078578842E-002   0.0000000000000000     
   5.3037962940088591E-002   9.4543596775458955E-002   0.0000000000000000     
   5.4754211257933554E-002  0.10107960244054304        0.0000000000000000     
   5.6412287901893995E-002  0.10777602907383105        0.0000000000000000     
   4.4439941420768604E-002   8.1415356410089387E-002   0.0000000000000000     
   4.6100442054234698E-002   8.7648566474670508E-002   0.0000000000000000     
   4.7709995174064664E-002   9.4043053203274704E-002   0.0000000000000000     
   4.9268600780258506E-002  0.10059881659590193        0.0000000000000000     
   5.0776258872816213E-002  0.10731585665255226        0.0000000000000000     
   3.9578853886325364E-002   8.0927672962594191E-002   0.0000000000000000     
   4.1074444567781289E-002   8.7178062684380719E-002   0.0000000000000000     
   4.2523763069572861E-002   9.3590323340035073E-002   0.0000000000000000     
   4.3926809391700010E-002  0.10016445492955717        0.0000000000000000     
   4.5283583534162786E-002  0.10690045745294710        0.0000000000000000     
   3.4847688679415401E-002   8.0489798007417040E-002   0.0000000000000000     
   3.6185550488998935E-002   8.6756500707709489E-002   0.0000000000000000     
   3.7479266626613161E-002   9.3185407185740046E-002   0.0000000000000000     
   3.8728837092258085E-002   9.9776517441508755E-002   0.0000000000000000     
   3.9934261885933721E-002  0.10652983147501555        0.0000000000000000     
   6.2191670621396140E-002  0.10828097471678348        0.0000000000000000     
   6.3925850125034211E-002  0.11510052796733644        0.0000000000000000     
   6.5580273703016043E-002  0.12205155936597883        0.0000000000000000     
   6.7154941355341655E-002  0.12913406891271065        0.0000000000000000     
   6.8649853082011034E-002  0.13634805660753191        0.0000000000000000     
   5.6412287901893995E-002  0.10777602907383105        0.0000000000000000     
   5.8004036294680004E-002  0.11461822208635394        0.0000000000000000     
   5.9521299859001689E-002  0.12159152688914260        0.0000000000000000     
   6.0964078594859049E-002  0.12869594348219704        0.0000000000000000     
   6.2332372502252070E-002  0.13593147186551727        0.0000000000000000     
   5.0776258872816213E-002  0.10731585665255226        0.0000000000000000     
   5.2224081501794778E-002  0.11417898453641737        0.0000000000000000     
   5.3603180717251203E-002  0.12117301141068904        0.0000000000000000     
   5.4913556519185468E-002  0.12829793727536720        0.0000000000000000     
   5.6155208907597585E-002  0.13555376213045195        0.0000000000000000     
   4.5283583534162786E-002  0.10690045745294710        0.0000000000000000     
   4.6585985746378525E-002  0.11378281531752676        0.0000000000000000     
   4.7825916277764564E-002  0.12079601293061810        0.0000000000000000     
   4.9003375128320925E-002  0.12794005029222119        0.0000000000000000     
   5.0118362298047586E-002  0.13521492740233593        0.0000000000000000     
   3.9934261885933721E-002  0.10652983147501555        0.0000000000000000     
   4.1089749028431224E-002  0.11342971442968208        0.0000000000000000     
   4.2189506540541787E-002  0.12046053144892986        0.0000000000000000     
   4.3233534422265400E-002  0.12762228253275890        0.0000000000000000     
   4.4221832673602066E-002  0.13491496768116920        0.0000000000000000     
   6.8649853082011034E-002  0.13634805660753191        0.0000000000000000     
   7.0070143907170424E-002  0.14368298670957005        0.0000000000000000     
   7.1420948854966082E-002  0.15112832347795260        0.0000000000000000     
   7.2702267925397995E-002  0.15868406691267947        0.0000000000000000     
   7.3914101118466149E-002  0.16635021701375075        0.0000000000000000     
   6.2332372502252070E-002  0.13593147186551727        0.0000000000000000     
   6.3630608615572778E-002  0.14328805407906706        0.0000000000000000     
   6.4863213969213199E-002  0.15075563216281021        0.0000000000000000     
   6.6030188563173345E-002  0.15833420611674676        0.0000000000000000     
   6.7131532397453175E-002  0.16602377594087658        0.0000000000000000     
   5.6155208907597585E-002  0.13555376213045195        0.0000000000000000     
   5.7331887802170071E-002  0.14293078928477801        0.0000000000000000     
   5.8447343122585434E-002  0.15041932204718023        0.0000000000000000     
   5.9501574868843665E-002  0.15801936041765860        0.0000000000000000     
   6.0494583040944787E-002  0.16573090439621313        0.0000000000000000     
   5.0118362298047586E-002  0.13521492740233593        0.0000000000000000     
   5.1173981466962296E-002  0.14261119232670291        0.0000000000000000     
   5.2173336315082752E-002  0.15011939313106265        0.0000000000000000     
   5.3116426842408970E-002  0.15773952981541511        0.0000000000000000     
   5.4003253048940963E-002  0.16547160237976033        0.0000000000000000     
   4.4221832673602066E-002  0.13491496768116920        0.0000000000000000     
   4.5156889609949444E-002  0.14232926320484174        0.0000000000000000     
   4.6041193546705175E-002  0.14985584541445743        0.0000000000000000     
   4.6874744483869267E-002  0.15749471431001630        0.0000000000000000     
   4.7657542421441726E-002  0.16524586989151832        0.0000000000000000     
   7.3914101118466149E-002  0.16635021701375075        0.0000000000000000     
   7.5053582771996558E-002  0.17411617338673585        0.0000000000000000     
   7.6117847223815205E-002  0.18197133563720419        0.0000000000000000     
   7.7106894473922077E-002  0.18991570376515576        0.0000000000000000     
   7.8020724522317231E-002  0.19794927777059063        0.0000000000000000     
   6.7131532397453175E-002  0.16602377594087658        0.0000000000000000     
   6.8164711885715920E-002  0.17381315203678938        0.0000000000000000     
   6.9127193441624768E-002  0.18169114480607471        0.0000000000000000     
   7.0018977065179677E-002  0.18965775424873246        0.0000000000000000     
   7.0840062756380703E-002  0.19771298036476276        0.0000000000000000     
   6.0494583040944787E-002  0.16573090439621313        0.0000000000000000     
   6.1423970016085280E-002  0.17354233080853504        0.0000000000000000     
   6.2287338171461613E-002  0.18144201648031555        0.0000000000000000     
   6.3084687507073814E-002  0.18942996141155471        0.0000000000000000     
   6.3816018022921861E-002  0.19750616560225243        0.0000000000000000     
   5.4003253048940963E-002  0.16547160237976033        0.0000000000000000     
   5.4831357163104603E-002  0.17330370970197281        0.0000000000000000     
   5.5598281413325776E-002  0.18122395065992680        0.0000000000000000     
   5.6304025799604480E-002  0.18923232525362241        0.0000000000000000     
   5.6948590321940717E-002  0.19732883348305963        0.0000000000000000     
   4.7657542421441726E-002  0.16524586989151832        0.0000000000000000     
   4.8386873326773924E-002  0.17309728871710267        0.0000000000000000     
   4.9060023167217241E-002  0.18103694734490847        0.0000000000000000     
   4.9676991942771691E-002  0.18906484577493565        0.0000000000000000     
   5.0237779653437280E-002  0.19718098400718437        0.0000000000000000     
   7.8020724522317231E-002  0.19794927777059063        0.0000000000000000     
   7.8860383985326937E-002  0.20606518265892543        0.0000000000000000     
   7.9626919479277539E-002  0.21425654343557701        0.0000000000000000     
   8.0320331004169049E-002  0.22252336010054535        0.0000000000000000     
   8.0940618560001468E-002  0.23086563265383039        0.0000000000000000     
   7.0840062756380703E-002  0.19771298036476276        0.0000000000000000     
   7.1588927891957574E-002  0.20585079143815480        0.0000000000000000     
   7.2264049848640058E-002  0.21406515575289786        0.0000000000000000     
   7.2865428626428169E-002  0.22235607330899188        0.0000000000000000     
   7.3393064225321894E-002  0.23072354410643692        0.0000000000000000     
   6.3816018022921861E-002  0.19750616560225243        0.0000000000000000     
   6.4478410032433958E-002  0.20566464729472478        0.0000000000000000     
   6.5068943849038274E-002  0.21389942473128765        0.0000000000000000     
   6.5587619472734823E-002  0.22221049791194106        0.0000000000000000     
   6.6034436903523591E-002  0.23059786683668507        0.0000000000000000     
   5.6948590321940717E-002  0.19732883348305963        0.0000000000000000     
   5.7528830406756097E-002  0.20550675022863535        0.0000000000000000     
   5.8041601480472195E-002  0.21375935037074645        0.0000000000000000     
   5.8486903543089032E-002  0.22208663390939293        0.0000000000000000     
   5.8864736594606587E-002  0.23048860084457481        0.0000000000000000     
   5.0237779653437280E-002  0.19718098400718437        0.0000000000000000     
   5.0740189014923977E-002  0.20537710023988653        0.0000000000000000     
   5.1182022742941820E-002  0.21364493267127418        0.0000000000000000     
   5.1563280837490781E-002  0.22198448130134737        0.0000000000000000     
   5.1883963298570868E-002  0.23039574613010610        0.0000000000000000     
   8.0940618560001468E-002  0.23086563265383039        0.0000000000000000     
   8.1477098867111991E-002  0.23930387711281617        0.0000000000000000     
   8.1919088645837815E-002  0.24785860949488664        0.0000000000000000     
   8.2266587896178911E-002  0.25652982980004180        0.0000000000000000     
   8.2519596618135321E-002  0.26531753802828173        0.0000000000000000     
   7.3393064225321894E-002  0.23072354410643692        0.0000000000000000     
   7.3843720920972258E-002  0.23918117085323781        0.0000000000000000     
   7.4214162989030219E-002  0.24774255625739949        0.0000000000000000     
   7.4504390429495845E-002  0.25640770031892179        0.0000000000000000     
   7.4714403242369110E-002  0.26517660303780483        0.0000000000000000     
   6.6034436903523591E-002  0.23059786683668507        0.0000000000000000     
   6.6411767536567176E-002  0.23906800832779324        0.0000000000000000     
   6.6721982767028162E-002  0.24762739920753915        0.0000000000000000     
   6.6965082594906536E-002  0.25627603947592281        0.0000000000000000     
   6.7141067020202297E-002  0.26501392913294419        0.0000000000000000     
   5.8864736594606587E-002  0.23048860084457481        0.0000000000000000     
   5.9181238713896807E-002  0.23896438953648227        0.0000000000000000     
   5.9442547979831589E-002  0.24751313834530564        0.0000000000000000     
   5.9648664392410948E-002  0.25613484727104480        0.0000000000000000     
   5.9799587951634876E-002  0.26482951631369978        0.0000000000000000     
   5.1883963298570868E-002  0.23039574613010610        0.0000000000000000     
   5.2152134452961116E-002  0.23887031447930504        0.0000000000000000     
   5.2375858627440534E-002  0.24739977367069890        0.0000000000000000     
   5.2555135822009109E-002  0.25598412370428780        0.0000000000000000     
   5.2689966036666869E-002  0.26462336458007152        0.0000000000000000     
   8.2519596618135321E-002  0.26531753802828173        0.0000000000000000     
   8.2717107628710984E-002  0.27424816473248392        0.0000000000000000     
   8.2898113744909865E-002  0.28334814046552592        0.0000000000000000     
   8.3062614966731979E-002  0.29261746522740789        0.0000000000000000     
   8.3210611294177311E-002  0.30205613901812978        0.0000000000000000     
   7.4714403242369110E-002  0.26517660303780483        0.0000000000000000     
   7.4885129847554549E-002  0.27404294357626791        0.0000000000000000     
   7.5057498664956715E-002  0.28300040109653019        0.0000000000000000     
   7.5231509694575635E-002  0.29204897559859166        0.0000000000000000     
   7.5407162936411254E-002  0.30118866708245257        0.0000000000000000     
   6.7141067020202297E-002  0.26501392913294419        0.0000000000000000     
   6.7290151023939537E-002  0.27381122171199124        0.0000000000000000     
   6.7452549587142335E-002  0.28263807074645164        0.0000000000000000     
   6.7628262709810677E-002  0.29149447623632563        0.0000000000000000     
   6.7817290391944590E-002  0.30038043818161303        0.0000000000000000     
   5.9799587951634876E-002  0.26482951631369978        0.0000000000000000     
   5.9932171157865942E-002  0.27355299913965386        0.0000000000000000     
   6.0083266511466706E-002  0.28226114941529051        0.0000000000000000     
   6.0252874012437160E-002  0.29095396714060962        0.0000000000000000     
   6.0440993660777299E-002  0.29963145231561122        0.0000000000000000     
   5.2689966036666869E-002  0.26462336458007152        0.0000000000000000     
   5.2811190249333777E-002  0.27326827585925595        0.0000000000000000     
   5.2949649437929833E-002  0.28186963710304669        0.0000000000000000     
   5.3105343602455037E-002  0.29042744831144374        0.0000000000000000     
   5.3278272742909374E-002  0.29894170948444715        0.0000000000000000     
   2.8969984187079644E-002   5.7179345700462979E-002   0.0000000000000000     
   3.0521528918300407E-002   6.2738467976187845E-002   0.0000000000000000     
   3.2018327910763283E-002   6.8476584119255154E-002   0.0000000000000000     
   3.3460381164468284E-002   7.4393694129664886E-002   0.0000000000000000     
   3.4847688679415401E-002   8.0489798007417040E-002   0.0000000000000000     
   2.5160532232659544E-002   5.6765710291274155E-002   0.0000000000000000     
   2.6476834570659948E-002   6.2324978961656022E-002   0.0000000000000000     
   2.7760422254096809E-002   6.8067474226195024E-002   0.0000000000000000     
   2.9011295282970133E-002   7.3993196084891202E-002   0.0000000000000000     
   3.0229453657279918E-002   8.0102144537744502E-002   0.0000000000000000     
   2.1393551239255709E-002   5.6389428046088881E-002   0.0000000000000000     
   2.2503356861160371E-002   6.1955880139112636E-002   0.0000000000000000     
   2.3592226308112658E-002   6.7707313753566256E-002   0.0000000000000000     
   2.4660159580112570E-002   7.3643728889449769E-002   0.0000000000000000     
   2.5707156677160115E-002   7.9765125546763127E-002   0.0000000000000000     
   1.7669041206868141E-002   5.6050498964907131E-002   0.0000000000000000     
   1.8601095789801680E-002   6.1631171508557687E-002   0.0000000000000000     
   1.9513740072810832E-002   6.7396102701368851E-002   0.0000000000000000     
   2.0406974055895605E-002   7.3345292543340573E-002   0.0000000000000000     
   2.1280797739055991E-002   7.9478741034472916E-002   0.0000000000000000     
   1.3987002135496838E-002   5.5748923047728917E-002   0.0000000000000000     
   1.4770051356583869E-002   6.1350853069991204E-002   0.0000000000000000     
   1.5524963548191332E-002   6.7133841069602768E-002   0.0000000000000000     
   1.6251738710319229E-002   7.3097887046563656E-002   0.0000000000000000     
   1.6950376842967553E-002   7.9242991000873841E-002   0.0000000000000000     
   3.4847688679415401E-002   8.0489798007417040E-002   0.0000000000000000     
   3.6185550488998935E-002   8.6756500707709489E-002   0.0000000000000000     
   3.7479266626613161E-002   9.3185407185740046E-002   0.0000000000000000     
   3.8728837092258085E-002   9.9776517441508755E-002   0.0000000000000000     
   3.9934261885933721E-002  0.10652983147501555        0.0000000000000000     
   3.0229453657279918E-002   8.0102144537744502E-002   0.0000000000000000     
   3.1410146012318452E-002   8.6383880173808728E-002   0.0000000000000000     
   3.2548620983378025E-002   9.2827963582137588E-002   0.0000000000000000     
   3.3644878570458656E-002   9.9434394762731082E-002   0.0000000000000000     
   3.4698918773560322E-002  0.10620317371558922        0.0000000000000000     
   2.5707156677160115E-002   7.9765125546763127E-002   0.0000000000000000     
   2.6724617332170731E-002   8.6060200711830417E-002   0.0000000000000000     
   2.7703941278059908E-002   9.2517651370975576E-002   0.0000000000000000     
   2.8645128514827627E-002   9.9137477524198644E-002   0.0000000000000000     
   2.9548179042473897E-002  0.10591967917149965        0.0000000000000000     
   2.1280797739055991E-002   7.9478741034472916E-002   0.0000000000000000     
   2.2128964448555787E-002   8.5785462321774503E-002   0.0000000000000000     
   2.2945227510658795E-002   9.2254470552254039E-002   0.0000000000000000     
   2.3729586925365018E-002   9.8885765725911456E-002   0.0000000000000000     
   2.4482042692674448E-002  0.10567934784274682        0.0000000000000000     
   1.6950376842967553E-002   7.9242991000873841E-002   0.0000000000000000     
   1.7623187361473613E-002   8.5559665003641039E-002   0.0000000000000000     
   1.8272479681174705E-002   9.2038421125972922E-002   0.0000000000000000     
   1.8898253802070823E-002   9.8679259367869476E-002   0.0000000000000000     
   1.9500509724161976E-002  0.10548217972933077        0.0000000000000000     
   3.9934261885933721E-002  0.10652983147501555        0.0000000000000000     
   4.1089749028431224E-002  0.11342971442968208        0.0000000000000000     
   4.2189506540541787E-002  0.12046053144892986        0.0000000000000000     
   4.3233534422265400E-002  0.12762228253275890        0.0000000000000000     
   4.4221832673602066E-002  0.13491496768116920        0.0000000000000000     
   3.4698918773560322E-002  0.10620317371558922        0.0000000000000000     
   3.5707442952604522E-002  0.11311869461185081        0.0000000000000000     
   3.6667152467512759E-002  0.12016535162265465        0.0000000000000000     
   3.7578047318285034E-002  0.12734314474800079        0.0000000000000000     
   3.8440127504921338E-002  0.13465207398788914        0.0000000000000000     
   2.9548179042473897E-002  0.10591967917149965        0.0000000000000000     
   3.0411139123550038E-002  0.11284876860300044        0.0000000000000000     
   3.1232055020607389E-002  0.11990925810882294        0.0000000000000000     
   3.2010926733645938E-002  0.12710114768896716        0.0000000000000000     
   3.2747754262665699E-002  0.13442443734343310        0.0000000000000000     
   2.4482042692674448E-002  0.10567934784274682        0.0000000000000000     
   2.5200837541267763E-002  0.11261993640313098        0.0000000000000000     
   2.5884214199825659E-002  0.11969225090743471        0.0000000000000000     
   2.6532172668348120E-002  0.12689629135565803        0.0000000000000000     
   2.7144712946835164E-002  0.13423205774780098        0.0000000000000000     
   1.9500509724161976E-002  0.10548217972933077        0.0000000000000000     
   2.0076538205757711E-002  0.11243219801224237        0.0000000000000000     
   2.0623630005167579E-002  0.11951433001848995        0.0000000000000000     
   2.1141785122391579E-002  0.12672857574807345        0.0000000000000000     
   2.1631003557429716E-002  0.13407493520099295        0.0000000000000000     
   4.4221832673602066E-002  0.13491496768116920        0.0000000000000000     
   4.5156889609949444E-002  0.14232926320484174        0.0000000000000000     
   4.6041193546705175E-002  0.14985584541445743        0.0000000000000000     
   4.6874744483869267E-002  0.15749471431001630        0.0000000000000000     
   4.7657542421441726E-002  0.16524586989151832        0.0000000000000000     
   3.8440127504921338E-002  0.13465207398788914        0.0000000000000000     
   3.9255352331656918E-002  0.14208286824283048        0.0000000000000000     
   4.0025681102727022E-002  0.14962625641333546        0.0000000000000000     
   4.0751113818131637E-002  0.15728223849940415        0.0000000000000000     
   4.1431650477870778E-002  0.16505081450103642        0.0000000000000000     
   3.2747754262665699E-002  0.13442443734343310        0.0000000000000000     
   3.3444109732610111E-002  0.14186987376430510        0.0000000000000000     
   3.4101565268422604E-002  0.14942820364366760        0.0000000000000000     
   3.4720120870103184E-002  0.15709942698152063        0.0000000000000000     
   3.5299776537651845E-002  0.16488354377786418        0.0000000000000000     
   2.7144712946835164E-002  0.13423205774780098        0.0000000000000000     
   2.7723161812809018E-002  0.14169027976926563        0.0000000000000000     
   2.8268846043791929E-002  0.14926168710545390        0.0000000000000000     
   2.8781765639783907E-002  0.15694627975636583        0.0000000000000000     
   2.9261920600784936E-002  0.16474405772200143        0.0000000000000000     
   2.1631003557429716E-002  0.13407493520099295        0.0000000000000000     
   2.2092508572253637E-002  0.14154408625771200        0.0000000000000000     
   2.2527523428834996E-002  0.14912670679869425        0.0000000000000000     
   2.2936048127173800E-002  0.15682279682393974        0.0000000000000000     
   2.3318082667270042E-002  0.16463235633344836        0.0000000000000000     
   4.7657542421441726E-002  0.16524586989151832        0.0000000000000000     
   4.8386873326773924E-002  0.17309728871710267        0.0000000000000000     
   4.9060023167217241E-002  0.18103694734490847        0.0000000000000000     
   4.9676991942771691E-002  0.18906484577493565        0.0000000000000000     
   5.0237779653437280E-002  0.19718098400718437        0.0000000000000000     
   4.1431650477870778E-002  0.16505081450103642        0.0000000000000000     
   4.2064354480350091E-002  0.17291986227334183        0.0000000000000000     
   4.2646289223975238E-002  0.18087725967142967        0.0000000000000000     
   4.3177454708746212E-002  0.18892300669530004        0.0000000000000000     
   4.3657850934663026E-002  0.19705710334495288        0.0000000000000000     
   3.5299776537651845E-002  0.16488354377786418        0.0000000000000000     
   3.5837636597089981E-002  0.17276822479010742        0.0000000000000000     
   3.6330805374438960E-002  0.18074114077565973        0.0000000000000000     
   3.6779282869698796E-002  0.18880229173452112        0.0000000000000000     
   3.7183069082869488E-002  0.19695167766669150        0.0000000000000000     
   2.9261920600784936E-002  0.16474405772200143        0.0000000000000000     
   2.9706719676993589E-002  0.17264237626739945        0.0000000000000000     
   3.0113571618608431E-002  0.18062859065759862        0.0000000000000000     
   3.0482476425629439E-002  0.18870270089259883        0.0000000000000000     
   3.0813434098056636E-002  0.19686470697240016        0.0000000000000000     
   2.3318082667270042E-002  0.16463235633344836        0.0000000000000000     
   2.3671603720060923E-002  0.17254231670521797        0.0000000000000000     
   2.3994587956483619E-002  0.18053960931724627        0.0000000000000000     
   2.4287035376538146E-002  0.18862423416953325        0.0000000000000000     
   2.4548945980224494E-002  0.19679619126207892        0.0000000000000000     
   5.0237779653437280E-002  0.19718098400718437        0.0000000000000000     
   5.0740189014923977E-002  0.20537710023988653        0.0000000000000000     
   5.1182022742941820E-002  0.21364493267127418        0.0000000000000000     
   5.1563280837490781E-002  0.22198448130134737        0.0000000000000000     
   5.1883963298570868E-002  0.23039574613010610        0.0000000000000000     
   4.3657850934663026E-002  0.19705710334495288        0.0000000000000000     
   4.4086611179358443E-002  0.20526942449792354        0.0000000000000000     
   4.4462868720465239E-002  0.21354984503174729        0.0000000000000000     
   4.4786623557983407E-002  0.22189836494642409        0.0000000000000000     
   4.5057875691912955E-002  0.23031498424195404        0.0000000000000000     
   3.7183069082869488E-002  0.19695167766669150        0.0000000000000000     
   3.7542222222480312E-002  0.20517745017219158        0.0000000000000000     
   3.7856800497060562E-002  0.21346776085104197        0.0000000000000000     
   3.8126803906610232E-002  0.22182260970324269        0.0000000000000000     
   3.8352232451129342E-002  0.23024199672879370        0.0000000000000000     
   3.0813434098056636E-002  0.19686470697240016        0.0000000000000000     
   3.1107022144289564E-002  0.20510117726269067        0.0000000000000000     
   3.1363818072727777E-002  0.21339868012915833        0.0000000000000000     
   3.1583821883371270E-002  0.22175721557180308        0.0000000000000000     
   3.1767033576220037E-002  0.23017678359062510        0.0000000000000000     
   2.4548945980224494E-002  0.19679619126207892        0.0000000000000000     
   2.4781010944786228E-002  0.20504060576942082        0.0000000000000000     
   2.4983921447466896E-002  0.21334260286609633        0.0000000000000000     
   2.5157677488266503E-002  0.22170218255210544        0.0000000000000000     
   2.5302279067185046E-002  0.23011934482744822        0.0000000000000000     
   5.1883963298570868E-002  0.23039574613010610        0.0000000000000000     
   5.2152134452961116E-002  0.23887031447930504        0.0000000000000000     
   5.2375858627440534E-002  0.24739977367069890        0.0000000000000000     
   5.2555135822009109E-002  0.25598412370428780        0.0000000000000000     
   5.2689966036666869E-002  0.26462336458007152        0.0000000000000000     
   4.5057875691912955E-002  0.23031498424195404        0.0000000000000000     
   4.5285332440089532E-002  0.23878434788996997        0.0000000000000000     
   4.5477701120348810E-002  0.24729110086210465        0.0000000000000000     
   4.5634981732690781E-002  0.25583524315835821        0.0000000000000000     
   4.5757174277115460E-002  0.26441677477873060        0.0000000000000000     
   3.8352232451129342E-002  0.23024199672879370        0.0000000000000000     
   3.8541710361611484E-002  0.23870505450218546        0.0000000000000000     
   3.8703861869050289E-002  0.24719091559790846        0.0000000000000000     
   3.8838686973445745E-002  0.25569958001596255        0.0000000000000000     
   3.8946185674797865E-002  0.26423104775634787        0.0000000000000000     
   3.1767033576220037E-002  0.23017678359062510        0.0000000000000000     
   3.1921268217526971E-002  0.23863243431595166        0.0000000000000000     
   3.2054340873544952E-002  0.24709921787811023        0.0000000000000000     
   3.2166251544273987E-002  0.25557713427710083        0.0000000000000000     
   3.2257000229714075E-002  0.26406618351292344        0.0000000000000000     
   2.5302279067185046E-002  0.23011934482744822        0.0000000000000000     
   2.5424006007835995E-002  0.23856648733126845        0.0000000000000000     
   2.5529138133832820E-002  0.24701600770271009        0.0000000000000000     
   2.5617675445175521E-002  0.25546790594177304        0.0000000000000000     
   2.5689617941864099E-002  0.26392218204845735        0.0000000000000000     
   5.2689966036666869E-002  0.26462336458007152        0.0000000000000000     
   5.2811190249333777E-002  0.27326827585925595        0.0000000000000000     
   5.2949649437929833E-002  0.28186963710304669        0.0000000000000000     
   5.3105343602455037E-002  0.29042744831144374        0.0000000000000000     
   5.3278272742909374E-002  0.29894170948444715        0.0000000000000000     
   4.5757174277115460E-002  0.26441677477873060        0.0000000000000000     
   4.5868452783549320E-002  0.27298576147735903        0.0000000000000000     
   4.5992991281918846E-002  0.28149226900838098        0.0000000000000000     
   4.6130789772224054E-002  0.28993629737179633        0.0000000000000000     
   4.6281848254464943E-002  0.29831784656760518        0.0000000000000000     
   3.8946185674797865E-002  0.26423104775634787        0.0000000000000000     
   3.9045203245718835E-002  0.27273416560052494        0.0000000000000000     
   3.9154584958820848E-002  0.28115778032995425        0.0000000000000000     
   3.9274330814103933E-002  0.28950189194463588        0.0000000000000000     
   3.9404440811568082E-002  0.29776650044456987        0.0000000000000000     
   3.2257000229714075E-002  0.26406618351292344        0.0000000000000000     
   3.2341441635842315E-002  0.27251348822875354        0.0000000000000000     
   3.2434430468635859E-002  0.28086617106776651        0.0000000000000000     
   3.2535966728094688E-002  0.28912423202996240        0.0000000000000000     
   3.2646050414218801E-002  0.29728767111534116        0.0000000000000000     
   2.5689617941864099E-002  0.26392218204845735        0.0000000000000000     
   2.5757167953919795E-002  0.27232372936204496        0.0000000000000000     
   2.5832527811363862E-002  0.28061744122181781        0.0000000000000000     
   2.5915697514196298E-002  0.28880331762777578        0.0000000000000000     
   2.6006677062417098E-002  0.29688135857991899        0.0000000000000000     
   1.3987002135496838E-002   5.5748923047728917E-002   0.0000000000000000     
   1.4770051356583869E-002   6.1350853069991204E-002   0.0000000000000000     
   1.5524963548191332E-002   6.7133841069602768E-002   0.0000000000000000     
   1.6251738710319229E-002   7.3097887046563656E-002   0.0000000000000000     
   1.6950376842967553E-002   7.9242991000873841E-002   0.0000000000000000     
   1.0369650535974429E-002   5.5512291817317455E-002   0.0000000000000000     
   1.1001900643202528E-002   6.1132629177328410E-002   0.0000000000000000     
   1.1597608909885270E-002   6.6930870205940282E-002   0.0000000000000000     
   1.2156775336022656E-002   7.2907014903153072E-002   0.0000000000000000     
   1.2679399921614683E-002   7.9061063268966780E-002   0.0000000000000000     
   6.8392029191335435E-003   5.5368196796435981E-002   0.0000000000000000     
   7.2883207313532402E-003   6.0994204184484604E-002   0.0000000000000000     
   7.7033883335237592E-003   6.6797531458053575E-002   0.0000000000000000     
   8.0844057256451007E-003   7.2778178617142891E-002   0.0000000000000000     
   8.4313729077172619E-003   7.8936145661752541E-002   0.0000000000000000     
   3.3956592849741828E-003   5.5316637985084474E-002   0.0000000000000000     
   3.6293116210360061E-003   6.0935578091459788E-002   0.0000000000000000     
   3.8423018191067995E-003   6.6733824825942673E-002   0.0000000000000000     
   4.0346298791865600E-003   7.2711378188533113E-002   0.0000000000000000     
   4.2062958012752871E-003   7.8868238179231109E-002   0.0000000000000000     
   3.9019633496345605E-005   5.5357615383262948E-002   0.0000000000000000     
   2.4873312250826667E-005   6.0956750898253961E-002   0.0000000000000000     
   1.4349366634389170E-005   6.6739750309607562E-002   0.0000000000000000     
   7.4477966470337122E-006   7.2706613617323751E-002   0.0000000000000000     
   4.1686022887615394E-006   7.8857340821402541E-002   0.0000000000000000     
   1.6950376842967553E-002   7.9242991000873841E-002   0.0000000000000000     
   1.7623187361473613E-002   8.5559665003641039E-002   0.0000000000000000     
   1.8272479681174705E-002   9.2038421125972922E-002   0.0000000000000000     
   1.8898253802070823E-002   9.8679259367869476E-002   0.0000000000000000     
   1.9500509724161976E-002  0.10548217972933077        0.0000000000000000     
   1.2679399921614683E-002   7.9061063268966780E-002   0.0000000000000000     
   1.3176287235937783E-002   8.5385089436015332E-002   0.0000000000000000     
   1.3658241848268386E-002   9.1871167536932669E-002   0.0000000000000000     
   1.4125263758606489E-002   9.8519297571718803E-002   0.0000000000000000     
   1.4577352966952093E-002  0.10532947954037374        0.0000000000000000     
   8.4313729077172619E-003   7.8936145661752541E-002   0.0000000000000000     
   8.7572652369618878E-003   8.5264016297482717E-002   0.0000000000000000     
   9.0750580706006178E-003   9.1754374229933697E-002   0.0000000000000000     
   9.3847514086334571E-003   9.8407219459105438E-002   0.0000000000000000     
   9.6863452510604006E-003  0.10522255198499800        0.0000000000000000     
   4.2062958012752871E-003   7.8868238179231109E-002   0.0000000000000000     
   4.3661213645459218E-003   8.5196445588043221E-002   0.0000000000000000     
   4.5229283481714030E-003   9.1688041204975992E-002   0.0000000000000000     
   4.6767167521517298E-003   9.8343025030029424E-002   0.0000000000000000     
   4.8274865764869022E-003  0.10516139706320352        0.0000000000000000     
   4.1686022887615394E-006   7.8857340821402541E-002   0.0000000000000000     
   2.8556186898894258E-006   8.5182377307696830E-002   0.0000000000000000     
   1.8526809807377234E-006   9.1672168462059556E-002   0.0000000000000000     
   1.1597891613067846E-006   9.8326714284490732E-002   0.0000000000000000     
   7.7694323159620271E-007  0.10514601477499032        0.0000000000000000     
   1.9500509724161976E-002  0.10548217972933077        0.0000000000000000     
   2.0076538205757711E-002  0.11243219801224237        0.0000000000000000     
   2.0623630005167579E-002  0.11951433001848995        0.0000000000000000     
   2.1141785122391579E-002  0.12672857574807345        0.0000000000000000     
   2.1631003557429716E-002  0.13407493520099295        0.0000000000000000     
   1.4577352966952093E-002  0.10532947954037374        0.0000000000000000     
   1.5010818474570168E-002  0.11228690088828130        0.0000000000000000     
   1.5421969282725686E-002  0.11937674906082539        0.0000000000000000     
   1.5810805391418645E-002  0.12659902405800599        0.0000000000000000     
   1.6177326800649046E-002  0.13395372587982307        0.0000000000000000     
   9.6863452510604006E-003  0.10522255198499800        0.0000000000000000     
   9.9762557052554268E-003  0.11218539248919440        0.0000000000000000     
   1.0250898878592506E-002  0.11928076165327781        0.0000000000000000     
   1.0510274771071641E-002  0.12650865947724824        0.0000000000000000     
   1.0754383382692830E-002  0.13386908596110561        0.0000000000000000     
   4.8274865764869022E-003  0.10516139706320352        0.0000000000000000     
   4.9728498978134847E-003  0.11212767281498164        0.0000000000000000     
   5.1104187927680390E-003  0.11922636779584719        0.0000000000000000     
   5.2401932613505694E-003  0.12645748200580018        0.0000000000000000     
   5.3621733035610700E-003  0.13382101544484060        0.0000000000000000     
   7.7694323159620271E-007  0.10514601477499032        0.0000000000000000     
   6.0105224434364724E-007  0.11211374186564303        0.0000000000000000     
   5.2902525228808867E-007  0.11921356748853354        0.0000000000000000     
   5.6086225542865964E-007  0.12644549164366187        0.0000000000000000     
   6.9656325376579384E-007  0.13380951433102795        0.0000000000000000     
   2.1631003557429716E-002  0.13407493520099295        0.0000000000000000     
   2.2092508572253637E-002  0.14154408625771200        0.0000000000000000     
   2.2527523428834996E-002  0.14912670679869425        0.0000000000000000     
   2.2936048127173800E-002  0.15682279682393974        0.0000000000000000     
   2.3318082667270042E-002  0.16463235633344836        0.0000000000000000     
   1.6177326800649046E-002  0.13395372587982307        0.0000000000000000     
   1.6522650906417250E-002  0.14143149376786218        0.0000000000000000     
   1.6847895104723620E-002  0.14902296696370879        0.0000000000000000     
   1.7153059395568160E-002  0.15672814546736286        0.0000000000000000     
   1.7438143778950869E-002  0.16454702927882450        0.0000000000000000     
   1.0754383382692830E-002  0.13386908596110561        0.0000000000000000     
   1.0984089710773135E-002  0.14135270283793405        0.0000000000000000     
   1.1200258752629619E-002  0.14895017184081746        0.0000000000000000     
   1.1402890508262278E-002  0.15666149296975596        0.0000000000000000     
   1.1591984977671116E-002  0.16448666622474944        0.0000000000000000     
   5.3621733035610700E-003  0.13382101544484060        0.0000000000000000     
   5.4768249853212941E-003  0.14130771346792756        0.0000000000000000     
   5.5846143725529875E-003  0.14890832143002039        0.0000000000000000     
   5.6855414652561493E-003  0.15662283933111892        0.0000000000000000     
   5.7796062634307846E-003  0.16445126717122321        0.0000000000000000     
   6.9656325376579384E-007  0.13380951433102795        0.0000000000000000     
   8.5673006172378233E-007  0.14129652565784284        0.0000000000000000     
   9.6196449372908457E-007  0.14889741573131743        0.0000000000000000     
   1.0122665497789901E-006  0.15661218455145179        0.0000000000000000     
   1.0076362298746915E-006  0.16444083211824584        0.0000000000000000     
   2.3318082667270042E-002  0.16463235633344836        0.0000000000000000     
   2.3671603720060923E-002  0.17254231670521797        0.0000000000000000     
   2.3994587956483619E-002  0.18053960931724627        0.0000000000000000     
   2.4287035376538146E-002  0.18862423416953325        0.0000000000000000     
   2.4548945980224494E-002  0.19679619126207892        0.0000000000000000     
   1.7438143778950869E-002  0.16454702927882450        0.0000000000000000     
   1.7701777031403593E-002  0.17246616085490840        0.0000000000000000     
   1.7942587929458194E-002  0.18047208265242939        0.0000000000000000     
   1.8160576473114660E-002  0.18856479467138751        0.0000000000000000     
   1.8355742662373001E-002  0.19674429691178272        0.0000000000000000     
   1.1591984977671116E-002  0.16448666622474944        0.0000000000000000     
   1.1766727916133247E-002  0.17241202346781626        0.0000000000000000     
   1.1926305078925788E-002  0.18042389656097471        0.0000000000000000     
   1.2070716466048735E-002  0.18852228550422473        0.0000000000000000     
   1.2199962077502090E-002  0.19670719029756642        0.0000000000000000     
   5.7796062634307846E-003  0.16445126717122321        0.0000000000000000     
   5.8664563742498732E-003  0.17237990454394156        0.0000000000000000     
   5.9457394048863989E-003  0.18039505104288209        0.0000000000000000     
   6.0174553553403653E-003  0.18849670666804491        0.0000000000000000     
   6.0816042256117697E-003  0.19668487141943000        0.0000000000000000     
   1.0076362298746915E-006  0.16444083211824584        0.0000000000000000     
   9.6240575347462422E-007  0.17236980408328428        0.0000000000000000     
   8.9090734003364602E-007  0.18038554609815166        0.0000000000000000     
   7.9314098955530761E-007  0.18848805816284811        0.0000000000000000     
   6.6910670203654612E-007  0.19667734027737349        0.0000000000000000     
   2.4548945980224494E-002  0.19679619126207892        0.0000000000000000     
   2.4781010944786228E-002  0.20504060576942082        0.0000000000000000     
   2.4983921447466896E-002  0.21334260286609633        0.0000000000000000     
   2.5157677488266503E-002  0.22170218255210544        0.0000000000000000     
   2.5302279067185046E-002  0.23011934482744822        0.0000000000000000     
   1.8355742662373001E-002  0.19674429691178272        0.0000000000000000     
   1.8528669216802386E-002  0.20499448282177518        0.0000000000000000     
   1.8679938855971988E-002  0.21329924584952495        0.0000000000000000     
   1.8809551579881813E-002  0.22165858599503219        0.0000000000000000     
   1.8917507388531863E-002  0.23007250325829676        0.0000000000000000     
   1.2199962077502090E-002  0.19670719029756642        0.0000000000000000     
   1.2314477553170132E-002  0.20496155554914688        0.0000000000000000     
   1.2414698532937127E-002  0.21326832586711336        0.0000000000000000     
   1.2500625016803081E-002  0.22162750125146594        0.0000000000000000     
   1.2572257004767993E-002  0.23003908170220447        0.0000000000000000     
   6.0816042256117697E-003  0.19668487141943000        0.0000000000000000     
   6.1384359538894659E-003  0.20494182395153598        0.0000000000000000     
   6.1882004783623103E-003  0.21324984291886151        0.0000000000000000     
   6.2308977990302994E-003  0.22160892832140666        0.0000000000000000     
   6.2665279158934366E-003  0.23001908015917139        0.0000000000000000     
   6.6910670203654612E-007  0.19667734027737349        0.0000000000000000     
   5.4441896039252903E-007  0.20493528802894243        0.0000000000000000     
   4.4469224753755643E-007  0.21324379700476939        0.0000000000000000     
   3.6992656347119464E-007  0.22160286720485442        0.0000000000000000     
   3.2012190819300998E-007  0.23001249862919745        0.0000000000000000     
   2.5302279067185046E-002  0.23011934482744822        0.0000000000000000     
   2.5424006007835995E-002  0.23856648733126845        0.0000000000000000     
   2.5529138133832820E-002  0.24701600770271009        0.0000000000000000     
   2.5617675445175521E-002  0.25546790594177304        0.0000000000000000     
   2.5689617941864099E-002  0.26392218204845735        0.0000000000000000     
   1.8917507388531863E-002  0.23007250325829676        0.0000000000000000     
   1.9008269375724470E-002  0.23851170788691975        0.0000000000000000     
   1.9086300635261989E-002  0.24694691012850223        0.0000000000000000     
   1.9151601167144414E-002  0.25537810998304417        0.0000000000000000     
   1.9204170971371743E-002  0.26380530745054559        0.0000000000000000     
   1.2572257004767993E-002  0.23003908170220447        0.0000000000000000     
   1.2632403964378336E-002  0.23847259032168941        0.0000000000000000     
   1.2683875363180589E-002  0.24689755021228096        0.0000000000000000     
   1.2726671201174745E-002  0.25531396137397916        0.0000000000000000     
   1.2760791478360813E-002  0.26372182380678416        0.0000000000000000     
   6.2665279158934366E-003  0.23001908015917139        0.0000000000000000     
   6.2964097737975844E-003  0.23844913463557735        0.0000000000000000     
   6.3218623175886144E-003  0.24686792795404633        0.0000000000000000     
   6.3428855472665215E-003  0.25527546011457825        0.0000000000000000     
   6.3594794628313092E-003  0.26367173111717307        0.0000000000000000     
   3.2012190819300998E-007  0.23001249862919745        0.0000000000000000     
   2.8680398221950752E-007  0.23844134082858370        0.0000000000000000     
   2.6149848606903548E-007  0.24685804335379821        0.0000000000000000     
   2.4420541973804309E-007  0.25526260620484115        0.0000000000000000     
   2.3492478323089427E-007  0.26365502938171237        0.0000000000000000     
   2.5689617941864099E-002  0.26392218204845735        0.0000000000000000     
   2.5757167953919795E-002  0.27232372936204496        0.0000000000000000     
   2.5832527811363862E-002  0.28061744122181781        0.0000000000000000     
   2.5915697514196298E-002  0.28880331762777578        0.0000000000000000     
   2.6006677062417098E-002  0.29688135857991899        0.0000000000000000     
   1.9204170971371743E-002  0.26380530745054559        0.0000000000000000     
   1.9253961941205554E-002  0.27217122069299893        0.0000000000000000     
   1.9310925969907428E-002  0.28041856787239683        0.0000000000000000     
   1.9375063057477365E-002  0.28854734898873924        0.0000000000000000     
   1.9446373203915360E-002  0.29655756404202610        0.0000000000000000     
   1.2760791478360813E-002  0.26372182380678416        0.0000000000000000     
   1.2793403338953898E-002  0.27206229391421538        0.0000000000000000     
   1.2831673927169121E-002  0.28027652809979264        0.0000000000000000     
   1.2875603243006479E-002  0.28836452636351584        0.0000000000000000     
   1.2925191286465972E-002  0.29632628870538508        0.0000000000000000     
   6.3594794628313092E-003  0.26367173111717307        0.0000000000000000     
   6.3754921471648306E-003  0.27199694902569427        0.0000000000000000     
   6.3947716831489407E-003  0.28019132190400509        0.0000000000000000     
   6.4173180707836419E-003  0.28825484975210575        0.0000000000000000     
   6.4431313100689344E-003  0.29618753256999597        0.0000000000000000     
   2.3492478323089427E-007  0.26365502938171237        0.0000000000000000     
   2.2836583834584881E-007  0.27197518602743553        0.0000000000000000     
   2.1923784688745486E-007  0.28016294928503432        0.0000000000000000     
   2.0754080885424875E-007  0.28821831915450874        0.0000000000000000     
   1.9327472424671838E-007  0.29614129563585878        0.0000000000000000     
   3.9019633496345605E-005   5.5357615383262948E-002   0.0000000000000000     
   2.4873312250826667E-005   6.0956750898253961E-002   0.0000000000000000     
   1.4349366634389170E-005   6.6739750309607562E-002   0.0000000000000000     
   7.4477966470337122E-006   7.2706613617323751E-002   0.0000000000000000     
   4.1686022887615394E-006   7.8857340821402541E-002   0.0000000000000000     
  -3.3240921172588349E-003   5.5450315617870082E-002   0.0000000000000000     
  -3.5835211823332328E-003   6.1029547025988097E-002   0.0000000000000000     
  -3.8157158635095164E-003   6.6796870458878027E-002   0.0000000000000000     
  -4.0206761607876809E-003   7.2752285916539872E-002   0.0000000000000000     
  -4.1984020741677288E-003   7.8895793398973610E-002   0.0000000000000000     
  -6.7870520492502237E-003   5.5553925315804588E-002   0.0000000000000000     
  -7.2543988500471069E-003   6.1125790895783232E-002   0.0000000000000000     
  -7.6831407109409638E-003   6.6886747823583864E-002   0.0000000000000000     
  -8.0732776319317953E-003   7.2836796099206486E-002   0.0000000000000000     
  -8.4248096130195987E-003   7.8975935722651075E-002   0.0000000000000000     
  -1.0349860162477822E-002   5.5668444477066439E-002   0.0000000000000000     
  -1.0987759690890792E-002   6.1245482507639316E-002   0.0000000000000000     
  -1.1587925175659956E-002   6.7009382403725060E-002   0.0000000000000000     
  -1.2150356616785308E-002   7.2960144165323620E-002   0.0000000000000000     
  -1.2675054014266850E-002   7.9097767792435020E-002   0.0000000000000000     
  -1.4012516456941630E-002   5.5793873101655664E-002   0.0000000000000000     
  -1.4783603704864291E-002   6.1388621861556414E-002   0.0000000000000000     
  -1.5530069257666484E-002   6.7164774199301600E-002   0.0000000000000000     
  -1.6251913115348213E-002   7.3122330114891262E-002   0.0000000000000000     
  -1.6949135277909477E-002   7.9261289608325375E-002   0.0000000000000000     
   4.1686022887615394E-006   7.8857340821402541E-002   0.0000000000000000     
   2.8556186898894258E-006   8.5182377307696830E-002   0.0000000000000000     
   1.8526809807377234E-006   9.1672168462059556E-002   0.0000000000000000     
   1.1597891613067846E-006   9.8326714284490732E-002   0.0000000000000000     
   7.7694323159620271E-007  0.10514601477499032        0.0000000000000000     
  -4.1984020741677288E-003   7.8895793398973610E-002   0.0000000000000000     
  -4.3607071184025995E-003   8.5216293749792379E-002   0.0000000000000000     
  -4.5194048082452289E-003   9.1702687812609388E-002   0.0000000000000000     
  -4.6744951436956160E-003   9.8354975587424578E-002   0.0000000000000000     
  -4.8259781247537645E-003  0.10517315707423798        0.0000000000000000     
  -8.4248096130195987E-003   7.8975935722651075E-002   0.0000000000000000     
  -8.7527419645279363E-003   8.5292677207678733E-002   0.0000000000000000     
  -9.0720799967803495E-003   9.1775531068050448E-002   0.0000000000000000     
  -9.3828237097768486E-003   9.8424497303766220E-002   0.0000000000000000     
  -9.6849731035174302E-003  0.10523957591482606        0.0000000000000000     
  -1.2675054014266850E-002   7.9097767792435020E-002   0.0000000000000000     
  -1.3173248919686111E-002   8.5411527681355875E-002   0.0000000000000000     
  -1.3656172884624623E-002   9.1890698228382736E-002   0.0000000000000000     
  -1.4123825909082387E-002   9.8535279433515657E-002   0.0000000000000000     
  -1.4576207993059398E-002  0.10534527129675458        0.0000000000000000     
  -1.6949135277909477E-002   7.9261289608325375E-002   0.0000000000000000     
  -1.7622227983877133E-002   8.5572845170823794E-002   0.0000000000000000     
  -1.8271683471778054E-002   9.2048189293606281E-002   0.0000000000000000     
  -1.8897501741612234E-002   9.8687321976672862E-002   0.0000000000000000     
  -1.9499682793379672E-002  0.10549024322002351        0.0000000000000000     
   7.7694323159620271E-007  0.10514601477499032        0.0000000000000000     
   6.0105224434364724E-007  0.11211374186564303        0.0000000000000000     
   5.2902525228808867E-007  0.11921356748853354        0.0000000000000000     
   5.6086225542865964E-007  0.12644549164366187        0.0000000000000000     
   6.9656325376579384E-007  0.13380951433102795        0.0000000000000000     
  -4.8259781247537645E-003  0.10517315707423798        0.0000000000000000     
  -4.9716639029747491E-003  0.11214015589527905        0.0000000000000000     
  -5.1093626299136448E-003  0.11923889567277721        0.0000000000000000     
  -5.2390743055704550E-003  0.12646937640673250        0.0000000000000000     
  -5.3607989299451755E-003  0.13383159809714487        0.0000000000000000     
  -9.6849731035174302E-003  0.10523957591482606        0.0000000000000000     
  -9.9751180393665498E-003  0.11220347115799015        0.0000000000000000     
  -1.0249848378688657E-002  0.11929888729001854        0.0000000000000000     
  -1.0509164121483758E-002  0.12652582431091133        0.0000000000000000     
  -1.0753065267751849E-002  0.13388428222066845        0.0000000000000000     
  -1.4576207993059398E-002  0.10534527129675458        0.0000000000000000     
  -1.5009761356931058E-002  0.11230368765377630        0.0000000000000000     
  -1.5420928221072751E-002  0.11939354234025758        0.0000000000000000     
  -1.5809708585484489E-002  0.12661483535619839        0.0000000000000000     
  -1.6176102450166260E-002  0.13396756670159876        0.0000000000000000     
  -1.9499682793379672E-002  0.10549024322002351        0.0000000000000000     
  -2.0075593855668272E-002  0.11244080538263755        0.0000000000000000     
  -2.0622602157065927E-002  0.11952286082349425        0.0000000000000000     
  -2.1140707697572637E-002  0.12673640954259363        0.0000000000000000     
  -2.1629910477188399E-002  0.13408145153993570        0.0000000000000000     
   6.9656325376579384E-007  0.13380951433102795        0.0000000000000000     
   8.5673006172378233E-007  0.14129652565784284        0.0000000000000000     
   9.6196449372908457E-007  0.14889741573131743        0.0000000000000000     
   1.0122665497789901E-006  0.15661218455145179        0.0000000000000000     
   1.0076362298746915E-006  0.16444083211824584        0.0000000000000000     
  -5.3607989299451755E-003  0.13383159809714487        0.0000000000000000     
  -5.4751513853050588E-003  0.14131659457673598        0.0000000000000000     
  -5.5827465539173516E-003  0.14891539967822739        0.0000000000000000     
  -5.6835844357820539E-003  0.15662801340161916        0.0000000000000000     
  -5.7776650308991690E-003  0.16445443574691121        0.0000000000000000     
  -1.0753065267751849E-002  0.13388428222066845        0.0000000000000000     
  -1.0982535691078547E-002  0.14136537539366326        0.0000000000000000     
  -1.1198559265049450E-002  0.14896021820426902        0.0000000000000000     
  -1.1401135989664565E-002  0.15666881065248572        0.0000000000000000     
  -1.1590265864923894E-002  0.16449115273831338        0.0000000000000000     
  -1.6176102450166260E-002  0.13396756670159876        0.0000000000000000     
  -1.6521296187258734E-002  0.14144286810862469        0.0000000000000000     
  -1.6846476168902565E-002  0.14903187130944226        0.0000000000000000     
  -1.7151642395097758E-002  0.15673457630405147        0.0000000000000000     
  -1.7436794865844304E-002  0.16455098309245231        0.0000000000000000     
  -2.1629910477188399E-002  0.13408145153993570        0.0000000000000000     
  -2.2091432873845619E-002  0.14154907272162026        0.0000000000000000     
  -2.2526497265476689E-002  0.14913035899374710        0.0000000000000000     
  -2.2935103652081620E-002  0.15682531035631639        0.0000000000000000     
  -2.3317252033660404E-002  0.16463392680932798        0.0000000000000000     
   1.0076362298746915E-006  0.16444083211824584        0.0000000000000000     
   9.6240575347462422E-007  0.17236980408328428        0.0000000000000000     
   8.9090734003364602E-007  0.18038554609815166        0.0000000000000000     
   7.9314098955530761E-007  0.18848805816284811        0.0000000000000000     
   6.6910670203654612E-007  0.19667734027737349        0.0000000000000000     
  -5.7776650308991690E-003  0.16445443574691121        0.0000000000000000     
  -5.8646072692616295E-003  0.17238132087349400        0.0000000000000000     
  -5.9440300808623779E-003  0.18039532294075797        0.0000000000000000     
  -6.0159334657014143E-003  0.18849644194870302        0.0000000000000000     
  -6.0803174237787378E-003  0.19668467789732924        0.0000000000000000     
  -1.1590265864923894E-002  0.16449115273831338        0.0000000000000000     
  -1.1765105930701115E-002  0.17241405370222049        0.0000000000000000     
  -1.1924813226869902E-002  0.18042432278467554        0.0000000000000000     
  -1.2069387753430258E-002  0.18852195998567853        0.0000000000000000     
  -1.2198829510382186E-002  0.19670696530522949        0.0000000000000000     
  -1.7436794865844304E-002  0.16455098309245231        0.0000000000000000     
  -1.7700533578564978E-002  0.17246800256946365        0.0000000000000000     
  -1.7941458530682537E-002  0.18047254562990445        0.0000000000000000     
  -1.8159569722196976E-002  0.18856461227377461        0.0000000000000000     
  -1.8354867153108301E-002  0.19674420250107430        0.0000000000000000     
  -2.3317252033660404E-002  0.16463392680932798        0.0000000000000000     
  -2.3670890212853228E-002  0.17254316747522347        0.0000000000000000     
  -2.3993965992300283E-002  0.18053999147644462        0.0000000000000000     
  -2.4286479372001572E-002  0.18862439881299131        0.0000000000000000     
  -2.4548430351957088E-002  0.19679638948486361        0.0000000000000000     
   6.6910670203654612E-007  0.19667734027737349        0.0000000000000000     
   5.4441896039252903E-007  0.20493528802894243        0.0000000000000000     
   4.4469224753755643E-007  0.21324379700476939        0.0000000000000000     
   3.6992656347119464E-007  0.22160286720485442        0.0000000000000000     
   3.2012190819300998E-007  0.23001249862919745        0.0000000000000000     
  -6.0803174237787378E-003  0.19668467789732924        0.0000000000000000     
  -6.1373845618502131E-003  0.20494193703355729        0.0000000000000000     
  -6.1873374866717040E-003  0.21325012560430787        0.0000000000000000     
  -6.2301761982432079E-003  0.22160924360958104        0.0000000000000000     
  -6.2659006965647248E-003  0.23001929104937677        0.0000000000000000     
  -1.2198829510382186E-002  0.19670696530522949        0.0000000000000000     
  -1.2313538498775475E-002  0.20496176021757154        0.0000000000000000     
  -1.2413914719659924E-002  0.21326876619694787        0.0000000000000000     
  -1.2499958173035532E-002  0.22162798324335850        0.0000000000000000     
  -1.2571668858902301E-002  0.23003941135680334        0.0000000000000000     
  -1.8354867153108301E-002  0.19674420250107430        0.0000000000000000     
  -1.8527917391815394E-002  0.20499475758098520        0.0000000000000000     
  -1.8679287006717133E-002  0.21329971878268936        0.0000000000000000     
  -1.8808975997813511E-002  0.22165908610618665        0.0000000000000000     
  -1.8916984365104535E-002  0.23007285955147724        0.0000000000000000     
  -2.4548430351957088E-002  0.19679638948486361        0.0000000000000000     
  -2.4780521240969966E-002  0.20504092912379832        0.0000000000000000     
  -2.4983454347843315E-002  0.21334298336153235        0.0000000000000000     
  -2.5157229672577136E-002  0.22170255219806570        0.0000000000000000     
  -2.5301847215171428E-002  0.23011963563339838        0.0000000000000000     
   3.2012190819300998E-007  0.23001249862919745        0.0000000000000000     
   2.8680398221950752E-007  0.23844134082858370        0.0000000000000000     
   2.6149848606903548E-007  0.24685804335379821        0.0000000000000000     
   2.4420541973804309E-007  0.25526260620484115        0.0000000000000000     
   2.3492478323089427E-007  0.26365502938171237        0.0000000000000000     
  -6.2659006965647248E-003  0.23001929104937677        0.0000000000000000     
  -6.2958460012885169E-003  0.23844920259534247        0.0000000000000000     
  -6.3213471320668476E-003  0.24686791291912563        0.0000000000000000     
  -6.3424040888997134E-003  0.25527542202072628        0.0000000000000000     
  -6.3590168717871150E-003  0.26367172990014431        0.0000000000000000     
  -1.2571668858902301E-002  0.23003941135680334        0.0000000000000000     
  -1.2631869698235381E-002  0.23847271363048780        0.0000000000000000     
  -1.2683383612009928E-002  0.24689755315761733        0.0000000000000000     
  -1.2726210600225938E-002  0.25531392993819180        0.0000000000000000     
  -1.2760350662883415E-002  0.26372184397221127        0.0000000000000000     
  -1.8916984365104535E-002  0.23007285955147724        0.0000000000000000     
  -1.9007784286858367E-002  0.23851187393401974        0.0000000000000000     
  -1.9085847941343170E-002  0.24694696406927327        0.0000000000000000     
  -1.9151175328558936E-002  0.25537812995723774        0.0000000000000000     
  -1.9203766448505667E-002  0.26380537159791312        0.0000000000000000     
  -2.5301847215171428E-002  0.23011963563339838        0.0000000000000000     
  -2.5423589767157487E-002  0.23856668350593829        0.0000000000000000     
  -2.5528740120066579E-002  0.24701614565409355        0.0000000000000000     
  -2.5617298273898709E-002  0.25546802207786412        0.0000000000000000     
  -2.5689264228653880E-002  0.26392231277724998        0.0000000000000000     
   2.3492478323089427E-007  0.26365502938171237        0.0000000000000000     
   2.2836583834584881E-007  0.27197518602743553        0.0000000000000000     
   2.1923784688745486E-007  0.28016294928503432        0.0000000000000000     
   2.0754080885424875E-007  0.28821831915450874        0.0000000000000000     
   1.9327472424671838E-007  0.29614129563585878        0.0000000000000000     
  -6.3590168717871150E-003  0.26367172990014431        0.0000000000000000     
  -6.3750432152902469E-003  0.27199700104668673        0.0000000000000000     
  -6.3943408539703130E-003  0.28019139994966041        0.0000000000000000     
  -6.4169097878273088E-003  0.28825492660906527        0.0000000000000000     
  -6.4427500168612369E-003  0.29618758102490150        0.0000000000000000     
  -1.2760350662883415E-002  0.26372184397221127        0.0000000000000000     
  -1.2792977806485648E-002  0.27206239021069528        0.0000000000000000     
  -1.2831266037535935E-002  0.28027666360466341        0.0000000000000000     
  -1.2875215356034270E-002  0.28836466415411566        0.0000000000000000     
  -1.2924825761980660E-002  0.29632639185905207        0.0000000000000000     
  -1.9203766448505667E-002  0.26380537159791312        0.0000000000000000     
  -1.9253575407747858E-002  0.27217135351946115        0.0000000000000000     
  -1.9310556312849978E-002  0.28041874025004337        0.0000000000000000     
  -1.9374709163812030E-002  0.28854753178965981        0.0000000000000000     
  -1.9446033960634022E-002  0.29655772813831049        0.0000000000000000     
  -2.5689264228653880E-002  0.26392231277724998        0.0000000000000000     
  -2.5756836019076867E-002  0.27232389097298437        0.0000000000000000     
  -2.5832211679912440E-002  0.28061762988580019        0.0000000000000000     
  -2.5915391211160595E-002  0.28880352951569771        0.0000000000000000     
  -2.6006374612821327E-002  0.29688158986267682        0.0000000000000000     
  -1.4012516456941630E-002   5.5793873101655664E-002   0.0000000000000000     
  -1.4783603704864291E-002   6.1388621861556414E-002   0.0000000000000000     
  -1.5530069257666484E-002   6.7164774199301600E-002   0.0000000000000000     
  -1.6251913115348213E-002   7.3122330114891262E-002   0.0000000000000000     
  -1.6949135277909477E-002   7.9261289608325375E-002   0.0000000000000000     
  -1.7732805086172886E-002   5.5976387555050161E-002   0.0000000000000000     
  -1.8638425230749656E-002   6.1587201901899410E-002   0.0000000000000000     
  -1.9531950989806424E-002   6.7373973726659556E-002   0.0000000000000000     
  -2.0413382363343210E-002   7.3336703029330610E-002   0.0000000000000000     
  -2.1282719351360002E-002   7.9475389809912575E-002   0.0000000000000000     
  -2.1468510203702829E-002   5.6262164202727817E-002   0.0000000000000000     
  -2.2548718607328929E-002   6.1873215573033290E-002   0.0000000000000000     
  -2.3615948404925646E-002   6.7658031502144972E-002   0.0000000000000000     
  -2.4670199596492980E-002   7.3616611990062850E-002   0.0000000000000000     
  -2.5711472182030935E-002   7.9748957036786985E-002   0.0000000000000000     
  -2.5219631809531462E-002   5.6651203044688667E-002   0.0000000000000000     
  -2.6514483834602122E-002   6.2246662874958052E-002   0.0000000000000000     
  -2.7782061503024143E-002   6.8016947525757820E-002   0.0000000000000000     
  -2.9022364814797530E-002   7.3962056997087994E-002   0.0000000000000000     
  -3.0235393769922278E-002   8.0081991288948579E-002   0.0000000000000000     
  -2.8986169903658782E-002   5.7143504080932682E-002   0.0000000000000000     
  -3.0535720912569231E-002   6.2707543807673682E-002   0.0000000000000000     
  -3.2030290284101919E-002   6.8450721797498143E-002   0.0000000000000000     
  -3.3469878018256849E-002   7.4373038050406029E-002   0.0000000000000000     
  -3.4854484115034029E-002   8.0474492566397382E-002   0.0000000000000000     
  -1.6949135277909477E-002   7.9261289608325375E-002   0.0000000000000000     
  -1.7622227983877133E-002   8.5572845170823794E-002   0.0000000000000000     
  -1.8271683471778054E-002   9.2048189293606281E-002   0.0000000000000000     
  -1.8897501741612234E-002   9.8687321976672862E-002   0.0000000000000000     
  -1.9499682793379672E-002  0.10549024322002351        0.0000000000000000     
  -2.1282719351360002E-002   7.9475389809912575E-002   0.0000000000000000     
  -2.2130116729375492E-002   8.5783073480625249E-002   0.0000000000000000     
  -2.2945729272908399E-002   9.2252793453688406E-002   0.0000000000000000     
  -2.3729556981958715E-002   9.8884549729102086E-002   0.0000000000000000     
  -2.4481599856526436E-002  0.10567834230686628        0.0000000000000000     
  -2.5711472182030935E-002   7.9748957036786985E-002   0.0000000000000000     
  -2.6727352728455681E-002   8.6048656415302974E-002   0.0000000000000000     
  -2.7705427802683424E-002   9.2509299898596506E-002   0.0000000000000000     
  -2.8645697404714149E-002   9.9130887486667610E-002   0.0000000000000000     
  -2.9548161534547864E-002  0.10591341917951626        0.0000000000000000     
  -3.0235393769922278E-002   8.0081991288948579E-002   0.0000000000000000     
  -3.1413935981117698E-002   8.6369593974856954E-002   0.0000000000000000     
  -3.2550779061103131E-002   9.2817708628330581E-002   0.0000000000000000     
  -3.3645923009878551E-002   9.9426335249369432E-002   0.0000000000000000     
  -3.4699367827443983E-002  0.10619547383797349        0.0000000000000000     
  -3.4854484115034029E-002   8.0474492566397382E-002   0.0000000000000000     
  -3.6189866487361555E-002   8.6745886159287230E-002   0.0000000000000000     
  -3.7481783048167516E-002   9.3178019642890630E-002   0.0000000000000000     
  -3.8730233797451913E-002   9.9770893017207540E-002   0.0000000000000000     
  -3.9935218735214752E-002  0.10652450628223796        0.0000000000000000     
  -1.9499682793379672E-002  0.10549024322002351        0.0000000000000000     
  -2.0075593855668272E-002  0.11244080538263755        0.0000000000000000     
  -2.0622602157065927E-002  0.11952286082349425        0.0000000000000000     
  -2.1140707697572637E-002  0.12673640954259363        0.0000000000000000     
  -2.1629910477188399E-002  0.13408145153993570        0.0000000000000000     
  -2.4481599856526436E-002  0.10567834230686628        0.0000000000000000     
  -2.5200104638814277E-002  0.11261893666355056        0.0000000000000000     
  -2.5883318071024945E-002  0.11969109827572455        0.0000000000000000     
  -2.6531240153158459E-002  0.12689482714338823        0.0000000000000000     
  -2.7143870885214798E-002  0.13423012326654160        0.0000000000000000     
  -2.9548161534547864E-002  0.10591341917951626        0.0000000000000000     
  -3.0410782809605158E-002  0.11284219381549199        0.0000000000000000     
  -3.1231523847306600E-002  0.11990251023294431        0.0000000000000000     
  -3.2010384647652206E-002  0.12709436843187322        0.0000000000000000     
  -3.2747365210641963E-002  0.13441776841227870        0.0000000000000000     
  -3.4699367827443983E-002  0.10619547383797349        0.0000000000000000     
  -3.5707628368040922E-002  0.11311057683846187        0.0000000000000000     
  -3.6667219485910875E-002  0.12015709669515358        0.0000000000000000     
  -3.7578141181053890E-002  0.12733503340804864        0.0000000000000000     
  -3.8440393453469918E-002  0.13464438697714706        0.0000000000000000     
  -3.9935218735214752E-002  0.10652450628223796        0.0000000000000000     
  -4.1090641314121545E-002  0.11342408573246016        0.0000000000000000     
  -4.2190404986837779E-002  0.12045485766235232        0.0000000000000000     
  -4.3234509753363487E-002  0.12761682207191449        0.0000000000000000     
  -4.4222955613698649E-002  0.13490997896114659        0.0000000000000000     
  -2.1629910477188399E-002  0.13408145153993570        0.0000000000000000     
  -2.2091432873845619E-002  0.14154907272162026        0.0000000000000000     
  -2.2526497265476689E-002  0.14913035899374710        0.0000000000000000     
  -2.2935103652081620E-002  0.15682531035631639        0.0000000000000000     
  -2.3317252033660404E-002  0.16463392680932798        0.0000000000000000     
  -2.7143870885214798E-002  0.13423012326654160        0.0000000000000000     
  -2.7722470518630190E-002  0.14168798553112594        0.0000000000000000     
  -2.8268299304840865E-002  0.14925941282308247        0.0000000000000000     
  -2.8781357243846815E-002  0.15694440514241129        0.0000000000000000     
  -2.9261644335648040E-002  0.16474296248911224        0.0000000000000000     
  -3.2747365210641963E-002  0.13441776841227870        0.0000000000000000     
  -3.3443933889403421E-002  0.14186360283561769        0.0000000000000000     
  -3.4101559037064091E-002  0.14942276436334709        0.0000000000000000     
  -3.4720240653623981E-002  0.15709525299546689        0.0000000000000000     
  -3.5299978739083089E-002  0.16488106873197705        0.0000000000000000     
  -3.8440393453469918E-002  0.13464438697714706        0.0000000000000000     
  -3.9255822986165305E-002  0.14207592463509555        0.0000000000000000     
  -4.0026276462146376E-002  0.14962041361454098        0.0000000000000000     
  -4.0751753881413118E-002  0.15727785391548324        0.0000000000000000     
  -4.1432255243965543E-002  0.16504824553792244        0.0000000000000000     
  -4.4222955613698649E-002  0.13490997896114659        0.0000000000000000     
  -4.5158137808915852E-002  0.14232495092955955        0.0000000000000000     
  -4.6042451580087712E-002  0.14985236057666410        0.0000000000000000     
  -4.6875896927214222E-002  0.15749220790246035        0.0000000000000000     
  -4.7658473850295396E-002  0.16524449290694829        0.0000000000000000     
  -2.3317252033660404E-002  0.16463392680932798        0.0000000000000000     
  -2.3670890212853228E-002  0.17254316747522347        0.0000000000000000     
  -2.3993965992300283E-002  0.18053999147644462        0.0000000000000000     
  -2.4286479372001572E-002  0.18862439881299131        0.0000000000000000     
  -2.4548430351957088E-002  0.19679638948486361        0.0000000000000000     
  -2.9261644335648040E-002  0.16474296248911224        0.0000000000000000     
  -2.9706547384800268E-002  0.17264210747474015        0.0000000000000000     
  -3.0113453195859188E-002  0.18062886271084971        0.0000000000000000     
  -3.0482361768824812E-002  0.18870322819744079        0.0000000000000000     
  -3.0813273103697143E-002  0.19686520393451354        0.0000000000000000     
  -3.5299978739083089E-002  0.16488106873197705        0.0000000000000000     
  -3.5837876645640504E-002  0.17276738162325384        0.0000000000000000     
  -3.6331037725495306E-002  0.18074136171967323        0.0000000000000000     
  -3.6779461978647482E-002  0.18880300902123542        0.0000000000000000     
  -3.7183149405097059E-002  0.19695232352794018        0.0000000000000000     
  -4.1432255243965543E-002  0.16504824553792244        0.0000000000000000     
  -4.2064877995373937E-002  0.17291898992076443        0.0000000000000000     
  -4.2646719581208616E-002  0.18087748850291535        0.0000000000000000     
  -4.3177780001469573E-002  0.18892374128437497        0.0000000000000000     
  -4.3658059256156817E-002  0.19705774826514350        0.0000000000000000     
  -4.7658473850295396E-002  0.16524449290694829        0.0000000000000000     
  -4.8387551434000579E-002  0.17309693236727206        0.0000000000000000     
  -4.9060498762999144E-002  0.18103724306057584        0.0000000000000000     
  -4.9677315837291090E-002  0.18906542498685969        0.0000000000000000     
  -5.0238002656876418E-002  0.19718147814612352        0.0000000000000000     
  -2.4548430351957088E-002  0.19679638948486361        0.0000000000000000     
  -2.4780521240969966E-002  0.20504092912379832        0.0000000000000000     
  -2.4983454347843315E-002  0.21334298336153235        0.0000000000000000     
  -2.5157229672577136E-002  0.22170255219806570        0.0000000000000000     
  -2.5301847215171428E-002  0.23011963563339838        0.0000000000000000     
  -3.0813273103697143E-002  0.19686520393451354        0.0000000000000000     
  -3.1106797224529071E-002  0.20510152562581463        0.0000000000000000     
  -3.1363544155373499E-002  0.21339892897509080        0.0000000000000000     
  -3.1583513896230431E-002  0.22175741398234208        0.0000000000000000     
  -3.1766706447099863E-002  0.23017698064756847        0.0000000000000000     
  -3.7183149405097059E-002  0.19695232352794018        0.0000000000000000     
  -3.7542192520782600E-002  0.20517779786683790        0.0000000000000000     
  -3.7856683841642716E-002  0.21346792466497860        0.0000000000000000     
  -3.8126623367677435E-002  0.22182270392236242        0.0000000000000000     
  -3.8352011098886717E-002  0.23024213563898926        0.0000000000000000     
  -4.3658059256156817E-002  0.19705774826514350        0.0000000000000000     
  -4.4086707129730535E-002  0.20526974584686805        0.0000000000000000     
  -4.4462873406650977E-002  0.21354997043119578        0.0000000000000000     
  -4.4786558086918123E-002  0.22189842201812660        0.0000000000000000     
  -4.5057761170531986E-002  0.23031510060766069        0.0000000000000000     
  -5.0238002656876418E-002  0.19718147814612352        0.0000000000000000     
  -5.0740341051372893E-002  0.20537736956590519        0.0000000000000000     
  -5.1182112850398247E-002  0.21364506627374225        0.0000000000000000     
  -5.1563318053952513E-002  0.22198456826963481        0.0000000000000000     
  -5.1883956662035671E-002  0.23039587555358287        0.0000000000000000     
  -2.5301847215171428E-002  0.23011963563339838        0.0000000000000000     
  -2.5423589767157487E-002  0.23856668350593829        0.0000000000000000     
  -2.5528740120066579E-002  0.24701614565409355        0.0000000000000000     
  -2.5617298273898709E-002  0.25546802207786412        0.0000000000000000     
  -2.5689264228653880E-002  0.26392231277724998        0.0000000000000000     
  -3.1766706447099863E-002  0.23017698064756847        0.0000000000000000     
  -3.1920934433429270E-002  0.23863264876031448        0.0000000000000000     
  -3.2054010480666112E-002  0.24709943811012469        0.0000000000000000     
  -3.2165934588810396E-002  0.25557734869699905        0.0000000000000000     
  -3.2256706757862116E-002  0.26406638052093750        0.0000000000000000     
  -3.8352011098886717E-002  0.23024213563898926        0.0000000000000000     
  -3.8541466579970256E-002  0.23870527611121944        0.0000000000000000     
  -3.8703609355627729E-002  0.24719118163541320        0.0000000000000000     
  -3.8838439425859121E-002  0.25569985221157054        0.0000000000000000     
  -3.8945956790664440E-002  0.26423128783969141        0.0000000000000000     
  -4.5057761170531986E-002  0.23031510060766069        0.0000000000000000     
  -4.5285186206780459E-002  0.23878456555865316        0.0000000000000000     
  -4.5477536744951419E-002  0.24729137622995914        0.0000000000000000     
  -4.5634812785044887E-002  0.25583553262157860        0.0000000000000000     
  -4.5757014327060856E-002  0.26441703473351164        0.0000000000000000     
  -5.1883956662035671E-002  0.23039587555358287        0.0000000000000000     
  -5.2152093313859865E-002  0.23887051710261570        0.0000000000000000     
  -5.2375792648637197E-002  0.24740002189376251        0.0000000000000000     
  -5.2555054666367701E-002  0.25598438992702338        0.0000000000000000     
  -5.2689879367051363E-002  0.26462362120239830        0.0000000000000000     
  -2.5689264228653880E-002  0.26392231277724998        0.0000000000000000     
  -2.5756836019076867E-002  0.27232389097298437        0.0000000000000000     
  -2.5832211679912440E-002  0.28061762988580019        0.0000000000000000     
  -2.5915391211160595E-002  0.28880352951569771        0.0000000000000000     
  -2.6006374612821327E-002  0.29688158986267682        0.0000000000000000     
  -3.2256706757862116E-002  0.26406638052093750        0.0000000000000000     
  -3.2341171864501812E-002  0.27251367381740565        0.0000000000000000     
  -3.2434174785410039E-002  0.28086636882186894        0.0000000000000000     
  -3.2535715520586747E-002  0.28912446553432725        0.0000000000000000     
  -3.2645794070031979E-002  0.29728796395478074        0.0000000000000000     
  -3.8945956790664440E-002  0.26423128783969141        0.0000000000000000     
  -3.9044995168051842E-002  0.27273437329886596        0.0000000000000000     
  -3.9154388276029475E-002  0.28115799336818420        0.0000000000000000     
  -3.9274136114597319E-002  0.28950214804764629        0.0000000000000000     
  -3.9404238683755394E-002  0.29776683733725212        0.0000000000000000     
  -4.5757014327060856E-002  0.26441703473351164        0.0000000000000000     
  -4.5868305929726946E-002  0.27298598941736518        0.0000000000000000     
  -4.5992852151770749E-002  0.28149250352474631        0.0000000000000000     
  -4.6130652993192300E-002  0.28993657705565473        0.0000000000000000     
  -4.6281708453991571E-002  0.29831821001009079        0.0000000000000000     
  -5.2689879367051363E-002  0.26462362120239830        0.0000000000000000     
  -5.2811104149527104E-002  0.27326852217290337        0.0000000000000000     
  -5.2949566412633882E-002  0.28186989929155487        0.0000000000000000     
  -5.3105266156371678E-002  0.29042775255835279        0.0000000000000000     
  -5.3278203380740505E-002  0.29894208197329691        0.0000000000000000     
  -2.8986169903658782E-002   5.7143504080932682E-002   0.0000000000000000     
  -3.0535720912569231E-002   6.2707543807673682E-002   0.0000000000000000     
  -3.2030290284101919E-002   6.8450721797498143E-002   0.0000000000000000     
  -3.3469878018256849E-002   7.4373038050406029E-002   0.0000000000000000     
  -3.4854484115034029E-002   8.0474492566397382E-002   0.0000000000000000     
  -3.2867239005090851E-002   5.7700000649857967E-002   0.0000000000000000     
  -3.4669304359547633E-002   6.3230033550498041E-002   0.0000000000000000     
  -3.6389661814313856E-002   6.8943522987170394E-002   0.0000000000000000     
  -3.8028311369389535E-002   7.4840468959875020E-002   0.0000000000000000     
  -3.9585253024774655E-002   8.0920871468611918E-002   0.0000000000000000     
  -3.6961953632833722E-002   5.8281626089862607E-002   0.0000000000000000     
  -3.8972108693854701E-002   6.3788307282748993E-002   0.0000000000000000     
  -4.0889203159814841E-002   6.9479519764579126E-002   0.0000000000000000     
  -4.2713237030714141E-002   7.5355263535353018E-002   0.0000000000000000     
  -4.4444210306552621E-002   8.1415538595070655E-002   0.0000000000000000     
  -4.1270313786887412E-002   5.8888380400946613E-002   0.0000000000000000     
  -4.3444133915490450E-002   6.4382365004426539E-002   0.0000000000000000     
  -4.5528914320604880E-002   7.0058712129724338E-002   0.0000000000000000     
  -4.7524655002230701E-002   7.5917421776840022E-002   0.0000000000000000     
  -4.9431355960367927E-002   8.1958493945773619E-002   0.0000000000000000     
  -4.5792319467251902E-002   5.9520263583109967E-002   0.0000000000000000     
  -4.8085380024454866E-002   6.5012206715530652E-002   0.0000000000000000     
  -5.0308795296683965E-002   7.0681100082606044E-002   0.0000000000000000     
  -5.2462565283939187E-002   7.6526943684336074E-002   0.0000000000000000     
  -5.4546689986220559E-002   8.2549737520720784E-002   0.0000000000000000     
  -3.4854484115034029E-002   8.0474492566397382E-002   0.0000000000000000     
  -3.6189866487361555E-002   8.6745886159287230E-002   0.0000000000000000     
  -3.7481783048167516E-002   9.3178019642890630E-002   0.0000000000000000     
  -3.8730233797451913E-002   9.9770893017207540E-002   0.0000000000000000     
  -3.9935218735214752E-002  0.10652450628223796        0.0000000000000000     
  -3.9585253024774655E-002   8.0920871468611918E-002   0.0000000000000000     
  -4.1078550061300283E-002   8.7173582109637784E-002   0.0000000000000000     
  -4.2526265759797441E-002   9.3587452479209354E-002   0.0000000000000000     
  -4.3928400120266137E-002  0.10016248257732663        0.0000000000000000     
  -4.5284953142706377E-002  0.10689867240398958        0.0000000000000000     
  -4.4444210306552621E-002   8.1415538595070655E-002   0.0000000000000000     
  -4.6103392517046933E-002   8.7648730966952651E-002   0.0000000000000000     
  -4.7712053191913781E-002   9.4043226674219549E-002   0.0000000000000000     
  -4.9270192331153137E-002  0.10059902571687143        0.0000000000000000     
  -5.0777809934765009E-002  0.10731612809490823        0.0000000000000000     
  -4.9431355960367927E-002   8.1958493945773619E-002   0.0000000000000000     
  -5.1264393854601534E-002   8.8171332731231775E-002   0.0000000000000000     
  -5.3039145344516515E-002   9.4545342227921214E-002   0.0000000000000000     
  -5.4755610430112893E-002  0.10108052243584194        0.0000000000000000     
  -5.6413789111390653E-002  0.10777687335499396        0.0000000000000000     
  -5.4546689986220559E-002   8.2549737520720784E-002   0.0000000000000000     
  -5.6561554073964057E-002   8.8741387402475197E-002   0.0000000000000000     
  -5.8507542217605665E-002   9.5093799140314336E-002   0.0000000000000000     
  -6.0384654417145418E-002  0.10160697273423817        0.0000000000000000     
  -6.2192890672583309E-002  0.10828090818424671        0.0000000000000000     
  -3.9935218735214752E-002  0.10652450628223796        0.0000000000000000     
  -4.1090641314121545E-002  0.11342408573246016        0.0000000000000000     
  -4.2190404986837779E-002  0.12045485766235232        0.0000000000000000     
  -4.3234509753363487E-002  0.12761682207191449        0.0000000000000000     
  -4.4222955613698649E-002  0.13490997896114659        0.0000000000000000     
  -4.5284953142706377E-002  0.10689867240398958        0.0000000000000000     
  -4.6587474027105759E-002  0.11378094232368603        0.0000000000000000     
  -4.7827511973451885E-002  0.12079421270090379        0.0000000000000000     
  -4.9005066981744762E-002  0.12793848353564286        0.0000000000000000     
  -5.0120139051984404E-002  0.13521375482790318        0.0000000000000000     
  -5.0777809934765009E-002  0.10731612809490823        0.0000000000000000     
  -5.2225778886252266E-002  0.11417936843833859        0.0000000000000000     
  -5.3604972069117761E-002  0.12117358137717110        0.0000000000000000     
  -5.4915389483361471E-002  0.12829876691140576        0.0000000000000000     
  -5.6157031128983438E-002  0.13555492504104252        0.0000000000000000     
  -5.6413789111390653E-002  0.10777687335499396        0.0000000000000000     
  -5.8005555891561054E-002  0.11461936407641786        0.0000000000000000     
  -5.9522785273835380E-002  0.12159296369115430        0.0000000000000000     
  -6.0965477258213607E-002  0.12869767219920325        0.0000000000000000     
  -6.2333631844695751E-002  0.13593348960056476        0.0000000000000000     
  -6.2192890672583309E-002  0.10828090818424671        0.0000000000000000     
  -6.3926805043032150E-002  0.11510092923792381        0.0000000000000000     
  -6.5580951587604769E-002  0.12205235964285335        0.0000000000000000     
  -6.7155330306301164E-002  0.12913519939903534        0.0000000000000000     
  -6.8649941199121350E-002  0.13634944850646979        0.0000000000000000     
  -4.4222955613698649E-002  0.13490997896114659        0.0000000000000000     
  -4.5158137808915852E-002  0.14232495092955955        0.0000000000000000     
  -4.6042451580087712E-002  0.14985236057666410        0.0000000000000000     
  -4.6875896927214222E-002  0.15749220790246035        0.0000000000000000     
  -4.7658473850295396E-002  0.16524449290694829        0.0000000000000000     
  -5.0120139051984404E-002  0.13521375482790318        0.0000000000000000     
  -5.1175775164075996E-002  0.14261045747609907        0.0000000000000000     
  -5.2175022297924790E-002  0.15011902237864488        0.0000000000000000     
  -5.3117880453530775E-002  0.15773944953554053        0.0000000000000000     
  -5.4004349630893955E-002  0.16547173894678605        0.0000000000000000     
  -5.6157031128983438E-002  0.13555492504104252        0.0000000000000000     
  -5.7333631858066683E-002  0.14293222003180375        0.0000000000000000     
  -5.8448926522694275E-002  0.15042081614941158        0.0000000000000000     
  -5.9502915122866221E-002  0.15802071339386606        0.0000000000000000     
  -6.0495597658582513E-002  0.16573191176516713        0.0000000000000000     
  -6.2333631844695751E-002  0.13593348960056476        0.0000000000000000     
  -6.3631707890887929E-002  0.14329023859667350        0.0000000000000000     
  -6.4864164254396200E-002  0.15075774188896421        0.0000000000000000     
  -6.6031000935220574E-002  0.15833599947743693        0.0000000000000000     
  -6.7132217933361077E-002  0.16602501136209158        0.0000000000000000     
  -6.8649941199121350E-002  0.13634944850646979        0.0000000000000000     
  -7.0070003262539676E-002  0.14368451317070835        0.0000000000000000     
  -7.1420735493030491E-002  0.15112979959730283        0.0000000000000000     
  -7.2702137890593807E-002  0.15868530778625317        0.0000000000000000     
  -7.3914210455229654E-002  0.16635103773755938        0.0000000000000000     
  -4.7658473850295396E-002  0.16524449290694829        0.0000000000000000     
  -4.8387551434000579E-002  0.17309693236727206        0.0000000000000000     
  -4.9060498762999144E-002  0.18103724306057584        0.0000000000000000     
  -4.9677315837291090E-002  0.18906542498685969        0.0000000000000000     
  -5.0238002656876418E-002  0.19718147814612352        0.0000000000000000     
  -5.4004349630893955E-002  0.16547173894678605        0.0000000000000000     
  -5.4832083570786151E-002  0.17330399110179134        0.0000000000000000     
  -5.5598736013979168E-002  0.18122430648996626        0.0000000000000000     
  -5.6304306960473026E-002  0.18923268511131083        0.0000000000000000     
  -5.6948796410267712E-002  0.19732912696582505        0.0000000000000000     
  -6.0495597658582513E-002  0.16573191176516713        0.0000000000000000     
  -6.1424661014996364E-002  0.17354294826333708        0.0000000000000000     
  -6.2287792077260977E-002  0.18144235988839799        0.0000000000000000     
  -6.3084990845376346E-002  0.18943014664034982        0.0000000000000000     
  -6.3816257319342484E-002  0.19750630851919262        0.0000000000000000     
  -6.7132217933361077E-002  0.16602501136209158        0.0000000000000000     
  -6.8165283766631238E-002  0.17381380385190925        0.0000000000000000     
  -6.9127666952844571E-002  0.18169140325587099        0.0000000000000000     
  -7.0019367492001078E-002  0.18965780957397671        0.0000000000000000     
  -7.0840385384100771E-002  0.19771302280622649        0.0000000000000000     
  -7.3914210455229654E-002  0.16635103773755938        0.0000000000000000     
  -7.5053951825690760E-002  0.17411655786750793        0.0000000000000000     
  -7.6118360640729951E-002  0.18197143659238527        0.0000000000000000     
  -7.7107436900347201E-002  0.18991567391219144        0.0000000000000000     
  -7.8021180604542523E-002  0.19794926982692646        0.0000000000000000     
  -5.0238002656876418E-002  0.19718147814612352        0.0000000000000000     
  -5.0740341051372893E-002  0.20537736956590519        0.0000000000000000     
  -5.1182112850398247E-002  0.21364506627374225        0.0000000000000000     
  -5.1563318053952513E-002  0.22198456826963481        0.0000000000000000     
  -5.1883956662035671E-002  0.23039587555358287        0.0000000000000000     
  -5.6948796410267712E-002  0.19732912696582505        0.0000000000000000     
  -5.7529009516811995E-002  0.20550695883232381        0.0000000000000000     
  -5.8041751433554667E-002  0.21375950748962230        0.0000000000000000     
  -5.8487022160495707E-002  0.22208677293772036        0.0000000000000000     
  -5.8864821697635142E-002  0.23048875517661815        0.0000000000000000     
  -6.3816257319342484E-002  0.19750630851919262        0.0000000000000000     
  -6.4478627757150200E-002  0.20566480345449864        0.0000000000000000     
  -6.5069138416790323E-002  0.21389958937584003        0.0000000000000000     
  -6.5587789298262825E-002  0.22221066628321687        0.0000000000000000     
  -6.6034580401567733E-002  0.23059803417662905        0.0000000000000000     
  -7.0840385384100771E-002  0.19771302280622649        0.0000000000000000     
  -7.1589195772387509E-002  0.20585090343242959        0.0000000000000000     
  -7.2264273800105208E-002  0.21406531193239550        0.0000000000000000     
  -7.2865619467253853E-002  0.22235624830612416        0.0000000000000000     
  -7.3393232773833444E-002  0.23072371255361562        0.0000000000000000     
  -7.8021180604542523E-002  0.19794926982692646        0.0000000000000000     
  -7.8860713562523915E-002  0.20606525876611667        0.0000000000000000     
  -7.9627157583499336E-002  0.21425667515928865        0.0000000000000000     
  -8.0320512667468799E-002  0.22252351900644235        0.0000000000000000     
  -8.0940778814432290E-002  0.23086579030757776        0.0000000000000000     
  -5.1883956662035671E-002  0.23039587555358287        0.0000000000000000     
  -5.2152093313859865E-002  0.23887051710261570        0.0000000000000000     
  -5.2375792648637197E-002  0.24740002189376251        0.0000000000000000     
  -5.2555054666367701E-002  0.25598438992702338        0.0000000000000000     
  -5.2689879367051363E-002  0.26462362120239830        0.0000000000000000     
  -5.8864821697635142E-002  0.23048875517661815        0.0000000000000000     
  -5.9181291555169796E-002  0.23896457346094163        0.0000000000000000     
  -5.9442573243296583E-002  0.24751334704531686        0.0000000000000000     
  -5.9648666762015468E-002  0.25613507592974394        0.0000000000000000     
  -5.9799572111326471E-002  0.26482976011422282        0.0000000000000000     
  -6.6034580401567733E-002  0.23059803417662905        0.0000000000000000     
  -6.6411884584671607E-002  0.23906817735146574        0.0000000000000000     
  -6.6722074705541076E-002  0.24762758010311586        0.0000000000000000     
  -6.6965150764176098E-002  0.25627624243157948        0.0000000000000000     
  -6.7141112760576716E-002  0.26501416433685665        0.0000000000000000     
  -7.3393232773833444E-002  0.23072371255361562        0.0000000000000000     
  -7.3843872402365285E-002  0.23918132877418793        0.0000000000000000     
  -7.4214297035370677E-002  0.24774272106715947        0.0000000000000000     
  -7.4504506672849594E-002  0.25640788943253007        0.0000000000000000     
  -7.4714501314802048E-002  0.26517683387029989        0.0000000000000000     
  -8.0940778814432290E-002  0.23086579030757776        0.0000000000000000     
  -8.1477255008250815E-002  0.23930402772910839        0.0000000000000000     
  -8.1919240232785379E-002  0.24785876993744768        0.0000000000000000     
  -8.2266734488035939E-002  0.25653001693259575        0.0000000000000000     
  -8.2519737774002538E-002  0.26531776871455243        0.0000000000000000     
  -5.2689879367051363E-002  0.26462362120239830        0.0000000000000000     
  -5.2811104149527104E-002  0.27326852217290337        0.0000000000000000     
  -5.2949566412633882E-002  0.28186989929155487        0.0000000000000000     
  -5.3105266156371678E-002  0.29042775255835279        0.0000000000000000     
  -5.3278203380740505E-002  0.29894208197329691        0.0000000000000000     
  -5.9799572111326471E-002  0.26482976011422282        0.0000000000000000     
  -5.9932144291862131E-002  0.27355326052113843        0.0000000000000000     
  -6.0083238304255035E-002  0.28226143807287585        0.0000000000000000     
  -6.0252854148505147E-002  0.29095429276943507        0.0000000000000000     
  -6.0440991824612503E-002  0.29963182461081611        0.0000000000000000     
  -6.7141112760576716E-002  0.26501416433685665        0.0000000000000000     
  -6.7290180821141812E-002  0.27381149341772809        0.0000000000000000     
  -6.7452575072270371E-002  0.28263837727297492        0.0000000000000000     
  -6.7628295513962378E-002  0.29149481590259685        0.0000000000000000     
  -6.7817342146217832E-002  0.30038080930659411        0.0000000000000000     
  -7.4714501314802048E-002  0.26517683387029989        0.0000000000000000     
  -7.4885213737366160E-002  0.27404322086267247        0.0000000000000000     
  -7.5057576716679925E-002  0.28300071689185197        0.0000000000000000     
  -7.5231590252743369E-002  0.29204932195783800        0.0000000000000000     
  -7.5407254345556521E-002  0.30118903606063091        0.0000000000000000     
  -8.2519737774002538E-002  0.26531776871455243        0.0000000000000000     
  -8.2717243040535127E-002  0.27424844285597161        0.0000000000000000     
  -8.2898243237483668E-002  0.28334845692950694        0.0000000000000000     
  -8.3062738364848135E-002  0.29261781093515860        0.0000000000000000     
  -8.3210728422628555E-002  0.30205650487292646        0.0000000000000000     
  -4.5792319467251902E-002   5.9520263583109967E-002   0.0000000000000000     
  -4.8085380024454866E-002   6.5012206715530652E-002   0.0000000000000000     
  -5.0308795296683965E-002   7.0681100082606044E-002   0.0000000000000000     
  -5.2462565283939187E-002   7.6526943684336074E-002   0.0000000000000000     
  -5.4546689986220559E-002   8.2549737520720784E-002   0.0000000000000000     
  -5.0468496749936531E-002   6.0213402436935286E-002   0.0000000000000000     
  -5.2894692210126056E-002   6.5697288723851610E-002   0.0000000000000000     
  -5.5265036366925625E-002   7.1354501291505668E-002   0.0000000000000000     
  -5.7579529220335234E-002   7.7185040139897465E-002   0.0000000000000000     
  -5.9838170770354866E-002   8.3188905269026975E-002   0.0000000000000000     
  -5.5239371710950613E-002   6.1003923763005181E-002   0.0000000000000000     
  -5.7870915661882114E-002   6.6457067337179626E-002   0.0000000000000000     
  -6.0433827810203372E-002   7.2086733424704758E-002   0.0000000000000000     
  -6.2928108155914403E-002   7.7892922025580527E-002   0.0000000000000000     
  -6.5353756699015178E-002   8.3875633139806977E-002   0.0000000000000000     
  -6.0104944350294169E-002   6.1891827561319640E-002   0.0000000000000000     
  -6.3014050379723033E-002   6.7291542555514727E-002   0.0000000000000000     
  -6.5815169626517220E-002   7.2877796482203286E-002   0.0000000000000000     
  -6.8508302090676709E-002   7.8650589341385302E-002   0.0000000000000000     
  -7.1093447772201515E-002   8.4609921133060789E-002   0.0000000000000000     
  -6.5065214667967178E-002   6.2877113831878675E-002   0.0000000000000000     
  -6.8324096363648820E-002   6.8200714378856900E-002   0.0000000000000000     
  -7.1409061815867134E-002   7.3727690464001266E-002   0.0000000000000000     
  -7.4320111024622160E-002   7.9458042087311762E-002   0.0000000000000000     
  -7.7057243989913871E-002   8.5391769248788385E-002   0.0000000000000000     
  -5.4546689986220559E-002   8.2549737520720784E-002   0.0000000000000000     
  -5.6561554073964057E-002   8.8741387402475197E-002   0.0000000000000000     
  -5.8507542217605665E-002   9.5093799140314336E-002   0.0000000000000000     
  -6.0384654417145418E-002  0.10160697273423817        0.0000000000000000     
  -6.2192890672583309E-002  0.10828090818424671        0.0000000000000000     
  -5.9838170770354866E-002   8.3188905269026975E-002   0.0000000000000000     
  -6.2029951977289444E-002   8.9359321315427953E-002   0.0000000000000000     
  -6.4143863801443851E-002   9.5689512915634101E-002   0.0000000000000000     
  -6.6179906242818082E-002  0.10217948006964539        0.0000000000000000     
  -6.8138079301412163E-002  0.10882922277746189        0.0000000000000000     
  -6.5353756699015178E-002   8.3875633139806977E-002   0.0000000000000000     
  -6.7704666366732627E-002   9.0025560804835050E-002   0.0000000000000000     
  -6.9974730086293666E-002   9.6333399058115735E-002   0.0000000000000000     
  -7.2163947857698252E-002  0.10279914789964900        0.0000000000000000     
  -7.4272319680946400E-002  0.10942280732943487        0.0000000000000000     
  -7.1093447772201515E-002   8.4609921133060789E-002   0.0000000000000000     
  -7.3585697242293635E-002   9.0740105870696489E-002   0.0000000000000000     
  -7.6000141072155122E-002   9.7025457567759210E-002   0.0000000000000000     
  -7.8336779261785894E-002  0.10346597622424894        0.0000000000000000     
  -8.0595611811186033E-002  0.11006166184016566        0.0000000000000000     
  -7.7057243989913871E-002   8.5391769248788385E-002   0.0000000000000000     
  -7.9673044603972468E-002   9.1502956513012282E-002   0.0000000000000000     
  -8.2220096759028208E-002   9.7765688444564555E-002   0.0000000000000000     
  -8.4698400455081063E-002  0.10417996504344521        0.0000000000000000     
  -8.7107955692131048E-002  0.11074578630965426        0.0000000000000000     
  -6.2192890672583309E-002  0.10828090818424671        0.0000000000000000     
  -6.3926805043032150E-002  0.11510092923792381        0.0000000000000000     
  -6.5580951587604769E-002  0.12205235964285335        0.0000000000000000     
  -6.7155330306301164E-002  0.12913519939903534        0.0000000000000000     
  -6.8649941199121350E-002  0.13634944850646979        0.0000000000000000     
  -6.8138079301412163E-002  0.10882922277746189        0.0000000000000000     
  -7.0014735327733654E-002  0.11562481565610802        0.0000000000000000     
  -7.1806226672290155E-002  0.12255233332260833        0.0000000000000000     
  -7.3512553335081665E-002  0.12961177577696281        0.0000000000000000     
  -7.5133715316108157E-002  0.13680314301917146        0.0000000000000000     
  -7.4272319680946400E-002  0.10942280732943487        0.0000000000000000     
  -7.6294555732733721E-002  0.11619177506422203        0.0000000000000000     
  -7.8225366189755785E-002  0.12309344882075922        0.0000000000000000     
  -8.0064751052012550E-002  0.13012782859904642        0.0000000000000000     
  -8.1812710319504128E-002  0.13729491439908362        0.0000000000000000     
  -8.0595611811186033E-002  0.11006166184016566        0.0000000000000000     
  -8.2766266258032337E-002  0.11680180746226587        0.0000000000000000     
  -8.4838370140001618E-002  0.12367570613730602        0.0000000000000000     
  -8.6811923457093917E-002  0.13068335786528618        0.0000000000000000     
  -8.8686926209309222E-002  0.13782476264620624        0.0000000000000000     
  -8.7107955692131048E-002  0.11074578630965426        0.0000000000000000     
  -8.9429866903629487E-002  0.11745491285023948        0.0000000000000000     
  -9.1645238523027694E-002  0.12429910527224877        0.0000000000000000     
  -9.3754070550325697E-002  0.13127836357568204        0.0000000000000000     
  -9.5756362985523480E-002  0.13839268776053937        0.0000000000000000     
  -6.8649941199121350E-002  0.13634944850646979        0.0000000000000000     
  -7.0070003262539676E-002  0.14368451317070835        0.0000000000000000     
  -7.1420735493030491E-002  0.15112979959730283        0.0000000000000000     
  -7.2702137890593807E-002  0.15868530778625317        0.0000000000000000     
  -7.3914210455229654E-002  0.16635103773755938        0.0000000000000000     
  -7.5133715316108157E-002  0.13680314301917146        0.0000000000000000     
  -7.6675681749975980E-002  0.14411538038629551        0.0000000000000000     
  -7.8144421771291411E-002  0.15153743321539623        0.0000000000000000     
  -7.9539935380054480E-002  0.15906930150647361        0.0000000000000000     
  -8.0862222576265186E-002  0.16671098525952771        0.0000000000000000     
  -8.1812710319504128E-002  0.13729491439908362        0.0000000000000000     
  -8.3475907130150850E-002  0.14458317687582214        0.0000000000000000     
  -8.5061004621873146E-002  0.15198108668421340        0.0000000000000000     
  -8.6568002794671070E-002  0.15948864382425726        0.0000000000000000     
  -8.7996901648544609E-002  0.16710584829595387        0.0000000000000000     
  -8.8686926209309222E-002  0.13782476264620624        0.0000000000000000     
  -9.0470679403064247E-002  0.14508790263928828        0.0000000000000000     
  -9.2170484044775708E-002  0.15246076000375422        0.0000000000000000     
  -9.3786340134443591E-002  0.15994333473960412        0.0000000000000000     
  -9.5318247672067924E-002  0.16753562684683790        0.0000000000000000     
  -9.5756362985523480E-002  0.13839268776053937        0.0000000000000000     
  -9.7659998568716211E-002  0.14562955767669389        0.0000000000000000     
  -9.9472860039999056E-002  0.15297645317401876        0.0000000000000000     
 -0.10119494739937204       0.16043337425251405        0.0000000000000000     
 -0.10282626064683514       0.16800032091217970        0.0000000000000000     
  -7.3914210455229654E-002  0.16635103773755938        0.0000000000000000     
  -7.5053951825690760E-002  0.17411655786750793        0.0000000000000000     
  -7.6118360640729951E-002  0.18197143659238527        0.0000000000000000     
  -7.7107436900347201E-002  0.18991567391219144        0.0000000000000000     
  -7.8021180604542523E-002  0.19794926982692646        0.0000000000000000     
  -8.0862222576265186E-002  0.16671098525952771        0.0000000000000000     
  -8.2108213546019437E-002  0.17445247039924530        0.0000000000000000     
  -8.3274838475413213E-002  0.18228374285031329        0.0000000000000000     
  -8.4362097364446539E-002  0.19020480261273170        0.0000000000000000     
  -8.5369990213119376E-002  0.19821564968650052        0.0000000000000000     
  -8.7996901648544609E-002  0.16710584829595387        0.0000000000000000     
  -8.9345617281461731E-002  0.17482280153623372        0.0000000000000000     
  -9.0612065791390486E-002  0.18262960498202752        0.0000000000000000     
  -9.1796247178330861E-002  0.19052625863333511        0.0000000000000000     
  -9.2898161442282884E-002  0.19851276249015662        0.0000000000000000     
  -9.5318247672067924E-002  0.16753562684683790        0.0000000000000000     
  -9.6766163032017641E-002  0.17522755127847323        0.0000000000000000     
  -9.8130042588661731E-002  0.18300902298752783        0.0000000000000000     
  -9.9409886342000195E-002  0.19088004197400169        0.0000000000000000     
 -0.10060569429203303       0.19884060823789476        0.0000000000000000     
 -0.10282626064683514       0.16800032091217970        0.0000000000000000     
 -0.10436985079768718       0.17566671962596378        0.0000000000000000     
 -0.10582876886722697       0.18342199686681437        0.0000000000000000     
 -0.10720301485545454       0.19126615263473140        0.0000000000000000     
 -0.10849258876236983       0.19919918692971489        0.0000000000000000     
  -7.8021180604542523E-002  0.19794926982692646        0.0000000000000000     
  -7.8860713562523915E-002  0.20606525876611667        0.0000000000000000     
  -7.9627157583499336E-002  0.21425667515928865        0.0000000000000000     
  -8.0320512667468799E-002  0.22252351900644235        0.0000000000000000     
  -8.0940778814432290E-002  0.23086579030757776        0.0000000000000000     
  -8.5369990213119376E-002  0.19821564968650052        0.0000000000000000     
  -8.6302282954987264E-002  0.20630865137001916        0.0000000000000000     
  -8.7162741523605730E-002  0.21447617496168703        0.0000000000000000     
  -8.7951365918974789E-002  0.22271822046150419        0.0000000000000000     
  -8.8668156141094398E-002  0.23103478786947057        0.0000000000000000     
  -9.2898161442282884E-002  0.19851276249015662        0.0000000000000000     
  -9.3923005777205429E-002  0.20658186315859622        0.0000000000000000     
  -9.4875977377057455E-002  0.21472630724475816        0.0000000000000000     
  -9.5757076241838962E-002  0.22294609474864241        0.0000000000000000     
  -9.6566302371549922E-002  0.23124122567024899        0.0000000000000000     
 -0.10060569429203303       0.19884060823789476        0.0000000000000000     
 -0.10172288202917840       0.20688489413184791        0.0000000000000000     
 -0.10276686514385450       0.21500707200850203        0.0000000000000000     
 -0.10373764363606131       0.22320714186785709        0.0000000000000000     
 -0.10463521750579885       0.23148510370991310        0.0000000000000000     
 -0.10849258876236983       0.19919918692971489        0.0000000000000000     
 -0.10970191171090621       0.20721774428977419        0.0000000000000000     
 -0.11083540482399687       0.21531846925291862        0.0000000000000000     
 -0.11189306810164187       0.22350136181914818        0.0000000000000000     
 -0.11287490154384119       0.23176642198846287        0.0000000000000000     
  -8.0940778814432290E-002  0.23086579030757776        0.0000000000000000     
  -8.1477255008250815E-002  0.23930402772910839        0.0000000000000000     
  -8.1919240232785379E-002  0.24785876993744768        0.0000000000000000     
  -8.2266734488035939E-002  0.25653001693259575        0.0000000000000000     
  -8.2519737774002538E-002  0.26531776871455243        0.0000000000000000     
  -8.8668156141094398E-002  0.23103478786947057        0.0000000000000000     
  -8.9298571191244597E-002  0.23945124932726652        0.0000000000000000     
  -8.9828070070705354E-002  0.24799297697657247        0.0000000000000000     
  -9.0256652779476684E-002  0.25665997081738839        0.0000000000000000     
  -9.0584319317558573E-002  0.26545223084971425        0.0000000000000000     
  -9.6566302371549922E-002  0.23124122567024899        0.0000000000000000     
  -9.7294359740262973E-002  0.23963796867970208        0.0000000000000000     
  -9.7931952322050791E-002  0.24816259244712588        0.0000000000000000     
  -9.8479080116913309E-002  0.25681509697252025        0.0000000000000000     
  -9.8935743124850581E-002  0.26559548225588542        0.0000000000000000     
 -0.10463521750579885       0.23148510370991310        0.0000000000000000     
 -0.10546462065530601       0.23986418578641500        0.0000000000000000     
 -0.10623088698682166       0.24836761634910776        0.0000000000000000     
 -0.10693401650034587       0.25699539539799138        0.0000000000000000     
 -0.10757400919587853       0.26574752293306575        0.0000000000000000     
 -0.11287490154384119       0.23176642198846287        0.0000000000000000     
 -0.11380935393637362       0.24012990064740533        0.0000000000000000     
 -0.11472487406501800       0.24860804868251826        0.0000000000000000     
 -0.11562146192977428       0.25720086609380161        0.0000000000000000     
 -0.11649911753064249       0.26590835288125536        0.0000000000000000     
  -8.2519737774002538E-002  0.26531776871455243        0.0000000000000000     
  -8.2717243040535127E-002  0.27424844285597161        0.0000000000000000     
  -8.2898243237483668E-002  0.28334845692950694        0.0000000000000000     
  -8.3062738364848135E-002  0.29261781093515860        0.0000000000000000     
  -8.3210728422628555E-002  0.30205650487292646        0.0000000000000000     
  -9.0584319317558573E-002  0.26545223084971425        0.0000000000000000     
  -9.0841444573413463E-002  0.27443284562406256        0.0000000000000000     
  -9.1058403435503754E-002  0.28366490369094571        0.0000000000000000     
  -9.1235195903829405E-002  0.29314840505036383        0.0000000000000000     
  -9.1371821978390472E-002  0.30288334970231678        0.0000000000000000     
  -9.8935743124850581E-002  0.26559548225588542        0.0000000000000000     
  -9.9312994178765823E-002  0.27460211539338275        0.0000000000000000     
  -9.9621886111562294E-002  0.28393336348117393        0.0000000000000000     
  -9.9862418923239965E-002  0.29358922651925901        0.0000000000000000     
 -0.10003459261379888       0.30356970450763793        0.0000000000000000     
 -0.10757400919587853       0.26574752293306575        0.0000000000000000     
 -0.10813189185659221       0.27475625216393218        0.0000000000000000     
 -0.10858869126565930       0.28415383630019159        0.0000000000000000     
 -0.10894440742307980       0.29394027534184414        0.0000000000000000     
 -0.10919904032885375       0.30411556928888983        0.0000000000000000     
 -0.11649911753064249       0.26590835288125536        0.0000000000000000     
 -0.11729813760689264       0.27489525593571068        0.0000000000000000     
 -0.11795881889779480       0.28432632214799869        0.0000000000000000     
 -0.11848116140334893       0.29420155151811933        0.0000000000000000     
 -0.11886516512355505       0.30452094404607261        0.0000000000000000     
 </DataArray>
 <DataArray  type="Float64" Name="stress" NumberOfComponents="3" format="ascii">
   6358855869.2071352        210988159.16013122        167981675.51343489     
   6035649492.0297661        111862876.34476900        52505000.082989298     
   5718806528.2781019        33948971.615089893       -19507923.870446615     
   5408326977.9521360       -22753555.028925180       -48057096.346883103     
   5104210841.0518723       -58244703.587269545       -33142517.346315041     
   5691402784.4060049        81931071.680564404        263037386.87044182     
   5478466181.8472729        35556890.754746199        191302541.82490379     
   5269346796.4186430        1906766.9292204380        148753517.64989281     
   5064044628.1200867       -19019299.796039343        135390314.34539604     
   4862559676.9516106       -27221309.421021223        151212931.91142893     
   5152355683.9780073       -8604220.4870588779        367143829.20910150     
   5008894768.5908508       -14465525.757458925        336180252.20358026     
   4866704874.0381527       -16090094.912963390        320124565.46210408     
   4725786000.3199234       -13477927.953593969        318976768.98466694     
   4586138147.4361591       -6629024.8793196678        332736862.77127421     
   4741714567.9231777       -60617717.342731714        480301002.52942127     
   4626935252.2604818       -38204373.191847801        487138131.21902931     
   4510880761.1366405       -20041613.911457539        494605219.56619710     
   4393551094.5516462       -6129439.5015733242        502702267.57093412     
   4274946252.5055084        3532150.0378203392        511429275.23322725     
   4459479436.2414904       -74109418.886465549        602508906.83138549     
   4332587632.8561792       -35659651.548420429        644176178.87124109     
   4201874457.7141061       -9947790.0662534237        672195479.96217763     
   4067339910.8152618        3026165.5600106716        686566810.10419512     
   3928983992.1596503        3262215.3303914070        687290169.29729176     
   5104210841.0518723       -58244703.587269545       -33142517.346315041     
   4968499485.4792442       -34962671.805978537       -8532206.4163895212     
   4831865428.0905886       -14756312.744799852        10274297.285327839     
   4694308668.8859119        2374373.5963106155        23276993.758833837     
   4555829207.8651943        16429387.217301130        30475883.004130390     
   4862559676.9516106       -27221309.421021223        151212931.91142893     
   4713039454.9619064       -14794547.280098915        164572110.79694301     
   4563024666.1798658       -4016341.1136083603        175617954.19916192     
   4412515310.6055079        5113309.0784840584        184350462.11807287     
   4261511388.2388163        12594403.296119213        190769634.55367205     
   4586138147.4361591       -6629024.8793196678        332736862.77127421     
   4432781835.4433861       -2065699.4545574188        335344400.47336644     
   4279359091.6819830        2276186.7414350510        339129074.43707401     
   4125869916.1519666        6396633.7087025642        344090884.66236997     
   3972314308.8533106        10295641.447202682        350229831.14926517     
   4274946252.5055084        3532150.0378203392        511429275.23322725     
   4127726626.9236898        3223871.6706299782        503784662.61288905     
   3980868704.5969405        4121270.8203434944        500807657.99905932     
   3834372485.5252676        6224347.4869878292        502498261.39172828     
   3688237969.7086706        9533101.6705374718        508856472.79091358     
   3928983992.1596503        3262215.3303914070        687290169.29729176     
   3797873829.4028029        1074166.0954499245        669892897.21549845     
   3667553504.9247274        1518911.1230912209        660653704.88511753     
   3538023018.7254295        4596450.4133269787        659572592.30615103     
   3409282370.8049092        10306783.966142416        666649559.47858942     
   4555829207.8651943        16429387.217301130        30475883.004130390     
   4351886522.6113396        9502375.9947240353        17312550.205364272     
   4147981006.7073827        2699262.6051619053        9809525.3855935168     
   3944112660.1533198       -3979952.9514439106        7966808.5448264536     
   3740281482.9491496       -10535270.675052404        11784399.683048349     
   4261511388.2388163        12594403.296119213        190769634.55367205     
   4072290811.9086757        7796335.6584749222        179151993.88497221     
   3883027989.8436613        2857448.9045798779        172707449.73592046     
   3693722922.0437698       -2222256.9655792713        171436002.10650644     
   3504375608.5089979       -7442781.9519977570        175337650.99675071     
   3972314308.8533106        10295641.447202682        350229831.14926517     
   3796423808.7058935        7208907.5721828938        340065231.67838806     
   3620411647.7388277        3716637.6316652298        334586517.26780301     
   3444277825.9521070       -181168.37436223030        333793687.91752297     
   3268022343.3457427       -4484510.4458806515        337686743.62754488     
   3688237969.7086706        9533101.6705374718        508856472.79091358     
   3524285513.0029860        7740091.7358508110        500052263.58561635     
   3360131980.3928680        5276828.7864120007        495446727.98126996     
   3195777371.8783331        2143312.8222221136        495039865.97788483     
   3031221687.4593697       -1660456.1567023993        498831677.57544267     
   3409282370.8049092        10306783.966142416        666649559.47858942     
   3255875924.7999539        9389888.1494874954        659113089.60665119     
   3102188987.8057995        7538022.3688296080        655288081.87630427     
   2948221559.8224473        4751186.6241866350        655174536.28757226     
   2793973640.8498955        1029380.9155389071        658772452.84044445     
   3740281482.9491496       -10535270.675052404        11784399.683048349     
   3566913356.2229247       -8561683.7827234268        4977503.1386794634     
   3393105855.4034495       -8052677.2012619972        3325152.0949415183     
   3218858980.4906902       -9008250.9307370186        6827346.5518498849     
   3044172731.4846544       -11428404.971122265        15484086.509381507     
   3504375608.5089979       -7442781.9519977570        175337650.99675071     
   3343910327.4965987       -4411613.0709745884        167669754.46185985     
   3183215039.9843707       -2147132.5227272511        164528520.97804371     
   3022289745.9723220       -649340.30720269680        165913950.54528564     
   2861134445.4604545        81763.575582981110        171826043.16360232     
   3268022343.3457427       -4484510.4458806515        337686743.62754488     
   3118665958.1912255       -933944.53299331665        329402109.29450977     
   2969288934.1303482        2547825.0253430605        325016255.56295985     
   2819891271.1630859        5960798.2290645838        324529182.43291217     
   2670472969.2894540        9304975.0782282352        327940889.90435797     
   3031221687.4593697       -1660456.1567023993        498831677.57544267     
   2891180248.3068376        1871321.8313034773        490174567.63661128     
   2751327537.8413715        6032195.4429042339        484788355.84969556     
   2611663556.0629888        10822164.678090096        482673042.21470547     
   2472188302.9716797        16241229.536864400        483828626.73163241     
   2793973640.8498955        1029380.9155389071        658772452.84044445     
   2661453197.8434176        4004186.0219039917        649987129.48817074     
   2529330851.1174541        8305978.7299948931        643844821.83824301     
   2397606600.6720123        13934759.039828181        640345529.89067006     
   2266280446.5071087        20890526.951448441        639489253.64544046     
   3044172731.4846544       -11428404.971122265        15484086.509381507     
   2880968923.4617791       -10439880.009239912        11233247.428077409     
   2718180718.1304021       -8066012.7423750162        7373993.5190715482     
   2555808115.4905314       -4306803.1704903841        3906324.7823639251     
   2393851115.5421543        837748.70638549328        830241.21797503624     
   2861134445.4604545        81763.575582981110        171826043.16360232     
   2699778013.3093572        707209.02656555176        165627100.32984853     
   2538621707.0382934        1999740.7443152666        160541418.26611912     
   2377665526.6472526        3959358.7288085222        156568996.97244230     
   2216909472.1362405        6586062.9800847769        153709836.44880268     
   2670472969.2894540        9304975.0782282352        327940889.90435797     
   2513025843.2893882        10185920.102113605        319542453.70476115     
   2355563366.3578768        11015695.354513288        312978953.87293988     
   2198085538.4949183        11794300.835417390        308250390.40889418     
   2040592359.7005277        12521736.544884443        305356763.31262273     
   2472188302.9716797        16241229.536864400        483828626.73163241     
   2320712413.4018736        17996253.217394590        472979307.55282289     
   2169005696.0891638        18981851.088215470        464686600.33951658     
   2017068151.0335317        19198023.149310350        458950505.09173286     
   1864899778.2349916        18644769.400703788        455771021.80944443     
   2266280446.5071087        20890526.951448441        639489253.64544046     
   2122837723.6468241        24138208.372415304        625937661.87403154     
   1978948696.2321472        25898207.945426822        615664357.66586137     
   1834613364.2630811        26170525.670471072        608669341.02093637     
   1689831727.7396405        24955161.547598600        604952611.93925786     
   2393851115.5421543        837748.70638549328        830241.21797503624     
   2250584262.3800249        7438320.9376904964       -6383611.7482370865     
   2104164867.8353858        3530421.8939390182       -11283075.102192380     
   1954592931.9081931       -10885948.424972534       -13868148.843924152     
   1801868454.5984650       -35810790.019013047       -14138832.973429840     
   2216909472.1362405        6586062.9800847769        153709836.44880268     
   2078412978.0882030        13034090.562587023        143198140.87127611     
   1937832922.0232024        12536911.421889186        134076765.30363463     
   1795169303.9412527        5094525.5580214262        126345709.74585454     
   1650422123.8423457       -9293067.0290362835        120004974.19794032     
   2040592359.7005277        12521736.544884443        305356763.31262273     
   1904226025.9026566        18025159.819336176        292794367.71696335     
   1766845109.4534235        20146640.922562361        280698222.52881670     
   1628449610.3528244        18886179.854582727        269068327.74818051     
   1489039528.6008439        14243776.615325749        257904683.37503716     
   1864899778.2349916        18644769.400703788        455771021.80944443     
   1728023405.8234146        22411528.707991838        442405068.78882492     
   1591201430.1260505        26359610.395982981        428581296.57335812     
   1454433851.1428871        30489014.464657843        414299705.16303045     
   1317720668.8739469        34799740.914056003        399560294.55784434     
   1689831727.7396405        24955161.547598600        604952611.93925786     
   1549805117.8504624        26193197.228534341        592030244.08687019     
   1410901884.0410573        31175819.842067719        577725987.43724465     
   1273122026.3114741        39903029.388324380        562039841.99042046     
   1136465544.6616666        52374825.867177904        544971807.74636734     
   1801868454.5984650       -35810790.019013047       -14138832.973429840     
   1771151002.4242084       -16740126.691642642       -8360189.7346292809     
   1748460859.1362901        29088232.923533678       -41439592.624911062     
   1733798024.7347031        101674288.82647645       -113377041.64431873     
   1727162499.2194326        201018041.01714021       -224172536.79278827     
   1650422123.8423457       -9293067.0290362835        120004974.19794032     
   1527758993.0910084       -13925873.426513135        135636953.53273875     
   1409242878.0172324       -4735294.2321287990        124869565.41231194     
   1294873778.6210508        18278670.554230630        87702809.836656034     
   1184651694.9024196        55116020.932446122        24136686.805774886     
   1489039528.6008439        14243776.615325749        257904683.37503716     
   1310026944.0548894       -3413632.0723193288        278862990.06227767     
   1131281081.9777462       -20181965.863918304        285880607.96816224     
   952801942.36942410       -36061224.759460509        278957537.09268087     
   774589525.22993183       -51051408.758896887        258093777.43583009     
   1317720668.8739469        34799740.914056003        399560294.55784434     
   1117954855.3158643        14796597.371032715        421317919.85398275     
   914575471.01783645       -17251781.971809089        441593535.04262114     
   707582515.97987175       -61345397.114462823        460387140.12377030     
   496975990.20195431       -117484248.05693683        477698735.09742373     
   1136465544.6616666        52374825.867177904        544971807.74636734     
   951542726.87393081        40704814.903492093        563001742.90784264     
   759126045.13748813        4055257.4441336095        592008346.63568449     
   559215499.45234835       -57573846.510898560        631991618.92990899     
   351811089.81850970       -144182496.96157688        682951559.79050624     
   1727162499.2194326        201018041.01714021       -224172536.79278827     
   1456637317.2112370        184602662.66279960       -96640684.387813061     
   1153958078.8899686        61007096.598228037        60082464.947487108     
   819124784.25565469       -169768657.17650062        245996911.21308023     
   452137433.30826575       -507724598.66147923        461102654.40899068     
   1184651694.9024196        55116020.932446122        24136686.805774886     
   977612727.48756301        11846433.821714580        155535794.78590614     
   732759575.79284453       -157470434.22187907        312776280.62054056     
   450092239.81830108       -452834583.19822872        495858144.30969226     
   129610719.56391132       -874246013.10739899        704781385.85333443     
   774589525.22993183       -51051408.758896887        258093777.43583009     
   621465575.04897809       -124046563.83383048        386756658.36321568     
   424867312.62138665       -341956093.06423140        537910998.06927955     
   184794737.94716746       -704779996.45003712        711556796.55405974     
  -98752148.973671734       -1212518273.9912875        907694053.81752896     
   496975990.20195431       -117484248.05693683        477698735.09742373     
   388195859.89546734       -223076330.30388653        597021906.34410930     
   230281289.37556198       -492449879.92890787        735486617.29368472     
   23232278.642231584       -925604896.93201315        893092867.94616497     
  -232951172.30452138       -1522541381.3131826        1069840658.3015424     
   351811089.81850970       -144182496.96157688        682951559.79050624     
   277803582.02705139       -285242865.58838087        786331538.72859585     
   149001506.05538258       -608951794.81589758        905503138.29377198     
  -34595138.096498489       -1115309284.6441190        1040466358.4860269     
  -272986350.42858338       -1804315335.0730145        1191221199.3053992     
   4459479436.2414904       -74109418.886465549        602508906.83138549     
   4332587632.8561792       -35659651.548420429        644176178.87124109     
   4201874457.7141061       -9947790.0662534237        672195479.96217763     
   4067339910.8152618        3026165.5600106716        686566810.10419512     
   3928983992.1596503        3262215.3303914070        687290169.29729176     
   4226715138.3916359        1539848.4268252850        768018335.02041936     
   4066025813.6184239        9102414.9790697098        783043928.87863123     
   3903336299.8389907        9997684.8439469337        792847215.87640691     
   3738646597.0533605        4225658.0214700699        797428196.01373696     
   3571956705.2615185       -8213665.4883599281        796786869.29063094     
   3915497698.3109021        53653173.070852041        924485428.00132322     
   3745084178.1168513        37550536.627408266        914994056.88688624     
   3574491651.6671557        20851212.665138006        908706043.00048184     
   3403720118.9618101        3555201.1840355396        905621386.34211791     
   3232769580.0008187       -14337497.815888643        905740086.91178823     
   3525827115.9992733        82230555.045611382        1071910185.7741133     
   3369762726.3514791        49684713.396605015        1040026562.8960024     
   3215340513.1985912        22612793.397308469        1019771961.3344088     
   3062560476.5406194        1014795.0477117300        1011146381.0893303     
   2911422616.3775520       -15109281.652187347        1014149822.1607740     
   3057703391.4567642        87271994.351104736        1210292608.3387754     
   2940061458.3222947        45504945.286664724        1158141446.9059815     
   2825882884.4333034        15282427.040461063        1126044970.8781853     
   2715167669.7897778       -3395560.3875157833        1114003180.2553837     
   2607915814.3917212       -10529016.997251868        1122016075.0375752     
   3928983992.1596503        3262215.3303914070        687290169.29729176     
   3797873829.4028029        1074166.0954499245        669892897.21549845     
   3667553504.9247274        1518911.1230912209        660653704.88511753     
   3538023018.7254295        4596450.4133269787        659572592.30615103     
   3409282370.8049092        10306783.966142416        666649559.47858942     
   3571956705.2615185       -8213665.4883599281        796786869.29063094     
   3460917891.0729761       -6044333.2558965683        785517500.17345917     
   3350503441.1398611       -1793786.8386826515        780524000.63417232     
   3240713355.4621730        4537973.7632941008        781806370.67277086     
   3131547634.0399113        12950948.550006986        789364610.28925431     
   3232769580.0008187       -14337497.815888643        905740086.91178823     
   3136424371.0276499       -9424107.1218907833        900405567.73200083     
   3040538052.2865582       -2981082.3209775686        899464707.95656204     
   2945110623.7775402        4991576.5868450403        902917507.58548844     
   2850142085.5005918        14493869.601578355        910763966.61876607     
   2911422616.3775520       -15109281.652187347        1014149822.1607740     
   2824393269.2668238       -9065155.5025327206        1014557099.8911140     
   2737657338.3648186       -2042975.3238102198        1017475826.8522877     
   2651214823.6715355        5957258.8839877844        1022906003.0442921     
   2565065725.1869783        14935547.120868325        1030847628.4671222     
   2607915814.3917212       -10529016.997251868        1122016075.0375752     
   2524824585.7904944       -4967478.3978356123        1127972096.6508105     
   2441861299.3746386        1020534.1528252363        1134557357.3213494     
   2359025955.1441488        7435020.6547082663        1141771857.0491929     
   2276318553.0990400        14275981.107847452        1149615595.8343322     
   3409282370.8049092        10306783.966142416        666649559.47858942     
   3255875924.7999539        9389888.1494874954        659113089.60665119     
   3102188987.8057995        7538022.3688296080        655288081.87630427     
   2948221559.8224473        4751186.6241866350        655174536.28757226     
   2793973640.8498955        1029380.9155389071        658772452.84044445     
   3131547634.0399113        12950948.550006986        789364610.28925431     
   2988183484.3062654        11773351.609579086        780453855.53432584     
   2844636040.7125435        9984775.1355584860        775616643.72121060     
   2700905303.2587361        7585219.1279202700        774852974.84990740     
   2556991271.9448524        4574683.5866876841        778162848.92041111     
   2850142085.5005918        14493869.601578355        910763966.61876607     
   2717854748.6102858        13365926.508993506        900592323.63149035     
   2585481314.9890180        11950994.313196421        894856304.38623345     
   2453021784.6367884        10249073.014196157        893555908.88300121     
   2320476157.5535960        8260162.6119890213        896691137.12178981     
   2565065725.1869783        14935547.120868325        1030847628.4671222     
   2444889717.7120261        14167612.847724080        1019528493.8981378     
   2324724810.6352339        13436679.901760459        1013007063.8713846     
   2204571003.9565978        12742748.282992601        1011283338.3868586     
   2084428297.6761141        12085817.991404414        1014357317.4445579     
   2276318553.0990400        14275981.107847452        1149615595.8343322     
   2169288391.6114726        14178410.625754476        1137262366.3342757     
   2062366527.6511819        14441831.901246309        1130068922.1766605     
   1955552961.2181637        15066244.934315681        1128035263.3614769     
   1848847692.3124235        16051649.724977255        1131161389.8887377     
   2793973640.8498955        1029380.9155389071        658772452.84044445     
   2661453197.8434176        4004186.0219039917        649987129.48817074     
   2529330851.1174541        8305978.7299948931        643844821.83824301     
   2397606600.6720123        13934759.039828181        640345529.89067006     
   2266280446.5071087        20890526.951448441        639489253.64544046     
   2556991271.9448524        4574683.5866876841        778162848.92041111     
   2431840604.3325067        7442653.4993889332        770180009.46187782     
   2307037733.6638441        11469946.557706356        765247866.57194078     
   2182582659.9388576        16656562.761608362        763366420.25060594     
   2058475383.1575594        23002502.111144066        764535670.49786782     
   2320476157.5535960        8260162.6119890213        896691137.12178981     
   2203860067.8103809        11370738.073522687        889452098.99733996     
   2087541475.6740131        15472972.224525928        885671438.30774200     
   1971520381.1444874        20566865.065010786        885349155.05299556     
   1855796784.2218025        26652416.594970584        888485249.23310077     
   2084428297.6761141        12085817.991404414        1014357317.4445579     
   1977511588.2770412        15788439.744279027        1007803398.0945561     
   1870842077.1479731        20315055.730505466        1005115537.0456542     
   1764419764.2889001        25665665.950044632        1006293734.2978491     
   1658244649.6998298        31840270.402945578        1011337989.8511463     
   1848847692.3124235        16051649.724977255        1131161389.8887377     
   1752795165.7324901        20695758.511688471        1125233906.7535243     
   1656939538.0857148        25996197.075604618        1123580162.7856641     
   1561280809.3721023        31952965.416723311        1126200157.9851527     
   1465818979.5916464        38566063.535037577        1133093892.3519962     
   2266280446.5071087        20890526.951448441        639489253.64544046     
   2122837723.6468241        24138208.372415304        625937661.87403154     
   1978948696.2321472        25898207.945426822        615664357.66586137     
   1834613364.2630811        26170525.670471072        608669341.02093637     
   1689831727.7396405        24955161.547598600        604952611.93925786     
   2058475383.1575594        23002502.111144066        764535670.49786782     
   1923701032.8383267        26221434.778708816        752402255.73666203     
   1788627093.5178983        28441737.442293882        743665166.61765683     
   1653253565.1962528        29663410.101832509        738324403.14084315     
   1517580447.8734143        29886452.757378995        736379965.30623388     
   1855796784.2218025        26652416.594970584        888485249.23310077     
   1730028058.0977716        29943776.005405188        877941179.62748516     
   1604106458.5257277        32725557.255770981        870911473.74301553     
   1478031985.5056548        34997760.346049964        867396131.57969797     
   1351804639.0375617        36760385.276268005        867395153.13752389     
   1658244649.6998298        31840270.402945578        1011337989.8511463     
   1541818799.4251590        35305232.052480876        1002554433.5464921     
   1425386791.2556446        38749667.385871053        997403279.04194558     
   1308948625.1912887        42173576.403136909        995884526.33749008     
   1192504301.2321012        45576959.104279578        997998175.43314350     
   1465818979.5916464        38566063.535037577        1133093892.3519962     
   1359073256.8204803        42305802.919930041        1126242017.4936872     
   1252468091.7076497        46514067.832615912        1123140582.5144360     
   1146003484.2531559        51190858.273090005        1123789587.4142351     
   1039679434.4570100        56336174.241395354        1128189032.1930840     
   1689831727.7396405        24955161.547598600        604952611.93925786     
   1549805117.8504624        26193197.228534341        592030244.08687019     
   1410901884.0410573        31175819.842067719        577725987.43724465     
   1273122026.3114741        39903029.388324380        562039841.99042046     
   1136465544.6616666        52374825.867177904        544971807.74636734     
   1517580447.8734143        29886452.757378995        736379965.30623388     
   1375465300.7463667        28125640.591260016        727458991.47401273     
   1233615954.1279509        27250830.120590270        719005381.14381897     
   1092032408.0181701        27262021.345376074        711019134.31564617     
   950714662.41703200        28159214.265615880        703500250.98950064     
   1351804639.0375617        36760385.276268005        867395153.13752389     
   1212884532.6705019        33585798.662474990        861475068.49245656     
   1073372651.2409080        28438628.506916702        857871599.64866447     
   933268994.74879849        21318874.809627056        856584746.60614598     
   792573563.19416130        12226537.570586383        857614509.36489379     
   1192504301.2321012        45576959.104279578        997998175.43314350     
   1062062813.6228524        42573671.442124665        994078475.14221215     
   930171975.37993646        34739215.001058757        994324642.95179987     
   796831786.50332987        22073589.781039238        998736678.86190176     
   662042246.99304593        4576795.7820851803        1007314582.8725293     
   1039679434.4570100        56336174.241395354        1128189032.1930840     
   923000143.60344410        55089258.930279940        1125269211.4232709     
   804013926.54503453        46152589.603030056        1128364511.0532255     
   682720783.28178322        29526166.259630024        1137474931.0829337     
   559120713.81369138        5209988.9001055360        1152600471.5124173     
   1136465544.6616666        52374825.867177904        544971807.74636734     
   951542726.87393081        40704814.903492093        563001742.90784264     
   759126045.13748813        4055257.4441336095        592008346.63568449     
   559215499.45234835       -57573846.510898560        631991618.92990899     
   351811089.81850970       -144182496.96157688        682951559.79050624     
   950714662.41703200        28159214.265615880        703500250.98950064     
   791565497.88285995        11035615.742843002        721359072.15423858     
   623795786.18305230       -34823139.998706669        749325632.07666385     
   447405527.31762987       -109417052.95897532        787399930.75679314     
   262394721.28657657       -212746123.13801605        835581968.19462001     
   792573563.19416130        12226537.570586383        857614509.36489379     
   656715395.31733763       -11095445.490138173        873987752.77979171     
   511109997.05796289       -66908196.492715567        899599805.14372301     
   355757368.41602820       -155211715.43714345        934450666.45667505     
   190657509.39154416       -276006002.32341820        978540336.71864223     
   662042246.99304593        4576795.7820851803        1007314582.8725293     
   546992419.17736435       -25688368.795459688        1020887784.7845279     
   421068677.76219761       -92199912.037937582        1042830865.8368673     
   284271022.74754226       -194957833.94538367        1073143826.0295563     
   136599454.13341343       -333962134.51774657        1111826665.3625939     
   559120713.81369138        5209988.9001055360        1152600471.5124173     
   462396569.46293682       -32743154.173110813        1162059168.1684194     
   353671828.29576802       -110698286.63436389        1179018814.1560950     
   232946490.31218866       -228655408.48366046        1203479409.4754431     
   100220555.51220089       -386614519.72097945        1235440954.1264715     
   351811089.81850970       -144182496.96157688        682951559.79050624     
   277803582.02705139       -285242865.58838087        786331538.72859585     
   149001506.05538258       -608951794.81589758        905503138.29377198     
  -34595138.096498489       -1115309284.6441190        1040466358.4860269     
  -272986350.42858338       -1804315335.0730145        1191221199.3053992     
   262394721.28657657       -212746123.13801605        835581968.19462001     
   223661555.80463836       -352366832.93157047        884987613.76758707     
   140686345.10642743       -639461026.77934217        945403519.22078323     
   13469089.191940606       -1074028704.6813974        1016829684.5542591     
  -157990211.93883038       -1656069866.6376863        1099266109.7679498     
   190657509.39154416       -276006002.32341820        978540336.71864223     
   173537655.51385832       -418285362.49525344        986282925.71774161     
   122728279.38382918       -672863130.17489982        1000254413.8502395     
   38229381.001457870       -1039739305.3623527        1020454801.1161401     
  -79959039.633262753       -1518913888.0576267        1046884087.5154462     
   136599454.13341343       -333962134.51774657        1111826665.3625939     
   127431881.15471327       -482998454.27945435        1090217474.5790827     
   95127308.887601435       -709158105.00252295        1070055822.1821203     
   39685737.332072020       -1012441086.6869787        1051341708.1717193     
  -38892833.511867523       -1392847399.3328125        1034075132.5478580     
   100220555.51220089       -386614519.72097945        1235440954.1264715     
   85344232.727201134       -546506108.28415859        1196791260.3515921     
   57883433.617728710       -748345951.26225793        1154807744.2164218     
   17838158.183776915       -992134048.65528548        1109490405.7209742     
  -34791593.574658871       -1277870400.4632540        1060839244.8652397     
   3057703391.4567642        87271994.351104736        1210292608.3387754     
   2940061458.3222947        45504945.286664724        1158141446.9059815     
   2825882884.4333034        15282427.040461063        1126044970.8781853     
   2715167669.7897778       -3395560.3875157833        1114003180.2553837     
   2607915814.3917212       -10529016.997251868        1122016075.0375752     
   2561769530.6395946        10209910.992741346        1240201033.3966582     
   2495064970.8814416       -2764832.3277747631        1212403154.8729224     
   2430255404.9443717       -9422929.5780267715        1197088807.6004472     
   2367340832.8283806       -9764380.7580044270        1194257991.5792370     
   2306321254.5334725       -3789185.8677084446        1203910706.8092942     
   2137301824.1950808       -45412326.053825498        1276220912.7973733     
   2099902768.8025861       -36084324.333616734        1270946557.5209005     
   2062830341.8067801       -25667561.291107178        1270584579.3419621     
   2026084543.2076674       -14162036.926288009        1275134978.2605591     
   1989665373.0052471       -1567751.2391631603        1284597754.2766912     
   1784300272.1232195       -79594716.788595557        1318352246.5409200     
   1754574852.0857253       -54453530.730861068        1333771654.8499231     
   1723607695.0205336       -33451468.098783255        1346532286.1027319     
   1691398800.9276426       -16588528.892363071        1356634140.2993453     
   1657948169.8070579       -3864713.1115994453        1364077217.4397645     
   1502764874.4240158       -92337261.211570203        1366595034.6272898     
   1459081220.7308636       -57872451.519502461        1400878446.8599834     
   1412587464.5856254       -32774650.001062095        1424931927.8827531     
   1363283605.9883013       -17043856.656239510        1438755477.6955984     
   1311169644.9388905       -10680071.485039055        1442349096.2985191     
   2607915814.3917212       -10529016.997251868        1122016075.0375752     
   2524824585.7904944       -4967478.3978356123        1127972096.6508105     
   2441861299.3746386        1020534.1528252363        1134557357.3213494     
   2359025955.1441488        7435020.6547082663        1141771857.0491929     
   2276318553.0990400        14275981.107847452        1149615595.8343322     
   2306321254.5334725       -3789185.8677084446        1203910706.8092942     
   2226226631.0340805       -580006.73369407654        1205496327.7162652     
   2146186352.9257429        2810323.7038322687        1209300642.5978258     
   2066200420.2084513        6381805.4448509216        1215323651.4539726     
   1986268832.8822157        10134438.489381433        1223565354.2847102     
   1989665373.0052471       -1567751.2391631603        1284597754.2766912     
   1917108654.3713722        651458.35855078697        1281727111.5506899     
   1844532684.3342280        2806496.6120437384        1282664617.7165627     
   1771937462.8938165        4897363.5213022232        1287410272.7743146     
   1699322990.0501370        6924059.0863443613        1295964076.7239404     
   1657948169.8070579       -3864713.1115994453        1364077217.4397645     
   1597470655.8023713       -1273083.1210861206        1356664448.1540849     
   1536900293.6001019        1009052.8774767518        1354649282.6775680     
   1476237083.2002413        2981694.8840766549        1358031721.0102174     
   1415481024.6027977        4644842.8987248540        1366811763.1520300     
   1311169644.9388905       -10680071.485039055        1442349096.2985191     
   1267312635.3270781       -6353631.1726142764        1430308337.5264535     
   1223289180.7233593       -2582007.4998776913        1425254637.4808414     
   1179099281.1277313        634799.53316146135        1427187996.1616790     
   1134742936.5402014        3296789.9265282750        1436108413.5689692     
   2276318553.0990400        14275981.107847452        1149615595.8343322     
   2169288391.6114726        14178410.625754476        1137262366.3342757     
   2062366527.6511819        14441831.901246309        1130068922.1766605     
   1955552961.2181637        15066244.934315681        1128035263.3614769     
   1848847692.3124235        16051649.724977255        1131161389.8887377     
   1986268832.8822157        10134438.489381433        1223565354.2847102     
   1892518624.2967412        10047593.674650431        1212394339.2680314     
   1798915900.1126378        10452363.531160831        1206276412.1411288     
   1705460660.3299026        11348748.058899403        1205211572.9040103     
   1612152904.9485419        12736747.257880986        1209199821.5566676     
   1699322990.0501370        6924059.0863443613        1295964076.7239404     
   1618547884.5020134        6756484.9795449376        1286020994.2104168     
   1537959450.2293651        7211148.4576539397        1281024302.1340113     
   1457557687.2321799        8288049.5206446648        1280974000.4947295     
   1377342595.5104635        9987188.1685321927        1285870089.2925708     
   1415481024.6027977        4644842.8987248540        1366811763.1520300     
   1347376172.2272985        4305084.5404528975        1358142331.1614342     
   1279497178.0013585        4718186.6807200313        1354312592.1553092     
   1211844041.9249871        5884149.3195456266        1355322546.1336420     
   1144416763.9981809        7802972.4569188356        1361172193.0964472     
   1134742936.5402014        3296789.9265282750        1436108413.5689692     
   1079003487.4725823        2693392.3573438525        1428758350.1210864     
   1023529083.4286300        2973478.2003852725        1426141282.2050140     
   968319724.40833426        4137047.4556166530        1428257209.8207493     
   913375410.41170073        6184100.1230528951        1435106132.9682941     
   1848847692.3124235        16051649.724977255        1131161389.8887377     
   1752795165.7324901        20695758.511688471        1125233906.7535243     
   1656939538.0857148        25996197.075604618        1123580162.7856641     
   1561280809.3721023        31952965.416723311        1126200157.9851527     
   1465818979.5916464        38566063.535037577        1133093892.3519962     
   1612152904.9485419        12736747.257880986        1209199821.5566676     
   1527282741.7790184        17170959.618541718        1204210171.6087387     
   1442604612.1189733        22245283.677474558        1203597038.1382418     
   1358118515.9684169        27959719.434698343        1207360421.1451871     
   1273824453.3273373        34314266.890182257        1215500320.6295652     
   1377342595.5104635        9987188.1685321927        1285870089.2925708     
   1303948445.2087312        14299598.940348566        1281812596.2042980     
   1230741462.9928057        19235903.331517458        1282234396.9035509     
   1157721648.8626871        24796101.342050374        1287135491.3903220     
   1084889002.8183770        30980192.971931696        1296515879.6646175     
   1144416763.9981809        7802972.4569188356        1361172193.0964472     
   1082792276.0216341        12081676.477113366        1358041180.5402093     
   1021350090.7072142        16968056.037739456        1359492239.0815797     
   960090208.05492401        22462111.138790548        1365525368.7205584     
   899012628.06476378        28563841.780281901        1376140569.4571452     
   913375410.41170073        6184100.1230528951        1435106132.9682941     
   863814234.21772099        10517192.228833318        1432895924.6164687     
   814430495.26219332        15441741.796119362        1435370564.6723392     
   765224193.54511952        20957748.824918360        1442530053.1359055     
   716195329.06650102        27065213.315237194        1454374390.0071652     
   1465818979.5916464        38566063.535037577        1133093892.3519962     
   1359073256.8204803        42305802.919930041        1126242017.4936872     
   1252468091.7076497        46514067.832615912        1123140582.5144360     
   1146003484.2531559        51190858.273090005        1123789587.4142351     
   1039679434.4570100        56336174.241395354        1128189032.1930840     
   1273824453.3273373        34314266.890182257        1215500320.6295652     
   1177233829.9842327        37268779.079834223        1210046193.4926682     
   1080641678.3699512        40218197.032235563        1208834447.6972077     
   984047998.48447788        43162520.747332335        1211865083.2431874     
   887452790.32783961        46101750.225204706        1219138100.1306028     
   1084889002.8183770        30980192.971931696        1296515879.6646175     
   999859025.93871915        33571142.076961935        1292293733.3313577     
   914685434.85836327        35683377.179662734        1292805909.8019195     
   829368229.57730472        37316898.280023128        1298052409.0762966     
   743907410.09555519        38471705.378073186        1308033231.1545060     
   899012628.06476378        28563841.780281901        1376140569.4571452     
   826948844.68394196        31212891.911308974        1372984637.0097511     
   754599361.17289770        32909608.274936050        1375054968.8285613     
   681964177.53163719        33653990.871173739        1382351564.9135749     
   609043293.76015759        33446039.700011045        1394874425.2647951     
   716195329.06650102        27065213.315237194        1454374390.0071652     
   658503286.21989512        30194028.582871675        1452118904.5278592     
   600383457.31355441        31896890.318054467        1455581624.7771380     
   541835842.34746861        32173798.520754516        1464762550.7550144     
   482860441.32164943        31024753.191015735        1479661682.4614785     
   1039679434.4570100        56336174.241395354        1128189032.1930840     
   923000143.60344410        55089258.930279940        1125269211.4232709     
   804013926.54503453        46152589.603030056        1128364511.0532255     
   682720783.28178322        29526166.259630024        1137474931.0829337     
   559120713.81369138        5209988.9001055360        1152600471.5124173     
   887452790.32783961        46101750.225204706        1219138100.1306028     
   786063576.78459299        44155008.048236400        1216532268.6833398     
   682402636.54184783        34635843.539617240        1219834413.2748301     
   576469969.59961581        17544256.699365735        1229044533.9050703     
   468265575.95789576       -7119752.4725101888        1244162630.5740817     
   743907410.09555519        38471705.378073186        1308033231.1545060     
   657502147.11689150        35733298.311527759        1305782455.1193595     
   568860356.94408524        25539800.597844154        1309332510.7619610     
   477982039.57713580        7891212.2370141149        1318683398.0823169     
   384867195.01603734       -17212466.770978063        1333835117.0804188     
   609043293.76015759        33446039.700011045        1394874425.2647951     
   537315854.60034704        29824129.720181137        1393019770.7313454     
   463387087.75173932        18864460.777693123        1396858803.5146303     
   387256993.21433806        567032.87255726755        1406391523.6146669     
   308925570.98813367       -25068153.995249555        1421617931.0314403     
   482860441.32164943        31024753.191015735        1479661682.4614785     
   425504699.23495281        26427502.274163023        1478244215.5192873     
   365982828.96481031        14609824.079157218        1482413291.5328405     
   304294830.51122713       -4428281.3939843476        1492168910.5021186     
   240440703.87418127       -30686814.145328969        1507511072.4271386     
   559120713.81369138        5209988.9001055360        1152600471.5124173     
   462396569.46293682       -32743154.173110813        1162059168.1684194     
   353671828.29576802       -110698286.63436389        1179018814.1560950     
   232946490.31218866       -228655408.48366046        1203479409.4754431     
   100220555.51220089       -386614519.72097945        1235440954.1264715     
   468265575.95789576       -7119752.4725101888        1244162630.5740817     
   390590700.97581810       -41472367.742025316        1242717241.4034460     
   302760654.87202054       -109675553.41727081        1247593295.9992669     
   204775437.64651242       -211729309.49822092        1258790794.3615429     
   96635049.299274787       -347633635.98493350        1276309736.4902785     
   384867195.01603734       -17212466.770978063        1333835117.0804188     
   322871573.50202441       -48975559.006948978        1323638638.7269561     
   252566206.56098258       -108437802.66635239        1318584098.5747247     
   173951094.19291022       -195599197.74919277        1318671496.6237416     
   87026236.397807866       -310459744.25545967        1323900832.8739884     
   308925570.98813367       -25068153.995249555        1421617931.0314403     
   259239187.04155937       -55252727.967877358        1404823360.1389484     
   203088483.36264494       -106985034.38163677        1391991221.8824778     
   140473459.95138741       -180265073.23654395        1383121516.2620311     
   71394116.807791710       -275092844.53257233        1378214243.2776046     
   240440703.87418127       -30686814.145328969        1507511072.4271386     
   199693541.59442344       -60303874.624797031        1486271405.6394260     
   154327485.27701551       -105317248.56309868        1467814665.9225183     
   104342534.92195660       -165726935.96023840        1452140853.2764137     
   49738690.529251635       -241532936.81619549        1439249967.7011137     
   100220555.51220089       -386614519.72097945        1235440954.1264715     
   85344232.727201134       -546506108.28415859        1196791260.3515921     
   57883433.617728710       -748345951.26225793        1154807744.2164218     
   17838158.183776915       -992134048.65528548        1109490405.7209742     
  -34791593.574658871       -1277870400.4632540        1060839244.8652397     
   96635049.299274787       -347633635.98493350        1276309736.4902785     
   79736890.216174960       -488824781.31693017        1221971898.8438702     
   51460174.150701106       -667944449.92350972        1165097137.9673889     
   11804901.102853060       -884992641.80465496        1105685453.8608527     
  -39228928.927369535       -1139969356.9603982        1043736846.5242449     
   87026236.397807866       -310459744.25545967        1323900832.8739884     
   70383095.674390256       -432267389.95895243        1255281757.2551606     
   43567317.310707003       -587983827.79667234        1184922657.5364976     
   6578901.3067567050       -777609057.76860964        1112823533.7179937     
  -40582152.337456584       -1001143079.8747551        1038984385.7996718     
   71394116.807791710       -275092844.53257233        1378214243.2776046     
   57282849.101852447       -376833934.21021569        1296720835.5854838     
   34204863.097756892       -508464084.88171136        1214284302.9237576     
   2160158.7954915166       -669983296.54710484        1130904645.2924161     
  -38851263.804922283       -861391569.20632589        1046581862.6914773     
   49738690.529251635       -241532936.81619549        1439249967.7011137     
   40436150.498574764       -322524414.07066762        1346289133.8348377     
   23372811.511848629       -429385221.17864281        1253182074.1291695     
  -1451326.4309310615       -562115358.14012861        1159928788.5841112     
  -34036263.329759747       -720714824.95510805        1066529277.1996827     
   1502764874.4240158       -92337261.211570203        1366595034.6272898     
   1459081220.7308636       -57872451.519502461        1400878446.8599834     
   1412587464.5856254       -32774650.001062095        1424931927.8827531     
   1363283605.9883013       -17043856.656239510        1438755477.6955984     
   1311169644.9388905       -10680071.485039055        1442349096.2985191     
   1252034299.3726673        10113088.570578516        1445528062.1751480     
   1182555120.8005641        12383606.153850198        1453605328.0217335     
   1111892897.7814896        10710642.247223139        1459499265.6579993     
   1040047630.3154440        5094196.8506903052        1463209875.0839479     
   967019318.40243018       -4465730.0357361436        1464737156.2995811     
   921589118.05047357        88649056.471475363        1514105959.2283156     
   849304708.88400459        65622370.231328160        1497875313.0280907     
   777464313.27568638        44075729.185005248        1487507941.6171589     
   706067931.22551215        24009133.332501203        1483003844.9955142     
   635115562.73348546        5422582.6738215089        1484363023.1631589     
   511429330.45742738        143270642.49111730        1572328725.7867882     
   459329984.98119062        101843840.71293060        1533688401.8790610     
   409301711.06821615        67320610.812288731        1508957955.7602284     
   361344508.71850550        39700952.789189577        1498137387.4302931     
   315458377.93205750        18984866.643634200        1501226696.8892515     
   21554936.593535483        173977846.62950218        1620196361.8505690     
   12630949.092117637        121048017.59865203        1561044594.5746369     
   7405091.1590812393        80445287.129071966        1523849308.0872114     
   5877362.7944215778        52169655.220748745        1508610502.3882875     
   8047763.9981438145        36221121.873697825        1515328177.4778645     
   1311169644.9388905       -10680071.485039055        1442349096.2985191     
   1267312635.3270781       -6353631.1726142764        1430308337.5264535     
   1223289180.7233593       -2582007.4998776913        1425254637.4808414     
   1179099281.1277313        634799.53316146135        1427187996.1616790     
   1134742936.5402014        3296789.9265282750        1436108413.5689692     
   967019318.40243018       -4465730.0357361436        1464737156.2995811     
   939056507.92742968       -2105805.5337458849        1456313406.8138502     
   911221929.34358633        681558.60543316603        1453582716.9708552     
   883515582.65089524        3896362.3817871213        1456545086.7705982     
   855937467.84936202        7538605.7953352332        1465200516.2130721     
   635115562.73348546        5422582.6738215089        1484363023.1631589     
   619349811.15610921        4706849.2936191261        1479900072.6606686     
   604006968.35295033        5400811.8274780512        1479836182.7171993     
   589087034.32400942        7504470.2753945291        1484171353.3327482     
   574590009.06928670        11017824.637373209        1492905584.5073183     
   315458377.93205750        18984866.643634200        1501226696.8892515     
   308192545.01311624        14084333.309484914        1501068335.0669110     
   301644297.75145459        11575752.166263580        1504015034.7198713     
   295813636.14707673        11459123.213991180        1510066795.8481355     
   290700560.19997609        13734446.452641383        1519223618.4517028     
   8047763.9981438145        36221121.873697825        1515328177.4778645     
   5584709.4984508399        26026646.513843942        1519818194.0325735     
   4133917.5391014116        19206379.621801879        1526119272.9788723     
   3695388.1200921200        15760321.197560627        1534231414.3167579     
   4269121.2414287999        15688471.241138583        1544154618.0462317     
   1134742936.5402014        3296789.9265282750        1436108413.5689692     
   1079003487.4725823        2693392.3573438525        1428758350.1210864     
   1023529083.4286300        2973478.2003852725        1426141282.2050140     
   968319724.40833426        4137047.4556166530        1428257209.8207493     
   913375410.41170073        6184100.1230528951        1435106132.9682941     
   855937467.84936202        7538605.7953352332        1465200516.2130721     
   812913925.82948589        6940875.6227890849        1457349053.5197685     
   770021704.38840175        6780880.7128819227        1454544754.3936992     
   727260803.52610397        7058621.0656006038        1456787618.8348591     
   684631223.24259782        7774096.6809527874        1464077646.8432562     
   574590009.06928670        11017824.637373209        1492905584.5073183     
   545179997.05551124        10695048.748970896        1484396710.7162375     
   515767581.17565328        10364259.973626316        1481249168.5278175     
   486352761.42971611        10025458.311350733        1483462957.9420555     
   456935537.81768978        9678643.7621144652        1491038078.9589477     
   290700560.19997609        13734446.452641383        1519223618.4517028     
   275801701.15065813        13955911.735887468        1509901321.7104988     
   260766713.79038435        13723615.982612669        1506254524.6073794     
   245595598.11915883        13037559.192833334        1508283227.1423440     
   230288354.13697746        11897741.366533205        1515987429.3153887     
   4269121.2414287999        15688471.241138583        1544154618.0462317     
   4779038.1149274474        16723464.583544120        1533862886.5025504     
   5019102.2325950256        16858948.739845406        1529560822.6323798     
   4989313.5944460612        16094923.710091550        1531248426.4357147     
   4689672.2004585722        14431389.494209968        1538925697.9125588     
   913375410.41170073        6184100.1230528951        1435106132.9682941     
   863814234.21772099        10517192.228833318        1432895924.6164687     
   814430495.26219332        15441741.796119362        1435370564.6723392     
   765224193.54511952        20957748.824918360        1442530053.1359055     
   716195329.06650102        27065213.315237194        1454374390.0071652     
   684631223.24259782        7774096.6809527874        1464077646.8432562     
   646843018.69839489        10324822.622669727        1462457435.9649980     
   609175913.97402430        13279214.630494773        1465619823.9859662     
   571629909.06948817        16637272.704435199        1473564810.9061637     
   534205003.98478037        20398996.844469190        1486292396.7255800     
   456935537.81768978        9678643.7621144652        1491038078.9589477     
   431199592.04192883        10530789.675374165        1489942138.5658686     
   405528408.66737771        11598810.259333581        1493726547.5635474     
   379921987.69403529        12882705.513988972        1502391305.9519815     
   354380329.12190443        14382475.439351290        1515936413.7311759     
   230288354.13697746        11897741.366533205        1515987429.3153887     
   216883954.24832028        11135093.386934191        1515350032.4190907     
   203487979.34225196        10400528.682628602        1519690735.4050810     
   190100429.41876751        9694047.2536066249        1529009538.2733645     
   176721304.47787556        9015649.0998891667        1543306441.0239348     
   4689672.2004585722        14431389.494209968        1538925697.9125588     
   3896105.3175658528        12137733.757340448        1538681117.5246522     
   3054625.9986429554        9684369.9003703371        1543512387.5105693     
   2165234.2436837032        7071297.9232790424        1553419507.8703041     
   1227930.0526923514        4298517.8260807479        1568402478.6038637     
   716195329.06650102        27065213.315237194        1454374390.0071652     
   658503286.21989512        30194028.582871675        1452118904.5278592     
   600383457.31355441        31896890.318054467        1455581624.7771380     
   541835842.34746861        32173798.520754516        1464762550.7550144     
   482860441.32164943        31024753.191015735        1479661682.4614785     
   534205003.98478037        20398996.844469190        1486292396.7255800     
   490925200.12675029        22196052.132393956        1484373256.4962127     
   447387022.23780960        23131860.650623888        1488129577.4478576     
   403590470.31797910        23206422.399218887        1497561359.5805211     
   359535544.36724085        22419737.378115699        1512668602.8941972     
   354380329.12190443        14382475.439351290        1515936413.7311759     
   325390636.97365719        14811132.563913479        1514551266.1187165     
   296311982.82334721        14943249.681597233        1518798835.1396990     
   267144366.67097434        14778826.792408526        1528679120.7941213     
   237887788.51653841        14317863.896340854        1544192123.0819826     
   176721304.47787556        9015649.0998891667        1543306441.0239348     
   161899596.76062778        8039269.8774545789        1542652933.3953667     
   147158339.07015306        7331057.4109347910        1547589397.8526640     
   132497531.40645908        6891011.7003484219        1558115834.3958290     
   117917173.76953627        6719132.7456660829        1574232243.0248575     
   1227930.0526923514        4298517.8260807479        1568402478.6038637     
   452079.48766104243        1880464.0730278066        1568678258.3261633     
  -73909.021760893054        295283.83867138904        1574501265.5867546     
  -350035.47556807916       -457022.87696815655        1585871500.3856308     
  -376299.87375980685       -376456.07389020105        1602788962.7228076     
   482860441.32164943        31024753.191015735        1479661682.4614785     
   425504699.23495281        26427502.274163023        1478244215.5192873     
   365982828.96481031        14609824.079157218        1482413291.5328405     
   304294830.51122713       -4428281.3939843476        1492168910.5021186     
   240440703.87418127       -30686814.145328969        1507511072.4271386     
   359535544.36724085        22419737.378115699        1512668602.8941972     
   316991079.57817245        19209112.410473973        1509568817.0311987     
   272808014.11997181        10536485.212392807        1511955787.8377557     
   226986347.99263674       -3598144.2161384374        1519829515.3138535     
   179526081.19616681       -23194775.875116609        1533189999.4594975     
   237887788.51653841        14317863.896340854        1544192123.0819826     
   209869497.35027099        12408333.775453605        1540025467.0648885     
   180740133.02918291        6795226.4718316421        1541245781.4311481     
   150499695.55327901       -2521458.0145090297        1547853066.1807642     
   119148184.92255241       -15541719.683594212        1559847321.3137419     
   117917173.76953627        6719132.7456660829        1574232243.0248575     
   104139952.55124833        6025166.3690977059        1569614165.6203525     
   89779185.692445368        3386047.8574850447        1570283272.3130219     
   74834873.193148062       -1198222.7891117930        1576239563.1028574     
   59307015.053338259       -7727645.5707500763        1587483037.9898634     
  -376299.87375980685       -376456.07389020105        1602788962.7228076     
  -197554.81889977673        59610.191397511313        1598334912.6976032     
  -74827.890234693186        308949.36936734722        1599068260.4833763     
  -8119.0877577851352        371561.46004257101        1604989006.0801275     
   2571.5885296664346        247446.46342238205        1616097149.4878650     
   240440703.87418127       -30686814.145328969        1507511072.4271386     
   199693541.59442344       -60303874.624797031        1486271405.6394260     
   154327485.27701551       -105317248.56309868        1467814665.9225183     
   104342534.92195660       -165726935.96023840        1452140853.2764137     
   49738690.529251635       -241532936.81619549        1439249967.7011137     
   179526081.19616681       -23194775.875116609        1533189999.4594975     
   148350745.16720128       -45635905.645736061        1507497166.7991893     
   113717321.45005988       -79603994.376940399        1484728366.3281877     
   75625810.044775903       -125099042.06862134        1464883598.0464866     
   34076210.951312736       -182121048.72089815        1447962861.9540937     
   119148184.92255241       -15541719.683594212        1559847321.3137419     
   97947832.625808805       -30685971.500944525        1531055596.8552358     
   74450198.990384743       -53487827.780562982        1505329009.7045364     
   48655284.016285583       -83947288.522430062        1482667559.8616440     
   20563087.703513987       -122064353.72654207        1463071247.3265505     
   59307015.053338259       -7727645.5707500763        1587483037.9898634     
   48484803.970251903       -15454072.190396484        1556946695.8075626     
   36526117.897974327       -26968748.774013646        1529616596.0515661     
   23430956.836503457       -42271675.321609877        1505492738.7218790     
   9199320.7858515121       -61362851.833140112        1484575123.8184977     
   2571.5885296664346        247446.46342238205        1616097149.4878650     
  -38340.799463961412        59792.285917193978        1585170463.6561697     
  -54921.827172916448       -46757.357303669698        1557591125.3692749     
  -47171.494576816622       -72202.466175391324        1533359134.6271925     
  -15089.801682455949       -16543.040719576791        1512474491.4299195     
   49738690.529251635       -241532936.81619549        1439249967.7011137     
   40436150.498574764       -322524414.07066762        1346289133.8348377     
   23372811.511848629       -429385221.17864281        1253182074.1291695     
  -1451326.4309310615       -562115358.14012861        1159928788.5841112     
  -34036263.329759747       -720714824.95510805        1066529277.1996827     
   34076210.951312736       -182121048.72089815        1447962861.9540937     
   29880647.933352232       -242013835.53635764        1347506144.0807598     
   19861640.085387304       -321318105.11849988        1246255167.3398821     
   4019187.4074337184       -420033857.46726263        1144209931.7314830     
  -17646710.100515842       -538161092.58269393        1041370437.2555467     
   20563087.703513987       -122064353.72654207        1463071247.3265505     
   19622978.760685451       -161413906.98430422        1357378891.9265645     
   14796779.113917917       -213717095.92186016        1250244244.6308892     
   6084488.7632160634       -278973920.53919834        1141667305.4395313     
  -6513892.2914177328       -357184380.83631021        1031648074.3525066     
   9199320.7858515121       -61362851.833140112        1484575123.8184977     
   9663142.9805866182       -80724628.414468750        1375907377.3722527     
   8178228.5974485129       -106582193.58870672        1265149306.0021768     
   4744577.6364303902       -138935547.35587764        1152300909.7082629     
  -637809.90246247500       -177784689.71596938        1037362188.4905270     
  -15089.801682455949       -16543.040719576791        1512474491.4299195     
   1140.5930573653277        54000.173157584439        1403091600.4178238     
   5988.5359619922419        86601.880913267785        1290970351.4537528     
  -545.97294432720446        81262.082635932718        1176110744.5376987     
  -18462.933664521071        37980.778310961803        1058512779.6696625     
   21554936.593535483        173977846.62950218        1620196361.8505690     
   12630949.092117637        121048017.59865203        1561044594.5746369     
   7405091.1590812393        80445287.129071966        1523849308.0872114     
   5877362.7944215778        52169655.220748745        1508610502.3882875     
   8047763.9981438145        36221121.873697825        1515328177.4778645     
  -513968739.46488589        34266913.400508434        1530202747.8341777     
  -465137667.15629011        22737097.481212437        1501765912.1390812     
  -414652192.62757874        16721955.628969550        1486245715.5605185     
  -362512315.87874877        16221487.843788534        1483642158.0984871     
  -308718036.90980005        21235694.125669077        1493955239.7529929     
  -957742294.93227232       -77918983.651174814        1450660344.7075584     
  -876984281.87643719       -55797222.177756399        1450554092.0203261     
  -796615593.94874609       -34973211.131486386        1454324636.7776551     
  -716636231.14919698       -15446950.512354940        1461971978.9795480     
  -637046193.47779214        2781559.6796275377        1473496118.6260040     
  -1309765729.8086247       -162579844.52554864        1381569152.4707155     
  -1222908895.0683222       -114554941.37825131        1407409134.2183700     
  -1138485112.8044195       -74640213.152291775        1428086071.7386220     
  -1056494383.0169232       -42835659.847681820        1443599965.0314658     
  -976936705.70583081       -19141281.464422166        1453950814.0969036     
  -1570039044.0939417       -219715669.22261018        1322929171.1236384     
  -1502911506.7319381       -153536060.12025201        1372331038.7332146     
  -1440260749.1946023       -102279050.43345505        1407530020.4434171     
  -1382086771.4819269       -65944640.162192464        1428526116.2542417     
  -1328389573.5939226       -44532829.306497872        1435319326.1656899     
   8047763.9981438145        36221121.873697825        1515328177.4778645     
   5584709.4984508399        26026646.513843942        1519818194.0325735     
   4133917.5391014116        19206379.621801879        1526119272.9788723     
   3695388.1200921200        15760321.197560627        1534231414.3167579     
   4269121.2414287999        15688471.241138583        1544154618.0462317     
  -308718036.90980005        21235694.125669077        1493955239.7529929     
  -303732146.72484767        14768259.965168968        1495863445.0774016     
  -298316564.56694877        9733132.3811601102        1500830459.0293314     
  -292471290.43610007        6130311.3736489117        1508856281.6087801     
  -286196324.33230549        3959796.9426245987        1519940912.8157473     
  -637046193.47779214        2781559.6796275377        1473496118.6260040     
  -621046369.36267877        1110663.4921350479        1472142847.0581560     
  -605199423.84201360       -1069828.0101826787        1475096130.3537579     
  -589505356.91579175       -3759914.8273126483        1482355968.5128107     
  -573964168.58402014       -6959596.9592751265        1493922361.5353096     
  -976936705.70583081       -19141281.464422166        1453950814.0969036     
  -946357958.41504204       -14946142.905259013        1448656399.9748385     
  -916514660.28609455       -13202501.552233756        1448916286.9521508     
  -887406811.31898642       -13910357.405338407        1454730475.0288463     
  -859034411.51371539       -17069710.464569926        1466098964.2049232     
  -1328389573.5939226       -44532829.306497872        1435319326.1656899     
  -1279666913.8819373       -33402159.227012515        1425404103.8274441     
  -1232262273.8991899       -26664888.244984031        1422290928.8245108     
  -1186175653.6456735       -24321016.360394835        1425979801.1568866     
  -1141407053.1213944       -26370543.573263228        1436470720.8245778     
   4269121.2414287999        15688471.241138583        1544154618.0462317     
   4779038.1149274474        16723464.583544120        1533862886.5025504     
   5019102.2325950256        16858948.739845406        1529560822.6323798     
   4989313.5944460612        16094923.710091550        1531248426.4357147     
   4689672.2004585722        14431389.494209968        1538925697.9125588     
  -286196324.33230549        3959796.9426245987        1519940912.8157473     
  -270557240.39287895        4972948.5353538394        1510161048.7120011     
  -255100971.05955440        5376718.1077439189        1506034378.1584599     
  -239827516.33232653        5171105.6598097682        1507560901.1551278     
  -224736876.21120095        4356111.1915364116        1514740617.7020030     
  -573964168.58402014       -6959596.9592751265        1493922361.5353096     
  -544157272.21666908       -6256693.5076315403        1484755909.3795128     
  -514446152.30569190       -5873044.9105668664        1480906176.6506186     
  -484830808.85108405       -5808651.1680640280        1482373163.3486321     
  -455311241.85284907       -6063512.2801403701        1489156869.4735563     
  -859034411.51371539       -17069710.464569926        1466098964.2049232     
  -816021057.35644054       -16965461.545406371        1457647468.5050850     
  -773016441.50581312       -16890340.315066338        1454176218.1088552     
  -730020563.96182764       -16844346.773535371        1455685213.0162306     
  -687033424.72448492       -16827480.920810163        1462174453.2272143     
  -1141407053.1213944       -26370543.573263228        1436470720.8245778     
  -1086148595.8121994       -27153355.577989042        1428835726.0887208     
  -1030811838.6599178       -27675168.105761707        1425844502.5331686     
  -975396781.66455424       -27935981.156595170        1427497050.1579218     
  -919903424.82610559       -27935794.730475366        1433793368.9629879     
   4689672.2004585722        14431389.494209968        1538925697.9125588     
   3896105.3175658528        12137733.757340448        1538681117.5246522     
   3054625.9986429554        9684369.9003703371        1543512387.5105693     
   2165234.2436837032        7071297.9232790424        1553419507.8703041     
   1227930.0526923514        4298517.8260807479        1568402478.6038637     
  -224736876.21120095        4356111.1915364116        1514740617.7020030     
  -212352741.86483908        2389923.8281660080        1513997228.2863717     
  -200009468.40424287        287533.51224358380        1518239112.1255350     
  -187707055.82940978       -1951059.7562221736        1527466269.2194979     
  -175445504.14034435       -4325855.9772463441        1541678699.5682585     
  -455311241.85284907       -6063512.2801403701        1489156869.4735563     
  -430008198.04587460       -7779868.8006026149        1487922897.8388414     
  -404738963.57439750       -9608923.1060563028        1491583622.3399048     
  -379503538.43841898       -11550675.196504533        1500139042.9767375     
  -354301922.63794154       -13605125.071954906        1513589159.7493420     
  -687033424.72448492       -16827480.920810163        1462174453.2272143     
  -649070263.22553742       -18371644.128950238        1460458126.1820703     
  -611133859.51182222       -20004999.954531014        1463545918.1536696     
  -573224213.58334076       -21727548.397557467        1471437829.1420188     
  -535341325.44009244       -23539289.458026290        1484133859.1471150     
  -919903424.82610559       -27935794.730475366        1433793368.9629879     
  -869538937.40383255       -29385402.156900942        1431602913.3160520     
  -819194156.21652389       -30900697.033207089        1434125999.5668371     
  -768869081.26417744       -32481679.359387785        1441362627.7153463     
  -718563712.54679728       -34128349.135457128        1453312797.7615831     
   1227930.0526923514        4298517.8260807479        1568402478.6038637     
   452079.48766104243        1880464.0730278066        1568678258.3261633     
  -73909.021760893054        295283.83867138904        1574501265.5867546     
  -350035.47556807916       -457022.87696815655        1585871500.3856308     
  -376299.87375980685       -376456.07389020105        1602788962.7228076     
  -175445504.14034435       -4325855.9772463441        1541678699.5682585     
  -161501711.77038330       -5970879.3523357883        1541471578.1140234     
  -147368640.50914094       -6984973.0898222923        1546861639.7535033     
  -133046290.35663408       -7368137.1897612810        1557848884.4866910     
  -118534661.31285042       -7120371.6521078423        1574433312.3135936     
  -354301922.63794154       -13605125.071954906        1513589159.7493420     
  -325495757.17463309       -14434299.021554351        1512828456.7601774     
  -296560895.98439103       -14834487.214704469        1517714892.4201465     
  -267497339.06721675       -14805689.651416257        1528248466.7292504     
  -238305086.42311007       -14347906.331682861        1544429179.6874852     
  -535341325.44009244       -23539289.458026290        1484133859.1471150     
  -491530056.72509122       -23509794.934632093        1482748894.2646246     
  -447650675.44750017       -23253258.535940617        1487061023.5866871     
  -403703181.60730696       -22769680.261906773        1497070247.1133077     
  -359687575.20453459       -22059060.112610683        1512776564.8444860     
  -718563712.54679728       -34128349.135457128        1453312797.7615831     
  -659604610.42176056       -33197367.091583163        1451232890.6273656     
  -600637978.89846623       -32241287.053518862        1454900033.2531245     
  -541663817.97692072       -31260109.021282256        1464314225.6388600     
  -482682127.65712565       -30253832.994881779        1479475467.7845795     
  -376299.87375980685       -376456.07389020105        1602788962.7228076     
  -197554.81889977673        59610.191397511313        1598334912.6976032     
  -74827.890234693186        308949.36936734722        1599068260.4833763     
  -8119.0877577851352        371561.46004257101        1604989006.0801275     
   2571.5885296664346        247446.46342238205        1616097149.4878650     
  -118534661.31285042       -7120371.6521078423        1574433312.3135936     
  -104522274.78248049       -5943381.3507833667        1569734691.4127223     
  -89987740.208655104       -3025897.5712729469        1570318952.9044814     
  -74931057.591352388        1632079.6864936687        1576186096.7888765     
  -59352226.930587128        8030550.4224708304        1587336123.0659034     
  -238305086.42311007       -14347906.331682861        1544429179.6874852     
  -210186245.32679099       -12348148.067203157        1540160515.1088734     
  -180967090.01735014       -6680675.7589814663        1541270217.5045521     
  -150647620.49478260        2654510.5929943025        1547758286.8745265     
  -119227836.75909561        15657410.988701776        1559624723.2187822     
  -359687575.20453459       -22059060.112610683        1512776564.8444860     
  -317189466.45181984       -19154689.957828462        1509612383.7860672     
  -273012877.31632262       -10655385.193770334        1511922054.2835987     
  -227157807.79805121        3438854.1795366108        1519705576.3370688     
  -179624257.89700165        23128028.162100121        1532962949.9464920     
  -482682127.65712565       -30253832.994881779        1479475467.7845795     
  -425531938.15757179       -26363007.022667378        1478090297.4442942     
  -366125102.10558367       -14950025.875670701        1482274463.2416072     
  -304461619.50115478        3985110.4461272210        1492027965.1765215     
  -240541490.34429061        30442401.942710236        1507350803.2490377     
   2571.5885296664346        247446.46342238205        1616097149.4878650     
  -38340.799463961412        59792.285917193978        1585170463.6561697     
  -54921.827172916448       -46757.357303669698        1557591125.3692749     
  -47171.494576816622       -72202.466175391324        1533359134.6271925     
  -15089.801682455949       -16543.040719576791        1512474491.4299195     
  -59352226.930587128        8030550.4224708304        1587336123.0659034     
  -48563968.278723776        15548699.344379213        1556848751.0884748     
  -36612022.644898482        26945804.872826390        1529565900.8816464     
  -23496390.029087633        42221867.007893957        1505487572.4454198     
  -9217070.4313008189        61376885.749545313        1484613765.7797914     
  -119227836.75909561        15657410.988701776        1559624723.2187822     
  -98018480.707974643        30758940.917820603        1530905913.3209107     
  -74506082.053199291        53537279.525783032        1505248799.4194350     
  -48690640.794768319        83992426.812598810        1482653381.5143523     
  -20572156.932687320        122124382.77824980        1463119659.6056693     
  -179624257.89700165        23128028.162100121        1532962949.9464920     
  -148401878.08720142        45690517.006287545        1507341950.3534744     
  -113737100.05207735        79727666.601556927        1484639820.9826362     
  -75629923.791614324        125239476.94795416        1464856561.8339930     
  -34080349.305817336        182225948.04546618        1447992172.9075348     
  -240541490.34429061        30442401.942710236        1507350803.2490377     
  -199714160.41641462        60343427.609751880        1486156862.1861627     
  -154305076.64152184        105516966.10018422        1467738965.5712640     
  -104314239.01962575        165963017.41396073        1452097113.4043510     
  -49741647.550716966        241681581.55111170        1439231305.6854143     
  -15089.801682455949       -16543.040719576791        1512474491.4299195     
   1140.5930573653277        54000.173157584439        1403091600.4178238     
   5988.5359619922419        86601.880913267785        1290970351.4537528     
  -545.97294432720446        81262.082635932718        1176110744.5376987     
  -18462.933664521071        37980.778310961803        1058512779.6696625     
  -9217070.4313008189        61376885.749545313        1484613765.7797914     
  -9666173.7550301217        80816163.802805841        1375925123.8863084     
  -8178225.9147403389        106712279.06946404        1265147182.8907394     
  -4753226.9104455188        139065231.54946780        1152279942.7930989     
   608823.25787528604        177875021.24289709        1037323403.5933607     
  -20572156.932687320        122124382.77824980        1463119659.6056693     
  -19632140.118017726        161488731.82800737        1357398439.3826017     
  -14806638.523508653        213804696.81056255        1250236978.9073586     
  -6095652.1491474658        279072277.72595960        1141635278.1799219     
   6500819.0050570369        357291474.57416254        1031593337.2003034     
  -34080349.305817336        182225948.04546618        1447992172.9075348     
  -29896758.495917886        242071704.24871683        1347511546.9067020     
  -19879249.290333837        321363855.10425353        1246239739.5035787     
  -4027821.6890631616        420102400.61207056        1144176750.6981609     
   17657524.307877272        538287340.77213275        1041322580.4904530     
  -49741647.550716966        241681581.55111170        1439231305.6854143     
  -40460028.888721257        322565081.06496865        1346264446.4586072     
  -23396058.215209156        429389753.95054615        1253155464.6794093     
   1450264.4698112309        562155600.20781267        1159904360.3478308     
   34078939.166339159        720862619.83678222        1066511133.4638356     
  -1570039044.0939417       -219715669.22261018        1322929171.1236384     
  -1502911506.7319381       -153536060.12025201        1372331038.7332146     
  -1440260749.1946023       -102279050.43345505        1407530020.4434171     
  -1382086771.4819269       -65944640.162192464        1428526116.2542417     
  -1328389573.5939226       -44532829.306497872        1435319326.1656899     
  -1775311484.1514368       -83033988.216163933        1325419373.1789761     
  -1744634152.2888553       -58180282.668850780        1341220160.9149916     
  -1716374444.0339832       -41385322.480565846        1352721961.9096787     
  -1690532359.3868184       -32649107.651308894        1359924776.1630456     
  -1667107898.3473661       -31971638.181088686        1362828603.6750889     
  -2079244764.5433338        24049440.689966917        1315019615.4262710     
  -2056720783.4428761        16066299.103427768        1299621672.2084959     
  -2034555269.7331748        6888266.2143808603        1289828641.4074557     
  -2012748223.4142256       -3484657.9771766663        1285640523.0231445     
  -1991299644.4860291       -15052473.471250296        1287057317.0555637     
  -2481838885.2696257        101534617.49577594        1291729897.8655059     
  -2439171400.1940026        69203685.196573496        1247535572.6137362     
  -2394803226.2921777        42541715.651378751        1218850058.9367447     
  -2348734363.5641465        21548708.860198259        1205673356.8345399     
  -2300964812.0099144        6224664.8230257034        1208005466.3071203     
  -2983093846.3303204        149421542.20126569        1255550220.4966967     
  -2891986002.5422339        101231875.61058807        1184961862.1307068     
  -2797118313.7109852        65575025.830442905        1139786214.4975483     
  -2698490779.8365817        42450992.860823035        1120023277.5972304     
  -2596103400.9190187        31859776.701728821        1125673051.4297485     
  -1328389573.5939226       -44532829.306497872        1435319326.1656899     
  -1279666913.8819373       -33402159.227012515        1425404103.8274441     
  -1232262273.8991899       -26664888.244984031        1422290928.8245108     
  -1186175653.6456735       -24321016.360394835        1425979801.1568866     
  -1141407053.1213944       -26370543.573263228        1436470720.8245778     
  -1667107898.3473661       -31971638.181088686        1362828603.6750889     
  -1603797677.2268801       -24360508.468051672        1355918362.7805347     
  -1541387679.3875804       -19750123.025636554        1354239477.2571616     
  -1479877904.8294733       -18140481.853863001        1357791947.1049645     
  -1419268353.5525527       -19531584.952718735        1366575772.3239458     
  -1991299644.4860291       -15052473.471250296        1287057317.0555637     
  -1917889553.2831364       -12307191.522484899        1283639486.7940910     
  -1844961888.9133892       -11169999.017534614        1283882319.9396613     
  -1772516651.3767824       -11640895.956390619        1287785816.4922757     
  -1700553840.6733210       -13719882.339058995        1295349976.4519341     
  -2300964812.0099144        6224664.8230257034        1208005466.3071203     
  -2221942542.0507145        2757791.6096804142        1208567475.8681102     
  -2142984902.4766088       -924516.22064435482        1211219456.8720143     
  -2064091893.2876027       -4822258.6679666042        1215961409.3188279     
  -1985263514.4836915       -8935435.7322756052        1222793333.2085507     
  -2596103400.9190187        31859776.701728821        1125673051.4297485     
  -2515956643.5296040        20834440.928462267        1130702330.0025949     
  -2435456720.0772419        10986325.365017772        1136250888.0542183     
  -2354603630.5619292        2315430.0114036798        1142318725.5846159     
  -2273397374.9836707       -5178245.1323815584        1148905842.5937934     
  -1141407053.1213944       -26370543.573263228        1436470720.8245778     
  -1086148595.8121994       -27153355.577989042        1428835726.0887208     
  -1030811838.6599178       -27675168.105761707        1425844502.5331686     
  -975396781.66455424       -27935981.156595170        1427497050.1579218     
  -919903424.82610559       -27935794.730475366        1433793368.9629879     
  -1419268353.5525527       -19531584.952718735        1366575772.3239458     
  -1351702876.1060410       -20177967.291547596        1357870897.8171268     
  -1284122048.1854949       -20773181.383605123        1353957706.9281163     
  -1216525869.7909160       -21317227.228884101        1354836199.6569176     
  -1148914340.9223077       -21810104.827399373        1360506376.0035233     
  -1700553840.6733210       -13719882.339058995        1295349976.4519341     
  -1620258736.1251981       -14103052.922706783        1285501781.2435961     
  -1540011230.4720950       -14644886.489755034        1280593182.0905676     
  -1459811323.7140129       -15345383.040206850        1280624178.9928498     
  -1379659015.8509507       -16204542.574055552        1285594771.9504433     
  -1985263514.4836915       -8935435.7322756052        1222793333.2085507     
  -1891816175.8696694       -8928612.4714639187        1211728376.3681314     
  -1798479385.5197153       -9290283.4242111444        1205750928.0205243     
  -1705253143.4338381       -10020448.590551496        1204860988.1657300     
  -1612137449.6120303       -11119107.970449448        1209058556.8037484     
  -2273397374.9836707       -5178245.1323815584        1148905842.5937934     
  -2166375195.3394518       -4654645.9378008842        1136550683.1907303     
  -2059526513.3283596       -4709372.1869777441        1129430944.7179840     
  -1952851328.9503901       -5342423.8798949718        1127546627.1755502     
  -1846349642.2055442       -6553801.0165601969        1130897730.5634370     
  -919903424.82610559       -27935794.730475366        1433793368.9629879     
  -869538937.40383255       -29385402.156900942        1431602913.3160520     
  -819194156.21652389       -30900697.033207089        1434125999.5668371     
  -768869081.26417744       -32481679.359387785        1441362627.7153463     
  -718563712.54679728       -34128349.135457128        1453312797.7615831     
  -1148914340.9223077       -21810104.827399373        1360506376.0035233     
  -1086666604.4063299       -24051071.884352922        1357583461.2860646     
  -1024525834.9045893       -26648595.655432761        1359270586.9653931     
  -962492032.41708636       -29602676.140636027        1365567753.0415108     
  -900565196.94382620       -32913313.339983016        1376474959.5144117     
  -1379659015.8509507       -16204542.574055552        1285594771.9504433     
  -1305823748.8153639       -19325584.833759248        1281837593.9199743     
  -1232182709.5732906       -23094053.071836710        1282586954.7853589     
  -1158735898.1247356       -27509947.288306594        1287842854.5465951     
  -1085483314.4696915       -32573267.483153105        1297605293.2036848     
  -1612137449.6120303       -11119107.970449448        1209058556.8037484     
  -1527010370.6309335       -15208941.005122960        1204365311.2177813     
  -1442164780.2226324       -20237069.282442391        1204075103.0267327     
  -1357600678.3871181       -26203492.802393675        1208187932.2305999     
  -1273318065.1243968       -33108211.564975381        1216703798.8293853     
  -1846349642.2055442       -6553801.0165601969        1130897730.5634370     
  -1750226469.8530493       -11701140.398467183        1125166613.1794856     
  -1654472046.8526127       -18077644.287238002        1123735031.6895151     
  -1559086373.2042456       -25683312.682905495        1126602986.0935268     
  -1464069448.9079413       -34518145.585449278        1133770476.3915234     
  -718563712.54679728       -34128349.135457128        1453312797.7615831     
  -659604610.42176056       -33197367.091583163        1451232890.6273656     
  -600637978.89846623       -32241287.053518862        1454900033.2531245     
  -541663817.97692072       -31260109.021282256        1464314225.6388600     
  -482682127.65712565       -30253832.994881779        1479475467.7845795     
  -900565196.94382620       -32913313.339983016        1376474959.5144117     
  -827651462.82413471       -33049856.738118947        1373137398.9969795     
  -754711185.28980196       -33097922.087444812        1375033473.0482285     
  -681744364.34081924       -33057509.387938976        1382163181.6681612     
  -608750999.97719872       -32928618.639642417        1394526524.8567719     
  -1085483314.4696915       -32573267.483153105        1297605293.2036848     
  -1000081848.9019002       -34217406.487260401        1293032262.3221529     
  -914634825.90308046       -35709687.387934506        1293179450.8180106     
  -829142245.47322035       -37050110.185146660        1298046858.6912556     
  -743604107.61233461       -38238674.878931880        1307634485.9418862     
  -1273318065.1243968       -33108211.564975381        1216703798.8293853     
  -1176895768.6550691       -36700016.339038789        1210917480.6028812     
  -1080408900.7383165       -40076582.955024362        1209337966.5624719     
  -983857461.37413716       -43237911.412922263        1211965256.7081542     
  -887241450.56253672       -46184001.712742865        1218799351.0399294     
  -1464069448.9079413       -34518145.585449278        1133770476.3915234     
  -1358093222.0836253       -40497686.293419957        1126793053.8391709     
  -1252033409.7954998       -46198608.788690150        1123509020.2816148     
  -1145890012.0435498       -51620913.071216226        1123918375.7188540     
  -1039663028.8277967       -56764599.141057909        1128021120.1508982     
  -482682127.65712565       -30253832.994881779        1479475467.7845795     
  -425531938.15757179       -26363007.022667378        1478090297.4442942     
  -366125102.10558367       -14950025.875670701        1482274463.2416072     
  -304461619.50115478        3985110.4461272210        1492027965.1765215     
  -240541490.34429061        30442401.942710236        1507350803.2490377     
  -608750999.97719872       -32928618.639642417        1394526524.8567719     
  -537189023.75156689       -29762713.807533622        1392758311.6669388     
  -463368032.35251939       -19066758.397378474        1396674041.6226640     
  -387288025.78006124       -840752.40918590128        1406273714.7239580     
  -308949004.03420073        24915304.157017440        1421557330.9708087     
  -743604107.61233461       -38238674.878931880        1307634485.9418862     
  -657302896.06644058       -35699456.608645171        1305485993.2936428     
  -568740300.72616947       -25622292.357101351        1309136050.7989185     
  -477916321.59151399       -8007182.1242764294        1318584658.4577184     
  -384830958.66247642        17145874.089828283        1333831816.2700381     
  -887241450.56253672       -46184001.712742865        1218799351.0399294     
  -785873555.10221124       -44173235.426038235        1216273342.3244083     
  -682241907.22653222       -34616627.754824251        1219660490.7703650     
  -576346506.93550408       -17514178.699111402        1228960796.3778098     
  -468187354.22911686        7134111.7411297262        1244174259.1467321     
  -1039663028.8277967       -56764599.141057909        1128021120.1508982     
  -922901000.85886741       -55184050.259690315        1125120358.7592351     
  -803872851.85361874       -46049764.590590984        1128247361.5370107     
  -682578581.81204128       -29361742.133730501        1137402128.4842334     
  -559018190.73412991       -5119982.8890872896        1152584659.6008987     
  -240541490.34429061        30442401.942710236        1507350803.2490377     
  -199714160.41641462        60343427.609751880        1486156862.1861627     
  -154305076.64152184        105516966.10018422        1467738965.5712640     
  -104314239.01962575        165963017.41396073        1452097113.4043510     
  -49741647.550716966        241681581.55111170        1439231305.6854143     
  -308949004.03420073        24915304.157017440        1421557330.9708087     
  -259227694.39847860        55280592.750385135        1404768239.9052656     
  -203065699.50091004        107114832.21657197        1391937489.6455517     
  -140463019.34145284        180418022.55572128        1383065080.1916628     
  -71419653.920140609        275190163.76771730        1378151011.5436099     
  -384830958.66247642        17145874.089828283        1333831816.2700381     
  -322837679.72508150        48988822.487620085        1323616328.5191686     
  -252544784.11096534        108497159.80781122        1318541477.9319723     
  -173952271.82013267        195670886.05039898        1318607264.5084488     
  -87060142.852572113        310510001.21540719        1323813688.2485874     
  -468187354.22911686        7134111.7411297262        1244174259.1467321     
  -390544116.39620328        41468116.821511045        1242701128.0278687     
  -302742330.47170687        109663948.87383543        1247550930.4305179     
  -204781996.45564863        211721607.89803267        1258723666.3546793     
  -96663114.347995445        347641093.89421284        1276219335.8003581     
  -559018190.73412991       -5119982.8890872896        1152584659.6008987     
  -462347004.41185087        32718475.752054214        1162022638.4313686     
  -353658338.58314252        110615199.41462144        1178965847.1411915     
  -232952193.24800178        228570188.09863275        1203414285.7303791     
  -100228568.40642524        386583441.80409670        1235367954.1989276     
  -49741647.550716966        241681581.55111170        1439231305.6854143     
  -40460028.888721257        322565081.06496865        1346264446.4586072     
  -23396058.215209156        429389753.95054615        1253155464.6794093     
   1450264.4698112309        562155600.20781267        1159904360.3478308     
   34078939.166339159        720862619.83678222        1066511133.4638356     
  -71419653.920140609        275190163.76771730        1378151011.5436099     
  -57308128.123171851        376870594.40941417        1296675379.1839092     
  -34216732.873556226        508483923.22659248        1214257890.7586205     
  -2145468.1713023186        670030150.21924233        1130898546.2677393     
   38905665.983587950        861509275.38733900        1046597345.7112710     
  -87060142.852572113        310510001.21540719        1323813688.2485874     
  -70403662.815475255        432301877.11650378        1255226386.4373138     
  -43569795.884601414        588018375.99685431        1184897495.0472474     
  -6558542.0599638224        777659497.85641396        1112827014.0784018     
   40630098.658434987        1001225242.6951754        1039014943.5307455     
  -96663114.347995445        347641093.89421284        1276219335.8003581     
  -79746632.965624928        488858929.18625277        1221917468.2188177     
  -51455247.248351365        667993112.26130569        1165074277.5452957     
  -11788957.196197808        885043643.11929727        1105689763.7797647     
   39252237.190860808        1140010521.7602921        1043763926.9222696     
  -100228568.40642524        386583441.80409670        1235367954.1989276     
  -85337038.573631227        546541750.61863828        1196748624.5284328     
  -57873086.964812547        748408132.01992857        1154788238.2527544     
  -17836713.579971075        992182586.00794494        1109486795.3718944     
   34772081.580873311        1277865112.5826712        1060844295.8858365     
  -2983093846.3303204        149421542.20126569        1255550220.4966967     
  -2891986002.5422339        101231875.61058807        1184961862.1307068     
  -2797118313.7109852        65575025.830442905        1139786214.4975483     
  -2698490779.8365817        42450992.860823035        1120023277.5972304     
  -2596103400.9190187        31859776.701728821        1125673051.4297485     
  -3528160357.8990316        34149021.203021526        1071074044.0884722     
  -3373918698.9366946        25357326.391293526        1036480451.4561102     
  -3217970236.1856027        22254977.542085886        1015946781.6605716     
  -3060314969.6457577        24841974.655380130        1009473034.7018653     
  -2900952899.3171630        33118317.731183290        1017059210.5799876     
  -3963277494.6210370       -48138687.341214418        895663870.16583538     
  -3778338557.3301849       -27263371.427706957        894669828.47029305     
  -3593745857.5049810       -7542180.3997032642        896382921.71556902     
  -3409499395.1454358        11024885.742784500        900803149.90166700     
  -3225599170.2515411        28437826.999769092        907930513.02858508     
  -4288445256.4963217       -97441583.431431532        729319698.72878420     
  -4105245577.7226944       -56630217.846417904        759529993.17325521     
  -3924445177.6691236       -23816447.994927406        781094634.66253793     
  -3746044056.3356094        999726.12303996086        794013623.19663525     
  -3570042213.7221532        17818304.507483482        798286958.77554834     
  -4503663643.5248976       -113759667.06763768        572041529.77732122     
  -4354639760.1142378       -62743212.864839315        631060945.56500101     
  -4210068196.6780233       -26567825.243566036        670081920.50148475     
  -4069948953.2162828       -5233504.2038505077        689104454.58677411     
  -3934282029.7290058        1259750.2543230057        688128547.82086802     
  -2596103400.9190187        31859776.701728821        1125673051.4297485     
  -2515956643.5296040        20834440.928462267        1130702330.0025949     
  -2435456720.0772419        10986325.365017772        1136250888.0542183     
  -2354603630.5619292        2315430.0114036798        1142318725.5846159     
  -2273397374.9836707       -5178245.1323815584        1148905842.5937934     
  -2900952899.3171630        33118317.731183290        1017059210.5799876     
  -2816871341.7738857        21669612.826618075        1016512608.3367598     
  -2732611463.2796574        10815311.091892004        1018571196.5326407     
  -2648173263.8344760        555412.52700436115        1023234975.1676316     
  -2563556743.4383454       -9110082.8680472374        1030503944.2417307     
  -3225599170.2515411        28437826.999769092        907930513.02858508     
  -3131623066.9534512        18353676.644188643        901604044.00528729     
  -3037643487.8164067        8281112.4184596539        899968676.38143122     
  -2943660432.8404083       -1779865.6774142981        903024410.15701878     
  -2849673902.0254545       -11829257.643446326        910771245.33204377     
  -3570042213.7221532        17818304.507483482        798286958.77554834     
  -3460211819.0683036        10886632.381176472        785976637.00818300     
  -3350552793.6874909        3383729.3447332382        780443327.60059237     
  -3241065137.5797243       -4690404.6018562317        781687030.55277550     
  -3131748850.7449970       -13335769.458575487        789707745.86473632     
  -3934282029.7290058        1259750.2543230057        688128547.82086802     
  -3802637598.1184416       -731519.96242785454        669630387.34544027     
  -3671339380.8929114       -3876838.1292986870        659995150.19012094     
  -3540387378.0524201       -8176204.2463016510        659222836.35490859     
  -3409781589.5969715       -13629618.313434362        667313445.83980155     
  -2273397374.9836707       -5178245.1323815584        1148905842.5937934     
  -2166375195.3394518       -4654645.9378008842        1136550683.1907303     
  -2059526513.3283596       -4709372.1869777441        1129430944.7179840     
  -1952851328.9503901       -5342423.8798949718        1127546627.1755502     
  -1846349642.2055442       -6553801.0165601969        1130897730.5634370     
  -2563556743.4383454       -9110082.8680472374        1030503944.2417307     
  -2443225338.7062664       -7896203.9685856104        1019225621.4585158     
  -2322963523.7204900       -6914290.8901360035        1012790447.8806752     
  -2202771298.4810133       -6164343.6326751709        1011198423.5082047     
  -2082648662.9878345       -5646362.1962237358        1014449548.3411137     
  -2849673902.0254545       -11829257.643446326        910771245.33204377     
  -2717154048.5624881       -10261331.946195841        900690985.03663635     
  -2584599876.9590049       -8579012.4472059011        895061602.22166038     
  -2452011387.2149997       -6782299.1464811563        893883096.88711834     
  -2319388579.3304720       -4871192.0440112352        897155469.03300619     
  -3131748850.7449970       -13335769.458575487        789707745.86473632     
  -2988161324.9081240       -11750029.870626807        780946773.92509484     
  -2844435573.0439062       -9703536.8581988811        776244407.74094117     
  -2700571595.1523433       -7196290.4212925434        775600647.31228268     
  -2556569391.2334332       -4228290.5598894358        779015492.63911188     
  -3409781589.5969715       -13629618.313434362        667313445.83980155     
  -3256247167.7431655       -12362297.741886020        659992988.12388849     
  -3102470611.9751854       -10287864.123093963        656338864.43851876     
  -2948451922.2930484       -7406317.4571037292        656351074.78370500     
  -2794191098.6967320       -3717657.7438619137        660029619.15943444     
  -1846349642.2055442       -6553801.0165601969        1130897730.5634370     
  -1750226469.8530493       -11701140.398467183        1125166613.1794856     
  -1654472046.8526127       -18077644.287238002        1123735031.6895151     
  -1559086373.2042456       -25683312.682905495        1126602986.0935268     
  -1464069448.9079413       -34518145.585449278        1133770476.3915234     
  -2082648662.9878345       -5646362.1962237358        1014449548.3411137     
  -1975598257.8642261       -9701139.2048227787        1007916369.8181715     
  -1868907552.6651855       -14954915.961994410        1005237089.2928810     
  -1762576547.3907268       -21407692.467765689        1006411706.7652420     
  -1656605242.0408440       -29059468.722127199        1011440222.2352526     
  -2319388579.3304720       -4871192.0440112352        897155469.03300619     
  -2202684192.5681109       -8215382.0189958811        889830787.03647232     
  -2086330456.3028402       -12728406.984269857        885914365.14126253     
  -1970327370.5346656       -18410266.939863682        885406203.34737289     
  -1854674935.2635777       -25260961.885757804        888306301.65479982     
  -2556569391.2334332       -4228290.5598894358        779015492.63911188     
  -2431484273.9647045       -7243868.8409721851        770909864.83439147     
  -2306740757.7655835       -11398117.354081392        765766859.23466194     
  -2182338842.6360650       -16691036.099205971        763586475.83991826     
  -2058278528.5761509       -23122625.076341867        764368714.65016532     
  -2794191098.6967320       -3717657.7438619137        660029619.15943444     
  -2661998502.0540152       -6786599.6707804203        651153603.21192956     
  -2530138457.0534039       -10964047.071401000        644794571.57308018     
  -2398610963.6949234       -16249999.945779085        640952524.24288607     
  -2267416021.9785552       -22644458.293875456        639627461.22134984     
  -1464069448.9079413       -34518145.585449278        1133770476.3915234     
  -1358093222.0836253       -40497686.293419957        1126793053.8391709     
  -1252033409.7954998       -46198608.788690150        1123509020.2816148     
  -1145890012.0435498       -51620913.071216226        1123918375.7188540     
  -1039663028.8277967       -56764599.141057909        1128021120.1508982     
  -1656605242.0408440       -29059468.722127199        1011440222.2352526     
  -1540833351.3132632       -34074745.171534717        1002630632.1911716     
  -1424901986.4688251       -38558441.231406987        997440256.71051419     
  -1308811147.5075119       -42510556.901710689        995869095.79328537     
  -1192560834.4293394       -45931092.182464361        997917149.43948889     
  -1854674935.2635777       -25260961.885757804        888306301.65479982     
  -1729319307.5795081       -29375552.160634875        877753080.88087845     
  -1603728317.1255269       -32705599.869137704        870744900.23901439     
  -1477901963.9016280       -35251105.011238098        867281759.72920847     
  -1351840247.9078071       -37012067.586954951        867363659.35146153     
  -2058278528.5761509       -23122625.076341867        764368714.65016532     
  -1923551090.8823643       -26400107.260716915        752160399.90830100     
  -1788512401.7656088       -28640084.701871991        743422950.86712003     
  -1653162461.2258878       -29842557.399811924        738156367.52662694     
  -1517501269.2632055       -30007525.354528069        736360649.88681996     
  -2267416021.9785552       -22644458.293875456        639627461.22134984     
  -2123528701.2218215       -25148410.471775889        625852589.27343285     
  -1979254240.3890750       -26361895.729639888        615474408.59482515     
  -1834592639.4803052       -26284914.067425966        608492919.18553817     
  -1689543898.4955227       -24917465.485170126        604908121.04556561     
  -1039663028.8277967       -56764599.141057909        1128021120.1508982     
  -922901000.85886741       -55184050.259690315        1125120358.7592351     
  -803872851.85361874       -46049764.590590984        1128247361.5370107     
  -682578581.81204128       -29361742.133730501        1137402128.4842334     
  -559018190.73412991       -5119982.8890872896        1152584659.6008987     
  -1192560834.4293394       -45931092.182464361        997917149.43948889     
  -1062039409.2753428       -42675289.732871830        994003871.26891613     
  -930098334.65077257       -34687322.381355166        994260383.63243544     
  -796737610.55562890       -21967190.127934337        998686686.53004551     
  -661957236.98991954       -4514892.9726249278        1007282779.9617579     
  -1351840247.9078071       -37012067.586954951        867363659.35146153     
  -1212867921.6697338       -33673560.399388134        861450314.24192894     
  -1073322417.5268468       -28424460.195775568        857848786.03113985     
  -933203735.47915065       -21264766.976138413        856559074.71909714     
  -792511875.52664125       -12194480.740445554        857581180.30579078     
  -1517501269.2632055       -30007525.354528069        736360649.88681996     
  -1375386538.0420535       -28178862.259299695        727459687.67828131     
  -1233545100.4818561       -27261178.033896327        719012568.73312843     
  -1091976956.5826011       -27254472.678311169        711019293.05137098     
  -950682106.34428859       -28158746.192538917        703479860.63301051     
  -1689543898.4955227       -24917465.485170126        604908121.04556561     
  -1549595258.3923061       -26191195.312594414        592031991.57796812     
  -1410766383.5157833       -31197475.895669341        577751731.73840094     
  -1273057273.8659792       -39936307.234464526        562067341.52688634     
  -1136467929.4428692       -52407689.328918874        544978820.94340575     
  -559018190.73412991       -5119982.8890872896        1152584659.6008987     
  -462347004.41185087        32718475.752054214        1162022638.4313686     
  -353658338.58314252        110615199.41462144        1178965847.1411915     
  -232952193.24800178        228570188.09863275        1203414285.7303791     
  -100228568.40642524        386583441.80409670        1235367954.1989276     
  -661957236.98991954       -4514892.9726249278        1007282779.9617579     
  -546939925.45733631        25671861.258837610        1020849451.5274967     
  -421036740.96491534        92144858.689747900        1042789075.1624994     
  -284247683.51267356        194904099.32007104        1073101650.8667676     
  -136572753.10060155        333949583.14981967        1111787178.6402941     
  -792511875.52664125       -12194480.740445554        857581180.30579078     
  -656669232.52687776        11084330.958432436        873956336.96910489     
  -511072323.11389518        66877364.034717292        899572167.89158010     
  -355721147.28769177        155184618.48840499        934428673.07321882     
  -190615705.04826313        276006094.31950045        978525852.51401615     
  -950682106.34428859       -28158746.192538917        703479860.63301051     
  -791534925.62049615       -11044115.149199933        721343294.75618196     
  -623765085.03007901        34812715.449526310        749315125.32842255     
  -447372584.57305884        109411745.60362110        787395352.34972501     
  -262357424.24941003        212752975.31313396        835583975.82009494     
  -1136467929.4428692       -52407689.328918874        544978820.94340575     
  -951537004.73817909       -40713477.064064980        563010324.88874042     
  -759115026.71347570       -4049087.0658335090        592017947.47303534     
  -559201995.36876512        57585480.665752620        632001688.69629884     
  -351797910.70404327        144190226.13071498        682961548.55852664     
  -100228568.40642524        386583441.80409670        1235367954.1989276     
  -85337038.573631227        546541750.61863828        1196748624.5284328     
  -57873086.964812547        748408132.01992857        1154788238.2527544     
  -17836713.579971075        992182586.00794494        1109486795.3718944     
   34772081.580873311        1277865112.5826712        1060844295.8858365     
  -136572753.10060155        333949583.14981967        1111787178.6402941     
  -127410798.57351321        483029155.45967984        1090191244.4449384     
  -95120663.437730908        709202663.13186991        1070039478.8899097     
  -39702347.693245113        1012470106.1664006        1051331881.9752094     
   38844148.659943104        1392831484.5632646        1034068453.7008717     
  -190615705.04826313        276006094.31950045        978525852.51401615     
  -173511253.69682479        418308551.76367587        986268365.76524603     
  -122722862.90400195        672890807.34579957        1000240272.9023445     
  -38250532.669790685        1039752861.0658748        1020441573.9253012     
   79905737.005801976        1518894712.9239080        1046872268.8341203     
  -262357424.24941003        212752975.31313396        835583975.82009494     
  -223638403.94354951        352379939.53064966        884979988.48938441     
  -140679685.36361775        639472564.66173542        945390620.29005527     
  -13481268.509617388        1074030850.7063916        1016815871.2221103     
   157956846.61845142        1656054797.6645820        1099255741.2855618     
  -351797910.70404327        144190226.13071498        682961548.55852664     
  -277792249.31368983        285243318.76059878        786326112.61732781     
  -148991130.81658611        608947935.07965040        905490521.05304670     
   34605444.787279069        1115304075.0878847        1040454773.8656747     
   272997477.49788600        1804311738.7852912        1191218871.0552115     
  -4503663643.5248976       -113759667.06763768        572041529.77732122     
  -4354639760.1142378       -62743212.864839315        631060945.56500101     
  -4210068196.6780233       -26567825.243566036        670081920.50148475     
  -4069948953.2162828       -5233504.2038505077        689104454.58677411     
  -3934282029.7290058        1259750.2543230057        688128547.82086802     
  -4708371871.4378424        11802211.268053293        497499341.31551641     
  -4602811179.4226618        6222842.9562203884        500515649.40669495     
  -4497385854.1498604        192252.16981697083        503157748.62514693     
  -4392095895.6194172       -6289561.0911400318        505425638.97087425     
  -4286941303.8313451       -13222596.826663733        507319320.44387364     
  -5093477451.0676937        83244884.088673592        403686289.71345496     
  -4975310716.2238045        37890463.529454708        355735935.54557335     
  -4852962394.8901968        6474664.6026566029        327035604.48343772     
  -4726432487.0668573       -11002512.691723347        317585296.52704340     
  -4595720992.7537956       -14541068.353695154        327385011.67639333     
  -5658980382.4144449        100568351.39422464        290602374.97113401     
  -5472138370.5176601        32259648.854879379        196721803.98164004     
  -5276797818.8990469       -7720587.9450695515        141715488.07635722     
  -5072958727.5586176       -19372359.005606890        125583427.25528480     
  -4860621096.4963655       -2695664.3267414570        148325621.51842907     
  -6404880665.4781141        63772613.184694052        158247597.08855492     
  -6093294142.3042107       -10669601.067510128        23473254.714885432     
  -5768892126.1764126       -42393505.473335266       -52802600.596097723     
  -5431674617.0946836       -31399100.032773495       -70579968.844397441     
  -5081641615.0590515        22313615.254146814       -29858850.030020431     
  -3934282029.7290058        1259750.2543230057        688128547.82086802     
  -3802637598.1184416       -731519.96242785454        669630387.34544027     
  -3671339380.8929114       -3876838.1292986870        659995150.19012094     
  -3540387378.0524201       -8176204.2463016510        659222836.35490859     
  -3409781589.5969715       -13629618.313434362        667313445.83980155     
  -4286941303.8313451       -13222596.826663733        507319320.44387364     
  -4135849857.1052585       -7948490.8661201000        501229053.72499567     
  -3985660789.6491213       -5682315.8053963184        499558480.81087780     
  -3836374101.4629259       -6424071.6444771290        502307601.70152223     
  -3687989792.5466700       -10173758.383355618        509476416.39693099     
  -4595720992.7537956       -14541068.353695154        327385011.67639333     
  -4437877472.3846169       -5810068.6575942039        333053779.68167794     
  -4281492496.1702800       -1940882.8109781742        338699011.97637337     
  -4126566064.1107941       -2933510.8138613701        344320708.56048799     
  -3973098176.2061481       -8787952.6662158966        349918869.43402040     
  -4860621096.4963655       -2695664.3267414570        148325621.51842907     
  -4708720443.9564924        5683746.6632010937        165104565.21548152     
  -4558834500.4563799        7347460.8539576530        177416743.68660301     
  -4410963265.9960175        2295478.2455444336        185262156.93179885     
  -4265106740.5753918       -9472201.1620068550        188640804.95106930     
  -5081641615.0590515        22313615.254146814       -29858850.030020431     
  -4948378771.8209066        26532955.096211910       -2618589.6735847052     
  -4817686802.5074215        22182715.189420462        15711675.941581003     
  -4689565707.1185999        9262895.5337502956        25131946.815464363     
  -4564015485.6544189       -12226503.870725632        25642222.948078025     
  -3409781589.5969715       -13629618.313434362        667313445.83980155     
  -3256247167.7431655       -12362297.741886020        659992988.12388849     
  -3102470611.9751854       -10287864.123093963        656338864.43851876     
  -2948451922.2930484       -7406317.4571037292        656351074.78370500     
  -2794191098.6967320       -3717657.7438619137        660029619.15943444     
  -3687989792.5466700       -10173758.383355618        509476416.39693099     
  -3524459206.6692080       -10125768.754470348        500440562.01041734     
  -3360518245.9529557       -8709862.9962565899        495709114.59831750     
  -3196166910.3979135       -5926041.1087601185        495282074.16063160     
  -3031405200.0040760       -1774303.0919398069        499159440.69735879     
  -3973098176.2061481       -8787952.6662158966        349918869.43402040     
  -3797748360.7511392       -9412374.3138198853        339363899.45563883     
  -3621819929.5327053       -8108076.7500066757        333751409.39553511     
  -3445312882.5508699       -4875059.9748539925        333081399.25370592     
  -3268227219.8056078        286676.01171946526        337353869.03015411     
  -4265106740.5753918       -9472201.1620068550        188640804.95106930     
  -4076114629.9889417       -10222114.419931173        176763000.45954803     
  -3886375662.7144456       -8482505.3843736649        170465748.83016884     
  -3695889838.7519116       -4253374.0553584099        169749050.06292227     
  -3504657158.1013393        2465279.5671219826        174612904.15782201     
  -4564015485.6544189       -12226503.870725632        25642222.948078025     
  -4359558014.3826284       -12554989.072814941        12637865.022143189     
  -4154185445.4981637       -9833148.8993191719        5852132.9022180708     
  -3947897779.0010419       -4060983.3503055573        5285026.5882889004     
  -3740695014.8912506        4761507.5742774010        10936546.080363685     
  -2794191098.6967320       -3717657.7438619137        660029619.15943444     
  -2661998502.0540152       -6786599.6707804203        651153603.21192956     
  -2530138457.0534039       -10964047.071401000        644794571.57308018     
  -2398610963.6949234       -16249999.945779085        640952524.24288607     
  -2267416021.9785552       -22644458.293875456        639627461.22134984     
  -3031405200.0040760       -1774303.0919398069        499159440.69735879     
  -2891717637.2562151       -4798134.2676182985        490481105.94964552     
  -2752211872.3572836       -8427958.2730579376        485040735.26232839     
  -2612887905.3072653       -12663775.108215094        482838328.63540018     
  -2473745736.1061745       -17505584.773120046        483873886.06887132     
  -3268227219.8056078        286676.01171946526        337353869.03015411     
  -3118984748.8047929       -2074061.7683944702        329049094.90763575     
  -2969773321.8597026       -4538279.7342575788        324703264.59723687     
  -2820592938.9703364       -7105977.8858731985        324316378.09897423     
  -2671443600.1367011       -9777156.2232468128        327888435.41284668     
  -3504657158.1013393        2465279.5671219826        174612904.15782201     
  -3343799836.6997452        1385617.8269190788        166857570.08588377     
  -3182822805.5606766        704988.54498016834        163782159.57780996     
  -3021726064.6841459        423391.72124874592        165386672.63361058     
  -2860509614.0701375        540827.35575830936        171671109.25328228     
  -3740695014.8912506        4761507.5742774010        10936546.080363685     
  -3566162900.9410567        5580904.5183656216        3906531.4844078678     
  -3391360323.4602084        7301846.5646221638        2277420.2040528515     
  -3216287282.4486790        9924333.7131497860        6049212.2393063232     
  -3040943777.9064946        13448365.963873982        15221907.590168282     
  -2267416021.9785552       -22644458.293875456        639627461.22134984     
  -2123528701.2218215       -25148410.471775889        625852589.27343285     
  -1979254240.3890750       -26361895.729639888        615474408.59482515     
  -1834592639.4803052       -26284914.067425966        608492919.18553817     
  -1689543898.4955227       -24917465.485170126        604908121.04556561     
  -2473745736.1061745       -17505584.773120046        483873886.06887132     
  -2321662732.5154834       -18504897.777847767        473018634.46694887     
  -2169424142.2780924       -18985588.626913071        464723838.58186013     
  -2017029965.3939908       -18947657.320280433        458989498.41361630     
  -1864480201.8631897       -18391103.857979536        455815613.96221185     
  -2671443600.1367011       -9777156.2232468128        327888435.41284668     
  -2513554158.1477051       -9988603.3855026960        319682658.48938626     
  -2355740682.9413004       -10453273.156417489        313201101.73028874     
  -2198003174.5175185       -11171165.536074400        308443765.13555104     
  -2040341632.8763559       -12142280.524455190        305410648.70518482     
  -2860509614.0701375        540827.35575830936        171671109.25328228     
  -2699202978.1184678        400472.70530724525        165844661.34074566     
  -2538203862.3787222       -764949.31822550297        160906198.04010040     
  -2377512266.8509073       -2955438.7148665190        156855719.35134661     
  -2217128191.5350204       -6170995.4845889807        153693225.27448362     
  -3040943777.9064946        13448365.963873982        15221907.590168282     
  -2878609192.4278059        12662330.494504929        11504643.021025103     
  -2716813680.5903325        10079382.887753010        7839127.5113067245     
  -2555557242.3941207        5699523.1434518099        4225361.0609900896     
  -2394839877.8391600       -477248.73833167553        663343.67010081676     
  -1689543898.4955227       -24917465.485170126        604908121.04556561     
  -1549595258.3923061       -26191195.312594414        592031991.57796812     
  -1410766383.5157833       -31197475.895669341        577751731.73840094     
  -1273057273.8659792       -39936307.234464526        562067341.52688634     
  -1136467929.4428692       -52407689.328918874        544978820.94340575     
  -1864480201.8631897       -18391103.857979536        455815613.96221185     
  -1727757354.9810941       -22386989.713964343        442424514.64799625     
  -1591061104.1898901       -26471529.206263185        428584356.15762180     
  -1454391449.4895577       -30644722.334801674        414295138.49108303     
  -1317748390.8801181       -34906569.099637806        399556861.64839500     
  -2040341632.8763559       -12142280.524455190        305410648.70518482     
  -1904115804.3702502       -18041689.955492973        292779943.53614438     
  -1766823402.8191974       -20385855.903378725        280655250.38673800     
  -1628464428.2232122       -19174778.368161857        269036569.25697315     
  -1489038880.5822954       -14408457.349835336        257923900.14684623     
  -2217128191.5350204       -6170995.4845889807        153693225.27448362     
  -2078670606.5597534       -13155296.037111521        143098278.24239391     
  -1938053279.4037237       -12940455.987095952        133964414.42575502     
  -1795276210.0669520       -5526475.3345874548        126291633.82454820     
  -1650339398.5493994        9086645.9204891920        120079936.43879539     
  -2394839877.8391600       -477248.73833167553        663343.67010081676     
  -2251421761.5495858       -7727807.9587755203       -6620481.2332352288     
  -2104750733.9434490       -4135329.4573328495       -11488151.725318516     
  -1954826795.0207291        10300186.766037464       -13939667.806172585     
  -1801649944.7814379        35578740.711333394       -13975029.475787027     
  -1136467929.4428692       -52407689.328918874        544978820.94340575     
  -951537004.73817909       -40713477.064064980        563010324.88874042     
  -759115026.71347570       -4049087.0658335090        592017947.47303534     
  -559201995.36876512        57585480.665752620        632001688.69629884     
  -351797910.70404327        144190226.13071498        682961548.55852664     
  -1317748390.8801181       -34906569.099637806        399556861.64839500     
  -1117958657.8632114       -14804284.788992643        421323461.57161081     
  -914568617.48955834        17299024.044160604        441603471.08545846     
  -707578269.75913501        61403357.399876863        460396890.18993807     
  -496987614.67196858        117508715.27808097        477703718.88504320     
  -1489038880.5822954       -14408457.349835336        257923900.14684623     
  -1309998079.3912823        3419576.9651649594        278886392.42416066     
  -1131247716.8067663        20279482.591836333        285899585.24377251     
  -952787792.82874513        36171259.530195534        278963478.60567164     
  -774618307.45720875        51094907.780269116        258078072.50987613     
  -1650339398.5493994        9086645.9204891920        120079936.43879539     
  -1527655269.3223872        13958108.198380649        135699117.44640908     
  -1409152324.6651039        4892288.5771702528        124906289.94797708     
  -1294830564.5775769       -18110812.943228781        87701453.943516091     
  -1184689989.0597916       -55051196.362760425        24084609.433011230     
  -1801649944.7814379        35578740.711333394       -13975029.475787027     
  -1770930227.6565123        16811308.910723567       -8238363.3616652712     
  -1748282441.0645702       -28862557.999831080       -41376414.801914200     
  -1733706585.0056362       -101442860.02042401       -113389183.79654199     
  -1727202659.4797003       -200929597.15098780       -224276670.34554079     
  -351797910.70404327        144190226.13071498        682961548.55852664     
  -277792249.31368983        285243318.76059878        786326112.61732781     
  -148991130.81658611        608947935.07965040        905490521.05304670     
   34605444.787279069        1115304075.0878847        1040454773.8656747     
   272997477.49788600        1804311738.7852912        1191218871.0552115     
  -496987614.67196858        117508715.27808097        477703718.88504320     
  -388201167.53068650        223065285.65554097        597017244.18490958     
  -230272736.61452073        492428468.61596870        735476880.82067049     
  -23202321.923460782        925598264.15939331        893082628.79232538     
   233010076.54250753        1522574672.2857909        1069834488.0998762     
  -774618307.45720875        51094907.780269116        258078072.50987613     
  -621490311.82505608        124023184.72727129        386744840.16362369     
  -424873805.74985790        341913163.15108031        537903986.11225712     
  -184768789.23162216        704764843.05167282        711555510.35578120     
   98824737.729642987        1212578224.4290576        907699412.89417291     
  -1184689989.0597916       -55051196.362760425        24084609.433011230     
  -977659682.19678617       -11882984.024206519        155508900.55348298     
  -732794338.22258973        157402018.68499976        312771836.92783517     
  -450093957.13724142        452803811.76468968        495873418.55604815     
  -129558538.94068396        874322395.21510601        704813645.43813908     
  -1727202659.4797003       -200929597.15098780       -224276670.34554079     
  -1456709278.6458972       -184653220.59891200       -96690574.645509943     
  -1154034334.0327475       -61104964.782391846        60080433.267381549     
  -819177825.64027858        169715170.29853708        246036353.39312744     
  -452139753.46849966        507807184.64385438        461177185.73174518     
 </DataArray>
 <DataArray  type="Float64" Name="VM" NumberOfComponents="1" format="ascii">
   6262792843.8015652     
   5981194137.1315775     
   5702007954.8638353     
   5420378726.9660845     
   5133901954.8740482     
   5669218784.4564533     
   5470817924.4166842     
   5274690010.5614910     
   5078997531.4007607     
   4883255973.7821016     
   5195725060.5803165     
   5049826119.4281406     
   4906202215.3305693     
   4764679140.9342365     
   4625499987.5429659     
   4844278132.3744526     
   4722146677.1497402     
   4601386226.7541237     
   4482007084.5056210     
   4364030006.4303026     
   4616491029.5827351     
   4491322146.1717672     
   4364995712.6842928     
   4236162959.3347425     
   4103804575.1865010     
   5133901954.8740482     
   4986094657.9608078     
   4839293178.2332306     
   4693295103.5691767     
   4547943112.2414751     
   4883255973.7821016     
   4729052654.2493410     
   4575157035.1456022     
   4421505426.4707766     
   4268037710.5189977     
   4625499987.5429659     
   4471698051.4740982     
   4318356676.2770586     
   4165530868.2172141     
   4013286963.1505976     
   4364030006.4303026     
   4217372072.4971223     
   4072266116.1829944     
   3928880011.0992870     
   3787457535.5218778     
   4103804575.1865010     
   3970646888.3309798     
   3841193861.8219709     
   3715706349.3479934     
   3594640271.6072154     
   4547943112.2414751     
   4347246543.7326393     
   4146666843.1850595     
   3946128268.1819873     
   3745615844.9141459     
   4268037710.5189977     
   4080214529.1976795     
   3893109627.3326764     
   3706746993.4168429     
   3521223648.0546360     
   4013286963.1505976     
   3838287472.3898649     
   3664666828.9106917     
   3492553284.8709230     
   3322159333.6627259     
   3787457535.5218778     
   3625400225.0731053     
   3465427291.1464605     
   3307769862.0828400     
   3152751181.7474813     
   3594640271.6072154     
   3445799485.1124768     
   3299766109.6825886     
   3156863381.2274771     
   3017508431.8206844     
   3745615844.9141459     
   3571212301.7372584     
   3397144234.1554947     
   3223394237.7965698     
   3050020907.6557932     
   3521223648.0546360     
   3358697250.2536087     
   3197015215.5011120     
   3036244479.9062233     
   2876530714.6684322     
   3322159333.6627259     
   3170884441.4260964     
   3020931104.1875730     
   2872450361.6518273     
   2725674129.3952041     
   3152751181.7474813     
   3012362813.7396245     
   2873726206.9189496     
   2737071353.3393340     
   2602709708.2339010     
   3017508431.8206844     
   2887930402.4897680     
   2760467974.6866226     
   2635418128.4562273     
   2513157217.5599122     
   3050020907.6557932     
   2886268604.3509116     
   2722252648.9338284     
   2557973184.4520354     
   2393432783.1446252     
   2876530714.6684322     
   2714625116.4762168     
   2552811827.3942142     
   2391116173.4240460     
   2229576287.0849876     
   2725674129.3952041     
   2568292682.0581322     
   2411787599.8399086     
   2256291020.1326890     
   2101987267.1195886     
   2602709708.2339010     
   2452630041.1457343     
   2304685485.4427776     
   2159193244.5525255     
   2016583709.3783102     
   2513157217.5599122     
   2373009697.4905596     
   2236690689.0640244     
   2104735944.6491895     
   1977849082.3330772     
   2393432783.1446252     
   2246901540.8217087     
   2102492708.3214529     
   1960205756.5072646     
   1820202843.9220467     
   2229576287.0849876     
   2086719265.8971589     
   1945504794.4207218     
   1805935481.4658332     
   1668088910.3650625     
   2101987267.1195886     
   1961953952.3043938     
   1822889467.3968883     
   1684827268.3020427     
   1547829620.3431580     
   2016583709.3783102     
   1880161231.4360235     
   1744052508.9151602     
   1608383004.6734810     
   1473325399.3035047     
   1977849082.3330772     
   1847562465.9316845     
   1717245464.3593473     
   1587229306.6714778     
   1457997834.4624124     
   1820202843.9220467     
   1779639029.6118307     
   1735584507.8845181     
   1696665444.6780984     
   1681388624.9672527     
   1668088910.3650625     
   1552645805.9635084     
   1428089043.8010087     
   1294773721.4311218     
   1158832112.6610973     
   1547829620.3431580     
   1397836864.1243396     
   1244274423.2694743     
   1084870075.5443377     
   917592643.41992164     
   1473325399.3035047     
   1328919274.7173309     
   1198973946.0746346     
   1087985368.2267997     
   1001879622.7246969     
   1457997834.4624124     
   1348803529.0599747     
   1274610526.1735415     
   1243572727.7303596     
   1262756166.4070482     
   1681388624.9672527     
   1383831476.4812181     
   1129500415.8760300     
   1010144526.6909021     
   1153091842.5085959     
   1158832112.6610973     
   1008394718.7681854     
   985194654.52616680     
   1161501361.9185305     
   1544204355.1391854     
   917592643.41992164     
   963036769.00761282     
   1144891651.9672272     
   1476496799.0111911     
   1957533972.2391384     
   1001879622.7246969     
   1164629491.5597560     
   1425398204.8661551     
   1808765514.7095461     
   2334822864.6506114     
   1262756166.4070482     
   1446627691.8274753     
   1715682450.8453138     
   2110506591.9570689     
   2663558851.3452888     
   4616491029.5827351     
   4491322146.1717672     
   4364995712.6842928     
   4236162959.3347425     
   4103804575.1865010     
   4430369196.8467283     
   4281951833.0265813     
   4133150132.8098598     
   3983638183.2760963     
   3833130440.1626215     
   4205703500.3139386     
   4049454036.7553301     
   3896168999.5514703     
   3746154383.3756313     
   3599784696.7744813     
   3949083733.5329137     
   3799382773.8157077     
   3658691389.4022183     
   3527523329.9076748     
   3406772524.1395764     
   3672157288.4907966     
   3540638300.6573567     
   3427330318.1081414     
   3332322880.1459689     
   3256617073.4396563     
   4103804575.1865010     
   3970646888.3309798     
   3841193861.8219709     
   3715706349.3479934     
   3594640271.6072154     
   3833130440.1626215     
   3721561682.0166702     
   3613798522.6676474     
   3510156830.8223662     
   3411083590.7333436     
   3599784696.7744813     
   3506992330.6776519     
   3417755829.6441283     
   3332383656.3940248     
   3251258740.9706292     
   3406772524.1395764     
   3330294492.6130238     
   3256706314.2267652     
   3186250402.9532228     
   3119201033.0273705     
   3256617073.4396563     
   3194412157.0189543     
   3133984179.1523280     
   3075459030.8640265     
   3018970243.7613716     
   3594640271.6072154     
   3445799485.1124768     
   3299766109.6825886     
   3156863381.2274771     
   3017508431.8206844     
   3411083590.7333436     
   3274373661.4365449     
   3141400067.2786474     
   3012582186.7714515     
   2888449432.6279616     
   3251258740.9706292     
   3127904416.0355635     
   3009362191.6328826     
   2896136427.5398574     
   2788848383.0858836     
   3119201033.0273705     
   3010209835.1547661     
   2907204729.7652760     
   2810744628.6066637     
   2721499159.7440510     
   3018970243.7613716     
   2924953531.4884787     
   2838123890.3159461     
   2759047335.9713855     
   2688381791.9337831     
   3017508431.8206844     
   2887930402.4897680     
   2760467974.6866226     
   2635418128.4562273     
   2513157217.5599122     
   2888449432.6279616     
   2770439768.6850562     
   2655730776.3758411     
   2544754420.0157733     
   2438041080.0913687     
   2788848383.0858836     
   2684295826.8089728     
   2584378076.8611159     
   2489637924.4006443     
   2400718371.8512392     
   2721499159.7440510     
   2631840155.0392876     
   2548181360.5958591     
   2471119596.8259792     
   2401333744.4397931     
   2688381791.9337831     
   2614363749.8803616     
   2547616033.6628509     
   2488716856.8445501     
   2438295933.8329053     
   2513157217.5599122     
   2373009697.4905596     
   2236690689.0640244     
   2104735944.6491895     
   1977849082.3330772     
   2438041080.0913687     
   2312833433.1576161     
   2192769433.8530931     
   2078570398.8669963     
   1971130355.7548981     
   2400718371.8512392     
   2292254846.9856844     
   2190249666.1158314     
   2095519919.1209753     
   2009018990.3928907     
   2401333744.4397931     
   2310706293.7218390     
   2227652504.4274936     
   2152970050.5301623     
   2087533023.0664549     
   2438295933.8329053     
   2365721128.7286768     
   2301503160.4907393     
   2246327825.2049966     
   2200901407.6665363     
   1977849082.3330772     
   1847562465.9316845     
   1717245464.3593473     
   1587229306.6714778     
   1457997834.4624124     
   1971130355.7548981     
   1855154914.1111054     
   1743513718.2031548     
   1637116860.5940988     
   1537080915.9654527     
   2009018990.3928907     
   1912563484.0836747     
   1824895449.7166245     
   1747215370.3750350     
   1680815234.0060966     
   2087533023.0664549     
   2012250001.4972470     
   1949399332.9597945     
   1900069488.8557227     
   1865298597.6252179     
   2200901407.6665363     
   2145415831.9937093     
   2105013192.4127293     
   2080473261.4453795     
   2072484896.1280811     
   1457997834.4624124     
   1348803529.0599747     
   1274610526.1735415     
   1243572727.7303596     
   1262756166.4070482     
   1537080915.9654527     
   1476156848.8887310     
   1447937523.0282669     
   1456397454.1644368     
   1504834555.3817205     
   1680815234.0060966     
   1652346375.6900127     
   1651589238.3419425     
   1680912203.9376318     
   1742921624.1536343     
   1865298597.6252179     
   1854871302.6212380     
   1867380730.9839163     
   1905033450.6971190     
   1970858890.1470001     
   2072484896.1280811     
   2069098246.7568271     
   2084884848.2875915     
   2122474948.0662541     
   2185681752.2092633     
   1262756166.4070482     
   1446627691.8274753     
   1715682450.8453138     
   2110506591.9570689     
   2663558851.3452888     
   1504834555.3817205     
   1613259749.7392502     
   1788862747.5661204     
   2066400998.2173018     
   2476094388.6070514     
   1742921624.1536343     
   1787715931.6259582     
   1884651966.2837276     
   2060643565.0293756     
   2340927343.9510765     
   1970858890.1470001     
   1968958663.4633546     
   2003615011.0860240     
   2093501742.2524977     
   2257276874.3728986     
   2185681752.2092633     
   2156274952.6685572     
   2146492899.1631067     
   2166853224.2975340     
   2228417325.8365078     
   3672157288.4907966     
   3540638300.6573567     
   3427330318.1081414     
   3332322880.1459689     
   3256617073.4396563     
   3339297492.1708546     
   3262210833.0618744     
   3198154950.9439588     
   3147422760.0588522     
   3110638863.1367397     
   3090857594.4493308     
   3054927617.0948138     
   3025232418.6411800     
   3001969397.2427969     
   2985375056.1047201     
   2923395558.7199597     
   2917855612.6120524     
   2910162759.6112051     
   2900091631.7980723     
   2887444290.2364097     
   2829900280.2861862     
   2846768186.0619817     
   2852028677.9472957     
   2844665229.4366236     
   2823897312.9440322     
   3256617073.4396563     
   3194412157.0189543     
   3133984179.1523280     
   3075459030.8640265     
   3018970243.7613716     
   3110638863.1367397     
   3052382801.0231767     
   2997885323.6216516     
   2947384187.4056273     
   2901133122.1834960     
   2985375056.1047201     
   2933007034.7782478     
   2886662015.1824160     
   2846644369.4317942     
   2813280828.2846708     
   2887444290.2364097     
   2841753526.3414927     
   2804592083.3819461     
   2776262522.4519377     
   2757092056.1822047     
   2823897312.9440322     
   2784155085.9366770     
   2755658537.1302152     
   2738635381.9406366     
   2733337432.2136040     
   3018970243.7613716     
   2924953531.4884787     
   2838123890.3159461     
   2759047335.9713855     
   2688381791.9337831     
   2901133122.1834960     
   2823546093.2943058     
   2753672655.2180653     
   2692020583.3243995     
   2639158626.3298717     
   2813280828.2846708     
   2751428211.4376082     
   2697656502.4606500     
   2652384957.5267000     
   2616066178.3053136     
   2757092056.1822047     
   2709850971.9147658     
   2670877416.7054219     
   2640486232.8825254     
   2619005532.9050937     
   2733337432.2136040     
   2699148174.8351398     
   2673240366.1489005     
   2655825708.0242767     
   2647117926.5572562     
   2688381791.9337831     
   2614363749.8803616     
   2547616033.6628509     
   2488716856.8445501     
   2438295933.8329053     
   2639158626.3298717     
   2580121880.2845182     
   2528922549.4995389     
   2486051607.7316713     
   2452023438.4882851     
   2616066178.3053136     
   2571180795.2477307     
   2534520722.0905237     
   2506467753.4621978     
   2487407109.5821733     
   2619005532.9050937     
   2586953938.1436491     
   2563351525.1539741     
   2548468304.4804411     
   2542567392.3670449     
   2647117926.5572562     
   2626170774.0673890     
   2613776047.6688442     
   2610105128.1088953     
   2615320036.7675948     
   2438295933.8329053     
   2365721128.7286768     
   2301503160.4907393     
   2246327825.2049966     
   2200901407.6665363     
   2452023438.4882851     
   2395000992.8968182     
   2347293046.5280766     
   2309456735.7540317     
   2282033702.8905396     
   2487407109.5821733     
   2444861542.8153081     
   2412327723.1820078     
   2390212319.3130665     
   2378888757.7214499     
   2542567392.3670449     
   2512820648.5610280     
   2493591420.1646957     
   2485144756.6268392     
   2487711050.7124991     
   2615320036.7675948     
   2596267191.3614740     
   2588142372.6888738     
   2591095580.3334703     
   2605250889.7840133     
   2200901407.6665363     
   2145415831.9937093     
   2105013192.4127293     
   2080473261.4453795     
   2072484896.1280811     
   2282033702.8905396     
   2241648779.3959336     
   2215225811.6262836     
   2203216532.3982520     
   2206009798.1300364     
   2378888757.7214499     
   2350594537.9841185     
   2335118985.8864627     
   2332709788.3797898     
   2343585266.0588460     
   2487711050.7124991     
   2468822608.7581477     
   2461703772.6547570     
   2466487394.2430682     
   2483304298.7181439     
   2605250889.7840133     
   2593477495.1191459     
   2592577372.8182602     
   2602626870.8932209     
   2623718863.0464821     
   2072484896.1280811     
   2069098246.7568271     
   2084884848.2875915     
   2122474948.0662541     
   2185681752.2092633     
   2206009798.1300364     
   2191692998.6671414     
   2192342418.5557618     
   2209928060.8850369     
   2247371954.4286213     
   2343585266.0588460     
   2319162610.0703416     
   2306280174.9252663     
   2306344785.9820228     
   2321447222.6552191     
   2483304298.7181439     
   2450544329.7158160     
   2426383490.5935349     
   2411768258.8438215     
   2408077387.6317000     
   2623718863.0464821     
   2585065654.0616455     
   2552371783.6897445     
   2526219373.6417074     
   2507418400.9619365     
   2185681752.2092633     
   2156274952.6685572     
   2146492899.1631067     
   2166853224.2975340     
   2228417325.8365078     
   2247371954.4286213     
   2182643115.8359323     
   2134367470.2643640     
   2112207269.8933043     
   2127089344.8952818     
   2321447222.6552191     
   2224731458.8362899     
   2141346558.5741436     
   2079654681.3118510     
   2049822308.9567902     
   2408077387.6317000     
   2282832897.1889162     
   2168076739.3403640     
   2070547150.9919577     
   1999009627.5527768     
   2507418400.9619365     
   2357155493.6683474     
   2215028177.9429455     
   2086016383.7054405     
   1976995696.4889741     
   2829900280.2861862     
   2846768186.0619817     
   2852028677.9472957     
   2844665229.4366236     
   2823897312.9440322     
   2797084976.0439172     
   2779001802.7200541     
   2759515494.8500681     
   2738498901.3021259     
   2715847853.4809952     
   2766412427.5430937     
   2720437971.3749638     
   2685175180.6762686     
   2660837743.2117677     
   2647632521.5907497     
   2761424721.7860980     
   2689084717.0262094     
   2641092170.0849714     
   2617450513.9928651     
   2618192174.8587098     
   2811065914.8831911     
   2706263825.0628152     
   2640507662.5879092     
   2613458731.2749748     
   2624832126.7291989     
   2823897312.9440322     
   2784155085.9366770     
   2755658537.1302152     
   2738635381.9406366     
   2733337432.2136040     
   2715847853.4809952     
   2691905504.7467742     
   2677389206.5070586     
   2672404018.6568918     
   2677063851.0172482     
   2647632521.5907497     
   2636477542.4743133     
   2632743216.0478153     
   2636465983.6805687     
   2647686837.9366703     
   2618192174.8587098     
   2617338106.9973774     
   2621796177.1963305     
   2631568436.8261380     
   2646662813.4363046     
   2624832126.7291989     
   2632509307.2553873     
   2643374109.5001101     
   2657405106.7052393     
   2674591152.0904927     
   2733337432.2136040     
   2699148174.8351398     
   2673240366.1489005     
   2655825708.0242767     
   2647117926.5572562     
   2677063851.0172482     
   2650817550.0202947     
   2633412103.6881700     
   2624979074.4347744     
   2625648115.6194243     
   2647686837.9366703     
   2627128788.4242129     
   2615927247.4922471     
   2614144344.0997891     
   2621839984.4936752     
   2646662813.4363046     
   2629033717.0796123     
   2621262488.4044285     
   2623364269.1120896     
   2635353492.1430063     
   2674591152.0904927     
   2656770342.9480181     
   2649319484.1596780     
   2652238463.5592756     
   2665527994.7186680     
   2647117926.5572562     
   2626170774.0673890     
   2613776047.6688442     
   2610105128.1088953     
   2615320036.7675948     
   2625648115.6194243     
   2613078492.7736516     
   2609081573.9221082     
   2613753420.8347554     
   2627182735.3377724     
   2621839984.4936752     
   2615585181.6217179     
   2617926884.4368377     
   2628906838.6592355     
   2648562825.0651231     
   2635353492.1430063     
   2633173898.3758855     
   2639655079.7397866     
   2654806925.1198702     
   2678638228.0616579     
   2665527994.7186680     
   2665095487.7094202     
   2673455630.2336521     
   2690608831.2449460     
   2716555486.5418677     
   2615320036.7675948     
   2596267191.3614740     
   2588142372.6888738     
   2591095580.3334703     
   2605250889.7840133     
   2627182735.3377724     
   2615472330.0616560     
   2614178695.9223137     
   2623381023.0249696     
   2643143330.6482620     
   2648562825.0651231     
   2642513130.6247272     
   2646478024.2423878     
   2660491685.5907407     
   2684581437.6059790     
   2678638228.0616579     
   2676622643.0858712     
   2684348957.9349294     
   2701826215.7320371     
   2729061884.6791143     
   2716555486.5418677     
   2717030976.0540776     
   2727116209.5668211     
   2746810044.1469626     
   2776111942.7606950     
   2605250889.7840133     
   2593477495.1191459     
   2592577372.8182602     
   2602626870.8932209     
   2623718863.0464821     
   2643143330.6482620     
   2632709109.8923020     
   2632430759.8891149     
   2642347014.5477552     
   2662507540.2714777     
   2684581437.6059790     
   2675187911.0668120     
   2675406637.6892424     
   2685252937.4774480     
   2704747788.6377697     
   2729061884.6791143     
   2720536685.7580853     
   2721238033.8372841     
   2731169134.9504933     
   2750334985.0244379     
   2776111942.7606950     
   2768397286.1209292     
   2769667494.3434901     
   2779922529.5059581     
   2799162383.7048903     
   2623718863.0464821     
   2585065654.0616455     
   2552371783.6897445     
   2526219373.6417074     
   2507418400.9619365     
   2662507540.2714777     
   2616964620.2819486     
   2577125480.7390575     
   2543320981.9722991     
   2516013634.4244552     
   2704747788.6377697     
   2654417968.8113952     
   2609680486.5052614     
   2570682446.7982574     
   2537629797.9214263     
   2750334985.0244379     
   2697329778.3145194     
   2649948551.7921953     
   2608227660.5207510     
   2572217801.5145779     
   2799162383.7048903     
   2745595783.0462527     
   2697826967.0462613     
   2655855928.1833053     
   2619682664.3565674     
   2507418400.9619365     
   2357155493.6683474     
   2215028177.9429455     
   2086016383.7054405     
   1976995696.4889741     
   2516013634.4244552     
   2348193668.5317912     
   2183913354.5872831     
   2026272907.0132108     
   1879837534.9823220     
   2537629797.9214263     
   2357337332.8981104     
   2176783930.5086374     
   1997441761.8438721     
   1821589882.5111439     
   2572217801.5145779     
   2384691432.6414461     
   2194107244.5051832     
   2000844058.7338102     
   1805506948.2538238     
   2619682664.3565674     
   2430225940.1843438     
   2236026241.3520570     
   2037083566.4987462     
   1833397915.5264256     
   2811065914.8831911     
   2706263825.0628152     
   2640507662.5879092     
   2613458731.2749748     
   2624832126.7291989     
   2703240935.8443689     
   2644493991.3107309     
   2608817517.8198037     
   2596370729.4641685     
   2607301363.0912709     
   2676184162.6494350     
   2652471111.1470304     
   2636880689.7690182     
   2629604999.5469022     
   2630813563.6191192     
   2693543564.3935385     
   2703875026.0856752     
   2708326462.3910875     
   2706418707.1101069     
   2697775158.2727880     
   2723740107.1747394     
   2775147319.8702898     
   2807298666.5783005     
   2818764253.9088717     
   2808535168.0511117     
   2624832126.7291989     
   2632509307.2553873     
   2643374109.5001101     
   2657405106.7052393     
   2674591152.0904927     
   2607301363.0912709     
   2609555374.5256286     
   2617148689.2085400     
   2630078290.1229281     
   2648342581.8305178     
   2630813563.6191192     
   2624500578.4786582     
   2625518198.2247229     
   2633904300.6564107     
   2649698248.9354291     
   2697775158.2727880     
   2679083512.4947872     
   2669484662.2760587     
   2669093940.9923463     
   2678041550.2797308     
   2808535168.0511117     
   2773310306.1746407     
   2748646512.5162525     
   2734777938.9892383     
   2731986518.5270028     
   2674591152.0904927     
   2656770342.9480181     
   2649319484.1596780     
   2652238463.5592756     
   2665527994.7186680     
   2648342581.8305178     
   2629891746.2358179     
   2621239337.6280913     
   2622404195.2807245     
   2633405026.7295065     
   2649698248.9354291     
   2627972981.0559082     
   2615514726.2150812     
   2612387610.3756375     
   2618654015.6220222     
   2678041550.2797308     
   2650762616.0000820     
   2632236427.7564836     
   2622589436.8879995     
   2621945736.2743406     
   2731986518.5270028     
   2697346491.3343596     
   2670937795.4087543     
   2652955732.6198778     
   2643595044.8268209     
   2665527994.7186680     
   2665095487.7094202     
   2673455630.2336521     
   2690608831.2449460     
   2716555486.5418677     
   2633405026.7295065     
   2631001658.5642104     
   2637273475.4505458     
   2652231348.9908314     
   2675884998.2907825     
   2618654015.6220222     
   2612157311.3272948     
   2614284215.9484916     
   2625076051.5584755     
   2644570109.3702545     
   2621945736.2743406     
   2609313904.2696142     
   2605294421.9542737     
   2609979153.8717036     
   2623452460.7956004     
   2643595044.8268209     
   2622950708.3434939     
   2610914092.0613527     
   2607646302.3912044     
   2613298571.6061378     
   2716555486.5418677     
   2717030976.0540776     
   2727116209.5668211     
   2746810044.1469626     
   2776111942.7606950     
   2675884998.2907825     
   2674613621.7160120     
   2683110086.7629395     
   2701380155.0675268     
   2729428130.4974995     
   2644570109.3702545     
   2639584693.2022781     
   2644644509.6155772     
   2659782637.8202786     
   2685025227.2154427     
   2623452460.7956004     
   2612705797.9445610     
   2612388556.0887051     
   2622586604.7070551     
   2643370233.1445031     
   2613298571.6061378     
   2594708823.6254878     
   2587014198.0810657     
   2590384695.4349303     
   2604963977.7969947     
   2776111942.7606950     
   2768397286.1209292     
   2769667494.3434901     
   2779922529.5059581     
   2799162383.7048903     
   2729428130.4974995     
   2720760926.3297434     
   2721312091.1267252     
   2731085398.8230586     
   2750085764.1903534     
   2685025227.2154427     
   2675447357.0802269     
   2675467508.0714550     
   2685101262.7940030     
   2704369623.8946967     
   2643370233.1445031     
   2632810103.6209116     
   2632387776.4742246     
   2642140945.1784344     
   2662119522.5483222     
   2604963977.7969947     
   2593223268.3003378     
   2592336835.1836300     
   2602377455.0670443     
   2623438381.4590750     
   2799162383.7048903     
   2745595783.0462527     
   2697826967.0462613     
   2655855928.1833053     
   2619682664.3565674     
   2750085764.1903534     
   2697163218.8106909     
   2649861994.9801598     
   2608218802.2126927     
   2572285344.2413840     
   2704369623.8946967     
   2654164167.1129599     
   2609545572.3102717     
   2570661062.9357810     
   2537716957.3164544     
   2662119522.5483222     
   2616702230.8976746     
   2576980173.8634367     
   2543283488.7799115     
   2516072751.0778184     
   2623438381.4590750     
   2584872369.9976602     
   2552253651.8774962     
   2526162221.5823894     
   2507402263.7394962     
   2619682664.3565674     
   2430225940.1843438     
   2236026241.3520570     
   2037083566.4987462     
   1833397915.5264256     
   2572285344.2413840     
   2384725499.9167213     
   2194110137.1942430     
   2000817318.0184839     
   1805450395.4209139     
   2537716957.3164544     
   2357376925.8560939     
   2176780862.6651239     
   1997401548.4760716     
   1821518929.7152629     
   2516072751.0778184     
   2348210338.2337241     
   2183895338.3947177     
   2026231886.6366210     
   1879792110.1850061     
   2507402263.7394962     
   2357121150.3344512     
   2214986415.3050151     
   2085986606.6876564     
   1977011899.5117083     
   2723740107.1747394     
   2775147319.8702898     
   2807298666.5783005     
   2818764253.9088717     
   2808535168.0511117     
   2877746316.2166429     
   2888294396.8066502     
   2892436928.5922809     
   2889975335.5073943     
   2880777007.8279810     
   3092195273.1014166     
   3054578836.9125142     
   3023979319.4929881     
   3000461377.4990082     
   2984137476.4200544     
   3380462169.5867682     
   3285145496.6407070     
   3208669151.9435639     
   3150964039.8730369     
   3112335484.3538265     
   3754481754.5042520     
   3588731801.4766135     
   3450931743.0019398     
   3340892787.2002540     
   3259585655.3292384     
   2808535168.0511117     
   2773310306.1746407     
   2748646512.5162525     
   2734777938.9892383     
   2731986518.5270028     
   2880777007.8279810     
   2837117360.3730898     
   2801377720.7857037     
   2773863534.2920427     
   2754917713.1625528     
   2984137476.4200544     
   2932241287.4242668     
   2885907543.9617434     
   2845433892.2953410     
   2811144764.3401408     
   3112335484.3538265     
   3053697750.4768963     
   2998593276.9860601     
   2947241330.4560361     
   2899876286.4343705     
   3259585655.3292384     
   3196615981.5244670     
   3135526286.9996181     
   3076408904.9810171     
   3019361544.3256841     
   2731986518.5270028     
   2697346491.3343596     
   2670937795.4087543     
   2652955732.6198778     
   2643595044.8268209     
   2754917713.1625528     
   2707706284.7789588     
   2668769393.5455327     
   2638408619.1023407     
   2616936128.1229291     
   2811144764.3401408     
   2749569268.4726253     
   2696118036.5606771     
   2651203138.4182572     
   2615267978.0392962     
   2899876286.4343705     
   2822589917.8216558     
   2753073178.7492433     
   2691834187.6004148     
   2639441804.9995508     
   3019361544.3256841     
   2925467793.2925639     
   2838805265.7884665     
   2759947116.2084656     
   2689561000.6837344     
   2643595044.8268209     
   2622950708.3434939     
   2610914092.0613527     
   2607646302.3912044     
   2613298571.6061378     
   2616936128.1229291     
   2585417921.6610651     
   2562403314.2915201     
   2548156344.3827376     
   2542933408.1218085     
   2615267978.0392962     
   2570921271.6696239     
   2534845037.0636697     
   2507422295.7739749     
   2489039131.1199946     
   2639441804.9995508     
   2580747020.1191535     
   2529911888.7621727     
   2487437754.8293595     
   2453850477.7213092     
   2689561000.6837344     
   2615520921.1645412     
   2548732403.0255075     
   2489793227.0900388     
   2439356548.4829874     
   2613298571.6061378     
   2594708823.6254878     
   2587014198.0810657     
   2590384695.4349303     
   2604963977.7969947     
   2542933408.1218085     
   2513018986.0489469     
   2493562958.8297987     
   2484845385.2886286     
   2487112669.3339243     
   2489039131.1199946     
   2445999105.1681080     
   2412904888.0705805     
   2390168760.6555886     
   2378171288.1704526     
   2453850477.7213092     
   2396289189.9825850     
   2347996035.0197582     
   2309520389.5895925     
   2281396407.2962375     
   2439356548.4829874     
   2366441503.1308203     
   2301889946.3204374     
   2246364684.4406452     
   2200545459.8061147     
   2604963977.7969947     
   2593223268.3003378     
   2592336835.1836300     
   2602377455.0670443     
   2623438381.4590750     
   2487112669.3339243     
   2468359132.5716581     
   2461368254.4446406     
   2466269326.4538379     
   2483192210.3594861     
   2378171288.1704526     
   2350050473.5473852     
   2334750778.9439583     
   2332517495.5275598     
   2343567590.9154329     
   2281396407.2962375     
   2241159626.5146594     
   2214892899.2144594     
   2203048279.9743462     
   2206014314.6591792     
   2200545459.8061147     
   2145122277.7866952     
   2104789850.2280865     
   2080332843.9424992     
   2072442901.7145820     
   2623438381.4590750     
   2584872369.9976602     
   2552253651.8774962     
   2526162221.5823894     
   2507402263.7394962     
   2483192210.3594861     
   2450450290.3795586     
   2426299762.8421431     
   2411686055.6452899     
   2407983598.6391430     
   2343567590.9154329     
   2319120537.0422330     
   2306210263.7334309     
   2306243533.9139752     
   2321309332.6771970     
   2206014314.6591792     
   2191656387.6238213     
   2192265721.0856056     
   2209813178.4396496     
   2247222627.5700188     
   2072442901.7145820     
   2069022082.3079758     
   2084780884.5569324     
   2122351245.9428244     
   2185552830.5507712     
   2507402263.7394962     
   2357121150.3344512     
   2214986415.3050151     
   2085986606.6876564     
   1977011899.5117083     
   2407983598.6391430     
   2282764668.4962869     
   2168038749.5081148     
   2070549950.9669070     
   1999072860.7191122     
   2321309332.6771970     
   2224647627.8082166     
   2141315016.4209156     
   2079675337.9778340     
   2049897331.5211623     
   2247222627.5700188     
   2182561414.7434945     
   2134344959.8981450     
   2112232120.8960931     
   2127145074.9492943     
   2185552830.5507712     
   2156212503.6063895     
   2146481851.9611712     
   2166869759.8721046     
   2228426838.3794570     
   3754481754.5042520     
   3588731801.4766135     
   3450931743.0019398     
   3340892787.2002540     
   3259585655.3292384     
   4001395220.8359780     
   3833066542.2680845     
   3677483809.5957203     
   3535431589.9797430     
   3408214714.5309882     
   4233880036.2539597     
   4071225565.3164959     
   3911325673.0016007     
   3754562019.6625600     
   3601394340.7756891     
   4424715397.9388266     
   4284206427.7057061     
   4139890978.7744951     
   3990985466.1507339     
   3836784748.2828259     
   4556894417.7539616     
   4459631578.1420803     
   4354372176.8417950     
   4238844963.4765434     
   4111459057.8266721     
   3259585655.3292384     
   3196615981.5244670     
   3135526286.9996181     
   3076408904.9810171     
   3019361544.3256841     
   3408214714.5309882     
   3331091095.7685490     
   3257191776.7438641     
   3186741629.8774738     
   3119994726.4958167     
   3601394340.7756891     
   3507641122.5442820     
   3417942723.1171317     
   3332605564.3655052     
   3252012382.5726061     
   3836784748.2828259     
   3723457026.3919868     
   3614530149.2046323     
   3510331488.6627212     
   3411331030.2358899     
   4111459057.8266721     
   3975234093.6606178     
   3843344310.0891995     
   3716071440.4583526     
   3593917631.0326324     
   3019361544.3256841     
   2925467793.2925639     
   2838805265.7884665     
   2759947116.2084656     
   2689561000.6837344     
   3119994726.4958167     
   3011076684.9136066     
   2908157349.3157597     
   2811801470.3091249     
   2722686468.2810659     
   3252012382.5726061     
   3128718995.1304955     
   3010226341.0299249     
   2897042723.2915611     
   2789794388.4977350     
   3411331030.2358899     
   3274716594.3276300     
   3141810456.4165902     
   3013033972.9201503     
   2888918556.4368834     
   3593917631.0326324     
   3445259929.2288713     
   3299371767.0388908     
   3156576724.9945807     
   3017291362.3550668     
   2689561000.6837344     
   2615520921.1645412     
   2548732403.0255075     
   2489793227.0900388     
   2439356548.4829874     
   2722686468.2810659     
   2632793812.7601285     
   2548841805.9188433     
   2471435867.7848701     
   2401266183.0645742     
   2789794388.4977350     
   2684992689.2369452     
   2584746391.6563678     
   2489595763.7605371     
   2400181371.3798943     
   2888918556.4368834     
   2770823154.6060286     
   2655953122.1126733     
   2544729619.5505576     
   2437669163.3765464     
   3017291362.3550668     
   2887943768.4350591     
   2760663033.3379707     
   2635731701.9426923     
   2513506245.8878689     
   2439356548.4829874     
   2366441503.1308203     
   2301889946.3204374     
   2246364684.4406452     
   2200545459.8061147     
   2401266183.0645742     
   2310547457.8125787     
   2227454067.3260660     
   2152770597.2529259     
   2087355096.4943199     
   2400181371.3798943     
   2291715491.5253854     
   2189783852.0390811     
   2095202169.3049023     
   2008921775.2513032     
   2437669163.3765464     
   2312401265.2106886     
   2192351881.1249552     
   2078250844.9555752     
   1971003580.9418554     
   2513506245.8878689     
   2373115590.6394343     
   2236602702.0109000     
   2104516533.0218213     
   1977579788.0171211     
   2200545459.8061147     
   2145122277.7866952     
   2104789850.2280865     
   2080332843.9424992     
   2072442901.7145820     
   2087355096.4943199     
   2012102665.3731976     
   1949277977.3691819     
   1899972785.1998150     
   1865227840.8298757     
   2008921775.2513032     
   1912493360.6659029     
   1824838066.9676342     
   1747156944.2100706     
   1680742678.0600948     
   1971003580.9418554     
   1855079012.0875442     
   1743469534.0447297     
   1637082932.8820398     
   1537033216.6601772     
   1977579788.0171211     
   1847390410.4523015     
   1717152850.4173622     
   1587194888.4732859     
   1457995887.5816596     
   2072442901.7145820     
   2069022082.3079758     
   2084780884.5569324     
   2122351245.9428244     
   2185552830.5507712     
   1865227840.8298757     
   1854789503.0043170     
   1867293803.6258509     
   1904947991.8181205     
   1970785388.2931597     
   1680742678.0600948     
   1652275739.4663727     
   1651525636.1345692     
   1680860817.0093355     
   1742889365.2477562     
   1537033216.6601772     
   1476115224.0805659     
   1447905119.1324320     
   1456377457.1253138     
   1504830326.3524027     
   1457995887.5816596     
   1348807531.2574103     
   1274619177.0260947     
   1243584849.7168953     
   1262769908.5789413     
   2185552830.5507712     
   2156212503.6063895     
   2146481851.9611712     
   2166869759.8721046     
   2228426838.3794570     
   1970785388.2931597     
   1968919667.0869663     
   2003604163.7469335     
   2093505579.3213449     
   2257272194.4526615     
   1742889365.2477562     
   1787692733.3337891     
   1884638914.1149473     
   2060636608.7960153     
   2340914845.9621372     
   1504830326.3524027     
   1613245233.9431889     
   1788845160.6613662     
   2066384973.5862982     
   2476080010.5899000     
   1262769908.5789413     
   1446615682.8778553     
   1715658193.6115572     
   2110484193.8533213     
   2663550847.3473072     
   4556894417.7539616     
   4459631578.1420803     
   4354372176.8417950     
   4238844963.4765434     
   4111459057.8266721     
   4792388856.8563890     
   4686800592.5388374     
   4581140398.4446611     
   4475409119.7374744     
   4369608078.7375889     
   5182985245.6660757     
   5032227479.6509485     
   4889127129.7784719     
   4752879520.7086315     
   4623373122.5618935     
   5732070874.5183849     
   5498905954.6276560     
   5278651786.7793617     
   5067970397.8732204     
   4866060375.4384871     
   6442836810.6242104     
   6088102110.5432425     
   5748540193.5386620     
   5417422814.4784994     
   5093097667.4278402     
   4111459057.8266721     
   3975234093.6606178     
   3843344310.0891995     
   3716071440.4583526     
   3593917631.0326324     
   4369608078.7375889     
   4222100797.8381987     
   4075727231.1588292     
   3930661668.6215258     
   3787155945.4044666     
   4623373122.5618935     
   4472334994.6609421     
   4320535030.3797636     
   4167987645.3528690     
   4014722978.3301244     
   4866060375.4384871     
   4720235402.0521288     
   4572849434.2789392     
   4423764649.4562397     
   4272889109.4843659     
   5093097667.4278402     
   4961700530.0502901     
   4828893055.8050146     
   4694405832.9156361     
   4558130917.2161779     
   3593917631.0326324     
   3445259929.2288713     
   3299371767.0388908     
   3156576724.9945807     
   3017291362.3550668     
   3787155945.4044666     
   3624575787.6022987     
   3464256293.7036018     
   3306431674.7120090     
   3151431808.6951880     
   4014722978.3301244     
   3838325018.0278268     
   3663666109.0669875     
   3490879283.7238860     
   3320191118.5434852     
   4272889109.4843659     
   4082509514.1702962     
   3893352958.1486392     
   3705447882.4321184     
   3518911313.4620519     
   4558130917.2161779     
   4353349130.5180779     
   4149289990.4373522     
   3945879472.6139336     
   3743125971.4513488     
   3017291362.3550668     
   2887943768.4350591     
   2760663033.3379707     
   2635731701.9426923     
   2513506245.8878689     
   3151431808.6951880     
   3011626506.0767884     
   2873558636.7077417     
   2737453763.4238634     
   2603617072.3763027     
   3320191118.5434852     
   3169608985.1216693     
   3020329973.2398334     
   2872506795.5622616     
   2726374856.5278907     
   3518911313.4620519     
   3356956485.0617709     
   3195790848.8529906     
   3035484511.1622963     
   2876191143.8201342     
   3743125971.4513488     
   3568963039.8976369     
   3395019427.5083308     
   3221277954.9202652     
   3047804252.7610307     
   2513506245.8878689     
   2373115590.6394343     
   2236602702.0109000     
   2104516533.0218213     
   1977579788.0171211     
   2603617072.3763027     
   2453311645.2893062     
   2305098372.2589235     
   2159297335.1042089     
   2016342835.0859752     
   2726374856.5278907     
   2568956673.2395501     
   2412319014.0848198     
   2256590605.6638088     
   2101950048.4979050     
   2876191143.8201342     
   2714643842.1396084     
   2553078582.5216660     
   2391517901.2346325     
   2229995164.4144258     
   3047804252.7610307     
   2885030015.2226458     
   2721901234.4469738     
   2558422233.0164413     
   2394601564.7742548     
   1977579788.0171211     
   1847390410.4523015     
   1717152850.4173622     
   1587194888.4732859     
   1457995887.5816596     
   2016342835.0859752     
   1879943010.3995378     
   1743878438.9013724     
   1608274090.6175272     
   1473301826.5251012     
   2101950048.4979050     
   1961833152.4516292     
   1822735422.7322352     
   1684690074.8846631     
   1547760916.0095565     
   2229995164.4144258     
   2086894912.7601502     
   1945502009.5191927     
   1805816821.5493224     
   1667919758.4737597     
   2394601564.7742548     
   2247597073.4770732     
   2102780266.2582176     
   1960145891.6310382     
   1819861179.0205529     
   1457995887.5816596     
   1348807531.2574103     
   1274619177.0260947     
   1243584849.7168953     
   1262769908.5789413     
   1473301826.5251012     
   1328924575.3609018     
   1198998346.0613301     
   1088016981.0308166     
   1001902137.1983695     
   1547760916.0095565     
   1397826584.5269415     
   1244302813.2663026     
   1084913978.1099763     
   917625270.66587377     
   1667919758.4737597     
   1552575724.2850235     
   1428087158.4828937     
   1294812107.3858290     
   1158897151.7858498     
   1819861179.0205529     
   1779452656.9549263     
   1735511642.3519762     
   1696681568.0403771     
   1681503990.4625511     
   1262769908.5789413     
   1446615682.8778553     
   1715658193.6115572     
   2110484193.8533213     
   2663550847.3473072     
   1001902137.1983695     
   1164620642.9675953     
   1425371147.3337789     
   1808738861.4186890     
   2334821103.0632105     
   917625270.66587377     
   963029532.24267697     
   1144864360.3670623     
   1476477317.5272517     
   1957558230.7165883     
   1158897151.7858498     
   1008410233.7698901     
   985182679.33414626     
   1161503966.1298943     
   1544275824.5409756     
   1681503990.4625511     
   1383893014.7479444     
   1129531234.1380875     
   1010190137.9475474     
   1153235231.2669070     
 </DataArray>
 <DataArray  type="Float64" Name="strain" NumberOfComponents="3" format="ascii">
  0.10492599035765160       -2.8277810026700156E-002   7.2792059389155117E-003
  0.10003484381877226       -2.8313866187736014E-002   2.2752166702628696E-003
   9.5143697279892914E-002  -2.8028216447805676E-002  -8.4534336771935337E-004
   9.0252550741013571E-002  -2.7420860806909433E-002  -2.0824741750316011E-003
   8.5361404202134228E-002  -2.6491799265047189E-002  -1.4361757516736517E-003
   9.4447057715030591E-002  -2.7091496060687281E-002   1.1398286764385812E-002
   9.1129985243680822E-002  -2.6799716063323931E-002   8.2897768124124971E-003
   8.7812912772331275E-002  -2.6314954533272872E-002   6.4459857648286878E-003
   8.4495840300981645E-002  -2.5637211470534424E-002   5.8669136216338291E-003
   8.1178767829631959E-002  -2.4766486875108407E-002   6.5525603828285872E-003
   8.5915615835402082E-002  -2.5905182094674351E-002   1.5909565932394398E-002
   8.3553907105301473E-002  -2.5285565938911903E-002   1.4567810928821812E-002
   8.1192198375200697E-002  -2.4601692618740151E-002   1.3872064503357845E-002
   7.8830489645100033E-002  -2.3853562134159519E-002   1.3822326656002235E-002
   7.6468780914999257E-002  -2.3041174485169458E-002   1.4418597386755216E-002
   7.9331664718766626E-002  -2.4718868128661420E-002   2.0813043442941589E-002
   7.7306609403633944E-002  -2.3771415814499874E-002   2.1109319019491271E-002
   7.5281554088501304E-002  -2.2888430704207499E-002   2.1432892847868541E-002
   7.3256498773368636E-002  -2.2069912797784450E-002   2.1783764928073813E-002
   7.1231443458236038E-002  -2.1315862095230537E-002   2.2161935260106513E-002
   7.4695204365123835E-002  -2.3532554162648545E-002   2.6108719296026706E-002
   7.2388092138678417E-002  -2.2257265690087902E-002   2.7914301084420445E-002
   7.0080979912233027E-002  -2.1175168789674750E-002   2.9128470798361034E-002
   6.7773867685787650E-002  -2.0286263461409468E-002   2.9751228437848456E-002
   6.5466755459342219E-002  -1.9590549705291727E-002   2.9782574002882645E-002
   8.5361404202134228E-002  -2.6491799265047189E-002  -1.4361757516736517E-003
   8.2983138117017297E-002  -2.5425208624162532E-002  -3.6972894471021256E-004
   8.0604872031900476E-002  -2.4405265686199606E-002   4.4521954903087302E-004
   7.8226605946783656E-002  -2.3431970451157719E-002   1.0086697295494662E-003
   7.5848339861666725E-002  -2.2505322919037618E-002   1.3206215968456503E-003
   8.1178767829631959E-002  -2.4766486875108407E-002   6.5525603828285872E-003
   7.8624630319098943E-002  -2.3811773062811181E-002   7.1314581345341965E-003
   7.6070492808565815E-002  -2.2882062349459470E-002   7.6101113486303495E-003
   7.3516355298032715E-002  -2.1977354735052808E-002   7.9885200251164912E-003
   7.0962217787499671E-002  -2.1097650219592090E-002   8.2666841639924549E-003
   7.6468780914999257E-002  -2.3041174485169458E-002   1.4418597386755216E-002
   7.3890025754662553E-002  -2.2198337501459553E-002   1.4531590687179213E-002
   7.1311270594325876E-002  -2.1358859012719333E-002   1.4695593225606540E-002
   6.8732515433989255E-002  -2.0522739018948119E-002   1.4910605002036031E-002
   6.6153760273652495E-002  -1.9689977520146507E-002   1.5176626016468159E-002
   7.1231443458236038E-002  -2.1315862095230537E-002   2.2161935260106513E-002
   6.8779324423708349E-002  -2.0584901940107952E-002   2.1830668713225192E-002
   6.6327205389180618E-002  -1.9835655675978975E-002   2.1701665179959237E-002
   6.3875086354652860E-002  -1.9068123302843208E-002   2.1774924660308226E-002
   6.1422967320125157E-002  -1.8282304820701062E-002   2.2050447154272922E-002
   6.5466755459342219E-002  -1.9590549705291727E-002   2.9782574002882645E-002
   6.3292526326236137E-002  -1.8971466378756519E-002   2.9028692212671597E-002
   6.1118297193130000E-002  -1.8312452339238783E-002   2.8628327211688426E-002
   5.8944068060023863E-002  -1.7613507586738367E-002   2.8581478999933213E-002
   5.6769838926917782E-002  -1.6874632121255506E-002   2.8888147577405543E-002
   7.5848339861666725E-002  -2.2505322919037618E-002   1.3206215968456503E-003
   7.2483930163548704E-002  -2.1601059679811296E-002   7.5021050889911844E-004
   6.9119520465430573E-002  -2.0694917323450884E-002   4.2507943337571907E-004
   6.5755110767312552E-002  -1.9786895849957332E-002   3.4522837027581299E-004
   6.2390701069194421E-002  -1.8876995259329954E-002   5.1065731959876182E-004
   7.0962217787499671E-002  -2.1097650219592090E-002   8.2666841639924549E-003
   6.7832531853518896E-002  -2.0231515131902134E-002   7.7632530683487966E-003
   6.4702845919538121E-002  -1.9367515800808643E-002   7.4839894885565528E-003
   6.1573159985557402E-002  -1.8505652226311842E-002   7.4288934246152794E-003
   5.8443474051576627E-002  -1.7645924408411617E-002   7.5979648765258645E-003
   6.6153760273652495E-002  -1.9689977520146507E-002   1.5176626016468159E-002
   6.3237685607237304E-002  -1.8861970583993082E-002   1.4736160039396817E-002
   6.0321610940822140E-002  -1.8040114278166389E-002   1.4498749081604798E-002
   5.7405536274406921E-002  -1.7224408602666570E-002   1.4464393143092662E-002
   5.4489461607991785E-002  -1.6414853557493392E-002   1.4633092223860278E-002
   6.1422967320125157E-002  -1.8282304820701062E-002   2.2050447154272922E-002
   5.8699391424703845E-002  -1.7492426036084086E-002   2.1668931422043375E-002
   5.5975815529282408E-002  -1.6712712755524141E-002   2.1469358212521699E-002
   5.3252239633861109E-002  -1.5943164979021297E-002   2.1451727525708342E-002
   5.0528663738439672E-002  -1.5183782706575222E-002   2.1616039361602515E-002
   5.6769838926917782E-002  -1.6874632121255506E-002   2.8888147577405543E-002
   5.4217649305918464E-002  -1.6122881488174978E-002   2.8561567216288219E-002
   5.1665459684919174E-002  -1.5385311232881838E-002   2.8395816881306518E-002
   4.9113270063919856E-002  -1.4661921355375793E-002   2.8390896572461466E-002
   4.6561080442920566E-002  -1.3952711855657163E-002   2.8546806289752591E-002
   6.2390701069194421E-002  -1.8876995259329954E-002   5.1065731959876182E-004
   5.9491364355962362E-002  -1.7977261510826681E-002   2.1569180267611010E-004
   5.6592027642730469E-002  -1.7099740563704946E-002   1.4408992411413246E-004
   5.3692690929498521E-002  -1.6244432417965735E-002   2.9585168391349503E-004
   5.0793354216266517E-002  -1.5411337073608644E-002   6.7097708207319862E-004
   5.8443474051576627E-002  -1.7645924408411617E-002   7.5979648765258645E-003
   5.5753896856964857E-002  -1.6793078521999238E-002   7.2656893600139272E-003
   5.3064319662353143E-002  -1.5951860741967305E-002   7.1295692423818946E-003
   5.0374742467741374E-002  -1.5122271068314985E-002   7.1896045236290451E-003
   4.7685165273129659E-002  -1.4304309501042556E-002   7.4457952037561004E-003
   5.4489461607991785E-002  -1.6414853557493392E-002   1.4633092223860278E-002
   5.1982435692518730E-002  -1.5608895533172684E-002   1.4274091402762090E-002
   4.9475409777045759E-002  -1.4803980920229359E-002   1.4084037741061595E-002
   4.6968383861572774E-002  -1.4000109718664354E-002   1.4062931238759527E-002
   4.4461357946099761E-002  -1.3197281928476801E-002   1.4210771895855512E-002
   5.0528663738439672E-002  -1.5183782706575222E-002   2.1616039361602515E-002
   4.8176980862624105E-002  -1.4424712544345797E-002   2.1240897930919822E-002
   4.5825297986808337E-002  -1.3656101098491788E-002   2.1007495420153476E-002
   4.3473615110992694E-002  -1.2877948369013442E-002   2.0915831829303903E-002
   4.1121932235177003E-002  -1.2090254355910657E-002   2.0965907158370739E-002
   4.6561080442920566E-002  -1.3952711855657163E-002   2.8546806289752591E-002
   4.4337532367280774E-002  -1.3240529555518687E-002   2.8166108944487400E-002
   4.2113984291640927E-002  -1.2508221276754022E-002   2.7899942279657197E-002
   3.9890436216001066E-002  -1.1755787019362925E-002   2.7748306295262370E-002
   3.7666888140361232E-002  -1.0983226783344735E-002   2.7711200991302420E-002
   5.0793354216266517E-002  -1.5411337073608644E-002   6.7097708207319862E-004
   4.8068348124409188E-002  -1.4578842617462895E-002   4.8677405521668771E-004
   4.5343342032551914E-002  -1.3725337136358262E-002   3.1953971915976709E-004
   4.2618335940694640E-002  -1.2850820630294163E-002   1.6927407390243676E-004
   3.9893329848837311E-002  -1.1955293099271014E-002   3.5977119445584904E-005
   4.7685165273129659E-002  -1.4304309501042556E-002   7.4457952037561004E-003
   4.4992764176689792E-002  -1.3487103249437360E-002   7.1771743476267691E-003
   4.2300363080249981E-002  -1.2659779522786213E-002   6.9567947915318284E-003
   3.9607961983810169E-002  -1.1822338321089455E-002   6.7846565354724997E-003
   3.6915560887370247E-002  -1.0974779644346455E-002   6.6607595794481167E-003
   4.4461357946099761E-002  -1.3197281928476801E-002   1.4210771895855512E-002
   4.1832834454312573E-002  -1.2395363881411714E-002   1.3846839660539650E-002
   3.9204310962525385E-002  -1.1594221909214164E-002   1.3562421334494063E-002
   3.6575787470738225E-002  -1.0793856011884304E-002   1.3357516917718748E-002
   3.3947263978951037E-002  -9.9942661894212304E-003   1.3232126410213652E-002
   4.1121932235177003E-002  -1.2090254355910657E-002   2.0965907158370739E-002
   3.8588558957277586E-002  -1.1303624513386124E-002   2.0495769993955658E-002
   3.6055185679378314E-002  -1.0528664295642226E-002   2.0136419348045720E-002
   3.3521812401478973E-002  -9.7653737026791518E-003   1.9887855220641758E-002
   3.0988439123579674E-002  -9.0137527344965607E-003   1.9750077611742592E-002
   3.7666888140361232E-002  -1.0983226783344735E-002   2.7711200991302420E-002
   3.5259937685584997E-002  -1.0211885145360533E-002   2.7123965347874701E-002
   3.2852987230808650E-002  -9.4631066820702880E-003   2.6678788832187328E-002
   3.0446036776032331E-002  -8.7368913934742221E-003   2.6375671444240578E-002
   2.8039086321256013E-002  -8.0332392795715579E-003   2.6214613184034508E-002
   3.9893329848837311E-002  -1.1955293099271014E-002   3.5977119445584904E-005
   3.7472546101645299E-002  -1.1128949296271951E-002  -2.7662317575694040E-004
   3.5051762354453397E-002  -1.0461983974277944E-002  -4.8893325442833646E-004
   3.2630978607261413E-002  -9.9543971332905073E-003  -6.0095311657004657E-004
   3.0210194860069484E-002  -9.6061887733092099E-003  -6.1268276218195972E-004
   3.6915560887370247E-002  -1.0974779644346455E-002   6.6607595794481167E-003
   3.4575045848657115E-002  -1.0174830047731231E-002   6.2052527710886318E-003
   3.2234530809943929E-002  -9.4802160864178586E-003   5.8099931631575008E-003
   2.9894015771230770E-002  -8.8909377604059064E-003   5.4749807556536967E-003
   2.7553500732517611E-002  -8.4069950696956663E-003   5.2002155485774137E-003
   3.3947263978951037E-002  -9.9942661894212304E-003   1.3232126410213652E-002
   3.1646974632614261E-002  -9.2207107991910120E-003   1.2687755934401745E-002
   2.9346685286277582E-002  -8.4984481985577454E-003   1.2163589642915390E-002
   2.7046395939940827E-002  -7.8274783875210766E-003   1.1659627535754488E-002
   2.4746106593604100E-002  -7.2078013660821227E-003   1.1175869612918277E-002
   3.0988439123579674E-002  -9.0137527344965607E-003   1.9750077611742592E-002
   2.8688332453516950E-002  -8.2665915506505427E-003   1.9170886314182414E-002
   2.6388225783454258E-002  -7.5166803106972019E-003   1.8571856184845519E-002
   2.4088119113391496E-002  -6.7640190146368052E-003   1.7952987223731318E-002
   2.1788012443328834E-002  -6.0086076624688012E-003   1.7314279430839921E-002
   2.8039086321256013E-002  -8.0332392795715579E-003   2.6214613184034508E-002
   2.5699119311365037E-002  -7.3124723021100735E-003   2.5654643910431041E-002
   2.3359152301473951E-002  -6.5349124228374911E-003   2.5034792788947269E-002
   2.1019185291582948E-002  -5.7005596417519649E-003   2.4355059819584884E-002
   1.8679218281691889E-002  -4.8094139588553686E-003   2.3615445002342583E-002
   3.0210194860069484E-002  -9.6061887733092099E-003  -6.1268276218195972E-004
   2.9602884007195018E-002  -9.1347571236484182E-003  -3.6227488850060219E-004
   2.8995573154320498E-002  -8.2575004136225538E-003  -1.7957156804128127E-003
   2.8388262301446004E-002  -6.9744186432322414E-003  -4.9130051379204787E-003
   2.7780951448571511E-002  -5.2855118124781608E-003  -9.7141432610208245E-003
   2.7553500732517611E-002  -8.4069950696956663E-003   5.2002155485774137E-003
   2.5532279251982704E-002  -7.8708928558969271E-003   5.8776013197520127E-003
   2.3511057771447852E-002  -7.1251359606216425E-003   5.4110145012001842E-003
   2.1489836290913028E-002  -6.1697243838680776E-003   3.8004550929217618E-003
   1.9468614810378093E-002  -5.0046581256379952E-003   1.0459230949169118E-003
   2.4746106593604100E-002  -7.2078013660821227E-003   1.1175869612918277E-002
   2.1850850561276419E-002  -6.6070285881464352E-003   1.2084062902698700E-002
   1.8955594528948697E-002  -5.9927715076207033E-003   1.2388159678620364E-002
   1.6060338496621036E-002  -5.3650301245047952E-003   1.2088159940682838E-002
   1.3165082464293348E-002  -4.7238044387979405E-003   1.1184063688885970E-002
   2.1788012443328834E-002  -6.0086076624688012E-003   1.7314279430839921E-002
   1.8558597935075909E-002  -5.3431643203954438E-003   1.8257109860339252E-002
   1.5329183426822986E-002  -4.8604070546193340E-003   1.9135719851846915E-002
   1.2099768918570177E-002  -4.5603358651404059E-003   1.9950109405363379E-002
   8.8703544103172563E-003  -4.4429507519587186E-003   2.0700278520888363E-002
   1.8679218281691889E-002  -4.8094139588553686E-003   2.3615445002342583E-002
   1.5655521373381387E-002  -4.0793000526447853E-003   2.4396742192673182E-002
   1.2631824465070801E-002  -3.7280426016185475E-003   2.5653695020879663E-002
   9.6081275567602986E-003  -3.7556416057767175E-003   2.7386303486962721E-002
   6.5844306484497128E-003  -4.1620970651188305E-003   2.9594567590921939E-002
   2.7780951448571511E-002  -5.2855118124781608E-003  -9.7141432610208245E-003
   2.3354275306873284E-002  -4.2064755416761912E-003  -4.1877629901385660E-003
   1.8927599165175002E-002  -4.7530054511460418E-003   2.6035734810577749E-003
   1.4500923023476747E-002  -6.9251015408866162E-003   1.0659866152566810E-002
   1.0074246881778492E-002  -1.0722763810899316E-002   1.9981115024389595E-002
   1.9468614810378093E-002  -5.0046581256379952E-003   1.0459230949169118E-003
   1.6234313289017477E-002  -4.6906230737425725E-003   6.7398844407225988E-003
   1.3000011767656805E-002  -6.2883051159955405E-003   1.3553638826890091E-002
   9.7657102462961609E-003  -9.7977042523953173E-003   2.1487186253419999E-002
   6.5314087249355168E-003  -1.5218820482942874E-002   3.0540526720311156E-002
   1.3165082464293348E-002  -4.7238044387979405E-003   1.1184063688885970E-002
   1.0977992403318787E-002  -5.1747706058087317E-003   1.6759455195739348E-002
   8.7909023423442673E-003  -7.8236047808441234E-003   2.3309476583002114E-002
   6.6038122813696434E-003  -1.2670306963903123E-002   3.0834127850675921E-002
   4.4167222203952416E-003  -1.9714877154986432E-002   3.9333408998759589E-002
   8.8703544103172563E-003  -4.4429507519587186E-003   2.0700278520888363E-002
   7.5853126497772219E-003  -5.6589181378754461E-003   2.5870949274911403E-002
   6.3002708892372396E-003  -9.3589044456929421E-003   3.1871086749393006E-002
   5.0152291286972590E-003  -1.5542909675411377E-002   3.8700690944333815E-002
   3.7301873681572228E-003  -2.4210933827030434E-002   4.6359761859733506E-002
   6.5844306484497128E-003  -4.1620970651188305E-003   2.9594567590921939E-002
   6.0562740283927607E-003  -6.1430656699416053E-003   3.4074366678239154E-002
   5.5281174083358642E-003  -1.0894204110541872E-002   3.9238469326063452E-002
   4.9999607882789537E-003  -1.8415512386919491E-002   4.5086875534394499E-002
   4.4718041682220155E-003  -2.8706990499073992E-002   5.1619585303233961E-002
   7.4695204365123835E-002  -2.3532554162648545E-002   2.6108719296026706E-002
   7.2388092138678417E-002  -2.2257265690087902E-002   2.7914301084420445E-002
   7.0080979912233027E-002  -2.1175168789674750E-002   2.9128470798361034E-002
   6.7773867685787650E-002  -2.0286263461409468E-002   2.9751228437848456E-002
   6.5466755459342219E-002  -1.9590549705291727E-002   2.9782574002882645E-002
   7.0437553064393144E-002  -2.1107911551511094E-002   3.3280794517551504E-002
   6.7721584818745045E-002  -2.0178422151774289E-002   3.3931903584740686E-002
   6.5005616573096781E-002  -1.9350053418462507E-002   3.4356712687977631E-002
   6.2289648327448655E-002  -1.8622805351575632E-002   3.4555221827261937E-002
   5.9573680081800445E-002  -1.7996677951113593E-002   3.4527431002594006E-002
   6.4990029106494110E-002  -1.8683268940373643E-002   4.0061035213390675E-002
   6.2230316952143816E-002  -1.8099578613460787E-002   3.9649742465098406E-002
   5.9470604797793571E-002  -1.7524938047250145E-002   3.9377261863354211E-002
   5.6710892643443325E-002  -1.6959347241741793E-002   3.9243593408158445E-002
   5.3951180489093087E-002  -1.6402806196935571E-002   3.9248737099510822E-002
   5.8352632491426498E-002  -1.6258626329236178E-002   4.6449441383544912E-002
   5.5914288538874965E-002  -1.6020735075147313E-002   4.5067817725493439E-002
   5.3475944586323314E-002  -1.5699822676037815E-002   4.4190118324491046E-002
   5.1037600633771767E-002  -1.5295889131907901E-002   4.3816343180537648E-002
   4.8599256681220136E-002  -1.4808934442757549E-002   4.3946492293633538E-002
   5.0525363219190544E-002  -1.3833983718098741E-002   5.2446013028013605E-002
   4.8773499578938256E-002  -1.3941891536833728E-002   5.0186129365925869E-002
   4.7021635938686079E-002  -1.3874707304825498E-002   4.8795282071388030E-002
   4.5269772298433875E-002  -1.3632431022074152E-002   4.8273471144399963E-002
   4.3517908658181614E-002  -1.3215062688579471E-002   4.8620696584961598E-002
   6.5466755459342219E-002  -1.9590549705291727E-002   2.9782574002882645E-002
   6.3292526326236137E-002  -1.8971466378756519E-002   2.9028692212671597E-002
   6.1118297193130000E-002  -1.8312452339238783E-002   2.8628327211688426E-002
   5.8944068060023863E-002  -1.7613507586738367E-002   2.8581478999933213E-002
   5.6769838926917782E-002  -1.6874632121255506E-002   2.8888147577405543E-002
   5.9573680081800445E-002  -1.7996677951113593E-002   3.4527431002594006E-002
   5.7712186517495753E-002  -1.7405328342963156E-002   3.4039091674183231E-002
   5.5850692953191103E-002  -1.6782413653010683E-002   3.3822706694147470E-002
   5.3989199388886418E-002  -1.6127933881255965E-002   3.3878276062486737E-002
   5.2127705824581816E-002  -1.5441889027699440E-002   3.4205799779201018E-002
   5.3951180489093087E-002  -1.6402806196935571E-002   3.9248737099510822E-002
   5.2320860052736957E-002  -1.5839190307169765E-002   3.9017574601720034E-002
   5.0690539616380856E-002  -1.5252374966782417E-002   3.8976804011451024E-002
   4.9060219180024782E-002  -1.4642360175773618E-002   3.9126425328704501E-002
   4.7429898743668639E-002  -1.4009145934143319E-002   3.9466438553479866E-002
   4.8599256681220136E-002  -1.4808934442757549E-002   4.3946492293633538E-002
   4.7118546931959729E-002  -1.4273052271376332E-002   4.3964140995281606E-002
   4.5637837182699356E-002  -1.3722336280554262E-002   4.4090619163599132E-002
   4.4157127433438990E-002  -1.3156786470291216E-002   4.4325926798585991E-002
   4.2676417684178632E-002  -1.2576402840587086E-002   4.4670063900241960E-002
   4.3517908658181614E-002  -1.3215062688579471E-002   4.8620696584961598E-002
   4.2105247155164088E-002  -1.2706914235583067E-002   4.8878790854868459E-002
   4.0692585652146521E-002  -1.2192297594326107E-002   4.9164152150591806E-002
   3.9279924149128939E-002  -1.1671212764808939E-002   4.9476780472131693E-002
   3.7867262646111427E-002  -1.1143659747031076E-002   4.9816675819487732E-002
   5.6769838926917782E-002  -1.6874632121255506E-002   2.8888147577405543E-002
   5.4217649305918464E-002  -1.6122881488174978E-002   2.8561567216288219E-002
   5.1665459684919174E-002  -1.5385311232881838E-002   2.8395816881306518E-002
   4.9113270063919856E-002  -1.4661921355375793E-002   2.8390896572461466E-002
   4.6561080442920566E-002  -1.3952711855657163E-002   2.8546806289752591E-002
   5.2127705824581816E-002  -1.5441889027699440E-002   3.4205799779201018E-002
   4.9744191313723193E-002  -1.4744694894705007E-002   3.3819667073154119E-002
   4.7360676802864599E-002  -1.4056767284636743E-002   3.3610054561252461E-002
   4.4977162292006004E-002  -1.3378106197495011E-002   3.3576962243495989E-002
   4.2593647781147437E-002  -1.2708711633279468E-002   3.3720390119884480E-002
   4.7429898743668639E-002  -1.4009145934143319E-002   3.9466438553479866E-002
   4.5230749510959796E-002  -1.3366508301234870E-002   3.9025667357364582E-002
   4.3031600278250981E-002  -1.2728223336391814E-002   3.8777106523403451E-002
   4.0832451045542159E-002  -1.2094291039614007E-002   3.8720756051596722E-002
   3.8633301812833323E-002  -1.1464711410901496E-002   3.8856615941944228E-002
   4.2676417684178632E-002  -1.2576402840587086E-002   4.4670063900241960E-002
   4.0677323897628487E-002  -1.1988321707764732E-002   4.4179568068919303E-002
   3.8678230111078432E-002  -1.1399679388146830E-002   4.3896972767760001E-002
   3.6679136324528336E-002  -1.0810475881733114E-002   4.3822277996763873E-002
   3.4680042537978212E-002  -1.0220711188523829E-002   4.3955483755930842E-002
   3.7867262646111427E-002  -1.1143659747031076E-002   4.9816675819487732E-002
   3.6083914473729106E-002  -1.0610135114294789E-002   4.9281369207818615E-002
   3.4300566301346799E-002  -1.0071135439901804E-002   4.8969653294321958E-002
   3.2517218128964485E-002  -9.5266607238522240E-003   4.8881528078997330E-002
   3.0733869956582172E-002  -8.9767109661458289E-003   4.9016993561845301E-002
   4.6561080442920566E-002  -1.3952711855657163E-002   2.8546806289752591E-002
   4.4337532367280774E-002  -1.3240529555518687E-002   2.8166108944487400E-002
   4.2113984291640927E-002  -1.2508221276754022E-002   2.7899942279657197E-002
   3.9890436216001066E-002  -1.1755787019362925E-002   2.7748306295262370E-002
   3.7666888140361232E-002  -1.0983226783344735E-002   2.7711200991302420E-002
   4.2593647781147437E-002  -1.2708711633279468E-002   3.3720390119884480E-002
   4.0493463471378166E-002  -1.2035158796672718E-002   3.3374467076681374E-002
   3.8393279161608868E-002  -1.1344022892357447E-002   3.3160740884784101E-002
   3.6293094851839583E-002  -1.0635303920334148E-002   3.3079211544192924E-002
   3.4192910542070271E-002  -9.9090018806020641E-003   3.3129879054907607E-002
   3.8633301812833323E-002  -1.1464711410901496E-002   3.8856615941944228E-002
   3.6674147439805405E-002  -1.0829788037826527E-002   3.8542924289884734E-002
   3.4714993066777590E-002  -1.0179824507961302E-002   3.8379095660002152E-002
   3.2755838693749734E-002  -9.5148208213055897E-003   3.8365130052296477E-002
   3.0796684320721857E-002  -8.8347769778595042E-003   3.8501027466767701E-002
   3.4680042537978212E-002  -1.0220711188523829E-002   4.3955483755930842E-002
   3.2879584272562629E-002  -9.6244172789805571E-003   4.3671480584097429E-002
   3.1079126007147025E-002  -9.0156261235647753E-003   4.3555006605311683E-002
   2.9278667741731445E-002  -8.3943377222770888E-003   4.3606061819573459E-002
   2.7478209476315768E-002  -7.7605520751167223E-003   4.3824646226883007E-002
   3.0733869956582172E-002  -8.9767109661458289E-003   4.9016993561845301E-002
   2.9109773969649727E-002  -8.4190465201343101E-003   4.8760135959319384E-002
   2.7485677982717227E-002  -7.8514277391684983E-003   4.8688473720712111E-002
   2.5861581995784755E-002  -7.2738546232484561E-003   4.8802006846023288E-002
   2.4237486008852255E-002  -6.6863271723742734E-003   4.9100735335253165E-002
   3.7666888140361232E-002  -1.0983226783344735E-002   2.7711200991302420E-002
   3.5259937685584997E-002  -1.0211885145360533E-002   2.7123965347874701E-002
   3.2852987230808650E-002  -9.4631066820702880E-003   2.6678788832187328E-002
   3.0446036776032331E-002  -8.7368913934742221E-003   2.6375671444240578E-002
   2.8039086321256013E-002  -8.0332392795715579E-003   2.6214613184034508E-002
   3.4192910542070271E-002  -9.9090018806020641E-003   3.3129879054907607E-002
   3.1930576706745234E-002  -9.1814812512131527E-003   3.2604097748588690E-002
   2.9668242871420170E-002  -8.4691065102179275E-003   3.2225490553431796E-002
   2.7405909036095050E-002  -7.7718776576173876E-003   3.1994057469436538E-002
   2.5143575200770013E-002  -7.0897946934107559E-003   3.1909798496603470E-002
   3.0796684320721857E-002  -8.8347769778595042E-003   3.8501027466767701E-002
   2.8684082088269169E-002  -8.1510773570654393E-003   3.8044117783857689E-002
   2.6571479855816607E-002  -7.4751063383657890E-003   3.7739497195530672E-002
   2.4458877623363996E-002  -6.8068639217607751E-003   3.7587165701786912E-002
   2.2346275390911358E-002  -6.1463501072500093E-003   3.7587123302626035E-002
   2.7478209476315768E-002  -7.7605520751167223E-003   4.3824646226883007E-002
   2.5520453830156914E-002  -7.1206734629177815E-003   4.3444025453681326E-002
   2.3562698183998056E-002  -6.4811061665137060E-003   4.3220808758484310E-002
   2.1604942537839129E-002  -5.8418501859041627E-003   4.3154996141291237E-002
   1.9647186891680289E-002  -5.2029055210891795E-003   4.3246587602102884E-002
   2.4237486008852255E-002  -6.6863271723742734E-003   4.9100735335253165E-002
   2.2439691932408357E-002  -6.0902695687702346E-003   4.8803820758059779E-002
   2.0641897855964417E-002  -5.4871059946613177E-003   4.8669425242292230E-002
   1.8844103779520484E-002  -4.8768364500476127E-003   4.8697548787950184E-002
   1.7046309703076523E-002  -4.2594609349284607E-003   4.8888191395033642E-002
   2.8039086321256013E-002  -8.0332392795715579E-003   2.6214613184034508E-002
   2.5699119311365037E-002  -7.3124723021100735E-003   2.5654643910431041E-002
   2.3359152301473951E-002  -6.5349124228374911E-003   2.5034792788947269E-002
   2.1019185291582948E-002  -5.7005596417519649E-003   2.4355059819584884E-002
   1.8679218281691889E-002  -4.8094139588553686E-003   2.3615445002342583E-002
   2.5143575200770013E-002  -7.0897946934107559E-003   3.1909798496603470E-002
   2.2783793476149811E-002  -6.4085658272108326E-003   3.1523222963873887E-002
   2.0424011751529567E-002  -5.7138992686299184E-003   3.1156899849565489E-002
   1.8064230026909288E-002  -5.0057950176679161E-003   3.0810829153677999E-002
   1.5704448302289120E-002  -4.2842530743248952E-003   3.0485010876211693E-002
   2.2346275390911358E-002  -6.1463501072500093E-003   3.7587123302626035E-002
   2.0046813217862655E-002  -5.5046593523112586E-003   3.7330586301339785E-002
   1.7747351044813883E-002  -4.8928861144225955E-003   3.7174435984775461E-002
   1.5447888871765174E-002  -4.3110303935835412E-003   3.7118672352932994E-002
   1.3148426698716423E-002  -3.7590921897943663E-003   3.7163295405812063E-002
   1.9647186891680289E-002  -5.2029055210891795E-003   4.3246587602102884E-002
   1.7488178536503585E-002  -4.6007528774121842E-003   4.3076733922829194E-002
   1.5329170181326981E-002  -4.0718729602153697E-003   4.3087401194577997E-002
   1.3170161826150302E-002  -3.6162657694993293E-003   4.3278589417349078E-002
   1.1011153470973672E-002  -3.2339313052638097E-003   4.3650298591142937E-002
   1.7046309703076523E-002  -4.2594609349284607E-003   4.8888191395033642E-002
   1.5107889432072669E-002  -3.6968464025125547E-003   4.8761665828341738E-002
   1.3169469161068759E-002  -3.2508598060080052E-003   4.8895795478973103E-002
   1.1231048890064904E-002  -2.9215011454150827E-003   4.9290580346927126E-002
   9.2926286190609941E-003  -2.7087704207333640E-003   4.9946020432204752E-002
   1.8679218281691889E-002  -4.8094139588553686E-003   2.3615445002342583E-002
   1.5655521373381387E-002  -4.0793000526447853E-003   2.4396742192673182E-002
   1.2631824465070801E-002  -3.7280426016185475E-003   2.5653695020879663E-002
   9.6081275567602986E-003  -3.7556416057767175E-003   2.7386303486962721E-002
   6.5844306484497128E-003  -4.1620970651188305E-003   2.9594567590921939E-002
   1.5704448302289120E-002  -4.2842530743248952E-003   3.0485010876211693E-002
   1.3137580219333450E-002  -3.7739005603669162E-003   3.1258893126683673E-002
   1.0570712136377738E-002  -3.6993645975603728E-003   3.2470777389988770E-002
   8.0038440534220406E-003  -4.0606451859044046E-003   3.4120663666127704E-002
   5.4369759704663567E-003  -4.8577423253998164E-003   3.6208551955100199E-002
   1.3148426698716423E-002  -3.7590921897943663E-003   3.7163295405812063E-002
   1.1000733816072986E-002  -3.4685010680889916E-003   3.7872802620457641E-002
   8.8530409334296248E-003  -3.6706865935017402E-003   3.8982658222894664E-002
   6.7053480507861876E-003  -4.3656487660325323E-003   4.0492862213122587E-002
   4.5576551681428268E-003  -5.5533875856813575E-003   4.2403414591141164E-002
   1.1011153470973672E-002  -3.2339313052638097E-003   4.3650298591142937E-002
   9.2449821636000386E-003  -3.1631015758111503E-003   4.4238470673996208E-002
   7.4788108562263145E-003  -3.6420085894432810E-003   4.5189337519597583E-002
   5.7126395488526233E-003  -4.6706523461607728E-003   4.6502899127947438E-002
   3.9464682414789565E-003  -6.2490328459628430E-003   4.8179155499045737E-002
   9.2926286190609941E-003  -2.7087704207333640E-003   4.9946020432204752E-002
   7.8703252619145014E-003  -2.8577020835331979E-003   5.0355897287298168E-002
   6.4480219047679532E-003  -3.6133305853849051E-003   5.1090815280097457E-002
   5.0257185476214467E-003  -4.9756559262886177E-003   5.2150774410602535E-002
   3.6034151904749123E-003  -6.9446781062439955E-003   5.3535774678813763E-002
   6.5844306484497128E-003  -4.1620970651188305E-003   2.9594567590921939E-002
   6.0562740283927607E-003  -6.1430656699416053E-003   3.4074366678239154E-002
   5.5281174083358642E-003  -1.0894204110541872E-002   3.9238469326063452E-002
   4.9999607882789537E-003  -1.8415512386919491E-002   4.5086875534394499E-002
   4.4718041682220155E-003  -2.8706990499073992E-002   5.1619585303233961E-002
   5.4369759704663567E-003  -4.8577423253998164E-003   3.6208551955100199E-002
   5.4895267614018251E-003  -6.9910883278826996E-003   3.8349463263262107E-002
   5.5420775523371685E-003  -1.1361115505187841E-002   4.0967485832900608E-002
   5.5946283432726646E-003  -1.7967823857316330E-002   4.4062619664017894E-002
   5.6471791342079247E-003  -2.6811213384267285E-002   4.7634864756611162E-002
   4.5576551681428268E-003  -5.5533875856813575E-003   4.2403414591141164E-002
   4.9837210710405727E-003  -7.8391109858235164E-003   4.2738926781102138E-002
   5.4097869739383186E-003  -1.1828026899834143E-002   4.3344357933510380E-002
   5.8358528768360611E-003  -1.7520135327713168E-002   4.4219708048366071E-002
   6.2619187797337550E-003  -2.4915436269460800E-002   4.5364977125669337E-002
   3.9464682414789565E-003  -6.2490328459628430E-003   4.8179155499045737E-002
   4.5388569573091599E-003  -8.6871336437644719E-003   4.7242757231760253E-002
   5.1312456731393060E-003  -1.2294938294480057E-002   4.6369085627891882E-002
   5.7236343889694270E-003  -1.7072446798110007E-002   4.5558140687441170E-002
   6.3160231047996035E-003  -2.3019659154654204E-002   4.4809922410407182E-002
   3.6034151904749123E-003  -6.9446781062439955E-003   5.3535774678813763E-002
   4.1549344202074789E-003  -9.5351563017053165E-003   5.1860954615235655E-002
   4.7064536499401011E-003  -1.2761849689126276E-002   5.0041668916044946E-002
   5.2579728796727093E-003  -1.6624758268506977E-002   4.8077917581242219E-002
   5.8094921094052898E-003  -2.1123882039847608E-002   4.5969700610827058E-002
   5.0525363219190544E-002  -1.3833983718098741E-002   5.2446013028013605E-002
   4.8773499578938256E-002  -1.3941891536833728E-002   5.0186129365925869E-002
   4.7021635938686079E-002  -1.3874707304825498E-002   4.8795282071388030E-002
   4.5269772298433875E-002  -1.3632431022074152E-002   4.8273471144399963E-002
   4.3517908658181614E-002  -1.3215062688579471E-002   4.8620696584961598E-002
   4.2645109289029537E-002  -1.2638682469985618E-002   5.3742044780521858E-002
   4.1598240342996237E-002  -1.2521405393203455E-002   5.2537470044493301E-002
   4.0551371396962993E-002  -1.2308325851022303E-002   5.1873848329352712E-002
   3.9504502450929700E-002  -1.1999443843441978E-002   5.1751179635100272E-002
   3.8457633504896421E-002  -1.1594759370462504E-002   5.2169463961736079E-002
   3.5848758700187139E-002  -1.1443381221872495E-002   5.5302906221219514E-002
   3.5178801101711184E-002  -1.1100919249573210E-002   5.5074350825905685E-002
   3.4508843503235201E-002  -1.0741944397219018E-002   5.5058665104818362E-002
   3.3838885904759225E-002  -1.0366456664809802E-002   5.5255849057957565E-002
   3.3168928306283263E-002  -9.9744560523456205E-003   5.5665902685323287E-002
   3.0136311452663302E-002  -1.0248079973759358E-002   5.7128597350106530E-002
   2.9515181855083061E-002  -9.6804331059429788E-003   5.7796771710163342E-002
   2.8894052257502811E-002  -9.1755629434157222E-003   5.8349732397785056E-002
   2.8272922659922525E-002  -8.7334694861775988E-003   5.8787479412971626E-002
   2.7651793062342292E-002  -8.3541527342286120E-003   5.9110012755723126E-002
   2.5507767546458116E-002  -9.0527787256462489E-003   5.9219118167182561E-002
   2.4607382603111905E-002  -8.2599469623126920E-003   6.0704732697265951E-002
   2.3706997659765736E-002  -7.6091814896124960E-003   6.1747050208252635E-002
   2.2806612716419553E-002  -7.1004823075454977E-003   6.2346070700142600E-002
   2.1906227773073370E-002  -6.7338494161117701E-003   6.2501794172935832E-002
   4.3517908658181614E-002  -1.3215062688579471E-002   4.8620696584961598E-002
   4.2105247155164088E-002  -1.2706914235583067E-002   4.8878790854868459E-002
   4.0692585652146521E-002  -1.2192297594326107E-002   4.9164152150591806E-002
   3.9279924149128939E-002  -1.1671212764808939E-002   4.9476780472131693E-002
   3.7867262646111427E-002  -1.1143659747031076E-002   4.9816675819487732E-002
   3.8457633504896421E-002  -1.1594759370462504E-002   5.2169463961736079E-002
   3.7106677217569814E-002  -1.1140799934065304E-002   5.2238174201038157E-002
   3.5755720930243221E-002  -1.0684093036231510E-002   5.2403027845905781E-002
   3.4404764642916599E-002  -1.0224638676961408E-002   5.2664024896338812E-002
   3.3053808355590020E-002  -9.7624368562547192E-003   5.3021165352337446E-002
   3.3168928306283263E-002  -9.9744560523456205E-003   5.5665902685323287E-002
   3.1948553614396781E-002  -9.5746856325476803E-003   5.5541508167196565E-002
   3.0728178922510251E-002  -9.1758884781370786E-003   5.5582133434384381E-002
   2.9507804230623762E-002  -8.7780645891140444E-003   5.5787778486886971E-002
   2.8287429538737231E-002  -8.3812139654782791E-003   5.6158443324704085E-002
   2.7651793062342292E-002  -8.3541527342286120E-003   5.9110012755723126E-002
   2.6630876345644955E-002  -8.0085713310299594E-003   5.8788792753343685E-002
   2.5609959628947649E-002  -7.6676839200425645E-003   5.8701468916027948E-002
   2.4589042912250308E-002  -7.3314905012665972E-003   5.8848041243776086E-002
   2.3568126195553006E-002  -6.9999910747019084E-003   5.9228509736587970E-002
   2.1906227773073370E-002  -6.7338494161117701E-003   6.2501794172935832E-002
   2.1153645411314370E-002  -6.4424570295122940E-003   6.1980027959479655E-002
   2.0401063049555378E-002  -6.1594793619480920E-003   6.1761034290836458E-002
   1.9648480687796382E-002  -5.8849164134192992E-003   6.1844813167006088E-002
   1.8895898326037386E-002  -5.6187681839255377E-003   6.2231364587988669E-002
   3.7867262646111427E-002  -1.1143659747031076E-002   4.9816675819487732E-002
   3.6083914473729106E-002  -1.0610135114294789E-002   4.9281369207818615E-002
   3.4300566301346799E-002  -1.0071135439901804E-002   4.8969653294321958E-002
   3.2517218128964485E-002  -9.5266607238522240E-003   4.8881528078997330E-002
   3.0733869956582172E-002  -8.9767109661458289E-003   4.9016993561845301E-002
   3.3053808355590020E-002  -9.7624368562547192E-003   5.3021165352337446E-002
   3.1491739103239103E-002  -9.2951332269061993E-003   5.2537088034948026E-002
   2.9929669850888158E-002  -8.8203734417105079E-003   5.2271977859448912E-002
   2.8367600598537213E-002  -8.3381575006678567E-003   5.2225834825840443E-002
   2.6805531346186295E-002  -7.8484854037780272E-003   5.2398658934122266E-002
   2.8287429538737231E-002  -8.3812139654782791E-003   5.6158443324704085E-002
   2.6942015650135834E-002  -7.9801313395176515E-003   5.5727576415784727E-002
   2.5596601761534481E-002  -7.5696114435192599E-003   5.5511053092473818E-002
   2.4251187872933108E-002  -7.1496542774834877E-003   5.5508873354771615E-002
   2.2905773984331732E-002  -6.7202598414101145E-003   5.5721037202678070E-002
   2.3568126195553006E-002  -6.9999910747019084E-003   5.9228509736587970E-002
   2.2434744114419376E-002  -6.6651294521289442E-003   5.8852834350328814E-002
   2.1301362033285712E-002  -6.3188494453281265E-003   5.8686878993396738E-002
   2.0167979952152058E-002  -5.9611510542991750E-003   5.8730643665791157E-002
   1.9034597871018421E-002  -5.5920342790422572E-003   5.8984128367512718E-002
   1.8895898326037386E-002  -5.6187681839255377E-003   6.2231364587988669E-002
   1.7969924496089654E-002  -5.3501275647405144E-003   6.1912861838580413E-002
   1.7043950666141908E-002  -5.0680874471367293E-003   6.1799455562217276E-002
   1.6117976836194155E-002  -4.7726478311147270E-003   6.1891145758899133E-002
   1.5192003006246416E-002  -4.4638087166742890E-003   6.2187932428626080E-002
   3.0733869956582172E-002  -8.9767109661458289E-003   4.9016993561845301E-002
   2.9109773969649727E-002  -8.4190465201343101E-003   4.8760135959319384E-002
   2.7485677982717227E-002  -7.8514277391684983E-003   4.8688473720712111E-002
   2.5861581995784755E-002  -7.2738546232484561E-003   4.8802006846023288E-002
   2.4237486008852255E-002  -6.6863271723742734E-003   4.9100735335253165E-002
   2.6805531346186295E-002  -7.8484854037780272E-003   5.2398658934122266E-002
   2.5368857564890934E-002  -7.3502310485860645E-003   5.2182440769712013E-002
   2.3932183783595518E-002  -6.8422683326369582E-003   5.2155871652657143E-002
   2.2495510002300122E-002  -6.3245972559304448E-003   5.2318951582958115E-002
   2.1058836221004712E-002  -5.7972178184669820E-003   5.2671680560614498E-002
   2.2905773984331732E-002  -6.7202598414101145E-003   5.5721037202678070E-002
   2.1660976092110443E-002  -6.2814155770378466E-003   5.5545212502186248E-002
   2.0416178199889175E-002  -5.8331089261054042E-003   5.5563490532487200E-002
   1.9171380307667869E-002  -5.3753398886125965E-003   5.5775871293580616E-002
   1.7926582415446625E-002  -4.9081084645596906E-003   5.6182354785466765E-002
   1.9034597871018421E-002  -5.5920342790422572E-003   5.8984128367512718E-002
   1.7986129551308336E-002  -5.2126001054896148E-003   5.8848451156742407E-002
   1.6937661231598206E-002  -4.8239495195737461E-003   5.8911330360201783E-002
   1.5889192911888114E-002  -4.4260825212947778E-003   5.9172765977890861E-002
   1.4840724592177989E-002  -4.0189991106524547E-003   5.9632758009809626E-002
   1.5192003006246416E-002  -4.4638087166742890E-003   6.2187932428626080E-002
   1.4344317942484516E-002  -4.1437846339413831E-003   6.2092156733380310E-002
   1.3496632878722624E-002  -3.8147901130423101E-003   6.2199391135801363E-002
   1.2648947814960735E-002  -3.4768251539769590E-003   6.2509635635889238E-002
   1.1801262751198832E-002  -3.1298897567452189E-003   6.3022890233643825E-002
   2.4237486008852255E-002  -6.6863271723742734E-003   4.9100735335253165E-002
   2.2439691932408357E-002  -6.0902695687702346E-003   4.8803820758059779E-002
   2.0641897855964417E-002  -5.4871059946613177E-003   4.8669425242292230E-002
   1.8844103779520484E-002  -4.8768364500476127E-003   4.8697548787950184E-002
   1.7046309703076523E-002  -4.2594609349284607E-003   4.8888191395033642E-002
   2.1058836221004712E-002  -5.7972178184669820E-003   5.2671680560614498E-002
   1.9434219937671374E-002  -5.2650228319239267E-003   5.2435335051348952E-002
   1.7809603654338008E-002  -4.7329051079791629E-003   5.2382826066878996E-002
   1.6184987371004635E-002  -4.2008646466335162E-003   5.2514153607204794E-002
   1.4560371087671303E-002  -3.6689014478857862E-003   5.2829317672326126E-002
   1.7926582415446625E-002  -4.9081084645596906E-003   5.6182354785466765E-002
   1.6496461388593842E-002  -4.4397760950775633E-003   5.5999395111025502E-002
   1.5066340361741076E-002  -3.9787042212974383E-003   5.6021589424749843E-002
   1.3636219334888297E-002  -3.5248928432194716E-003   5.6248937726639518E-002
   1.2206098308035554E-002  -3.0783419608432228E-003   5.6681440016695256E-002
   1.4840724592177989E-002  -4.0189991106524547E-003   5.9632758009809626E-002
   1.3626416285175823E-002  -3.6145293582312277E-003   5.9496000937089212E-002
   1.2412107978173614E-002  -3.2245033346155541E-003   5.9585715315904328E-002
   1.1197799671171417E-002  -2.8489210398052901E-003   5.9901901146254918E-002
   9.9834913641692370E-003  -2.4877824738006038E-003   6.0444558428141122E-002
   1.1801262751198832E-002  -3.1298897567452189E-003   6.3022890233643825E-002
   1.0824084627417227E-002  -2.7892826213849475E-003   6.2925152529540562E-002
   9.8469065036356357E-003  -2.4703024479335312E-003   6.3075203740342645E-002
   8.8697283798540374E-003  -2.1729492363914346E-003   6.3473043866050627E-002
   7.8925502560724115E-003  -1.8972229867579848E-003   6.4118672906664065E-002
   1.7046309703076523E-002  -4.2594609349284607E-003   4.8888191395033642E-002
   1.5107889432072669E-002  -3.6968464025125547E-003   4.8761665828341738E-002
   1.3169469161068759E-002  -3.2508598060080052E-003   4.8895795478973103E-002
   1.1231048890064904E-002  -2.9215011454150827E-003   4.9290580346927126E-002
   9.2926286190609941E-003  -2.7087704207333640E-003   4.9946020432204752E-002
   1.4560371087671303E-002  -3.6689014478857862E-003   5.2829317672326126E-002
   1.2880284572835368E-002  -3.1944010831190250E-003   5.2716398309611390E-002
   1.1200198057999378E-002  -2.8347491237156186E-003   5.2859491241909307E-002
   9.5201115431634356E-003  -2.5899455696753171E-003   5.3258596469219710E-002
   7.8400250283274797E-003  -2.4599904209979817E-003   5.3913713991543544E-002
   1.2206098308035554E-002  -3.0783419608432228E-003   5.6681440016695256E-002
   1.0779702627057221E-002  -2.6919557637256619E-003   5.6583906388505578E-002
   9.3533069460788668E-003  -2.4186384414230239E-003   5.6737742133018312E-002
   7.9269112651005266E-003  -2.2583899939354439E-003   5.7142947250233729E-002
   6.5005155841221796E-003  -2.2112104212631545E-003   5.7799521740151488E-002
   9.9834913641692370E-003  -2.4877824738006038E-003   6.0444558428141122E-002
   8.8061435947382107E-003  -2.1895104443320490E-003   6.0364190065024970E-002
   7.6287958253071896E-003  -2.0025277591304777E-003   6.0530548152300648E-002
   6.4514480558761807E-003  -1.9268344181957355E-003   6.0943632689968906E-002
   5.2741002864451422E-003  -1.9624304215281607E-003   6.1603443678029078E-002
   7.8925502560724115E-003  -1.8972229867579848E-003   6.4118672906664065E-002
   6.9596074758783988E-003  -1.6870651249387136E-003   6.4057249339169120E-002
   6.0266646956843861E-003  -1.5864170768380981E-003   6.4237909299756424E-002
   5.0937219154903735E-003  -1.5952788424558745E-003   6.4660652788425144E-002
   4.1607791352963330E-003  -1.7136504217930559E-003   6.5325479805176001E-002
   9.2926286190609941E-003  -2.7087704207333640E-003   4.9946020432204752E-002
   7.8703252619145014E-003  -2.8577020835331979E-003   5.0355897287298168E-002
   6.4480219047679532E-003  -3.6133305853849051E-003   5.1090815280097457E-002
   5.0257185476214467E-003  -4.9756559262886177E-003   5.2150774410602535E-002
   3.6034151904749123E-003  -6.9446781062439955E-003   5.3535774678813763E-002
   7.8400250283274797E-003  -2.4599904209979817E-003   5.3913713991543544E-002
   6.7172068549737618E-003  -2.6441596339128459E-003   5.3851080460815992E-002
   5.5943886816200300E-003  -3.3417291646479497E-003   5.4062376159968228E-002
   4.4715705082663121E-003  -4.5526990132029113E-003   5.4547601089000197E-002
   3.3487523349125803E-003  -6.2770691795785982E-003   5.5306755247912065E-002
   6.5005155841221796E-003  -2.2112104212631545E-003   5.7799521740151488E-002
   5.6260706867351518E-003  -2.4306171842926050E-003   5.7357674344834769E-002
   4.7516257893481378E-003  -3.0701277439107860E-003   5.7138644271571407E-002
   3.8771808919611343E-003  -4.1297421001177635E-003   5.7142431520362143E-002
   3.0027359945740961E-003  -5.6094602529133675E-003   5.7369036091206166E-002
   5.2741002864451422E-003  -1.9624304215281607E-003   6.1603443678029078E-002
   4.5969167571987095E-003  -2.2170747346724196E-003   6.0875678939354437E-002
   3.9197332279522663E-003  -2.7985263231738375E-003   6.0319619614907366E-002
   3.2425496987058431E-003  -3.7067851870326695E-003   5.9935265704688018E-002
   2.5653661694593904E-003  -4.9418513262484975E-003   5.9722617208696198E-002
   4.1607791352963330E-003  -1.7136504217930559E-003   6.5325479805176001E-002
   3.6297450663643760E-003  -2.0035322850520676E-003   6.4405094244375127E-002
   3.0987109974324190E-003  -2.5269249024367224E-003   6.3605302189975788E-002
   2.5676769285004689E-003  -3.2838282739470898E-003   6.2926103641977926E-002
   2.0366428595685049E-003  -4.2742423995828505E-003   6.2367498600381599E-002
   3.6034151904749123E-003  -6.9446781062439955E-003   5.3535774678813763E-002
   4.1549344202074789E-003  -9.5351563017053165E-003   5.1860954615235655E-002
   4.7064536499401011E-003  -1.2761849689126276E-002   5.0041668916044946E-002
   5.2579728796727093E-003  -1.6624758268506977E-002   4.8077917581242219E-002
   5.8094921094052898E-003  -2.1123882039847608E-002   4.5969700610827058E-002
   3.3487523349125803E-003  -6.2770691795785982E-003   5.5306755247912065E-002
   3.7730720768542336E-003  -8.5457641396963768E-003   5.2952115616567708E-002
   4.1973918187959008E-003  -1.1389708369478668E-002   5.0487542645253514E-002
   4.6217115607374917E-003  -1.4808901868925181E-002   4.7913036333970288E-002
   5.0460313026791659E-003  -1.8803344638036457E-002   4.5228596682717281E-002
   3.0027359945740961E-003  -5.6094602529133675E-003   5.7369036091206166E-002
   3.3343885443679333E-003  -7.5563719776878258E-003   5.4395542814390296E-002
   3.6660410941618121E-003  -1.0017567049831408E-002   5.1346648493248229E-002
   3.9976936439556597E-003  -1.2993045469343944E-002   4.8222353127779734E-002
   4.3293461937495004E-003  -1.6482807236225305E-002   4.5022656717985776E-002
   2.5653661694593904E-003  -4.9418513262484975E-003   5.9722617208696198E-002
   2.8388838227486196E-003  -6.5669798156795245E-003   5.6191236208704295E-002
   3.1124014760378384E-003  -8.6454257301839740E-003   5.2618986460029493E-002
   3.3859191293270493E-003  -1.1177189069762538E-002   4.9005867962671361E-002
   3.6594367826162585E-003  -1.4162269834414154E-002   4.5351880716630683E-002
   2.0366428595685049E-003  -4.2742423995828505E-003   6.2367498600381599E-002
   2.2865579119962509E-003  -5.5775876536706681E-003   5.8339195799509636E-002
   2.5364729644240247E-003  -7.2732844105366234E-003   5.4304556545597349E-002
   2.7863880168517915E-003  -9.3613326701808205E-003   5.0263580838644822E-002
   3.0363030692795445E-003  -1.1841732432603003E-002   4.6216268678652916E-002
   2.5507767546458116E-002  -9.0527787256462489E-003   5.9219118167182561E-002
   2.4607382603111905E-002  -8.2599469623126920E-003   6.0704732697265951E-002
   2.3706997659765736E-002  -7.6091814896124960E-003   6.1747050208252635E-002
   2.2806612716419553E-002  -7.1004823075454977E-003   6.2346070700142600E-002
   2.1906227773073370E-002  -6.7338494161117701E-003   6.2501794172935832E-002
   2.0816672880024895E-002  -6.0916200206870275E-003   6.2639549360923086E-002
   1.9647333982573484E-002  -5.7063821681053173E-003   6.2989564214275123E-002
   1.8477995085122045E-002  -5.3809537847870625E-003   6.3244968178513300E-002
   1.7308656187670614E-002  -5.1153348707323812E-003   6.3405761253637741E-002
   1.6139317290219182E-002  -4.9095254259410859E-003   6.3471943439648515E-002
   1.4916573351817182E-002  -3.1304613157277783E-003   6.5611258233227013E-002
   1.3826966630243437E-002  -3.1528173738978871E-003   6.4907930231217270E-002
   1.2737359908669747E-002  -3.1527260799616777E-003   6.4458677470076886E-002
   1.1647753187096030E-002  -3.1301874339192074E-003   6.4263499949805611E-002
   1.0558146465522316E-002  -3.0852014357704016E-003   6.4322397670403555E-002
   7.8074689618348701E-003  -1.6930261076851527E-004   6.8134244784094161E-002
   7.1462805461218575E-003  -5.9925257969044299E-004   6.6459830748092641E-002
   6.4850921304088257E-003  -9.2449837513626856E-004   6.5388178082943227E-002
   5.8239037146958104E-003  -1.1450399971060345E-003   6.4919286788646030E-002
   5.1627152989827873E-003  -1.2608774455997174E-003   6.5053156865200898E-002
  -5.1064028992191951E-004   2.7918560941906923E-003   7.0208509013524656E-002
  -3.9472426979129949E-004   1.9543122145169456E-003   6.7645265764900930E-002
  -2.7880824966067252E-004   1.3037293296891267E-003   6.6033470017112489E-002
  -1.6289222953005077E-004   8.4010743970703780E-004   6.5373121770159123E-002
  -4.6976209399425539E-005   5.6344654457091137E-004   6.5664221024040792E-002
   2.1906227773073370E-002  -6.7338494161117701E-003   6.2501794172935832E-002
   2.1153645411314370E-002  -6.4424570295122940E-003   6.1980027959479655E-002
   2.0401063049555378E-002  -6.1594793619480920E-003   6.1761034290836458E-002
   1.9648480687796382E-002  -5.8849164134192992E-003   6.1844813167006088E-002
   1.8895898326037386E-002  -5.6187681839255377E-003   6.2231364587988669E-002
   1.6139317290219182E-002  -4.9095254259410859E-003   6.3471943439648515E-002
   1.5661470826459224E-002  -4.7303792985329135E-003   6.3106914295266839E-002
   1.5183624362699273E-002  -4.5447503366273789E-003   6.2988584402070391E-002
   1.4705777898939319E-002  -4.3526385402246903E-003   6.3116953760059255E-002
   1.4227931435179357E-002  -4.1540439093245562E-003   6.3492022369233125E-002
   1.0558146465522316E-002  -3.0852014357704016E-003   6.4322397670403555E-002
   1.0298962606133725E-002  -3.0183015675535607E-003   6.4129003148628974E-002
   1.0039778746745115E-002  -2.9300213113067838E-003   6.4126234584411967E-002
   9.7805948873565182E-003  -2.8203606670301386E-003   6.4314091977752424E-002
   9.5214110279679132E-003  -2.6893196347235471E-003   6.4692575328650456E-002
   5.1627152989827873E-003  -1.2608774455997174E-003   6.5053156865200898E-002
   5.0661207503378469E-003  -1.3062238365741663E-003   6.5046294519566145E-002
   4.9695262016929247E-003  -1.3152922859862130E-003   6.5173984837861090E-002
   4.8729316530479894E-003  -1.2880827938355306E-003   6.5436227820085874E-002
   4.7763371044030611E-003  -1.2245953601225240E-003   6.5833023466240453E-002
  -4.6976209399425539E-005   5.6344654457091137E-004   6.5664221024040792E-002
  -3.7054740928372382E-005   4.0585389440514485E-004   6.5858788408078184E-002
  -2.7133272457319224E-005   2.9943673933452430E-004   6.6131835162417801E-002
  -1.7211803986267801E-005   2.4419507935888318E-004   6.6483361287059506E-002
  -7.2903355152129090E-006   2.4012891447849904E-004   6.6913366782003381E-002
   1.8895898326037386E-002  -5.6187681839255377E-003   6.2231364587988669E-002
   1.7969924496089654E-002  -5.3501275647405144E-003   6.1912861838580413E-002
   1.7043950666141908E-002  -5.0680874471367293E-003   6.1799455562217276E-002
   1.6117976836194155E-002  -4.7726478311147270E-003   6.1891145758899133E-002
   1.5192003006246416E-002  -4.4638087166742890E-003   6.2187932428626080E-002
   1.4227931435179357E-002  -4.1540439093245562E-003   6.3492022369233125E-002
   1.3513861052377486E-002  -3.9488883687676113E-003   6.3151792319189964E-002
   1.2799790669575619E-002  -3.7370938433939765E-003   6.3030272690393629E-002
   1.2085720286773729E-002  -3.5186603332038428E-003   6.3127463482843899E-002
   1.1371649903971867E-002  -3.2935878381971095E-003   6.3443364696541105E-002
   9.5214110279679132E-003  -2.6893196347235471E-003   6.4692575328650456E-002
   9.0328580405136666E-003  -2.5476491727947082E-003   6.4323857464370290E-002
   8.5443050530594235E-003  -2.4061002396511613E-003   6.4187463969538755E-002
   8.0557520656051821E-003  -2.2646728352927348E-003   6.4283394844155739E-002
   7.5671990781509234E-003  -2.1233669597198745E-003   6.4611650088221062E-002
   4.7763371044030611E-003  -1.2245953601225240E-003   6.5833023466240453E-002
   4.5269154604981980E-003  -1.1464099768218328E-003   6.5429057274121613E-002
   4.2774938165933427E-003  -1.0751066359083773E-003   6.5271029399653110E-002
   4.0280721726884804E-003  -1.0106853373819053E-003   6.5358939842834904E-002
   3.7786505287836251E-003  -9.5314608124266731E-004   6.5692788603666841E-002
  -7.2903355152129090E-006   2.4012891447849904E-004   6.6913366782003381E-002
  -3.9666876689298247E-006   2.5482921915109813E-004   6.6467391748443849E-002
  -6.4303982264327098E-007   2.5588696783444831E-004   6.6280968980736460E-002
   2.6806080236432828E-006   2.4330216052929551E-004   6.6354098478880977E-002
   6.0042558699263671E-006   2.1707479723453993E-004   6.6686780242877552E-002
   1.5192003006246416E-002  -4.4638087166742890E-003   6.2187932428626080E-002
   1.4344317942484516E-002  -4.1437846339413831E-003   6.2092156733380310E-002
   1.3496632878722624E-002  -3.8147901130423101E-003   6.2199391135801363E-002
   1.2648947814960735E-002  -3.4768251539769590E-003   6.2509635635889238E-002
   1.1801262751198832E-002  -3.1298897567452189E-003   6.3022890233643825E-002
   1.1371649903971867E-002  -3.2935878381971095E-003   6.3443364696541105E-002
   1.0729092865193232E-002  -3.0621347164474788E-003   6.3373155558483246E-002
   1.0086535826414597E-002  -2.8245593260285418E-003   6.3510192372725205E-002
   9.4439787876359586E-003  -2.5808616669401874E-003   6.3854475139267092E-002
   8.8014217488573271E-003  -2.3310417391827487E-003   6.4406003858108463E-002
   7.5671990781509234E-003  -2.1233669597198745E-003   6.4611650088221062E-002
   7.1340059189886097E-003  -1.9804847989534080E-003   6.4564159337854310E-002
   6.7008127598262943E-003  -1.8343285390146624E-003   6.4728150394420383E-002
   6.2676196006639763E-003  -1.6848981799036933E-003   6.5103623257919199E-002
   5.8344264415016514E-003  -1.5321937216203341E-003   6.5690577928350952E-002
   3.7786505287836251E-003  -9.5314608124266731E-004   6.5692788603666841E-002
   3.5590571038706673E-003  -8.9883488145936496E-004   6.5665168071493932E-002
   3.3394636789577229E-003  -8.4409775200078307E-004   6.5853265200886843E-002
   3.1198702540447586E-003  -7.8893469286706042E-004   6.6257079991845796E-002
   2.9002768291318138E-003  -7.3334570405789168E-004   6.6876612444370515E-002
   6.0042558699263671E-006   2.1707479723453993E-004   6.6686780242877552E-002
   4.2464198393953045E-006   1.8281503603451155E-004   6.6676181759401598E-002
   2.4885838088642420E-006   1.4613303501295749E-004   6.6885536792124667E-002
   7.3074777833317950E-007   1.0702879416956551E-004   6.7314845341046509E-002
  -1.0270882521978830E-006   6.5502313504550713E-005   6.7964107406167429E-002
   1.1801262751198832E-002  -3.1298897567452189E-003   6.3022890233643825E-002
   1.0824084627417227E-002  -2.7892826213849475E-003   6.2925152529540562E-002
   9.8469065036356357E-003  -2.4703024479335312E-003   6.3075203740342645E-002
   8.8697283798540374E-003  -2.1729492363914346E-003   6.3473043866050627E-002
   7.8925502560724115E-003  -1.8972229867579848E-003   6.4118672906664065E-002
   8.8014217488573271E-003  -2.3310417391827487E-003   6.4406003858108463E-002
   8.0711064081172013E-003  -2.0846917984271851E-003   6.4322841114835883E-002
   7.3407910673770407E-003  -1.8514041003453163E-003   6.4485615022740500E-002
   6.6104757266368906E-003  -1.6311786449362473E-003   6.4894325581822579E-002
   5.8801603858967683E-003  -1.4240154322009424E-003   6.5548972792081883E-002
   5.8344264415016514E-003  -1.5321937216203341E-003   6.5690577928350952E-002
   5.3491216200747191E-003  -1.3801009754697280E-003   6.5630554865144380E-002
   4.8638167986478006E-003  -1.2325057527567823E-003   6.5814616189386957E-002
   4.3785119772208631E-003  -1.0894080534813964E-003   6.6242761901078584E-002
   3.8932071557939360E-003  -9.5080787764367791E-004   6.6914992000219248E-002
   2.9002768291318138E-003  -7.3334570405789168E-004   6.6876612444370515E-002
   2.6581302632898568E-003  -6.7551015251222923E-004   6.6848293780465889E-002
   2.4159836974478772E-003  -6.1360740516851892E-004   6.7062207240282112E-002
   2.1738371316059094E-003  -5.4763746202648837E-004   6.7518352823819253E-002
   1.9316905657639407E-003  -4.7760032308657996E-004   6.8216730531077158E-002
  -1.0270882521978830E-006   6.5502313504550713E-005   6.7964107406167429E-002
  -1.8676622374549923E-006   2.9080670445491563E-005   6.7976057860800410E-002
  -2.7082362227051626E-006   5.2909424199942823E-006   6.8228388175426036E-002
  -3.5488102079605371E-006  -5.8668705716288794E-006   6.8721098350044002E-002
  -4.3893841932124422E-006  -4.3927685293709828E-006   6.9454188384655002E-002
   7.8925502560724115E-003  -1.8972229867579848E-003   6.4118672906664065E-002
   6.9596074758783988E-003  -1.6870651249387136E-003   6.4057249339169120E-002
   6.0266646956843861E-003  -1.5864170768380981E-003   6.4237909299756424E-002
   5.0937219154903735E-003  -1.5952788424558745E-003   6.4660652788425144E-002
   4.1607791352963330E-003  -1.7136504217930559E-003   6.5325479805176001E-002
   5.8801603858967683E-003  -1.4240154322009424E-003   6.5548972792081883E-002
   5.1871390975838372E-003  -1.2648035243829625E-003   6.5414648738018610E-002
   4.4941178092708992E-003  -1.1884319837266455E-003   6.5518084139636085E-002
   3.8010965209579715E-003  -1.1949008102321579E-003   6.5859278996933654E-002
   3.1080752326450301E-003  -1.2842100038994442E-003   6.6438233309911554E-002
   3.8932071557939360E-003  -9.5080787764367791E-004   6.6914992000219248E-002
   3.4357832869605816E-003  -8.4254192382712811E-004   6.6734436906145167E-002
   2.9783594181272237E-003  -7.9044689061538720E-004   6.6787317195349749E-002
   2.5209355492938623E-003  -7.9452277800821230E-004   6.7073632867833119E-002
   2.0635116804605114E-003  -8.5476958600599895E-004   6.7593383923595485E-002
   1.9316905657639407E-003  -4.7760032308657996E-004   6.8216730531077158E-002
   1.7055400440086502E-003  -4.2028032327127984E-004   6.8016613843548610E-002
   1.4793895222533311E-003  -3.9246179750414278E-004   6.8045608466897611E-002
   1.2532390004980267E-003  -3.9414474578427020E-004   6.8303714401123816E-002
   1.0270884787427215E-003  -4.2532916811252597E-004   6.8790931646227418E-002
  -4.3893841932124422E-006  -4.3927685293709828E-006   6.9454188384655002E-002
  -3.5906312719838351E-006   1.9812772844574056E-006   6.9261179550229479E-002
  -2.7918783507482892E-006   5.5232956072959194E-006   6.9292957954279644E-002
  -1.9931254295092737E-006   6.2332864394984422E-006   6.9549523596805524E-002
  -1.1943725082841361E-006   4.1112497810580351E-006   7.0030876477807480E-002
   4.1607791352963330E-003  -1.7136504217930559E-003   6.5325479805176001E-002
   3.6297450663643760E-003  -2.0035322850520676E-003   6.4405094244375127E-002
   3.0987109974324190E-003  -2.5269249024367224E-003   6.3605302189975788E-002
   2.5676769285004689E-003  -3.2838282739470898E-003   6.2926103641977926E-002
   2.0366428595685049E-003  -4.2742423995828505E-003   6.2367498600381599E-002
   3.1080752326450301E-003  -1.2842100038994442E-003   6.6438233309911554E-002
   2.7006919476820351E-003  -1.5023521532649409E-003   6.5324877227964873E-002
   2.2933086627190333E-003  -1.8953198468659727E-003   6.4338229207554803E-002
   1.8859253777560384E-003  -2.4631130847009020E-003   6.3478289248681083E-002
   1.4785420927930365E-003  -3.2057318667715329E-003   6.2745057351344058E-002
   2.0635116804605114E-003  -8.5476958600599895E-004   6.7593383923595485E-002
   1.7858937346015361E-003  -1.0011720214781195E-003   6.6345742530393548E-002
   1.5082757887425607E-003  -1.2637147912946400E-003   6.5230923753863246E-002
   1.2306578428835768E-003  -1.6423978954552623E-003   6.4248927594004579E-002
   9.5303989702461012E-004  -2.1372213339599377E-003   6.3399754050817186E-002
   1.0270884787427215E-003  -4.2532916811252597E-004   6.8790931646227418E-002
   8.8535042712284753E-004  -4.9999188969120090E-004   6.7467690151661042E-002
   7.4361237550297360E-004  -6.3210973572343232E-004   6.6283385828901198E-002
   6.0187432388310704E-004  -8.2168270620934861E-004   6.5238018677948095E-002
   4.6013627226322573E-004  -1.0687108011482593E-003   6.4331588698801567E-002
  -1.1943725082841361E-006   4.1112497810580351E-006   7.0030876477807480E-002
  -9.3797475398532670E-007   1.1882420959397066E-006   6.8690720091767354E-002
  -6.8157699969692565E-007  -5.0468015252991272E-007   6.7495615432668576E-002
  -4.2517924540332042E-007  -9.6751696337243898E-007   6.6445562500511673E-002
  -1.6878149110971519E-007  -2.0026833691400014E-007   6.5540561295296507E-002
   2.0366428595685049E-003  -4.2742423995828505E-003   6.2367498600381599E-002
   2.2865579119962509E-003  -5.5775876536706681E-003   5.8339195799509636E-002
   2.5364729644240247E-003  -7.2732844105366234E-003   5.4304556545597349E-002
   2.7863880168517915E-003  -9.3613326701808205E-003   5.0263580838644822E-002
   3.0363030692795445E-003  -1.1841732432603003E-002   4.6216268678652916E-002
   1.4785420927930365E-003  -3.2057318667715329E-003   6.2745057351344058E-002
   1.7080799765709920E-003  -4.1829671652727218E-003   5.8391932910166255E-002
   1.9376178603489544E-003  -5.4546099524019342E-003   5.4004390584728224E-002
   2.1671557441268752E-003  -7.0206602281582126E-003   4.9582430375030934E-002
   2.3966936279048723E-003  -8.8811179925423200E-003   4.5126052281073692E-002
   9.5303989702461012E-004  -2.1372213339599377E-003   6.3399754050817186E-002
   1.1341191809329451E-003  -2.7883466768751641E-003   5.8819751983484464E-002
   1.3151984648412662E-003  -3.6359354942672589E-003   5.4177250600671870E-002
   1.4962777487495926E-003  -4.6799877861360521E-003   4.9472249902379688E-002
   1.6773570326579224E-003  -5.9205035524814154E-003   4.4704749888608619E-002
   4.6013627226322573E-004  -1.0687108011482593E-003   6.4331588698801567E-002
   5.6467552508212074E-004  -1.3937261884774121E-003   5.9622653019464289E-002
   6.6921477790100881E-004  -1.8172610361323546E-003   5.4823136593427663E-002
   7.7375403071989471E-004  -2.3393153441134459E-003   4.9933039420691390E-002
   8.7829328353880576E-004  -2.9598891124205107E-003   4.4952361501256172E-002
  -1.6878149110971519E-007  -2.0026833691400014E-007   6.5540561295296507E-002
  -2.5099098149850008E-007   8.9429992067291408E-007   6.0800636018105703E-002
  -3.3320047186646828E-007   1.4134220020778354E-006   5.5942048562995950E-002
  -4.1540996225178373E-007   1.3570979086538482E-006   5.0964798929966942E-002
  -4.9761945263016027E-007   7.2532764017196882E-007   4.5868887119018709E-002
  -5.1064028992191951E-004   2.7918560941906923E-003   7.0208509013524656E-002
  -3.9472426979129949E-004   1.9543122145169456E-003   6.7645265764900930E-002
  -2.7880824966067252E-004   1.3037293296891267E-003   6.6033470017112489E-002
  -1.6289222953005077E-004   8.4010743970703780E-004   6.5373121770159123E-002
  -4.6976209399425539E-005   5.6344654457091137E-004   6.5664221024040792E-002
  -8.7374802247506406E-003   3.1409589206662369E-003   6.6308785739481041E-002
  -7.8659799400108976E-003   2.7046399604683247E-003   6.5076522859360192E-002
  -6.9944796552711599E-003   2.3519602236207193E-003   6.4403981007622471E-002
  -6.1229793705314230E-003   2.0829197101235528E-003   6.4291160184267782E-002
  -5.2514790857916792E-003   1.8975184199768180E-003   6.4738060389296359E-002
  -1.5572776663948663E-002   3.4900617471417816E-003   6.2861948270660870E-002
  -1.4337418587051837E-002   3.4549677064195788E-003   6.2857343987547470E-002
  -1.3102060510155004E-002   3.4001911175522911E-003   6.3020734260365058E-002
  -1.1866702433258176E-002   3.3257319805400695E-003   6.3352119089113743E-002
  -1.0631344356361339E-002   3.2315902953827524E-003   6.3851498473793511E-002
  -2.1016529607516002E-002   3.8391645736173124E-003   5.9867996607064336E-002
  -1.9809040210914116E-002   4.2052954523707567E-003   6.0987729149462704E-002
  -1.8601550814312199E-002   4.4484220114839011E-003   6.1883729775340283E-002
  -1.7394061417710310E-002   4.5685442509565853E-003   6.2555998484696854E-002
  -1.6186572021108403E-002   4.5656621707887840E-003   6.3004535277532484E-002
  -2.5068739055452642E-002   4.1882674000928710E-003   5.7326930748690996E-002
  -2.4280844811597709E-002   4.9556231983221566E-003   5.9467678345105968E-002
  -2.3492950567742765E-002   5.4966529054154278E-003   6.0992967552548072E-002
  -2.2705056323887821E-002   5.8113565213730942E-003   6.1902798371017143E-002
  -2.1917162080032887E-002   5.8997340461946490E-003   6.2197170800513235E-002
  -4.6976209399425539E-005   5.6344654457091137E-004   6.5664221024040792E-002
  -3.7054740928372382E-005   4.0585389440514485E-004   6.5858788408078184E-002
  -2.7133272457319224E-005   2.9943673933452430E-004   6.6131835162417801E-002
  -1.7211803986267801E-005   2.4419507935888318E-004   6.6483361287059506E-002
  -7.2903355152129090E-006   2.4012891447849904E-004   6.6913366782003381E-002
  -5.2514790857916792E-003   1.8975184199768180E-003   6.4738060389296359E-002
  -5.1360437452399720E-003   1.7647983997103878E-003   6.4820749286687407E-002
  -5.0206084046882805E-003   1.6538016958540791E-003   6.5035986557937700E-002
  -4.9051730641365794E-003   1.5645283084079822E-003   6.5383772203047141E-002
  -4.7897377235848818E-003   1.4969782373719376E-003   6.5864106222015717E-002
  -1.0631344356361339E-002   3.2315902953827524E-003   6.3851498473793511E-002
  -1.0356326140171988E-002   3.1237429050156446E-003   6.3792856705853426E-002
  -1.0081307923982645E-002   3.0081666523736894E-003   6.3920832315329509E-002
  -9.8062897077932989E-003   2.8848615374570813E-003   6.4235425302221802E-002
  -9.5312714916039598E-003   2.7538275602655149E-003   6.4736635666530082E-002
  -1.6186572021108403E-002   4.5656621707887840E-003   6.3004535277532484E-002
  -1.5697901925724407E-002   4.4826874103208944E-003   6.2775110665576339E-002
  -1.5209231830340408E-002   4.3625316088932442E-003   6.2786372434593202E-002
  -1.4720561734956415E-002   4.2051947665059583E-003   6.3038320584583335E-002
  -1.4231891639572407E-002   4.0106768831590783E-003   6.3530955115546670E-002
  -2.1917162080032887E-002   5.8997340461946490E-003   6.2197170800513235E-002
  -2.1160771101897225E-002   5.8416319156261443E-003   6.1767511165855910E-002
  -2.0404380123761577E-002   5.7168965654128823E-003   6.1632606915728805E-002
  -1.9647989145625915E-002   5.5255279955551198E-003   6.1792458050131754E-002
  -1.8891598167490260E-002   5.2675262060525863E-003   6.2247064569065036E-002
  -7.2903355152129090E-006   2.4012891447849904E-004   6.6913366782003381E-002
  -3.9666876689298247E-006   2.5482921915109813E-004   6.6467391748443849E-002
  -6.4303982264327098E-007   2.5588696783444831E-004   6.6280968980736460E-002
   2.6806080236432828E-006   2.4330216052929551E-004   6.6354098478880977E-002
   6.0042558699263671E-006   2.1707479723453993E-004   6.6686780242877552E-002
  -4.7897377235848818E-003   1.4969782373719376E-003   6.5864106222015717E-002
  -4.5341520825580850E-003   1.4356686775536254E-003   6.5440312110853383E-002
  -4.2785664415312934E-003   1.3651168237601707E-003   6.5261489720199933E-002
  -4.0229808005044915E-003   1.2853226759917957E-003   6.5327639050055536E-002
  -3.7673951594776982E-003   1.1962862342482783E-003   6.5638760100420135E-002
  -9.5312714916039598E-003   2.7538275602655149E-003   6.4736635666530082E-002
  -9.0380044027396599E-003   2.6165081359561526E-003   6.4339422739778884E-002
  -8.5447373138753634E-003   2.4743466796856781E-003   6.4172600988193468E-002
  -8.0514702250110808E-003   2.3273431914543532E-003   6.4236170411774055E-002
  -7.5582031361467825E-003   2.1754976712619056E-003   6.4530131010520769E-002
  -1.4231891639572407E-002   4.0106768831590783E-003   6.3530955115546670E-002
  -1.3515523648213644E-002   3.7973475943587631E-003   6.3164723635220354E-002
  -1.2799155656854886E-002   3.5835765356112929E-003   6.3014302784717063E-002
  -1.2082787665496118E-002   3.3693637069168820E-003   6.3079692564036657E-002
  -1.1366419674137365E-002   3.1547091082755885E-003   6.3360892973179289E-002
  -1.8891598167490260E-002   5.2675262060525863E-003   6.2247064569065036E-002
  -1.7966709818980044E-002   4.9781870527611793E-003   6.1916214797177904E-002
  -1.7041821470469821E-002   4.6928063915368939E-003   6.1786595109770637E-002
  -1.6116933121959595E-002   4.4113842223795184E-003   6.1858205506843275E-002
  -1.5192044773449383E-002   4.1339205452892713E-003   6.2131045988396139E-002
   6.0042558699263671E-006   2.1707479723453993E-004   6.6686780242877552E-002
   4.2464198393953045E-006   1.8281503603451155E-004   6.6676181759401598E-002
   2.4885838088642420E-006   1.4613303501295749E-004   6.6885536792124667E-002
   7.3074777833317950E-007   1.0702879416956551E-004   6.7314845341046509E-002
  -1.0270882521978830E-006   6.5502313504550713E-005   6.7964107406167429E-002
  -3.7673951594776982E-003   1.1962862342482783E-003   6.5638760100420135E-002
  -3.5511619835548146E-003   1.1015957731269621E-003   6.5606546559076107E-002
  -3.3349288076319327E-003   1.0048395672252741E-003   6.5790361525439850E-002
  -3.1186956317090526E-003   9.0601761654334617E-004   6.6190204999511573E-002
  -2.9024624557861742E-003   8.0512992108094927E-004   6.6806076981291207E-002
  -7.5582031361467825E-003   2.1754976712619056E-003   6.4530131010520769E-002
  -7.1279039567615629E-003   2.0203765102193294E-003   6.4476658906349793E-002
  -6.6976047773763432E-003   1.8635460994377157E-003   6.4635290301395878E-002
  -6.2673055979911270E-003   1.7050064389170193E-003   6.5006025195658623E-002
  -5.8370064186059178E-003   1.5447575286571258E-003   6.5588863589138152E-002
  -1.1366419674137365E-002   3.1547091082755885E-003   6.3360892973179289E-002
  -1.0725979499780871E-002   2.9391572473118494E-003   6.3286518801223046E-002
  -1.0085539325424383E-002   2.7222526316502613E-003   6.3420323119992350E-002
  -9.4450991510678928E-003   2.5039952612907462E-003   6.3762305929487478E-002
  -8.8046589767114096E-003   2.2843851362333578E-003   6.4312467229708320E-002
  -1.5192044773449383E-002   4.1339205452892713E-003   6.2131045988396139E-002
  -1.4345388612612704E-002   3.8579379844041473E-003   6.2036126243695588E-002
  -1.3498732451776029E-002   3.5809591638625016E-003   6.2145459981229612E-002
  -1.2652076290939352E-002   3.3029840836644245E-003   6.2459047200998347E-002
  -1.1805420130102669E-002   3.0240127438097009E-003   6.2976887903001932E-002
  -1.0270882521978830E-006   6.5502313504550713E-005   6.7964107406167429E-002
  -1.8676622374549923E-006   2.9080670445491563E-005   6.7976057860800410E-002
  -2.7082362227051626E-006   5.2909424199942823E-006   6.8228388175426036E-002
  -3.5488102079605371E-006  -5.8668705716288794E-006   6.8721098350044002E-002
  -4.3893841932124422E-006  -4.3927685293709828E-006   6.9454188384655002E-002
  -2.9024624557861742E-003   8.0512992108094927E-004   6.6806076981291207E-002
  -2.6618407994113760E-003   7.0799390297965337E-004   6.6797101718274354E-002
  -2.4212191430365709E-003   6.2042698438199984E-004   6.7030671055985147E-002
  -2.1805974866617615E-003   5.4242916528714907E-004   6.7506784994423280E-002
  -1.9399758302869677E-003   4.7400044569578803E-004   6.8225443533589059E-002
  -5.8370064186059178E-003   1.5447575286571258E-003   6.5588863589138152E-002
  -5.3527577911361129E-003   1.3869071355139262E-003   6.5555899792941019E-002
  -4.8685091636663288E-003   1.2355630263435474E-003   6.5767645338206351E-002
  -4.3842605361965308E-003   1.0907252011458125E-003   6.6224100224934190E-002
  -3.9000119087267537E-003   9.5239365992083602E-004   6.6925264453124356E-002
  -8.8046589767114096E-003   2.2843851362333578E-003   6.4312467229708320E-002
  -8.0746186374116933E-003   2.0658203680482545E-003   6.4252452084800404E-002
  -7.3445782981119666E-003   1.8506990683051575E-003   6.4439311022089774E-002
  -6.6145379588122485E-003   1.6390212370047553E-003   6.4873044041576663E-002
  -5.8844976195125236E-003   1.4307868741458285E-003   6.5553651143261060E-002
  -1.1805420130102669E-002   3.0240127438097009E-003   6.2976887903001932E-002
  -1.0827423338238093E-002   2.7447336005824163E-003   6.2886758593852510E-002
  -9.8494265463735103E-003   2.4658351102670173E-003   6.3045668107635400E-002
  -8.8714297545089346E-003   2.1873172728632331E-003   6.3453616444350602E-002
  -7.8934329626443520E-003   1.9091800883709320E-003   6.4110603603998451E-002
  -4.3893841932124422E-006  -4.3927685293709828E-006   6.9454188384655002E-002
  -3.5906312719838351E-006   1.9812772844574056E-006   6.9261179550229479E-002
  -2.7918783507482892E-006   5.5232956072959194E-006   6.9292957954279644E-002
  -1.9931254295092737E-006   6.2332864394984422E-006   6.9549523596805524E-002
  -1.1943725082841361E-006   4.1112497810580351E-006   7.0030876477807480E-002
  -1.9399758302869677E-003   4.7400044569578803E-004   6.8225443533589059E-002
  -1.7123210062874247E-003   4.2355501806601303E-004   6.8021836627884635E-002
  -1.4846661822878870E-003   3.9950707485539305E-004   6.8047154625860862E-002
  -1.2570113582883414E-003   4.0185661606498974E-004   6.8301397527517987E-002
  -1.0293565342888063E-003   4.3060364169411613E-004   6.8784565332855818E-002
  -3.9000119087267537E-003   9.5239365992083602E-004   6.6925264453124356E-002
  -3.4413633484438339E-003   8.4512875884723559E-004   6.6740288988051177E-002
  -2.9827147881609280E-003   7.9349085410372611E-004   6.6788376091863930E-002
  -2.5240662278780144E-003   7.9747994569048450E-004   6.7069525764562821E-002
  -2.0654176675951024E-003   8.5709603360717423E-004   6.7583738006147226E-002
  -5.8844976195125236E-003   1.4307868741458285E-003   6.5553651143261060E-002
  -5.1907176577411880E-003   1.2667024996286247E-003   6.5416536630729577E-002
  -4.4969376959698593E-003   1.1874746333521077E-003   6.5516622352289278E-002
  -3.8031577341985368E-003   1.1931032753158665E-003   6.5853908307939649E-002
  -3.1093777724271947E-003   1.2835884255200103E-003   6.6428394497681315E-002
  -7.8934329626443520E-003   1.9091800883709320E-003   6.4110603603998451E-002
  -6.9603839341795259E-003   1.6882762404100693E-003   6.4050579555919418E-002
  -6.0273349057147069E-003   1.5814584126000730E-003   6.4231893407136309E-002
  -5.0942858772498826E-003   1.5887266049412277E-003   6.4654545157649262E-002
  -4.1612368487850618E-003   1.7100808174332904E-003   6.5318534807458306E-002
  -1.1943725082841361E-006   4.1112497810580351E-006   7.0030876477807480E-002
  -9.3797475398532670E-007   1.1882420959397066E-006   6.8690720091767354E-002
  -6.8157699969692565E-007  -5.0468015252991272E-007   6.7495615432668576E-002
  -4.2517924540332042E-007  -9.6751696337243898E-007   6.6445562500511673E-002
  -1.6878149110971519E-007  -2.0026833691400014E-007   6.5540561295296507E-002
  -1.0293565342888063E-003   4.3060364169411613E-004   6.8784565332855818E-002
  -8.8714296803395903E-004   5.0196483046660578E-004   6.7463445880500572E-002
  -7.4492940177910659E-004   6.3215686110493219E-004   6.6281189038204680E-002
  -6.0271583552426369E-004   8.2117973361033741E-004   6.5237794805968197E-002
  -4.6050226926940691E-004   1.0690334479822594E-003   6.4333263183790956E-002
  -2.0654176675951024E-003   8.5709603360717423E-004   6.7583738006147226E-002
  -1.7874360497220137E-003   1.0027414188368833E-003   6.6339256243906131E-002
  -1.5094544318489033E-003   1.2648184023623804E-003   6.5227447974842187E-002
  -1.2314728139757995E-003   1.6433269841838218E-003   6.4248313198955270E-002
  -9.5349119610270427E-004   2.1382671643009332E-003   6.3401851916245672E-002
  -3.1093777724271947E-003   1.2835884255200103E-003   6.6428394497681315E-002
  -2.7018172198181277E-003   1.5035180072074661E-003   6.5318151181983891E-002
  -2.2942566672090742E-003   1.8974799436196690E-003   6.4334392242580904E-002
  -1.8866961146000098E-003   2.4654742347573078E-003   6.3477117679473033E-002
  -1.4791355619909533E-003   3.2075008806201899E-003   6.2746327492659848E-002
  -4.1612368487850618E-003   1.7100808174332904E-003   6.5318534807458306E-002
  -3.6302864783223365E-003   2.0042945955779379E-003   6.4400130694733715E-002
  -3.0993361078596182E-003   2.5301414848773462E-003   6.3602021841421441E-002
  -2.5683857373968999E-003   3.2876214853308078E-003   6.2924208247521873E-002
  -2.0374353669341747E-003   4.2767345969387804E-003   6.2366689913034623E-002
  -1.6878149110971519E-007  -2.0026833691400014E-007   6.5540561295296507E-002
  -2.5099098149850008E-007   8.9429992067291408E-007   6.0800636018105703E-002
  -3.3320047186646828E-007   1.4134220020778354E-006   5.5942048562995950E-002
  -4.1540996225178373E-007   1.3570979086538482E-006   5.0964798929966942E-002
  -4.9761945263016027E-007   7.2532764017196882E-007   4.5868887119018709E-002
  -4.6050226926940691E-004   1.0690334479822594E-003   6.4333263183790956E-002
  -5.6518371493119793E-004   1.3952669321552480E-003   5.9623422035073370E-002
  -6.6986516059299242E-004   1.8194291140647689E-003   5.4823044591932046E-002
  -7.7454660625476436E-004   2.3415199937100242E-003   4.9932130854367623E-002
  -8.7922805191656406E-004   2.9615395710922421E-003   4.4950680822378963E-002
  -9.5349119610270427E-004   2.1382671643009332E-003   6.3401851916245672E-002
  -1.1346459944403323E-003   2.7896395643902117E-003   5.8820599039912741E-002
  -1.3158007927779568E-003   3.6374448061269188E-003   5.4176935752652214E-002
  -1.4969555911155891E-003   4.6816828895117311E-003   4.9470862054463279E-002
  -1.6781103894531954E-003   5.9223538145440902E-003   4.4702377945346483E-002
  -1.4791355619909533E-003   3.2075008806201899E-003   6.2746327492659848E-002
  -1.7086378295088822E-003   4.1840121966248700E-003   5.8392167032623753E-002
  -1.9381400970268315E-003   5.4554604981892282E-003   5.4003722045155078E-002
  -2.1676423645447390E-003   7.0218457853131588E-003   4.9580992530253637E-002
  -2.3971446320627098E-003   8.8831680579961603E-003   4.5123978487919630E-002
  -2.0374353669341747E-003   4.2767345969387804E-003   6.2366689913034623E-002
  -2.2871592201368640E-003   5.5783848288597504E-003   5.8338126013206315E-002
  -2.5368830733395499E-003   7.2734761902518152E-003   5.4303403469441069E-002
  -2.7866069265422098E-003   9.3620086811144893E-003   5.0262522281739330E-002
  -3.0363307797449252E-003   1.1843982301448008E-002   4.6215482450099543E-002
  -2.5068739055452642E-002   4.1882674000928710E-003   5.7326930748690996E-002
  -2.4280844811597709E-002   4.9556231983221566E-003   5.9467678345105968E-002
  -2.3492950567742765E-002   5.4966529054154278E-003   6.0992967552548072E-002
  -2.2705056323887821E-002   5.8113565213730942E-003   6.1902798371017143E-002
  -2.1917162080032887E-002   5.8997340461946490E-003   6.2197170800513235E-002
  -2.9173354794776462E-002   7.4926576171544523E-003   5.7434839504422297E-002
  -2.8786334458136668E-002   7.7534993836300969E-003   5.8119540306316303E-002
  -2.8399314121496891E-002   7.8921168454938184E-003   5.8617951682752745E-002
  -2.8012293784857097E-002   7.9085100027456098E-003   5.8930073633731983E-002
  -2.7625273448217327E-002   7.8026788553853532E-003   5.9055906159253851E-002
  -3.4774326612505395E-002   1.0797047834216117E-002   5.6984183335138411E-002
  -3.4359011219565076E-002   1.0551375568938176E-002   5.6316939129034821E-002
  -3.3943695826624820E-002   1.0287580785572223E-002   5.5892574460989747E-002
  -3.3528380433684543E-002   1.0005663484118184E-002   5.5711089331002932E-002
  -3.3113065040744238E-002   9.7056236645759741E-003   5.5772483739074424E-002
  -4.1871654508639305E-002   1.4101438051277726E-002   5.5974962240838595E-002
  -4.0998875095882917E-002   1.3349251754246241E-002   5.4059874813261903E-002
  -4.0126095683126528E-002   1.2683044725650537E-002   5.2816835887258939E-002
  -3.9253316270370098E-002   1.2102816965490702E-002   5.2245845462830065E-002
  -3.8380536857613695E-002   1.1608568473766664E-002   5.2346903539975211E-002
  -5.0465338483178329E-002   1.7405828268339363E-002   5.4407176221523523E-002
  -4.8705926087090179E-002   1.6147127939554307E-002   5.1348347358997293E-002
  -4.6946513691001973E-002   1.5078508665728976E-002   4.9390735961560434E-002
  -4.5187101294913809E-002   1.4199970446863292E-002   4.8534342029213320E-002
  -4.3427688898825631E-002   1.3511513282957244E-002   4.8779165561955773E-002
  -2.1917162080032887E-002   5.8997340461946490E-003   6.2197170800513235E-002
  -2.1160771101897225E-002   5.8416319156261443E-003   6.1767511165855910E-002
  -2.0404380123761577E-002   5.7168965654128823E-003   6.1632606915728805E-002
  -1.9647989145625915E-002   5.5255279955551198E-003   6.1792458050131754E-002
  -1.8891598167490260E-002   5.2675262060525863E-003   6.2247064569065036E-002
  -2.7625273448217327E-002   7.8026788553853532E-003   5.9055906159253851E-002
  -2.6608158744774409E-002   7.6129799116668728E-003   5.8756462387156511E-002
  -2.5591044041331487E-002   7.3777696798439582E-003   5.8683710681143669E-002
  -2.4573929337888573E-002   7.0970481599163162E-003   5.8837651041215133E-002
  -2.3556814634445620E-002   6.7708153518841185E-003   5.9218283467370986E-002
  -3.3113065040744238E-002   9.7056236645759741E-003   5.5772483739074424E-002
  -3.1903289930439852E-002   9.3843279077076014E-003   5.5624377761077280E-002
  -3.0693514820135478E-002   9.0386427942747011E-003   5.5634900530718651E-002
  -2.9483739709831088E-002   8.6685683242774016E-003   5.5804052047998619E-002
  -2.8273964599526722E-002   8.2741044977156231E-003   5.6131832312917143E-002
  -3.8380536857613695E-002   1.1608568473766664E-002   5.2346903539975211E-002
  -3.7046164658893647E-002   1.1155675903748247E-002   5.2371257287618107E-002
  -3.5711792460173593E-002   1.0699515908705638E-002   5.2486176464453957E-002
  -3.4377420261453545E-002   1.0240088488638570E-002   5.2691661070482544E-002
  -3.3043048062733477E-002   9.7773936435471970E-003   5.2987711105703869E-002
  -4.3427688898825631E-002   1.3511513282957244E-002   4.8779165561955773E-002
  -4.2036782930135713E-002   1.2927023899789059E-002   4.8997100966779117E-002
  -4.0645876961445788E-002   1.2360389023136506E-002   4.9237538482349463E-002
  -3.9254970992755836E-002   1.1811608652999708E-002   4.9500478108666687E-002
  -3.7864065024065932E-002   1.1280682789378660E-002   4.9785919845731053E-002
  -1.8891598167490260E-002   5.2675262060525863E-003   6.2247064569065036E-002
  -1.7966709818980044E-002   4.9781870527611793E-003   6.1916214797177904E-002
  -1.7041821470469821E-002   4.6928063915368939E-003   6.1786595109770637E-002
  -1.6116933121959595E-002   4.4113842223795184E-003   6.1858205506843275E-002
  -1.5192044773449383E-002   4.1339205452892713E-003   6.2131045988396139E-002
  -2.3556814634445620E-002   6.7708153518841185E-003   5.9218283467370986E-002
  -2.2427491431976275E-002   6.4222149256710770E-003   5.8841072238742159E-002
  -2.1298168229506892E-002   6.0743905512007229E-003   5.8671500633551713E-002
  -2.0168845027037512E-002   5.7273422284731777E-003   5.8709568651799764E-002
  -1.9039521824568133E-002   5.3810699574882159E-003   5.8955276293486014E-002
  -2.8273964599526722E-002   8.2741044977156231E-003   5.6131832312917143E-002
  -2.6933797004139767E-002   7.8662427985808775E-003   5.5705077187222493E-002
  -2.5593629408752809E-002   7.4559747108645588E-003   5.5492371223924593E-002
  -2.4253461813365847E-002   7.0433002345666167E-003   5.5493714423023491E-002
  -2.2913294217978900E-002   6.6282193696871605E-003   5.5709106784519208E-002
  -3.3043048062733477E-002   9.7773936435471970E-003   5.2987711105703869E-002
  -3.1485626535470504E-002   9.3102706714906155E-003   5.2508229642619031E-002
  -2.9928205008207531E-002   8.8375588705283913E-003   5.2249206880889382E-002
  -2.8370783480944548E-002   8.3592582406600002E-003   5.2210642820514963E-002
  -2.6813361953681589E-002   7.8753687818859941E-003   5.2392537461495768E-002
  -3.7864065024065932E-002   1.1280682789378660E-002   4.9785919845731053E-002
  -3.6082980025968520E-002   1.0754298544400576E-002   4.9250529604931648E-002
  -3.4301895027871100E-002   1.0219143030192168E-002   4.8942007604445975E-002
  -3.2520810029773695E-002   9.6752162467537012E-003   4.8860353844273841E-002
  -3.0739725031676268E-002   9.1225181940850497E-003   4.9005568324415605E-002
  -1.5192044773449383E-002   4.1339205452892713E-003   6.2131045988396139E-002
  -1.4345388612612704E-002   3.8579379844041473E-003   6.2036126243695588E-002
  -1.3498732451776029E-002   3.5809591638625016E-003   6.2145459981229612E-002
  -1.2652076290939352E-002   3.3029840836644245E-003   6.2459047200998347E-002
  -1.1805420130102669E-002   3.0240127438097009E-003   6.2976887903001932E-002
  -1.9039521824568133E-002   5.3810699574882159E-003   5.8955276293486014E-002
  -1.7990854714017068E-002   5.0324818239591007E-003   5.8828616655729471E-002
  -1.6942187603465993E-002   4.6784859135990675E-003   5.8901725435167029E-002
  -1.5893520492914925E-002   4.3190822264081649E-003   5.9174602631798801E-002
  -1.4844853382363854E-002   3.9542707623860807E-003   5.9647248245624507E-002
  -2.2913294217978900E-002   6.6282193696871605E-003   5.5709106784519208E-002
  -2.1667101222753934E-002   6.2070256635141652E-003   5.5546295736532220E-002
  -2.0420908227528994E-002   5.7760126633358416E-003   5.5578768040698889E-002
  -1.9174715232304063E-002   5.3351803691519019E-003   5.5806523697019127E-002
  -1.7928522237079091E-002   4.8845287809625715E-003   5.6229562705493008E-002
  -2.6813361953681589E-002   7.8753687818859941E-003   5.2392537461495768E-002
  -2.5374128138823279E-002   7.3815695030692852E-003   5.2189163486103855E-002
  -2.3934894323964995E-002   6.8735394130724561E-003   5.2176587797825080E-002
  -2.2495660509106667E-002   6.3512785118956961E-003   5.2354810396659332E-002
  -2.1056426694248405E-002   5.8147867995390623E-003   5.2723831282606694E-002
  -3.0739725031676268E-002   9.1225181940850497E-003   4.9005568324415605E-002
  -2.9111935462225152E-002   8.5561133426241276E-003   4.8757219904444371E-002
  -2.7484145892774023E-002   7.9710661628090984E-003   4.8695184706545658E-002
  -2.5856356323322900E-002   7.3673766546394695E-003   4.8819462730719493E-002
  -2.4228566753871777E-002   6.7450448181155531E-003   4.9130053976966015E-002
  -1.1805420130102669E-002   3.0240127438097009E-003   6.2976887903001932E-002
  -1.0827423338238093E-002   2.7447336005824163E-003   6.2886758593852510E-002
  -9.8494265463735103E-003   2.4658351102670173E-003   6.3045668107635400E-002
  -8.8714297545089346E-003   2.1873172728632331E-003   6.3453616444350602E-002
  -7.8934329626443520E-003   1.9091800883709320E-003   6.4110603603998451E-002
  -1.4844853382363854E-002   3.9542707623860807E-003   5.9647248245624507E-002
  -1.3628941763378317E-002   3.5874263684853580E-003   5.9502620623202440E-002
  -1.2413030144392809E-002   3.2219238916582627E-003   5.9584783832089899E-002
  -1.1197118525407293E-002   2.8577633319051138E-003   5.9893737872286981E-002
  -9.9812069064217669E-003   2.4949446892252869E-003   6.0429482743793450E-002
  -1.7928522237079091E-002   4.8845287809625715E-003   5.6229562705493008E-002
  -1.6496943782595367E-002   4.4301191363884940E-003   5.6031398033959956E-002
  -1.5065365328111669E-002   3.9780126730498272E-003   5.6037776202113795E-002
  -1.3633786873627939E-002   3.5282093909469910E-003   5.6248697209954408E-002
  -1.2202208419144251E-002   3.0807092900794752E-003   5.6664161057481732E-002
  -2.1056426694248405E-002   5.8147867995390623E-003   5.2723831282606694E-002
  -1.9431429395889294E-002   5.2728119042913663E-003   5.2473090826124849E-002
  -1.7806432097530155E-002   4.7341014544411766E-003   5.2404645217707116E-002
  -1.6181434799171009E-002   4.1986554499886478E-003   5.2518494457353349E-002
  -1.4556437500811899E-002   3.6664738909336358E-003   5.2814638545063609E-002
  -2.4228566753871777E-002   6.7450448181155531E-003   4.9130053976966015E-002
  -2.2432398603259990E-002   6.1155046721944606E-003   4.8827698999697411E-002
  -2.0636230452648216E-002   5.4901902358326649E-003   4.8685390878869972E-002
  -1.8840062302036414E-002   4.8691015090308112E-003   4.8703129614483670E-002
  -1.7043894151424654E-002   4.2522384917880185E-003   4.8880915206538922E-002
  -7.8934329626443520E-003   1.9091800883709320E-003   6.4110603603998451E-002
  -6.9603839341795259E-003   1.6882762404100693E-003   6.4050579555919418E-002
  -6.0273349057147069E-003   1.5814584126000730E-003   6.4231893407136309E-002
  -5.0942858772498826E-003   1.5887266049412277E-003   6.4654545157649262E-002
  -4.1612368487850618E-003   1.7100808174332904E-003   6.5318534807458306E-002
  -9.9812069064217669E-003   2.4949446892252869E-003   6.0429482743793450E-002
  -8.8043368268217806E-003   2.1898998886322740E-003   6.0352860172234013E-002
  -7.6274667472217648E-003   1.9990608551396227E-003   6.0522541803648772E-002
  -6.4505966676217585E-003   1.9224275887472081E-003   6.0938527638038184E-002
  -5.2737265880217661E-003   1.9600000894546277E-003   6.1600817675401709E-002
  -1.2202208419144251E-002   3.0807092900794752E-003   5.6664161057481732E-002
  -1.0776550984730786E-002   2.6915235368547841E-003   5.6571059709391192E-002
  -9.3508935503173185E-003   2.4166632976791586E-003   5.6729228867953133E-002
  -7.9252361159038512E-003   2.2561285725529630E-003   5.7138668533167798E-002
  -6.4995786814904151E-003   2.2099193614761869E-003   5.7799378705034987E-002
  -1.4556437500811899E-002   3.6664738909336358E-003   5.2814638545063609E-002
  -1.2877026407906663E-002   3.1931471850770859E-003   5.2705178167391023E-002
  -1.1197615315001415E-002   2.8342657402189234E-003   5.2851954600049156E-002
  -9.5182042220961788E-003   2.5898295563589972E-003   5.3254967843038424E-002
  -7.8387931291909289E-003   2.4598386334977462E-003   5.3914217896358391E-002
  -1.7043894151424654E-002   4.2522384917880185E-003   4.8880915206538922E-002
  -1.5105763096349339E-002   3.6947708332994988E-003   4.8755215546233521E-002
  -1.3167632041274024E-002   3.2518681827582441E-003   4.8890718999937133E-002
  -1.1229500986198702E-002   2.9235305401646983E-003   4.9287425567650117E-002
  -9.2913699311233944E-003   2.7097579055191945E-003   4.9945335249372280E-002
  -4.1612368487850618E-003   1.7100808174332904E-003   6.5318534807458306E-002
  -3.6302864783223365E-003   2.0042945955779379E-003   6.4400130694733715E-002
  -3.0993361078596182E-003   2.5301414848773462E-003   6.3602021841421441E-002
  -2.5683857373968999E-003   3.2876214853308078E-003   6.2924208247521873E-002
  -2.0374353669341747E-003   4.2767345969387804E-003   6.2366689913034623E-002
  -5.2737265880217661E-003   1.9600000894546277E-003   6.1600817675401709E-002
  -4.5968645370599026E-003   2.2174816844988121E-003   6.0873290395894841E-002
  -3.9200024860980270E-003   2.8005757011140830E-003   6.0317291217973912E-002
  -3.2431404351361539E-003   3.7092821393026193E-003   5.9932820141638726E-002
  -2.5662783841742635E-003   4.9436009990626584E-003   5.9719877166889757E-002
  -6.4995786814904151E-003   2.2099193614761869E-003   5.7799378705034987E-002
  -5.6255721078561256E-003   2.4306687734190757E-003   5.7356707569163973E-002
  -4.7515655342218119E-003   3.0710099173516803E-003   5.7136797377052129E-002
  -3.8775589605875398E-003   4.1309427932739798E-003   5.7139648128699455E-002
  -3.0035523869532382E-003   5.6104674011863143E-003   5.7365259824105452E-002
  -7.8387931291909289E-003   2.4598386334977462E-003   5.3914217896358391E-002
  -6.7164091907109431E-003   2.6438558623395336E-003   5.3850382214540984E-002
  -5.5940252522309591E-003   3.3414441335891248E-003   5.4060540318655780E-002
  -4.4716413137509741E-003   4.5526034472454548E-003   5.4544692208702769E-002
  -3.3492573752709888E-003   6.2773338033101922E-003   5.5302837884682182E-002
  -9.2913699311233944E-003   2.7097579055191945E-003   4.9945335249372280E-002
  -7.8693757856244523E-003   2.8570429512601581E-003   5.0354314332025973E-002
  -6.4473816401254824E-003   3.6118783498260698E-003   5.1088520042784968E-002
  -5.0253874946265265E-003   4.9742641012172212E-003   5.2147952381649765E-002
  -3.6033933491275705E-003   6.9442002054337371E-003   5.3532611348620196E-002
  -2.0374353669341747E-003   4.2767345969387804E-003   6.2366689913034623E-002
  -2.2871592201368640E-003   5.5783848288597504E-003   5.8338126013206315E-002
  -2.5368830733395499E-003   7.2734761902518152E-003   5.4303403469441069E-002
  -2.7866069265422098E-003   9.3620086811144893E-003   5.0262522281739330E-002
  -3.0363307797449252E-003   1.1843982301448008E-002   4.6215482450099543E-002
  -2.5662783841742635E-003   4.9436009990626584E-003   5.9719877166889757E-002
  -2.8394884407666014E-003   6.5677172141060947E-003   5.6189266431302731E-002
  -3.1126984973588994E-003   8.6458157181443229E-003   5.2617841932873555E-002
  -3.3859085539512503E-003   1.1177896511177218E-002   4.9005603671602033E-002
  -3.6591186105435630E-003   1.4163959593204378E-002   4.5352551647488415E-002
  -3.0035523869532382E-003   5.6104674011863143E-003   5.7365259824105452E-002
  -3.3349037658404398E-003   7.5570495993524389E-003   5.4393143412283601E-002
  -3.6662551447276285E-003   1.0018155246037247E-002   5.1345558118714052E-002
  -3.9976065236147999E-003   1.2993784341240051E-002   4.8222503943397416E-002
  -4.3289579025019599E-003   1.6483936884960748E-002   4.5023980886332304E-002
  -3.3492573752709888E-003   6.2773338033101922E-003   5.5302837884682182E-002
  -3.7734051953583463E-003   8.5463819845990052E-003   5.2949756956148772E-002
  -4.1975530154457182E-003   1.1390494773930185E-002   5.0486552026962818E-002
  -4.6217008355331169E-003   1.4809672171302610E-002   4.7913223097123134E-002
  -5.0458486556204472E-003   1.8803914176717229E-002   4.5229770166631683E-002
  -3.6033933491275705E-003   6.9442002054337371E-003   5.3532611348620196E-002
  -4.1549927293203781E-003   9.5357143698454605E-003   5.1859107062898757E-002
  -4.7065921095131857E-003   1.2762834301822873E-002   5.0040823657619360E-002
  -5.2581914897059101E-003   1.6625560001365607E-002   4.8077761132782088E-002
  -5.8097908698988010E-003   2.1123891468473488E-002   4.5969919488386246E-002
  -5.0465338483178329E-002   1.7405828268339363E-002   5.4407176221523523E-002
  -4.8705926087090179E-002   1.6147127939554307E-002   5.1348347358997293E-002
  -4.6946513691001973E-002   1.5078508665728976E-002   4.9390735961560434E-002
  -4.5187101294913809E-002   1.4199970446863292E-002   4.8534342029213320E-002
  -4.3427688898825631E-002   1.3511513282957244E-002   4.8779165561955773E-002
  -5.8973417737665637E-002   1.8209952142878849E-002   4.6413208577167131E-002
  -5.6358764947568044E-002   1.7292215601205030E-002   4.4914152896431442E-002
  -5.3744112157470471E-002   1.6460767473296112E-002   4.4024360538624768E-002
  -5.1129459367372856E-002   1.5715607759151790E-002   4.3743831503747499E-002
  -4.8514806577275298E-002   1.5056736458772202E-002   4.4072565791799467E-002
  -6.5813931473644546E-002   1.9014076017418280E-002   3.8812101040519534E-002
  -6.2835992431697879E-002   1.8437303262855809E-002   3.8769025900379367E-002
  -5.9858053389751163E-002   1.7843026280863185E-002   3.8843259941007992E-002
  -5.6880114347804517E-002   1.7231245071440256E-002   3.9034803162405568E-002
  -5.3902175305857863E-002   1.6601959634587188E-002   3.9343655564572019E-002
  -7.0986879691114876E-002   1.9818199891957752E-002   3.1603853611580648E-002
  -6.8137608539479477E-002   1.9582390924506504E-002   3.2912966370841061E-002
  -6.5288337387844092E-002   1.9225285088430164E-002   3.3847434168709979E-002
  -6.2439066236208693E-002   1.8746882383728711E-002   3.4407257005187528E-002
  -5.9589795084573308E-002   1.8147182810402160E-002   3.4592434880273762E-002
  -7.4492262390076780E-002   2.0622323766497197E-002   2.4788466290350586E-002
  -7.2263613270913102E-002   2.0727478586157200E-002   2.7345974307816712E-002
  -7.0034964151749229E-002   2.0607543895997352E-002   2.9036883221731008E-002
  -6.7806315032585468E-002   2.0262519696017240E-002   2.9861193032093544E-002
  -6.5577665913421707E-002   1.9692405986217076E-002   2.9818903738904279E-002
  -4.3427688898825631E-002   1.3511513282957244E-002   4.8779165561955773E-002
  -4.2036782930135713E-002   1.2927023899789059E-002   4.8997100966779117E-002
  -4.0645876961445788E-002   1.2360389023136506E-002   4.9237538482349463E-002
  -3.9254970992755836E-002   1.1811608652999708E-002   4.9500478108666687E-002
  -3.7864065024065932E-002   1.1280682789378660E-002   4.9785919845731053E-002
  -4.8514806577275298E-002   1.5056736458772202E-002   4.4072565791799467E-002
  -4.7056203760364519E-002   1.4445516922646395E-002   4.4048879694592924E-002
  -4.5597600943453748E-002   1.3843312501263152E-002   4.4138085183081099E-002
  -4.4138998126542948E-002   1.3250123194622449E-002   4.4340182257264035E-002
  -4.2680395309632191E-002   1.2665949002724275E-002   4.4655170917141662E-002
  -5.3902175305857863E-002   1.6601959634587188E-002   3.9343655564572019E-002
  -5.2285486165778459E-002   1.5964009945503732E-002   3.9069508573562450E-002
  -5.0668797025699076E-002   1.5326235979389695E-002   3.8998642643195351E-002
  -4.9052107885619735E-002   1.4688637736245137E-002   3.9131057773470812E-002
  -4.7435418745540345E-002   1.4051215216069834E-002   3.9466753964388562E-002
  -5.9589795084573308E-002   1.8147182810402160E-002   3.4592434880273762E-002
  -5.7724630146377610E-002   1.7482502968361124E-002   3.4058987603687932E-002
  -5.5859465208181851E-002   1.6809159457516345E-002   3.3819210862692337E-002
  -5.3994300269986126E-002   1.6127152277867686E-002   3.3873104657286941E-002
  -5.2129135331790408E-002   1.5436481429415394E-002   3.4220668987471906E-002
  -6.5577665913421707E-002   1.9692405986217076E-002   2.9818903738904279E-002
  -6.3373635702161882E-002   1.9000995991218406E-002   2.9017316784969077E-002
  -6.1169605490902029E-002   1.8292082935642912E-002   2.8599789841571910E-002
  -5.8965575279642163E-002   1.7565666819490407E-002   2.8566322908712707E-002
  -5.6761545068382352E-002   1.6821747642760954E-002   2.8916915986391400E-002
  -3.7864065024065932E-002   1.1280682789378660E-002   4.9785919845731053E-002
  -3.6082980025968520E-002   1.0754298544400576E-002   4.9250529604931648E-002
  -3.4301895027871100E-002   1.0219143030192168E-002   4.8942007604445975E-002
  -3.2520810029773695E-002   9.6752162467537012E-003   4.8860353844273841E-002
  -3.0739725031676268E-002   9.1225181940850497E-003   4.9005568324415605E-002
  -4.2680395309632191E-002   1.2665949002724275E-002   4.4655170917141662E-002
  -4.0680941291928181E-002   1.2084523294054905E-002   4.4166443596535682E-002
  -3.8681487274224158E-002   1.1499579437100185E-002   4.3887586074829260E-002
  -3.6682033256520176E-002   1.0911117431860479E-002   4.3818598352022203E-002
  -3.4682579238816125E-002   1.0319137278335444E-002   4.3959480428114928E-002
  -4.7435418745540345E-002   1.4051215216069834E-002   3.9466753964388562E-002
  -4.5234594149643828E-002   1.3414748043709179E-002   3.9029942684920910E-002
  -4.3033769553747381E-002   1.2780015844008258E-002   3.8786002762938615E-002
  -4.0832944957850927E-002   1.2147018616966980E-002   3.8734934198441796E-002
  -3.8632120361954479E-002   1.1515756362585505E-002   3.8876736991430266E-002
  -5.2129135331790408E-002   1.5436481429415394E-002   3.4220668987471906E-002
  -4.9743938599115606E-002   1.4744972793363509E-002   3.3841026870087443E-002
  -4.7358741866440783E-002   1.4060452250916219E-002   3.3637257668774116E-002
  -4.4973545133765926E-002   1.3382919802073508E-002   3.3609361383532252E-002
  -4.2588348401091110E-002   1.2712375446835678E-002   3.3757338014361517E-002
  -5.6761545068382352E-002   1.6821747642760954E-002   2.8916915986391400E-002
  -5.4208974640343327E-002   1.6075197543017727E-002   2.8599696152035170E-002
  -5.1656404212304288E-002   1.5340888657824361E-002   2.8441350792335812E-002
  -4.9103833784265284E-002   1.4618820987180179E-002   2.8441879907293882E-002
  -4.6551263356226225E-002   1.3908994531085961E-002   2.8601283496908825E-002
  -3.0739725031676268E-002   9.1225181940850497E-003   4.9005568324415605E-002
  -2.9111935462225152E-002   8.5561133426241276E-003   4.8757219904444371E-002
  -2.7484145892774023E-002   7.9710661628090984E-003   4.8695184706545658E-002
  -2.5856356323322900E-002   7.3673766546394695E-003   4.8819462730719493E-002
  -2.4228566753871777E-002   6.7450448181155531E-003   4.9130053976966015E-002
  -3.4682579238816125E-002   1.0319137278335444E-002   4.3959480428114928E-002
  -3.2878131935046323E-002   9.7163056359074185E-003   4.3676376025454100E-002
  -3.1073684631276452E-002   9.0952891639593525E-003   4.3560273869358179E-002
  -2.9269237327506616E-002   8.4560878624908714E-003   4.3611173959827151E-002
  -2.7464790023736765E-002   7.7987017315021001E-003   4.3829076296860947E-002
  -3.8632120361954479E-002   1.1515756362585505E-002   3.8876736991430266E-002
  -3.6670326299373543E-002   1.0876497929190626E-002   3.8559334104913801E-002
  -3.4708532236792655E-002   1.0219512165109704E-002   3.8389622489454711E-002
  -3.2746738174211781E-002   9.5447990703422698E-003   3.8367602145052825E-002
  -3.0784944111630838E-002   8.8523586448885916E-003   3.8493273071707995E-002
  -4.2588348401091110E-002   1.2712375446835678E-002   3.3757338014361517E-002
  -4.0488518555206882E-002   1.2036690222473986E-002   3.3406094142823632E-002
  -3.8388688709322653E-002   1.1343735166259895E-002   3.3183230566835351E-002
  -3.6288858863438384E-002   1.0633510278193559E-002   3.3088747286396457E-002
  -3.4189029017554134E-002   9.9060155582750553E-003   3.3122644301507166E-002
  -4.6551263356226225E-002   1.3908994531085961E-002   2.8601283496908825E-002
  -4.4332708702546353E-002   1.3196882515757069E-002   2.8216656139183616E-002
  -4.2114154048866398E-002   1.2467958167410337E-002   2.7941098101500139E-002
  -3.9895599395186498E-002   1.1722221486044966E-002   2.7774609383858395E-002
  -3.7677044741506543E-002   1.0959672471661519E-002   2.7717189986258495E-002
  -2.4228566753871777E-002   6.7450448181155531E-003   4.9130053976966015E-002
  -2.2432398603259990E-002   6.1155046721944606E-003   4.8827698999697411E-002
  -2.0636230452648216E-002   5.4901902358326649E-003   4.8685390878869972E-002
  -1.8840062302036414E-002   4.8691015090308112E-003   4.8703129614483670E-002
  -1.7043894151424654E-002   4.2522384917880185E-003   4.8880915206538922E-002
  -2.7464790023736765E-002   7.7987017315021001E-003   4.3829076296860947E-002
  -2.5510182129363380E-002   7.1362543370407372E-003   4.3447327394950774E-002
  -2.3555574234990051E-002   6.4818692451540094E-003   4.3222411124122284E-002
  -2.1600966340616645E-002   5.8355464558423817E-003   4.3154327484375699E-002
  -1.9646358446243337E-002   5.1972859691056250E-003   4.3243076475711184E-002
  -3.0784944111630838E-002   8.8523586448885916E-003   3.8493273071707995E-002
  -2.8675110698855293E-002   8.1570040018869583E-003   3.8035966838171398E-002
  -2.6565277286079762E-002   7.4735482544753401E-003   3.7732279010357292E-002
  -2.4455443873304273E-002   6.8019914026541707E-003   3.7582209588265698E-002
  -2.2345610460528680E-002   6.1423334464231205E-003   3.7585758571896666E-002
  -3.4189029017554134E-002   9.9060155582750553E-003   3.3122644301507166E-002
  -3.1927184311735822E-002   9.1777536667332071E-003   3.2593617329359711E-002
  -2.9665339605917454E-002   8.4652272637968443E-003   3.2214994537575203E-002
  -2.7403494900099069E-002   7.7684363494659060E-003   3.1986775926153836E-002
  -2.5141650194280787E-002   7.0873809237405605E-003   3.1908961495095534E-002
  -3.7677044741506543E-002   1.0959672471661519E-002   2.7717189986258495E-002
  -3.5266402968004817E-002   1.0198503331579511E-002   2.7120278868515424E-002
  -3.2855761194503050E-002   9.4569062731180431E-003   2.6670557705775755E-002
  -3.0445119421001289E-002   8.7348812962777592E-003   2.6368026498039987E-002
  -2.8034477647499528E-002   8.0324284010581115E-003   2.6212685245307843E-002
  -1.7043894151424654E-002   4.2522384917880185E-003   4.8880915206538922E-002
  -1.5105763096349339E-002   3.6947708332994988E-003   4.8755215546233521E-002
  -1.3167632041274024E-002   3.2518681827582441E-003   4.8890718999937133E-002
  -1.1229500986198702E-002   2.9235305401646983E-003   4.9287425567650117E-002
  -9.2913699311233944E-003   2.7097579055191945E-003   4.9945335249372280E-002
  -1.9646358446243337E-002   5.1972859691056250E-003   4.3243076475711184E-002
  -1.7487280372591354E-002   4.5989422174955163E-003   4.3073501088319699E-002
  -1.5328202298939435E-002   4.0723696335646098E-003   4.3084616624072203E-002
  -1.3169124225287477E-002   3.6175682173125723E-003   4.3276423082968640E-002
  -1.1010046151635533E-002   3.2345379687391818E-003   4.3648920465009511E-002
  -2.2345610460528680E-002   6.1423334464231205E-003   3.7585758571896666E-002
  -2.0046097559165289E-002   5.5031136016922000E-003   3.7329513617150256E-002
  -1.7746584657801903E-002   4.8928710843713086E-003   3.7173447394682729E-002
  -1.5447071756438486E-002   4.3116058944601132E-003   3.7117559904494210E-002
  -1.3147558855075125E-002   3.7593180319591135E-003   3.7161851146584268E-002
  -2.5141650194280787E-002   7.0873809237405605E-003   3.1908961495095534E-002
  -2.2782214656071061E-002   6.4072849858886061E-003   3.1523253132725526E-002
  -2.0422779117861452E-002   5.7133725351776743E-003   3.1157211311768900E-002
  -1.8063343579651798E-002   5.0056435716078207E-003   3.0810836032226077E-002
  -1.5703908041442116E-002   4.2840980951791285E-003   3.0484127294097121E-002
  -2.8034477647499528E-002   8.0324284010581115E-003   2.6212685245307843E-002
  -2.5695631663308793E-002   7.3114563700849566E-003   2.5654719635045287E-002
  -2.3356785679118044E-002   6.5338739859844286E-003   2.5035908375330707E-002
  -2.1017939694927330E-002   5.6996812487554865E-003   2.4356251466165074E-002
  -1.8679093710736561E-002   4.8088781583990325E-003   2.3615748907547585E-002
  -9.2913699311233944E-003   2.7097579055191945E-003   4.9945335249372280E-002
  -7.8693757856244523E-003   2.8570429512601581E-003   5.0354314332025973E-002
  -6.4473816401254824E-003   3.6118783498260698E-003   5.1088520042784968E-002
  -5.0253874946265265E-003   4.9742641012172212E-003   5.2147952381649765E-002
  -3.6033933491275705E-003   6.9442002054337371E-003   5.3532611348620196E-002
  -1.1010046151635533E-002   3.2345379687391818E-003   4.3648920465009511E-002
  -9.2440247305831252E-003   3.1625639816006412E-003   4.4236809566191526E-002
  -7.4780033095306619E-003   3.6409313496537088E-003   4.5187526590374977E-002
  -5.7119818884782472E-003   4.6696400728978849E-003   4.6501071537559932E-002
  -3.9459604674257909E-003   6.2486901513333359E-003   4.8177444407746073E-002
  -1.3147558855075125E-002   3.7593180319591135E-003   3.7161851146584268E-002
  -1.0999908863573458E-002   3.4680850119415962E-003   3.7871441268661210E-002
  -8.8522588720718401E-003   3.6699843494814310E-003   3.8981460608635138E-002
  -6.7046088805702217E-003   4.3650160445785416E-003   4.0491909166506149E-002
  -4.5569588890685547E-003   5.5531800972329903E-003   4.2402786942274034E-002
  -1.5703908041442116E-002   4.2840980951791285E-003   3.0484127294097121E-002
  -1.3137028184595603E-002   3.7736060422824819E-003   3.1258209439434553E-002
  -1.0570148327748949E-002   3.6990373493091672E-003   3.2470322097564980E-002
  -8.0032684709024204E-003   4.0603920162589797E-003   3.4120465268488082E-002
  -5.4363886140558378E-003   4.8576700431326170E-003   3.6208638952204115E-002
  -1.8679093710736561E-002   4.8088781583990325E-003   2.3615748907547585E-002
  -1.5655382693649328E-002   4.0791270726231454E-003   2.4397114078512083E-002
  -1.2631671676562095E-002   3.7280903491368200E-003   2.5654111057164863E-002
  -9.6079606594748485E-003   3.7557679879397024E-003   2.7386739843506286E-002
  -6.5842496423876296E-003   4.1621599890321326E-003   2.9595000437536156E-002
  -3.6033933491275705E-003   6.9442002054337371E-003   5.3532611348620196E-002
  -4.1549927293203781E-003   9.5357143698454605E-003   5.1859107062898757E-002
  -4.7065921095131857E-003   1.2762834301822873E-002   5.0040823657619360E-002
  -5.2581914897059101E-003   1.6625560001365607E-002   4.8077761132782088E-002
  -5.8097908698988010E-003   2.1123891468473488E-002   4.5969919488386246E-002
  -3.9459604674257909E-003   6.2486901513333359E-003   4.8177444407746073E-002
  -4.5386590868569526E-003   8.6875399171955636E-003   4.7241620592613998E-002
  -5.1313577062881977E-003   1.2295647702719820E-002   4.6368377418562756E-002
  -5.7240563257194219E-003   1.7073013507906236E-002   4.5557714885592404E-002
  -6.3167549451506044E-003   2.3019637332754694E-002   4.4809632993704440E-002
  -4.5569588890685547E-003   5.5531800972329903E-003   4.2402786942274034E-002
  -4.9833969870987926E-003   7.8393654645453892E-003   4.2738295849827329E-002
  -5.4098350851290306E-003   1.1828461103616669E-002   4.3343745159101596E-002
  -5.8362731831592199E-003   1.7520467014446869E-002   4.4219134870096384E-002
  -6.2627112811895064E-003   2.4915383197036123E-002   4.5364464982811881E-002
  -5.4363886140558378E-003   4.8576700431326170E-003   3.6208638952204115E-002
  -5.4892064300457403E-003   6.9911910118952425E-003   3.8349132834539994E-002
  -5.5420242460356393E-003   1.1361274504513678E-002   4.0966926879235727E-002
  -5.5948420620255800E-003   1.7967920520987946E-002   4.4062021086291446E-002
  -5.6476598780153854E-003   2.6811129061317440E-002   4.7634415455707679E-002
  -6.5842496423876296E-003   4.1621599890321326E-003   2.9595000437536156E-002
  -6.0560874156978250E-003   6.1430165592450958E-003   3.4074131546750874E-002
  -5.5279251890080205E-003   1.0894087905410438E-002   3.9237922578965356E-002
  -4.9997629623181050E-003   1.8415374027528346E-002   4.5086373534179242E-002
  -4.4716007356283560E-003   2.8706874925598758E-002   5.1619484412392502E-002
  -7.4492262390076780E-002   2.0622323766497197E-002   2.4788466290350586E-002
  -7.2263613270913102E-002   2.0727478586157200E-002   2.7345974307816712E-002
  -7.0034964151749229E-002   2.0607543895997352E-002   2.9036883221731008E-002
  -6.7806315032585468E-002   2.0262519696017240E-002   2.9861193032093544E-002
  -6.5577665913421707E-002   1.9692405986217076E-002   2.9818903738904279E-002
  -7.8531875580304306E-002   2.3738562878323433E-002   2.1558304790339045E-002
  -7.6744633871825466E-002   2.3117769946383648E-002   2.1689011474290115E-002
  -7.4957392163346764E-002   2.2490133473579588E-002   2.1803502440423034E-002
  -7.3170150454867924E-002   2.1855653459911417E-002   2.1901777688737883E-002
  -7.1382908746389098E-002   2.1214329905378998E-002   2.1983837219234525E-002
  -8.5307515271571599E-002   2.6854801990149696E-002   1.7493072554249714E-002
  -8.3111297588044003E-002   2.5508061306609930E-002   1.5415223873641512E-002
  -8.0915079904516560E-002   2.4372723051161928E-002   1.4171542860948967E-002
  -7.8718862220989005E-002   2.3448787223805563E-002   1.3762029516171882E-002
  -7.6522644537461451E-002   2.2736253824540725E-002   1.4186683839310377E-002
  -9.4819181463878549E-002   2.9971041101975973E-002   1.2592769582082473E-002
  -9.1363604419568742E-002   2.7898352666836296E-002   8.5246115058710686E-003
  -8.7908027375258768E-002   2.6255312628744077E-002   6.1410044833088134E-003
  -8.4452450330948933E-002   2.5041920987699643E-002   5.4419485143956748E-003
  -8.0996873286639043E-002   2.4258177743702800E-002   6.4274435991319261E-003
 -0.10706687415722538        3.3087280213802139E-002   6.8573958738373797E-003
 -0.10150155436639929        3.0288644027062550E-002   1.0171743709783687E-003
  -9.5936234575573542E-002   2.8137902206326476E-002  -2.2881126924975681E-003
  -9.0370914784747514E-002   2.6635054751593855E-002  -3.0584653165905556E-003
  -8.4805594993921596E-002   2.5780101662864374E-002  -1.2938835013008854E-003
  -6.5577665913421707E-002   1.9692405986217076E-002   2.9818903738904279E-002
  -6.3373635702161882E-002   1.9000995991218406E-002   2.9017316784969077E-002
  -6.1169605490902029E-002   1.8292082935642912E-002   2.8599789841571910E-002
  -5.8965575279642163E-002   1.7565666819490407E-002   2.8566322908712707E-002
  -5.6761545068382352E-002   1.6821747642760954E-002   2.8916915986391400E-002
  -7.1382908746389098E-002   2.1214329905378998E-002   2.1983837219234525E-002
  -6.8891088497423716E-002   2.0546774437757626E-002   2.1719925661416478E-002
  -6.6399268248458376E-002   1.9833598684822339E-002   2.1647534168471372E-002
  -6.3907447999493050E-002   1.9074802646573345E-002   2.1766662740399297E-002
  -6.1415627750527724E-002   1.8270386323010757E-002   2.2077311377200343E-002
  -7.6522644537461451E-002   2.2736253824540725E-002   1.4186683839310377E-002
  -7.3935574196455633E-002   2.2092552884296512E-002   1.4432330452872712E-002
  -7.1348503855449774E-002   2.1375114434001766E-002   1.4676957185642846E-002
  -6.8761433514443929E-002   2.0583938473656280E-002   1.4920564037621147E-002
  -6.6174363173438056E-002   1.9719025003260476E-002   1.5163151008807552E-002
  -8.0996873286639043E-002   2.4258177743702800E-002   6.4274435991319261E-003
  -7.8507092799257550E-002   2.3638331330835816E-002   7.1545311593375332E-003
  -7.6017312311876112E-002   2.2916630183181193E-002   7.6880588930861304E-003
  -7.3527531824494674E-002   2.2093074300739160E-002   8.0280268003779503E-003
  -7.1037751337113167E-002   2.1167663683510182E-002   8.1744348812130031E-003
  -8.4805594993921596E-002   2.5780101662864374E-002  -1.2938835013008854E-003
  -8.2605644305829506E-002   2.5184109777374730E-002  -1.1347221918867056E-004
  -8.0405693617737473E-002   2.4458145932360786E-002   6.8083929080184347E-004
  -7.8205742929645411E-002   2.3602210127822168E-002   1.0890510286701224E-003
  -7.6005792241553349E-002   2.2616302363759999E-002   1.1111629944167145E-003
  -5.6761545068382352E-002   1.6821747642760954E-002   2.8916915986391400E-002
  -5.4208974640343327E-002   1.6075197543017727E-002   2.8599696152035170E-002
  -5.1656404212304288E-002   1.5340888657824361E-002   2.8441350792335812E-002
  -4.9103833784265284E-002   1.4618820987180179E-002   2.8441879907293882E-002
  -4.6551263356226225E-002   1.3908994531085961E-002   2.8601283496908825E-002
  -6.1415627750527724E-002   1.8270386323010757E-002   2.2077311377200343E-002
  -5.8690357934047782E-002   1.7453533220771533E-002   2.1685757687118085E-002
  -5.5965088117567979E-002   1.6657426846493836E-002   2.1480728299260426E-002
  -5.3239818301088093E-002   1.5882067200176899E-002   2.1462223213627368E-002
  -5.0514548484608235E-002   1.5127454281821384E-002   2.1630242430218882E-002
  -6.6174363173438056E-002   1.9719025003260476E-002   1.5163151008807552E-002
  -6.3248744140949886E-002   1.8831868898525367E-002   1.4705768976411016E-002
  -6.0323125108461717E-002   1.7973965035163415E-002   1.4462561073806522E-002
  -5.7397506075973562E-002   1.7145313413173449E-002   1.4433527300993922E-002
  -5.4471887043485392E-002   1.6345914032556697E-002   1.4618667657973344E-002
  -7.1037751337113167E-002   2.1167663683510182E-002   8.1744348812130031E-003
  -6.7884133261049376E-002   2.0210204576279187E-002   7.6597300199137477E-003
  -6.4730515184985557E-002   1.9290503223832665E-002   7.3868491159739830E-003
  -6.1576897108921738E-002   1.8408559626170252E-002   7.3557921693932988E-003
  -5.8423279032857933E-002   1.7564373783292064E-002   7.5665591801722873E-003
  -7.6005792241553349E-002   2.2616302363759999E-002   1.1111629944167145E-003
  -7.2596525294346403E-002   2.1588540254032895E-002   5.4764081762620487E-004
  -6.9187258347139458E-002   2.0607041412502164E-002   2.5359242576278307E-004
  -6.5777991399932512E-002   1.9671805839166785E-002   2.2901781882585237E-004
  -6.2368724452725566E-002   1.8782833534027543E-002   4.7391699681575972E-004
  -4.6551263356226225E-002   1.3908994531085961E-002   2.8601283496908825E-002
  -4.4332708702546353E-002   1.3196882515757069E-002   2.8216656139183616E-002
  -4.2114154048866398E-002   1.2467958167410337E-002   2.7941098101500139E-002
  -3.9895599395186498E-002   1.1722221486044966E-002   2.7774609383858395E-002
  -3.7677044741506543E-002   1.0959672471661519E-002   2.7717189986258495E-002
  -5.0514548484608235E-002   1.5127454281821384E-002   2.1630242430218882E-002
  -4.8171303282932162E-002   1.4378619281820770E-002   2.1254181257817972E-002
  -4.5828058081256104E-002   1.3620593390568786E-002   2.1018431861367565E-002
  -4.3484812879580018E-002   1.2853376608066076E-002   2.0922994240867340E-002
  -4.1141567677903973E-002   1.2076968934312204E-002   2.0967868396317757E-002
  -5.4471887043485392E-002   1.6345914032556697E-002   1.4618667657973344E-002
  -5.1972708837904572E-002   1.5560356047884055E-002   1.4258794112664216E-002
  -4.9473530632323758E-002   1.4773228613727554E-002   1.4070474799213598E-002
  -4.6974352426742902E-002   1.3984531730087128E-002   1.4053709717622216E-002
  -4.4475174221162116E-002   1.3194265396962723E-002   1.4208498867890024E-002
  -5.8423279032857933E-002   1.7564373783292064E-002   7.5665591801722873E-003
  -5.5736925367463691E-002   1.6742092813947382E-002   7.2304947037216301E-003
  -5.3050571702069504E-002   1.5925863836886385E-002   7.0972269150384321E-003
  -5.0364218036675339E-002   1.5115686852108208E-002   7.1667558141231252E-003
  -4.7677864371281083E-002   1.4311561859613325E-002   7.4390814009755654E-003
  -6.2368724452725566E-002   1.8782833534027543E-002   4.7391699681575972E-004
  -5.9463952871609438E-002   1.7923829580011374E-002   1.6928303099100761E-004
  -5.6559181290493254E-002   1.7078499060044744E-002   9.8688208842290237E-005
  -5.3654409709377071E-002   1.6246841974129227E-002   2.6213253036994066E-004
  -5.0749638128260943E-002   1.5428858322263705E-002   6.5961599557395889E-004
  -3.7677044741506543E-002   1.0959672471661519E-002   2.7717189986258495E-002
  -3.5266402968004817E-002   1.0198503331579511E-002   2.7120278868515424E-002
  -3.2855761194503050E-002   9.4569062731180431E-003   2.6670557705775755E-002
  -3.0445119421001289E-002   8.7348812962777592E-003   2.6368026498039987E-002
  -2.8034477647499528E-002   8.0324284010581115E-003   2.6212685245307843E-002
  -4.1141567677903973E-002   1.2076968934312204E-002   2.0967868396317757E-002
  -3.8601854386368817E-002   1.1299898699613287E-002   2.0497474160234452E-002
  -3.6062141094833647E-002   1.0530694234275245E-002   2.0138033005213940E-002
  -3.3522427803298449E-002   9.7693555382986144E-003   1.9889544931256706E-002
  -3.0982714511763265E-002   9.0158826116829571E-003   1.9752009938362514E-002
  -4.4475174221162116E-002   1.3194265396962723E-002   1.4208498867890024E-002
  -4.1842626285534236E-002   1.2401294067646812E-002   1.3852915201206739E-002
  -3.9210078349906252E-002   1.1604482195432878E-002   1.3572047741645846E-002
  -3.6577530414278275E-002   1.0803829780319688E-002   1.3365896489207212E-002
  -3.3944982478650319E-002   9.9993368223075252E-003   1.3234461443891343E-002
  -4.7677864371281083E-002   1.4311561859613325E-002   7.4390814009755654E-003
  -4.4988718665501005E-002   1.3502689435680795E-002   7.1866019914323120E-003
  -4.2299572959720907E-002   1.2678270156589851E-002   6.9726019150710174E-003
  -3.9610427253940796E-002   1.1838304022340098E-002   6.7970811718916866E-003
  -3.6921281548160732E-002   1.0982791032931954E-002   6.6600397618942903E-003
  -5.0749638128260943E-002   1.5428858322263705E-002   6.5961599557395889E-004
  -4.8040131526269292E-002   1.4604084803714112E-002   4.9853453091108779E-004
  -4.5330624924277640E-002   1.3752058117747545E-002   3.3969552548995807E-004
  -4.2621118322285934E-002   1.2872778264361465E-002   1.8309897930957053E-004
  -3.9911611720294338E-002   1.1966245243556939E-002   2.8744892371035391E-005
  -2.8034477647499528E-002   8.0324284010581115E-003   2.6212685245307843E-002
  -2.5695631663308793E-002   7.3114563700849566E-003   2.5654719635045287E-002
  -2.3356785679118044E-002   6.5338739859844286E-003   2.5035908375330707E-002
  -2.1017939694927330E-002   5.6996812487554865E-003   2.4356251466165074E-002
  -1.8679093710736561E-002   4.8088781583990325E-003   2.3615748907547585E-002
  -3.0982714511763265E-002   9.0158826116829571E-003   1.9752009938362514E-002
  -2.8684020967781748E-002   8.2656702796727322E-003   1.9171728968079838E-002
  -2.6385327423800189E-002   7.5141133675117322E-003   1.8571988766830277E-002
  -2.4086633879818624E-002   6.7612118752010952E-003   1.7952789334613597E-002
  -2.1787940335837114E-002   6.0069658027399608E-003   1.7314130671430450E-002
  -3.3944982478650319E-002   9.9993368223075252E-003   1.3234461443891343E-002
  -3.1645054956393373E-002   9.2198841892597028E-003   1.2687130886566256E-002
  -2.9345127434136396E-002   8.4943527490396742E-003   1.2161727516758647E-002
  -2.7045199911879397E-002   7.8227425016466970E-003   1.1658251334468836E-002
  -2.4745272389622416E-002   7.2050534470808891E-003   1.1176702339696670E-002
  -3.6921281548160732E-002   1.0982791032931954E-002   6.6600397618942903E-003
  -3.4578733629143668E-002   1.0174098098846909E-002   6.2009253905037365E-003
  -3.2236185710126583E-002   9.4745921305670194E-003   5.8051246251160510E-003
  -2.9893637791109595E-002   8.8842731280916361E-003   5.4726374657304219E-003
  -2.7551089872092437E-002   8.4031410914218174E-003   5.2034639123477999E-003
  -3.9911611720294338E-002   1.1966245243556939E-002   2.8744892371035391E-005
  -3.7485056986032550E-002   1.1128312008435004E-002  -2.8688752010685992E-004
  -3.5058502251770818E-002   1.0454831512095031E-002  -4.9781990809713572E-004
  -3.2631947517509002E-002   9.9458037545376021E-003  -6.0405227160081204E-004
  -3.0205392783247298E-002   9.6012287357627457E-003  -6.0558461061743785E-004
  -1.8679093710736561E-002   4.8088781583990325E-003   2.3615748907547585E-002
  -1.5655382693649328E-002   4.0791270726231454E-003   2.4397114078512083E-002
  -1.2631671676562095E-002   3.7280903491368200E-003   2.5654111057164863E-002
  -9.6079606594748485E-003   3.7557679879397024E-003   2.7386739843506286E-002
  -6.5842496423876296E-003   4.1621599890321326E-003   2.9595000437536156E-002
  -2.1787940335837114E-002   6.0069658027399608E-003   1.7314130671430450E-002
  -1.8558622873775230E-002   5.3430552094995143E-003   1.8257350001436468E-002
  -1.5329305411713443E-002   4.8611601548504690E-003   1.9136150413703201E-002
  -1.2099987949651635E-002   4.5612806387936231E-003   1.9950531908230651E-002
  -8.8706704875898823E-003   4.4434166613278592E-003   2.0700494485018539E-002
  -2.4745272389622416E-002   7.2050534470808891E-003   1.1176702339696670E-002
  -2.1850399208013863E-002   6.6069833463758276E-003   1.2085077005046962E-002
  -1.8955526026405288E-002   5.9942299605644372E-003   1.2388982027230142E-002
  -1.6060652844796731E-002   5.3667932896469851E-003   1.2088417406245770E-002
  -1.3165779663188160E-002   4.7246733336238633E-003   1.1183383142094633E-002
  -2.7551089872092437E-002   8.4031410914218174E-003   5.2034639123477999E-003
  -2.5530711696365022E-002   7.8709114832516136E-003   5.8802950893443937E-003
  -2.3510333520637583E-002   7.1272997662783569E-003   5.4126058977456738E-003
  -2.1489955344910137E-002   6.1723059405007375E-003   3.8003963375523638E-003
  -1.9469577169182725E-002   5.0059300059196177E-003   1.0436664087638201E-003
  -3.0205392783247298E-002   9.6012287357627457E-003  -6.0558461061743785E-004
  -2.9599560338828823E-002   9.1348396201279547E-003  -3.5699574567216175E-004
  -2.8993727894410348E-002   8.2603695719923320E-003  -1.7929779747496155E-003
  -2.8387895449991818E-002   6.9778185913544483E-003  -4.9135312978501530E-003
  -2.7782063005573399E-002   5.2871866782153720E-003  -9.7186557149734343E-003
  -6.5842496423876296E-003   4.1621599890321326E-003   2.9595000437536156E-002
  -6.0560874156978250E-003   6.1430165592450958E-003   3.4074131546750874E-002
  -5.5279251890080205E-003   1.0894087905410438E-002   3.9237922578965356E-002
  -4.9997629623181050E-003   1.8415374027528346E-002   4.5086373534179242E-002
  -4.4716007356283560E-003   2.8706874925598758E-002   5.1619484412392502E-002
  -8.8706704875898823E-003   4.4434166613278592E-003   2.0700494485018539E-002
  -7.5853458871224799E-003   5.6587605985791156E-003   2.5870747248012749E-002
  -6.3000212866551886E-003   9.3585048266720816E-003   3.1870664835562390E-002
  -5.0146966861879805E-003   1.5542649345607194E-002   3.8700247247667435E-002
  -3.7293720857204948E-003   2.4211194155383975E-002   4.6359494484327968E-002
  -1.3165779663188160E-002   4.7246733336238633E-003   1.1183383142094633E-002
  -1.0978287787387291E-002   5.1745046379131354E-003   1.6758943073757027E-002
  -8.7907959115863660E-003   7.8229217479339613E-003   2.3309172731531144E-002
  -6.6033040357853998E-003   1.2669924663685991E-002   3.0834072115417187E-002
  -4.4158121599845723E-003   1.9715513385169414E-002   3.9333641225414162E-002
  -1.9469577169182725E-002   5.0059300059196177E-003   1.0436664087638201E-003
  -1.6234913116492070E-002   4.6902486772471552E-003   6.7387190239842631E-003
  -1.3000249063801494E-002   6.2873386691962782E-003   1.3553446266872857E-002
  -9.7655850111108052E-003   9.7971999817643689E-003   2.1487848137428753E-002
  -6.5309209584202624E-003   1.5219832614955187E-002   3.0541924635652695E-002
  -2.7782063005573399E-002   5.2871866782153720E-003  -9.7186557149734343E-003
  -2.3355221874437060E-002   4.2059927165809530E-003  -4.1899249013054307E-003
  -1.8928380743300499E-002   4.7517555904572073E-003   2.6034854415865338E-003
  -1.4501539612163994E-002   6.9244752998436770E-003   1.0661575313702189E-002
  -1.0074698481027600E-002   1.0724151844740071E-002   1.9984344715042290E-002
 </DataArray>
 </PointData>
 </Piece>
 </UnstructuredGrid>
 </VTKFile>
