 <VTKFile type="UnstructuredGrid"  version="0.1"   >
 <UnstructuredGrid>
 <Piece  NumberOfPoints="          1600 "  NumberOfCells="         1024 ">
 <Points>
 <DataArray  type="Float64" NumberOfComponents="3"  format="ascii" >
   0.0000000000000000        0.0000000000000000        0.0000000000000000     
   3.1250000000000000E-002   0.0000000000000000        0.0000000000000000     
   6.2500000000000000E-002   0.0000000000000000        0.0000000000000000     
   9.3750000000000000E-002   0.0000000000000000        0.0000000000000000     
  0.12500000000000000        0.0000000000000000        0.0000000000000000     
   0.0000000000000000        3.1250000000000000E-002   0.0000000000000000     
   3.1250000000000000E-002   3.1250000000000000E-002   0.0000000000000000     
   6.2500000000000000E-002   3.1250000000000000E-002   0.0000000000000000     
   9.3750000000000000E-002   3.1250000000000000E-002   0.0000000000000000     
  0.12500000000000000        3.1250000000000000E-002   0.0000000000000000     
   0.0000000000000000        6.2500000000000000E-002   0.0000000000000000     
   3.1250000000000000E-002   6.2500000000000000E-002   0.0000000000000000     
   6.2500000000000000E-002   6.2500000000000000E-002   0.0000000000000000     
   9.3750000000000000E-002   6.2500000000000000E-002   0.0000000000000000     
  0.12500000000000000        6.2500000000000000E-002   0.0000000000000000     
   0.0000000000000000        9.3750000000000000E-002   0.0000000000000000     
   3.1250000000000000E-002   9.3750000000000000E-002   0.0000000000000000     
   6.2500000000000000E-002   9.3750000000000000E-002   0.0000000000000000     
   9.3750000000000000E-002   9.3750000000000000E-002   0.0000000000000000     
  0.12500000000000000        9.3750000000000000E-002   0.0000000000000000     
   0.0000000000000000       0.12500000000000000        0.0000000000000000     
   3.1250000000000000E-002  0.12500000000000000        0.0000000000000000     
   6.2500000000000000E-002  0.12500000000000000        0.0000000000000000     
   9.3750000000000000E-002  0.12500000000000000        0.0000000000000000     
  0.12500000000000000       0.12500000000000000        0.0000000000000000     
  0.12500000000000000        0.0000000000000000        0.0000000000000000     
  0.15625000000000000        0.0000000000000000        0.0000000000000000     
  0.18750000000000000        0.0000000000000000        0.0000000000000000     
  0.21875000000000000        0.0000000000000000        0.0000000000000000     
  0.25000000000000000        0.0000000000000000        0.0000000000000000     
  0.12500000000000000        3.1250000000000000E-002   0.0000000000000000     
  0.15625000000000000        3.1250000000000000E-002   0.0000000000000000     
  0.18750000000000000        3.1250000000000000E-002   0.0000000000000000     
  0.21875000000000000        3.1250000000000000E-002   0.0000000000000000     
  0.25000000000000000        3.1250000000000000E-002   0.0000000000000000     
  0.12500000000000000        6.2500000000000000E-002   0.0000000000000000     
  0.15625000000000000        6.2500000000000000E-002   0.0000000000000000     
  0.18750000000000000        6.2500000000000000E-002   0.0000000000000000     
  0.21875000000000000        6.2500000000000000E-002   0.0000000000000000     
  0.25000000000000000        6.2500000000000000E-002   0.0000000000000000     
  0.12500000000000000        9.3750000000000000E-002   0.0000000000000000     
  0.15625000000000000        9.3750000000000000E-002   0.0000000000000000     
  0.18750000000000000        9.3750000000000000E-002   0.0000000000000000     
  0.21875000000000000        9.3750000000000000E-002   0.0000000000000000     
  0.25000000000000000        9.3750000000000000E-002   0.0000000000000000     
  0.12500000000000000       0.12500000000000000        0.0000000000000000     
  0.15625000000000000       0.12500000000000000        0.0000000000000000     
  0.18750000000000000       0.12500000000000000        0.0000000000000000     
  0.21875000000000000       0.12500000000000000        0.0000000000000000     
  0.25000000000000000       0.12500000000000000        0.0000000000000000     
  0.25000000000000000        0.0000000000000000        0.0000000000000000     
  0.28125000000000000        0.0000000000000000        0.0000000000000000     
  0.31250000000000000        0.0000000000000000        0.0000000000000000     
  0.34375000000000000        0.0000000000000000        0.0000000000000000     
  0.37500000000000000        0.0000000000000000        0.0000000000000000     
  0.25000000000000000        3.1250000000000000E-002   0.0000000000000000     
  0.28125000000000000        3.1250000000000000E-002   0.0000000000000000     
  0.31250000000000000        3.1250000000000000E-002   0.0000000000000000     
  0.34375000000000000        3.1250000000000000E-002   0.0000000000000000     
  0.37500000000000000        3.1250000000000000E-002   0.0000000000000000     
  0.25000000000000000        6.2500000000000000E-002   0.0000000000000000     
  0.28125000000000000        6.2500000000000000E-002   0.0000000000000000     
  0.31250000000000000        6.2500000000000000E-002   0.0000000000000000     
  0.34375000000000000        6.2500000000000000E-002   0.0000000000000000     
  0.37500000000000000        6.2500000000000000E-002   0.0000000000000000     
  0.25000000000000000        9.3750000000000000E-002   0.0000000000000000     
  0.28125000000000000        9.3750000000000000E-002   0.0000000000000000     
  0.31250000000000000        9.3750000000000000E-002   0.0000000000000000     
  0.34375000000000000        9.3750000000000000E-002   0.0000000000000000     
  0.37500000000000000        9.3750000000000000E-002   0.0000000000000000     
  0.25000000000000000       0.12500000000000000        0.0000000000000000     
  0.28125000000000000       0.12500000000000000        0.0000000000000000     
  0.31250000000000000       0.12500000000000000        0.0000000000000000     
  0.34375000000000000       0.12500000000000000        0.0000000000000000     
  0.37500000000000000       0.12500000000000000        0.0000000000000000     
  0.37500000000000000        0.0000000000000000        0.0000000000000000     
  0.40625000000000000        0.0000000000000000        0.0000000000000000     
  0.43750000000000000        0.0000000000000000        0.0000000000000000     
  0.46875000000000000        0.0000000000000000        0.0000000000000000     
  0.50000000000000000        0.0000000000000000        0.0000000000000000     
  0.37500000000000000        3.1250000000000000E-002   0.0000000000000000     
  0.40625000000000000        3.1250000000000000E-002   0.0000000000000000     
  0.43750000000000000        3.1250000000000000E-002   0.0000000000000000     
  0.46875000000000000        3.1250000000000000E-002   0.0000000000000000     
  0.50000000000000000        3.1250000000000000E-002   0.0000000000000000     
  0.37500000000000000        6.2500000000000000E-002   0.0000000000000000     
  0.40625000000000000        6.2500000000000000E-002   0.0000000000000000     
  0.43750000000000000        6.2500000000000000E-002   0.0000000000000000     
  0.46875000000000000        6.2500000000000000E-002   0.0000000000000000     
  0.50000000000000000        6.2500000000000000E-002   0.0000000000000000     
  0.37500000000000000        9.3750000000000000E-002   0.0000000000000000     
  0.40625000000000000        9.3750000000000000E-002   0.0000000000000000     
  0.43750000000000000        9.3750000000000000E-002   0.0000000000000000     
  0.46875000000000000        9.3750000000000000E-002   0.0000000000000000     
  0.50000000000000000        9.3750000000000000E-002   0.0000000000000000     
  0.37500000000000000       0.12500000000000000        0.0000000000000000     
  0.40625000000000000       0.12500000000000000        0.0000000000000000     
  0.43750000000000000       0.12500000000000000        0.0000000000000000     
  0.46875000000000000       0.12500000000000000        0.0000000000000000     
  0.50000000000000000       0.12500000000000000        0.0000000000000000     
  0.50000000000000000        0.0000000000000000        0.0000000000000000     
  0.53125000000000000        0.0000000000000000        0.0000000000000000     
  0.56250000000000000        0.0000000000000000        0.0000000000000000     
  0.59375000000000000        0.0000000000000000        0.0000000000000000     
  0.62500000000000000        0.0000000000000000        0.0000000000000000     
  0.50000000000000000        3.1250000000000000E-002   0.0000000000000000     
  0.53125000000000000        3.1250000000000000E-002   0.0000000000000000     
  0.56250000000000000        3.1250000000000000E-002   0.0000000000000000     
  0.59375000000000000        3.1250000000000000E-002   0.0000000000000000     
  0.62500000000000000        3.1250000000000000E-002   0.0000000000000000     
  0.50000000000000000        6.2500000000000000E-002   0.0000000000000000     
  0.53125000000000000        6.2500000000000000E-002   0.0000000000000000     
  0.56250000000000000        6.2500000000000000E-002   0.0000000000000000     
  0.59375000000000000        6.2500000000000000E-002   0.0000000000000000     
  0.62500000000000000        6.2500000000000000E-002   0.0000000000000000     
  0.50000000000000000        9.3750000000000000E-002   0.0000000000000000     
  0.53125000000000000        9.3750000000000000E-002   0.0000000000000000     
  0.56250000000000000        9.3750000000000000E-002   0.0000000000000000     
  0.59375000000000000        9.3750000000000000E-002   0.0000000000000000     
  0.62500000000000000        9.3750000000000000E-002   0.0000000000000000     
  0.50000000000000000       0.12500000000000000        0.0000000000000000     
  0.53125000000000000       0.12500000000000000        0.0000000000000000     
  0.56250000000000000       0.12500000000000000        0.0000000000000000     
  0.59375000000000000       0.12500000000000000        0.0000000000000000     
  0.62500000000000000       0.12500000000000000        0.0000000000000000     
  0.62500000000000000        0.0000000000000000        0.0000000000000000     
  0.65625000000000000        0.0000000000000000        0.0000000000000000     
  0.68750000000000000        0.0000000000000000        0.0000000000000000     
  0.71875000000000000        0.0000000000000000        0.0000000000000000     
  0.75000000000000000        0.0000000000000000        0.0000000000000000     
  0.62500000000000000        3.1250000000000000E-002   0.0000000000000000     
  0.65625000000000000        3.1250000000000000E-002   0.0000000000000000     
  0.68750000000000000        3.1250000000000000E-002   0.0000000000000000     
  0.71875000000000000        3.1250000000000000E-002   0.0000000000000000     
  0.75000000000000000        3.1250000000000000E-002   0.0000000000000000     
  0.62500000000000000        6.2500000000000000E-002   0.0000000000000000     
  0.65625000000000000        6.2500000000000000E-002   0.0000000000000000     
  0.68750000000000000        6.2500000000000000E-002   0.0000000000000000     
  0.71875000000000000        6.2500000000000000E-002   0.0000000000000000     
  0.75000000000000000        6.2500000000000000E-002   0.0000000000000000     
  0.62500000000000000        9.3750000000000000E-002   0.0000000000000000     
  0.65625000000000000        9.3750000000000000E-002   0.0000000000000000     
  0.68750000000000000        9.3750000000000000E-002   0.0000000000000000     
  0.71875000000000000        9.3750000000000000E-002   0.0000000000000000     
  0.75000000000000000        9.3750000000000000E-002   0.0000000000000000     
  0.62500000000000000       0.12500000000000000        0.0000000000000000     
  0.65625000000000000       0.12500000000000000        0.0000000000000000     
  0.68750000000000000       0.12500000000000000        0.0000000000000000     
  0.71875000000000000       0.12500000000000000        0.0000000000000000     
  0.75000000000000000       0.12500000000000000        0.0000000000000000     
  0.75000000000000000        0.0000000000000000        0.0000000000000000     
  0.78125000000000000        0.0000000000000000        0.0000000000000000     
  0.81250000000000000        0.0000000000000000        0.0000000000000000     
  0.84375000000000000        0.0000000000000000        0.0000000000000000     
  0.87500000000000000        0.0000000000000000        0.0000000000000000     
  0.75000000000000000        3.1250000000000000E-002   0.0000000000000000     
  0.78125000000000000        3.1250000000000000E-002   0.0000000000000000     
  0.81250000000000000        3.1250000000000000E-002   0.0000000000000000     
  0.84375000000000000        3.1250000000000000E-002   0.0000000000000000     
  0.87500000000000000        3.1250000000000000E-002   0.0000000000000000     
  0.75000000000000000        6.2500000000000000E-002   0.0000000000000000     
  0.78125000000000000        6.2500000000000000E-002   0.0000000000000000     
  0.81250000000000000        6.2500000000000000E-002   0.0000000000000000     
  0.84375000000000000        6.2500000000000000E-002   0.0000000000000000     
  0.87500000000000000        6.2500000000000000E-002   0.0000000000000000     
  0.75000000000000000        9.3750000000000000E-002   0.0000000000000000     
  0.78125000000000000        9.3750000000000000E-002   0.0000000000000000     
  0.81250000000000000        9.3750000000000000E-002   0.0000000000000000     
  0.84375000000000000        9.3750000000000000E-002   0.0000000000000000     
  0.87500000000000000        9.3750000000000000E-002   0.0000000000000000     
  0.75000000000000000       0.12500000000000000        0.0000000000000000     
  0.78125000000000000       0.12500000000000000        0.0000000000000000     
  0.81250000000000000       0.12500000000000000        0.0000000000000000     
  0.84375000000000000       0.12500000000000000        0.0000000000000000     
  0.87500000000000000       0.12500000000000000        0.0000000000000000     
  0.87500000000000000        0.0000000000000000        0.0000000000000000     
  0.90625000000000000        0.0000000000000000        0.0000000000000000     
  0.93750000000000000        0.0000000000000000        0.0000000000000000     
  0.96875000000000000        0.0000000000000000        0.0000000000000000     
   1.0000000000000000        0.0000000000000000        0.0000000000000000     
  0.87500000000000000        3.1250000000000000E-002   0.0000000000000000     
  0.90625000000000000        3.1250000000000000E-002   0.0000000000000000     
  0.93750000000000000        3.1250000000000000E-002   0.0000000000000000     
  0.96875000000000000        3.1250000000000000E-002   0.0000000000000000     
   1.0000000000000000        3.1250000000000000E-002   0.0000000000000000     
  0.87500000000000000        6.2500000000000000E-002   0.0000000000000000     
  0.90625000000000000        6.2500000000000000E-002   0.0000000000000000     
  0.93750000000000000        6.2500000000000000E-002   0.0000000000000000     
  0.96875000000000000        6.2500000000000000E-002   0.0000000000000000     
   1.0000000000000000        6.2500000000000000E-002   0.0000000000000000     
  0.87500000000000000        9.3750000000000000E-002   0.0000000000000000     
  0.90625000000000000        9.3750000000000000E-002   0.0000000000000000     
  0.93750000000000000        9.3750000000000000E-002   0.0000000000000000     
  0.96875000000000000        9.3750000000000000E-002   0.0000000000000000     
   1.0000000000000000        9.3750000000000000E-002   0.0000000000000000     
  0.87500000000000000       0.12500000000000000        0.0000000000000000     
  0.90625000000000000       0.12500000000000000        0.0000000000000000     
  0.93750000000000000       0.12500000000000000        0.0000000000000000     
  0.96875000000000000       0.12500000000000000        0.0000000000000000     
   1.0000000000000000       0.12500000000000000        0.0000000000000000     
   0.0000000000000000       0.12500000000000000        0.0000000000000000     
   3.1250000000000000E-002  0.12500000000000000        0.0000000000000000     
   6.2500000000000000E-002  0.12500000000000000        0.0000000000000000     
   9.3750000000000000E-002  0.12500000000000000        0.0000000000000000     
  0.12500000000000000       0.12500000000000000        0.0000000000000000     
   0.0000000000000000       0.15625000000000000        0.0000000000000000     
   3.1250000000000000E-002  0.15625000000000000        0.0000000000000000     
   6.2500000000000000E-002  0.15625000000000000        0.0000000000000000     
   9.3750000000000000E-002  0.15625000000000000        0.0000000000000000     
  0.12500000000000000       0.15625000000000000        0.0000000000000000     
   0.0000000000000000       0.18750000000000000        0.0000000000000000     
   3.1250000000000000E-002  0.18750000000000000        0.0000000000000000     
   6.2500000000000000E-002  0.18750000000000000        0.0000000000000000     
   9.3750000000000000E-002  0.18750000000000000        0.0000000000000000     
  0.12500000000000000       0.18750000000000000        0.0000000000000000     
   0.0000000000000000       0.21875000000000000        0.0000000000000000     
   3.1250000000000000E-002  0.21875000000000000        0.0000000000000000     
   6.2500000000000000E-002  0.21875000000000000        0.0000000000000000     
   9.3750000000000000E-002  0.21875000000000000        0.0000000000000000     
  0.12500000000000000       0.21875000000000000        0.0000000000000000     
   0.0000000000000000       0.25000000000000000        0.0000000000000000     
   3.1250000000000000E-002  0.25000000000000000        0.0000000000000000     
   6.2500000000000000E-002  0.25000000000000000        0.0000000000000000     
   9.3750000000000000E-002  0.25000000000000000        0.0000000000000000     
  0.12500000000000000       0.25000000000000000        0.0000000000000000     
  0.12500000000000000       0.12500000000000000        0.0000000000000000     
  0.15625000000000000       0.12500000000000000        0.0000000000000000     
  0.18750000000000000       0.12500000000000000        0.0000000000000000     
  0.21875000000000000       0.12500000000000000        0.0000000000000000     
  0.25000000000000000       0.12500000000000000        0.0000000000000000     
  0.12500000000000000       0.15625000000000000        0.0000000000000000     
  0.15625000000000000       0.15625000000000000        0.0000000000000000     
  0.18750000000000000       0.15625000000000000        0.0000000000000000     
  0.21875000000000000       0.15625000000000000        0.0000000000000000     
  0.25000000000000000       0.15625000000000000        0.0000000000000000     
  0.12500000000000000       0.18750000000000000        0.0000000000000000     
  0.15625000000000000       0.18750000000000000        0.0000000000000000     
  0.18750000000000000       0.18750000000000000        0.0000000000000000     
  0.21875000000000000       0.18750000000000000        0.0000000000000000     
  0.25000000000000000       0.18750000000000000        0.0000000000000000     
  0.12500000000000000       0.21875000000000000        0.0000000000000000     
  0.15625000000000000       0.21875000000000000        0.0000000000000000     
  0.18750000000000000       0.21875000000000000        0.0000000000000000     
  0.21875000000000000       0.21875000000000000        0.0000000000000000     
  0.25000000000000000       0.21875000000000000        0.0000000000000000     
  0.12500000000000000       0.25000000000000000        0.0000000000000000     
  0.15625000000000000       0.25000000000000000        0.0000000000000000     
  0.18750000000000000       0.25000000000000000        0.0000000000000000     
  0.21875000000000000       0.25000000000000000        0.0000000000000000     
  0.25000000000000000       0.25000000000000000        0.0000000000000000     
  0.25000000000000000       0.12500000000000000        0.0000000000000000     
  0.28125000000000000       0.12500000000000000        0.0000000000000000     
  0.31250000000000000       0.12500000000000000        0.0000000000000000     
  0.34375000000000000       0.12500000000000000        0.0000000000000000     
  0.37500000000000000       0.12500000000000000        0.0000000000000000     
  0.25000000000000000       0.15625000000000000        0.0000000000000000     
  0.28125000000000000       0.15625000000000000        0.0000000000000000     
  0.31250000000000000       0.15625000000000000        0.0000000000000000     
  0.34375000000000000       0.15625000000000000        0.0000000000000000     
  0.37500000000000000       0.15625000000000000        0.0000000000000000     
  0.25000000000000000       0.18750000000000000        0.0000000000000000     
  0.28125000000000000       0.18750000000000000        0.0000000000000000     
  0.31250000000000000       0.18750000000000000        0.0000000000000000     
  0.34375000000000000       0.18750000000000000        0.0000000000000000     
  0.37500000000000000       0.18750000000000000        0.0000000000000000     
  0.25000000000000000       0.21875000000000000        0.0000000000000000     
  0.28125000000000000       0.21875000000000000        0.0000000000000000     
  0.31250000000000000       0.21875000000000000        0.0000000000000000     
  0.34375000000000000       0.21875000000000000        0.0000000000000000     
  0.37500000000000000       0.21875000000000000        0.0000000000000000     
  0.25000000000000000       0.25000000000000000        0.0000000000000000     
  0.28125000000000000       0.25000000000000000        0.0000000000000000     
  0.31250000000000000       0.25000000000000000        0.0000000000000000     
  0.34375000000000000       0.25000000000000000        0.0000000000000000     
  0.37500000000000000       0.25000000000000000        0.0000000000000000     
  0.37500000000000000       0.12500000000000000        0.0000000000000000     
  0.40625000000000000       0.12500000000000000        0.0000000000000000     
  0.43750000000000000       0.12500000000000000        0.0000000000000000     
  0.46875000000000000       0.12500000000000000        0.0000000000000000     
  0.50000000000000000       0.12500000000000000        0.0000000000000000     
  0.37500000000000000       0.15625000000000000        0.0000000000000000     
  0.40625000000000000       0.15625000000000000        0.0000000000000000     
  0.43750000000000000       0.15625000000000000        0.0000000000000000     
  0.46875000000000000       0.15625000000000000        0.0000000000000000     
  0.50000000000000000       0.15625000000000000        0.0000000000000000     
  0.37500000000000000       0.18750000000000000        0.0000000000000000     
  0.40625000000000000       0.18750000000000000        0.0000000000000000     
  0.43750000000000000       0.18750000000000000        0.0000000000000000     
  0.46875000000000000       0.18750000000000000        0.0000000000000000     
  0.50000000000000000       0.18750000000000000        0.0000000000000000     
  0.37500000000000000       0.21875000000000000        0.0000000000000000     
  0.40625000000000000       0.21875000000000000        0.0000000000000000     
  0.43750000000000000       0.21875000000000000        0.0000000000000000     
  0.46875000000000000       0.21875000000000000        0.0000000000000000     
  0.50000000000000000       0.21875000000000000        0.0000000000000000     
  0.37500000000000000       0.25000000000000000        0.0000000000000000     
  0.40625000000000000       0.25000000000000000        0.0000000000000000     
  0.43750000000000000       0.25000000000000000        0.0000000000000000     
  0.46875000000000000       0.25000000000000000        0.0000000000000000     
  0.50000000000000000       0.25000000000000000        0.0000000000000000     
  0.50000000000000000       0.12500000000000000        0.0000000000000000     
  0.53125000000000000       0.12500000000000000        0.0000000000000000     
  0.56250000000000000       0.12500000000000000        0.0000000000000000     
  0.59375000000000000       0.12500000000000000        0.0000000000000000     
  0.62500000000000000       0.12500000000000000        0.0000000000000000     
  0.50000000000000000       0.15625000000000000        0.0000000000000000     
  0.53125000000000000       0.15625000000000000        0.0000000000000000     
  0.56250000000000000       0.15625000000000000        0.0000000000000000     
  0.59375000000000000       0.15625000000000000        0.0000000000000000     
  0.62500000000000000       0.15625000000000000        0.0000000000000000     
  0.50000000000000000       0.18750000000000000        0.0000000000000000     
  0.53125000000000000       0.18750000000000000        0.0000000000000000     
  0.56250000000000000       0.18750000000000000        0.0000000000000000     
  0.59375000000000000       0.18750000000000000        0.0000000000000000     
  0.62500000000000000       0.18750000000000000        0.0000000000000000     
  0.50000000000000000       0.21875000000000000        0.0000000000000000     
  0.53125000000000000       0.21875000000000000        0.0000000000000000     
  0.56250000000000000       0.21875000000000000        0.0000000000000000     
  0.59375000000000000       0.21875000000000000        0.0000000000000000     
  0.62500000000000000       0.21875000000000000        0.0000000000000000     
  0.50000000000000000       0.25000000000000000        0.0000000000000000     
  0.53125000000000000       0.25000000000000000        0.0000000000000000     
  0.56250000000000000       0.25000000000000000        0.0000000000000000     
  0.59375000000000000       0.25000000000000000        0.0000000000000000     
  0.62500000000000000       0.25000000000000000        0.0000000000000000     
  0.62500000000000000       0.12500000000000000        0.0000000000000000     
  0.65625000000000000       0.12500000000000000        0.0000000000000000     
  0.68750000000000000       0.12500000000000000        0.0000000000000000     
  0.71875000000000000       0.12500000000000000        0.0000000000000000     
  0.75000000000000000       0.12500000000000000        0.0000000000000000     
  0.62500000000000000       0.15625000000000000        0.0000000000000000     
  0.65625000000000000       0.15625000000000000        0.0000000000000000     
  0.68750000000000000       0.15625000000000000        0.0000000000000000     
  0.71875000000000000       0.15625000000000000        0.0000000000000000     
  0.75000000000000000       0.15625000000000000        0.0000000000000000     
  0.62500000000000000       0.18750000000000000        0.0000000000000000     
  0.65625000000000000       0.18750000000000000        0.0000000000000000     
  0.68750000000000000       0.18750000000000000        0.0000000000000000     
  0.71875000000000000       0.18750000000000000        0.0000000000000000     
  0.75000000000000000       0.18750000000000000        0.0000000000000000     
  0.62500000000000000       0.21875000000000000        0.0000000000000000     
  0.65625000000000000       0.21875000000000000        0.0000000000000000     
  0.68750000000000000       0.21875000000000000        0.0000000000000000     
  0.71875000000000000       0.21875000000000000        0.0000000000000000     
  0.75000000000000000       0.21875000000000000        0.0000000000000000     
  0.62500000000000000       0.25000000000000000        0.0000000000000000     
  0.65625000000000000       0.25000000000000000        0.0000000000000000     
  0.68750000000000000       0.25000000000000000        0.0000000000000000     
  0.71875000000000000       0.25000000000000000        0.0000000000000000     
  0.75000000000000000       0.25000000000000000        0.0000000000000000     
  0.75000000000000000       0.12500000000000000        0.0000000000000000     
  0.78125000000000000       0.12500000000000000        0.0000000000000000     
  0.81250000000000000       0.12500000000000000        0.0000000000000000     
  0.84375000000000000       0.12500000000000000        0.0000000000000000     
  0.87500000000000000       0.12500000000000000        0.0000000000000000     
  0.75000000000000000       0.15625000000000000        0.0000000000000000     
  0.78125000000000000       0.15625000000000000        0.0000000000000000     
  0.81250000000000000       0.15625000000000000        0.0000000000000000     
  0.84375000000000000       0.15625000000000000        0.0000000000000000     
  0.87500000000000000       0.15625000000000000        0.0000000000000000     
  0.75000000000000000       0.18750000000000000        0.0000000000000000     
  0.78125000000000000       0.18750000000000000        0.0000000000000000     
  0.81250000000000000       0.18750000000000000        0.0000000000000000     
  0.84375000000000000       0.18750000000000000        0.0000000000000000     
  0.87500000000000000       0.18750000000000000        0.0000000000000000     
  0.75000000000000000       0.21875000000000000        0.0000000000000000     
  0.78125000000000000       0.21875000000000000        0.0000000000000000     
  0.81250000000000000       0.21875000000000000        0.0000000000000000     
  0.84375000000000000       0.21875000000000000        0.0000000000000000     
  0.87500000000000000       0.21875000000000000        0.0000000000000000     
  0.75000000000000000       0.25000000000000000        0.0000000000000000     
  0.78125000000000000       0.25000000000000000        0.0000000000000000     
  0.81250000000000000       0.25000000000000000        0.0000000000000000     
  0.84375000000000000       0.25000000000000000        0.0000000000000000     
  0.87500000000000000       0.25000000000000000        0.0000000000000000     
  0.87500000000000000       0.12500000000000000        0.0000000000000000     
  0.90625000000000000       0.12500000000000000        0.0000000000000000     
  0.93750000000000000       0.12500000000000000        0.0000000000000000     
  0.96875000000000000       0.12500000000000000        0.0000000000000000     
   1.0000000000000000       0.12500000000000000        0.0000000000000000     
  0.87500000000000000       0.15625000000000000        0.0000000000000000     
  0.90625000000000000       0.15625000000000000        0.0000000000000000     
  0.93750000000000000       0.15625000000000000        0.0000000000000000     
  0.96875000000000000       0.15625000000000000        0.0000000000000000     
   1.0000000000000000       0.15625000000000000        0.0000000000000000     
  0.87500000000000000       0.18750000000000000        0.0000000000000000     
  0.90625000000000000       0.18750000000000000        0.0000000000000000     
  0.93750000000000000       0.18750000000000000        0.0000000000000000     
  0.96875000000000000       0.18750000000000000        0.0000000000000000     
   1.0000000000000000       0.18750000000000000        0.0000000000000000     
  0.87500000000000000       0.21875000000000000        0.0000000000000000     
  0.90625000000000000       0.21875000000000000        0.0000000000000000     
  0.93750000000000000       0.21875000000000000        0.0000000000000000     
  0.96875000000000000       0.21875000000000000        0.0000000000000000     
   1.0000000000000000       0.21875000000000000        0.0000000000000000     
  0.87500000000000000       0.25000000000000000        0.0000000000000000     
  0.90625000000000000       0.25000000000000000        0.0000000000000000     
  0.93750000000000000       0.25000000000000000        0.0000000000000000     
  0.96875000000000000       0.25000000000000000        0.0000000000000000     
   1.0000000000000000       0.25000000000000000        0.0000000000000000     
   0.0000000000000000       0.25000000000000000        0.0000000000000000     
   3.1250000000000000E-002  0.25000000000000000        0.0000000000000000     
   6.2500000000000000E-002  0.25000000000000000        0.0000000000000000     
   9.3750000000000000E-002  0.25000000000000000        0.0000000000000000     
  0.12500000000000000       0.25000000000000000        0.0000000000000000     
   0.0000000000000000       0.28125000000000000        0.0000000000000000     
   3.1250000000000000E-002  0.28125000000000000        0.0000000000000000     
   6.2500000000000000E-002  0.28125000000000000        0.0000000000000000     
   9.3750000000000000E-002  0.28125000000000000        0.0000000000000000     
  0.12500000000000000       0.28125000000000000        0.0000000000000000     
   0.0000000000000000       0.31250000000000000        0.0000000000000000     
   3.1250000000000000E-002  0.31250000000000000        0.0000000000000000     
   6.2500000000000000E-002  0.31250000000000000        0.0000000000000000     
   9.3750000000000000E-002  0.31250000000000000        0.0000000000000000     
  0.12500000000000000       0.31250000000000000        0.0000000000000000     
   0.0000000000000000       0.34375000000000000        0.0000000000000000     
   3.1250000000000000E-002  0.34375000000000000        0.0000000000000000     
   6.2500000000000000E-002  0.34375000000000000        0.0000000000000000     
   9.3750000000000000E-002  0.34375000000000000        0.0000000000000000     
  0.12500000000000000       0.34375000000000000        0.0000000000000000     
   0.0000000000000000       0.37500000000000000        0.0000000000000000     
   3.1250000000000000E-002  0.37500000000000000        0.0000000000000000     
   6.2500000000000000E-002  0.37500000000000000        0.0000000000000000     
   9.3750000000000000E-002  0.37500000000000000        0.0000000000000000     
  0.12500000000000000       0.37500000000000000        0.0000000000000000     
  0.12500000000000000       0.25000000000000000        0.0000000000000000     
  0.15625000000000000       0.25000000000000000        0.0000000000000000     
  0.18750000000000000       0.25000000000000000        0.0000000000000000     
  0.21875000000000000       0.25000000000000000        0.0000000000000000     
  0.25000000000000000       0.25000000000000000        0.0000000000000000     
  0.12500000000000000       0.28125000000000000        0.0000000000000000     
  0.15625000000000000       0.28125000000000000        0.0000000000000000     
  0.18750000000000000       0.28125000000000000        0.0000000000000000     
  0.21875000000000000       0.28125000000000000        0.0000000000000000     
  0.25000000000000000       0.28125000000000000        0.0000000000000000     
  0.12500000000000000       0.31250000000000000        0.0000000000000000     
  0.15625000000000000       0.31250000000000000        0.0000000000000000     
  0.18750000000000000       0.31250000000000000        0.0000000000000000     
  0.21875000000000000       0.31250000000000000        0.0000000000000000     
  0.25000000000000000       0.31250000000000000        0.0000000000000000     
  0.12500000000000000       0.34375000000000000        0.0000000000000000     
  0.15625000000000000       0.34375000000000000        0.0000000000000000     
  0.18750000000000000       0.34375000000000000        0.0000000000000000     
  0.21875000000000000       0.34375000000000000        0.0000000000000000     
  0.25000000000000000       0.34375000000000000        0.0000000000000000     
  0.12500000000000000       0.37500000000000000        0.0000000000000000     
  0.15625000000000000       0.37500000000000000        0.0000000000000000     
  0.18750000000000000       0.37500000000000000        0.0000000000000000     
  0.21875000000000000       0.37500000000000000        0.0000000000000000     
  0.25000000000000000       0.37500000000000000        0.0000000000000000     
  0.25000000000000000       0.25000000000000000        0.0000000000000000     
  0.28125000000000000       0.25000000000000000        0.0000000000000000     
  0.31250000000000000       0.25000000000000000        0.0000000000000000     
  0.34375000000000000       0.25000000000000000        0.0000000000000000     
  0.37500000000000000       0.25000000000000000        0.0000000000000000     
  0.25000000000000000       0.28125000000000000        0.0000000000000000     
  0.28125000000000000       0.28125000000000000        0.0000000000000000     
  0.31250000000000000       0.28125000000000000        0.0000000000000000     
  0.34375000000000000       0.28125000000000000        0.0000000000000000     
  0.37500000000000000       0.28125000000000000        0.0000000000000000     
  0.25000000000000000       0.31250000000000000        0.0000000000000000     
  0.28125000000000000       0.31250000000000000        0.0000000000000000     
  0.31250000000000000       0.31250000000000000        0.0000000000000000     
  0.34375000000000000       0.31250000000000000        0.0000000000000000     
  0.37500000000000000       0.31250000000000000        0.0000000000000000     
  0.25000000000000000       0.34375000000000000        0.0000000000000000     
  0.28125000000000000       0.34375000000000000        0.0000000000000000     
  0.31250000000000000       0.34375000000000000        0.0000000000000000     
  0.34375000000000000       0.34375000000000000        0.0000000000000000     
  0.37500000000000000       0.34375000000000000        0.0000000000000000     
  0.25000000000000000       0.37500000000000000        0.0000000000000000     
  0.28125000000000000       0.37500000000000000        0.0000000000000000     
  0.31250000000000000       0.37500000000000000        0.0000000000000000     
  0.34375000000000000       0.37500000000000000        0.0000000000000000     
  0.37500000000000000       0.37500000000000000        0.0000000000000000     
  0.37500000000000000       0.25000000000000000        0.0000000000000000     
  0.40625000000000000       0.25000000000000000        0.0000000000000000     
  0.43750000000000000       0.25000000000000000        0.0000000000000000     
  0.46875000000000000       0.25000000000000000        0.0000000000000000     
  0.50000000000000000       0.25000000000000000        0.0000000000000000     
  0.37500000000000000       0.28125000000000000        0.0000000000000000     
  0.40625000000000000       0.28125000000000000        0.0000000000000000     
  0.43750000000000000       0.28125000000000000        0.0000000000000000     
  0.46875000000000000       0.28125000000000000        0.0000000000000000     
  0.50000000000000000       0.28125000000000000        0.0000000000000000     
  0.37500000000000000       0.31250000000000000        0.0000000000000000     
  0.40625000000000000       0.31250000000000000        0.0000000000000000     
  0.43750000000000000       0.31250000000000000        0.0000000000000000     
  0.46875000000000000       0.31250000000000000        0.0000000000000000     
  0.50000000000000000       0.31250000000000000        0.0000000000000000     
  0.37500000000000000       0.34375000000000000        0.0000000000000000     
  0.40625000000000000       0.34375000000000000        0.0000000000000000     
  0.43750000000000000       0.34375000000000000        0.0000000000000000     
  0.46875000000000000       0.34375000000000000        0.0000000000000000     
  0.50000000000000000       0.34375000000000000        0.0000000000000000     
  0.37500000000000000       0.37500000000000000        0.0000000000000000     
  0.40625000000000000       0.37500000000000000        0.0000000000000000     
  0.43750000000000000       0.37500000000000000        0.0000000000000000     
  0.46875000000000000       0.37500000000000000        0.0000000000000000     
  0.50000000000000000       0.37500000000000000        0.0000000000000000     
  0.50000000000000000       0.25000000000000000        0.0000000000000000     
  0.53125000000000000       0.25000000000000000        0.0000000000000000     
  0.56250000000000000       0.25000000000000000        0.0000000000000000     
  0.59375000000000000       0.25000000000000000        0.0000000000000000     
  0.62500000000000000       0.25000000000000000        0.0000000000000000     
  0.50000000000000000       0.28125000000000000        0.0000000000000000     
  0.53125000000000000       0.28125000000000000        0.0000000000000000     
  0.56250000000000000       0.28125000000000000        0.0000000000000000     
  0.59375000000000000       0.28125000000000000        0.0000000000000000     
  0.62500000000000000       0.28125000000000000        0.0000000000000000     
  0.50000000000000000       0.31250000000000000        0.0000000000000000     
  0.53125000000000000       0.31250000000000000        0.0000000000000000     
  0.56250000000000000       0.31250000000000000        0.0000000000000000     
  0.59375000000000000       0.31250000000000000        0.0000000000000000     
  0.62500000000000000       0.31250000000000000        0.0000000000000000     
  0.50000000000000000       0.34375000000000000        0.0000000000000000     
  0.53125000000000000       0.34375000000000000        0.0000000000000000     
  0.56250000000000000       0.34375000000000000        0.0000000000000000     
  0.59375000000000000       0.34375000000000000        0.0000000000000000     
  0.62500000000000000       0.34375000000000000        0.0000000000000000     
  0.50000000000000000       0.37500000000000000        0.0000000000000000     
  0.53125000000000000       0.37500000000000000        0.0000000000000000     
  0.56250000000000000       0.37500000000000000        0.0000000000000000     
  0.59375000000000000       0.37500000000000000        0.0000000000000000     
  0.62500000000000000       0.37500000000000000        0.0000000000000000     
  0.62500000000000000       0.25000000000000000        0.0000000000000000     
  0.65625000000000000       0.25000000000000000        0.0000000000000000     
  0.68750000000000000       0.25000000000000000        0.0000000000000000     
  0.71875000000000000       0.25000000000000000        0.0000000000000000     
  0.75000000000000000       0.25000000000000000        0.0000000000000000     
  0.62500000000000000       0.28125000000000000        0.0000000000000000     
  0.65625000000000000       0.28125000000000000        0.0000000000000000     
  0.68750000000000000       0.28125000000000000        0.0000000000000000     
  0.71875000000000000       0.28125000000000000        0.0000000000000000     
  0.75000000000000000       0.28125000000000000        0.0000000000000000     
  0.62500000000000000       0.31250000000000000        0.0000000000000000     
  0.65625000000000000       0.31250000000000000        0.0000000000000000     
  0.68750000000000000       0.31250000000000000        0.0000000000000000     
  0.71875000000000000       0.31250000000000000        0.0000000000000000     
  0.75000000000000000       0.31250000000000000        0.0000000000000000     
  0.62500000000000000       0.34375000000000000        0.0000000000000000     
  0.65625000000000000       0.34375000000000000        0.0000000000000000     
  0.68750000000000000       0.34375000000000000        0.0000000000000000     
  0.71875000000000000       0.34375000000000000        0.0000000000000000     
  0.75000000000000000       0.34375000000000000        0.0000000000000000     
  0.62500000000000000       0.37500000000000000        0.0000000000000000     
  0.65625000000000000       0.37500000000000000        0.0000000000000000     
  0.68750000000000000       0.37500000000000000        0.0000000000000000     
  0.71875000000000000       0.37500000000000000        0.0000000000000000     
  0.75000000000000000       0.37500000000000000        0.0000000000000000     
  0.75000000000000000       0.25000000000000000        0.0000000000000000     
  0.78125000000000000       0.25000000000000000        0.0000000000000000     
  0.81250000000000000       0.25000000000000000        0.0000000000000000     
  0.84375000000000000       0.25000000000000000        0.0000000000000000     
  0.87500000000000000       0.25000000000000000        0.0000000000000000     
  0.75000000000000000       0.28125000000000000        0.0000000000000000     
  0.78125000000000000       0.28125000000000000        0.0000000000000000     
  0.81250000000000000       0.28125000000000000        0.0000000000000000     
  0.84375000000000000       0.28125000000000000        0.0000000000000000     
  0.87500000000000000       0.28125000000000000        0.0000000000000000     
  0.75000000000000000       0.31250000000000000        0.0000000000000000     
  0.78125000000000000       0.31250000000000000        0.0000000000000000     
  0.81250000000000000       0.31250000000000000        0.0000000000000000     
  0.84375000000000000       0.31250000000000000        0.0000000000000000     
  0.87500000000000000       0.31250000000000000        0.0000000000000000     
  0.75000000000000000       0.34375000000000000        0.0000000000000000     
  0.78125000000000000       0.34375000000000000        0.0000000000000000     
  0.81250000000000000       0.34375000000000000        0.0000000000000000     
  0.84375000000000000       0.34375000000000000        0.0000000000000000     
  0.87500000000000000       0.34375000000000000        0.0000000000000000     
  0.75000000000000000       0.37500000000000000        0.0000000000000000     
  0.78125000000000000       0.37500000000000000        0.0000000000000000     
  0.81250000000000000       0.37500000000000000        0.0000000000000000     
  0.84375000000000000       0.37500000000000000        0.0000000000000000     
  0.87500000000000000       0.37500000000000000        0.0000000000000000     
  0.87500000000000000       0.25000000000000000        0.0000000000000000     
  0.90625000000000000       0.25000000000000000        0.0000000000000000     
  0.93750000000000000       0.25000000000000000        0.0000000000000000     
  0.96875000000000000       0.25000000000000000        0.0000000000000000     
   1.0000000000000000       0.25000000000000000        0.0000000000000000     
  0.87500000000000000       0.28125000000000000        0.0000000000000000     
  0.90625000000000000       0.28125000000000000        0.0000000000000000     
  0.93750000000000000       0.28125000000000000        0.0000000000000000     
  0.96875000000000000       0.28125000000000000        0.0000000000000000     
   1.0000000000000000       0.28125000000000000        0.0000000000000000     
  0.87500000000000000       0.31250000000000000        0.0000000000000000     
  0.90625000000000000       0.31250000000000000        0.0000000000000000     
  0.93750000000000000       0.31250000000000000        0.0000000000000000     
  0.96875000000000000       0.31250000000000000        0.0000000000000000     
   1.0000000000000000       0.31250000000000000        0.0000000000000000     
  0.87500000000000000       0.34375000000000000        0.0000000000000000     
  0.90625000000000000       0.34375000000000000        0.0000000000000000     
  0.93750000000000000       0.34375000000000000        0.0000000000000000     
  0.96875000000000000       0.34375000000000000        0.0000000000000000     
   1.0000000000000000       0.34375000000000000        0.0000000000000000     
  0.87500000000000000       0.37500000000000000        0.0000000000000000     
  0.90625000000000000       0.37500000000000000        0.0000000000000000     
  0.93750000000000000       0.37500000000000000        0.0000000000000000     
  0.96875000000000000       0.37500000000000000        0.0000000000000000     
   1.0000000000000000       0.37500000000000000        0.0000000000000000     
   0.0000000000000000       0.37500000000000000        0.0000000000000000     
   3.1250000000000000E-002  0.37500000000000000        0.0000000000000000     
   6.2500000000000000E-002  0.37500000000000000        0.0000000000000000     
   9.3750000000000000E-002  0.37500000000000000        0.0000000000000000     
  0.12500000000000000       0.37500000000000000        0.0000000000000000     
   0.0000000000000000       0.40625000000000000        0.0000000000000000     
   3.1250000000000000E-002  0.40625000000000000        0.0000000000000000     
   6.2500000000000000E-002  0.40625000000000000        0.0000000000000000     
   9.3750000000000000E-002  0.40625000000000000        0.0000000000000000     
  0.12500000000000000       0.40625000000000000        0.0000000000000000     
   0.0000000000000000       0.43750000000000000        0.0000000000000000     
   3.1250000000000000E-002  0.43750000000000000        0.0000000000000000     
   6.2500000000000000E-002  0.43750000000000000        0.0000000000000000     
   9.3750000000000000E-002  0.43750000000000000        0.0000000000000000     
  0.12500000000000000       0.43750000000000000        0.0000000000000000     
   0.0000000000000000       0.46875000000000000        0.0000000000000000     
   3.1250000000000000E-002  0.46875000000000000        0.0000000000000000     
   6.2500000000000000E-002  0.46875000000000000        0.0000000000000000     
   9.3750000000000000E-002  0.46875000000000000        0.0000000000000000     
  0.12500000000000000       0.46875000000000000        0.0000000000000000     
   0.0000000000000000       0.50000000000000000        0.0000000000000000     
   3.1250000000000000E-002  0.50000000000000000        0.0000000000000000     
   6.2500000000000000E-002  0.50000000000000000        0.0000000000000000     
   9.3750000000000000E-002  0.50000000000000000        0.0000000000000000     
  0.12500000000000000       0.50000000000000000        0.0000000000000000     
  0.12500000000000000       0.37500000000000000        0.0000000000000000     
  0.15625000000000000       0.37500000000000000        0.0000000000000000     
  0.18750000000000000       0.37500000000000000        0.0000000000000000     
  0.21875000000000000       0.37500000000000000        0.0000000000000000     
  0.25000000000000000       0.37500000000000000        0.0000000000000000     
  0.12500000000000000       0.40625000000000000        0.0000000000000000     
  0.15625000000000000       0.40625000000000000        0.0000000000000000     
  0.18750000000000000       0.40625000000000000        0.0000000000000000     
  0.21875000000000000       0.40625000000000000        0.0000000000000000     
  0.25000000000000000       0.40625000000000000        0.0000000000000000     
  0.12500000000000000       0.43750000000000000        0.0000000000000000     
  0.15625000000000000       0.43750000000000000        0.0000000000000000     
  0.18750000000000000       0.43750000000000000        0.0000000000000000     
  0.21875000000000000       0.43750000000000000        0.0000000000000000     
  0.25000000000000000       0.43750000000000000        0.0000000000000000     
  0.12500000000000000       0.46875000000000000        0.0000000000000000     
  0.15625000000000000       0.46875000000000000        0.0000000000000000     
  0.18750000000000000       0.46875000000000000        0.0000000000000000     
  0.21875000000000000       0.46875000000000000        0.0000000000000000     
  0.25000000000000000       0.46875000000000000        0.0000000000000000     
  0.12500000000000000       0.50000000000000000        0.0000000000000000     
  0.15625000000000000       0.50000000000000000        0.0000000000000000     
  0.18750000000000000       0.50000000000000000        0.0000000000000000     
  0.21875000000000000       0.50000000000000000        0.0000000000000000     
  0.25000000000000000       0.50000000000000000        0.0000000000000000     
  0.25000000000000000       0.37500000000000000        0.0000000000000000     
  0.28125000000000000       0.37500000000000000        0.0000000000000000     
  0.31250000000000000       0.37500000000000000        0.0000000000000000     
  0.34375000000000000       0.37500000000000000        0.0000000000000000     
  0.37500000000000000       0.37500000000000000        0.0000000000000000     
  0.25000000000000000       0.40625000000000000        0.0000000000000000     
  0.28125000000000000       0.40625000000000000        0.0000000000000000     
  0.31250000000000000       0.40625000000000000        0.0000000000000000     
  0.34375000000000000       0.40625000000000000        0.0000000000000000     
  0.37500000000000000       0.40625000000000000        0.0000000000000000     
  0.25000000000000000       0.43750000000000000        0.0000000000000000     
  0.28125000000000000       0.43750000000000000        0.0000000000000000     
  0.31250000000000000       0.43750000000000000        0.0000000000000000     
  0.34375000000000000       0.43750000000000000        0.0000000000000000     
  0.37500000000000000       0.43750000000000000        0.0000000000000000     
  0.25000000000000000       0.46875000000000000        0.0000000000000000     
  0.28125000000000000       0.46875000000000000        0.0000000000000000     
  0.31250000000000000       0.46875000000000000        0.0000000000000000     
  0.34375000000000000       0.46875000000000000        0.0000000000000000     
  0.37500000000000000       0.46875000000000000        0.0000000000000000     
  0.25000000000000000       0.50000000000000000        0.0000000000000000     
  0.28125000000000000       0.50000000000000000        0.0000000000000000     
  0.31250000000000000       0.50000000000000000        0.0000000000000000     
  0.34375000000000000       0.50000000000000000        0.0000000000000000     
  0.37500000000000000       0.50000000000000000        0.0000000000000000     
  0.37500000000000000       0.37500000000000000        0.0000000000000000     
  0.40625000000000000       0.37500000000000000        0.0000000000000000     
  0.43750000000000000       0.37500000000000000        0.0000000000000000     
  0.46875000000000000       0.37500000000000000        0.0000000000000000     
  0.50000000000000000       0.37500000000000000        0.0000000000000000     
  0.37500000000000000       0.40625000000000000        0.0000000000000000     
  0.40625000000000000       0.40625000000000000        0.0000000000000000     
  0.43750000000000000       0.40625000000000000        0.0000000000000000     
  0.46875000000000000       0.40625000000000000        0.0000000000000000     
  0.50000000000000000       0.40625000000000000        0.0000000000000000     
  0.37500000000000000       0.43750000000000000        0.0000000000000000     
  0.40625000000000000       0.43750000000000000        0.0000000000000000     
  0.43750000000000000       0.43750000000000000        0.0000000000000000     
  0.46875000000000000       0.43750000000000000        0.0000000000000000     
  0.50000000000000000       0.43750000000000000        0.0000000000000000     
  0.37500000000000000       0.46875000000000000        0.0000000000000000     
  0.40625000000000000       0.46875000000000000        0.0000000000000000     
  0.43750000000000000       0.46875000000000000        0.0000000000000000     
  0.46875000000000000       0.46875000000000000        0.0000000000000000     
  0.50000000000000000       0.46875000000000000        0.0000000000000000     
  0.37500000000000000       0.50000000000000000        0.0000000000000000     
  0.40625000000000000       0.50000000000000000        0.0000000000000000     
  0.43750000000000000       0.50000000000000000        0.0000000000000000     
  0.46875000000000000       0.50000000000000000        0.0000000000000000     
  0.50000000000000000       0.50000000000000000        0.0000000000000000     
  0.50000000000000000       0.37500000000000000        0.0000000000000000     
  0.53125000000000000       0.37500000000000000        0.0000000000000000     
  0.56250000000000000       0.37500000000000000        0.0000000000000000     
  0.59375000000000000       0.37500000000000000        0.0000000000000000     
  0.62500000000000000       0.37500000000000000        0.0000000000000000     
  0.50000000000000000       0.40625000000000000        0.0000000000000000     
  0.53125000000000000       0.40625000000000000        0.0000000000000000     
  0.56250000000000000       0.40625000000000000        0.0000000000000000     
  0.59375000000000000       0.40625000000000000        0.0000000000000000     
  0.62500000000000000       0.40625000000000000        0.0000000000000000     
  0.50000000000000000       0.43750000000000000        0.0000000000000000     
  0.53125000000000000       0.43750000000000000        0.0000000000000000     
  0.56250000000000000       0.43750000000000000        0.0000000000000000     
  0.59375000000000000       0.43750000000000000        0.0000000000000000     
  0.62500000000000000       0.43750000000000000        0.0000000000000000     
  0.50000000000000000       0.46875000000000000        0.0000000000000000     
  0.53125000000000000       0.46875000000000000        0.0000000000000000     
  0.56250000000000000       0.46875000000000000        0.0000000000000000     
  0.59375000000000000       0.46875000000000000        0.0000000000000000     
  0.62500000000000000       0.46875000000000000        0.0000000000000000     
  0.50000000000000000       0.50000000000000000        0.0000000000000000     
  0.53125000000000000       0.50000000000000000        0.0000000000000000     
  0.56250000000000000       0.50000000000000000        0.0000000000000000     
  0.59375000000000000       0.50000000000000000        0.0000000000000000     
  0.62500000000000000       0.50000000000000000        0.0000000000000000     
  0.62500000000000000       0.37500000000000000        0.0000000000000000     
  0.65625000000000000       0.37500000000000000        0.0000000000000000     
  0.68750000000000000       0.37500000000000000        0.0000000000000000     
  0.71875000000000000       0.37500000000000000        0.0000000000000000     
  0.75000000000000000       0.37500000000000000        0.0000000000000000     
  0.62500000000000000       0.40625000000000000        0.0000000000000000     
  0.65625000000000000       0.40625000000000000        0.0000000000000000     
  0.68750000000000000       0.40625000000000000        0.0000000000000000     
  0.71875000000000000       0.40625000000000000        0.0000000000000000     
  0.75000000000000000       0.40625000000000000        0.0000000000000000     
  0.62500000000000000       0.43750000000000000        0.0000000000000000     
  0.65625000000000000       0.43750000000000000        0.0000000000000000     
  0.68750000000000000       0.43750000000000000        0.0000000000000000     
  0.71875000000000000       0.43750000000000000        0.0000000000000000     
  0.75000000000000000       0.43750000000000000        0.0000000000000000     
  0.62500000000000000       0.46875000000000000        0.0000000000000000     
  0.65625000000000000       0.46875000000000000        0.0000000000000000     
  0.68750000000000000       0.46875000000000000        0.0000000000000000     
  0.71875000000000000       0.46875000000000000        0.0000000000000000     
  0.75000000000000000       0.46875000000000000        0.0000000000000000     
  0.62500000000000000       0.50000000000000000        0.0000000000000000     
  0.65625000000000000       0.50000000000000000        0.0000000000000000     
  0.68750000000000000       0.50000000000000000        0.0000000000000000     
  0.71875000000000000       0.50000000000000000        0.0000000000000000     
  0.75000000000000000       0.50000000000000000        0.0000000000000000     
  0.75000000000000000       0.37500000000000000        0.0000000000000000     
  0.78125000000000000       0.37500000000000000        0.0000000000000000     
  0.81250000000000000       0.37500000000000000        0.0000000000000000     
  0.84375000000000000       0.37500000000000000        0.0000000000000000     
  0.87500000000000000       0.37500000000000000        0.0000000000000000     
  0.75000000000000000       0.40625000000000000        0.0000000000000000     
  0.78125000000000000       0.40625000000000000        0.0000000000000000     
  0.81250000000000000       0.40625000000000000        0.0000000000000000     
  0.84375000000000000       0.40625000000000000        0.0000000000000000     
  0.87500000000000000       0.40625000000000000        0.0000000000000000     
  0.75000000000000000       0.43750000000000000        0.0000000000000000     
  0.78125000000000000       0.43750000000000000        0.0000000000000000     
  0.81250000000000000       0.43750000000000000        0.0000000000000000     
  0.84375000000000000       0.43750000000000000        0.0000000000000000     
  0.87500000000000000       0.43750000000000000        0.0000000000000000     
  0.75000000000000000       0.46875000000000000        0.0000000000000000     
  0.78125000000000000       0.46875000000000000        0.0000000000000000     
  0.81250000000000000       0.46875000000000000        0.0000000000000000     
  0.84375000000000000       0.46875000000000000        0.0000000000000000     
  0.87500000000000000       0.46875000000000000        0.0000000000000000     
  0.75000000000000000       0.50000000000000000        0.0000000000000000     
  0.78125000000000000       0.50000000000000000        0.0000000000000000     
  0.81250000000000000       0.50000000000000000        0.0000000000000000     
  0.84375000000000000       0.50000000000000000        0.0000000000000000     
  0.87500000000000000       0.50000000000000000        0.0000000000000000     
  0.87500000000000000       0.37500000000000000        0.0000000000000000     
  0.90625000000000000       0.37500000000000000        0.0000000000000000     
  0.93750000000000000       0.37500000000000000        0.0000000000000000     
  0.96875000000000000       0.37500000000000000        0.0000000000000000     
   1.0000000000000000       0.37500000000000000        0.0000000000000000     
  0.87500000000000000       0.40625000000000000        0.0000000000000000     
  0.90625000000000000       0.40625000000000000        0.0000000000000000     
  0.93750000000000000       0.40625000000000000        0.0000000000000000     
  0.96875000000000000       0.40625000000000000        0.0000000000000000     
   1.0000000000000000       0.40625000000000000        0.0000000000000000     
  0.87500000000000000       0.43750000000000000        0.0000000000000000     
  0.90625000000000000       0.43750000000000000        0.0000000000000000     
  0.93750000000000000       0.43750000000000000        0.0000000000000000     
  0.96875000000000000       0.43750000000000000        0.0000000000000000     
   1.0000000000000000       0.43750000000000000        0.0000000000000000     
  0.87500000000000000       0.46875000000000000        0.0000000000000000     
  0.90625000000000000       0.46875000000000000        0.0000000000000000     
  0.93750000000000000       0.46875000000000000        0.0000000000000000     
  0.96875000000000000       0.46875000000000000        0.0000000000000000     
   1.0000000000000000       0.46875000000000000        0.0000000000000000     
  0.87500000000000000       0.50000000000000000        0.0000000000000000     
  0.90625000000000000       0.50000000000000000        0.0000000000000000     
  0.93750000000000000       0.50000000000000000        0.0000000000000000     
  0.96875000000000000       0.50000000000000000        0.0000000000000000     
   1.0000000000000000       0.50000000000000000        0.0000000000000000     
   0.0000000000000000       0.50000000000000000        0.0000000000000000     
   3.1250000000000000E-002  0.50000000000000000        0.0000000000000000     
   6.2500000000000000E-002  0.50000000000000000        0.0000000000000000     
   9.3750000000000000E-002  0.50000000000000000        0.0000000000000000     
  0.12500000000000000       0.50000000000000000        0.0000000000000000     
   0.0000000000000000       0.53125000000000000        0.0000000000000000     
   3.1250000000000000E-002  0.53125000000000000        0.0000000000000000     
   6.2500000000000000E-002  0.53125000000000000        0.0000000000000000     
   9.3750000000000000E-002  0.53125000000000000        0.0000000000000000     
  0.12500000000000000       0.53125000000000000        0.0000000000000000     
   0.0000000000000000       0.56250000000000000        0.0000000000000000     
   3.1250000000000000E-002  0.56250000000000000        0.0000000000000000     
   6.2500000000000000E-002  0.56250000000000000        0.0000000000000000     
   9.3750000000000000E-002  0.56250000000000000        0.0000000000000000     
  0.12500000000000000       0.56250000000000000        0.0000000000000000     
   0.0000000000000000       0.59375000000000000        0.0000000000000000     
   3.1250000000000000E-002  0.59375000000000000        0.0000000000000000     
   6.2500000000000000E-002  0.59375000000000000        0.0000000000000000     
   9.3750000000000000E-002  0.59375000000000000        0.0000000000000000     
  0.12500000000000000       0.59375000000000000        0.0000000000000000     
   0.0000000000000000       0.62500000000000000        0.0000000000000000     
   3.1250000000000000E-002  0.62500000000000000        0.0000000000000000     
   6.2500000000000000E-002  0.62500000000000000        0.0000000000000000     
   9.3750000000000000E-002  0.62500000000000000        0.0000000000000000     
  0.12500000000000000       0.62500000000000000        0.0000000000000000     
  0.12500000000000000       0.50000000000000000        0.0000000000000000     
  0.15625000000000000       0.50000000000000000        0.0000000000000000     
  0.18750000000000000       0.50000000000000000        0.0000000000000000     
  0.21875000000000000       0.50000000000000000        0.0000000000000000     
  0.25000000000000000       0.50000000000000000        0.0000000000000000     
  0.12500000000000000       0.53125000000000000        0.0000000000000000     
  0.15625000000000000       0.53125000000000000        0.0000000000000000     
  0.18750000000000000       0.53125000000000000        0.0000000000000000     
  0.21875000000000000       0.53125000000000000        0.0000000000000000     
  0.25000000000000000       0.53125000000000000        0.0000000000000000     
  0.12500000000000000       0.56250000000000000        0.0000000000000000     
  0.15625000000000000       0.56250000000000000        0.0000000000000000     
  0.18750000000000000       0.56250000000000000        0.0000000000000000     
  0.21875000000000000       0.56250000000000000        0.0000000000000000     
  0.25000000000000000       0.56250000000000000        0.0000000000000000     
  0.12500000000000000       0.59375000000000000        0.0000000000000000     
  0.15625000000000000       0.59375000000000000        0.0000000000000000     
  0.18750000000000000       0.59375000000000000        0.0000000000000000     
  0.21875000000000000       0.59375000000000000        0.0000000000000000     
  0.25000000000000000       0.59375000000000000        0.0000000000000000     
  0.12500000000000000       0.62500000000000000        0.0000000000000000     
  0.15625000000000000       0.62500000000000000        0.0000000000000000     
  0.18750000000000000       0.62500000000000000        0.0000000000000000     
  0.21875000000000000       0.62500000000000000        0.0000000000000000     
  0.25000000000000000       0.62500000000000000        0.0000000000000000     
  0.25000000000000000       0.50000000000000000        0.0000000000000000     
  0.28125000000000000       0.50000000000000000        0.0000000000000000     
  0.31250000000000000       0.50000000000000000        0.0000000000000000     
  0.34375000000000000       0.50000000000000000        0.0000000000000000     
  0.37500000000000000       0.50000000000000000        0.0000000000000000     
  0.25000000000000000       0.53125000000000000        0.0000000000000000     
  0.28125000000000000       0.53125000000000000        0.0000000000000000     
  0.31250000000000000       0.53125000000000000        0.0000000000000000     
  0.34375000000000000       0.53125000000000000        0.0000000000000000     
  0.37500000000000000       0.53125000000000000        0.0000000000000000     
  0.25000000000000000       0.56250000000000000        0.0000000000000000     
  0.28125000000000000       0.56250000000000000        0.0000000000000000     
  0.31250000000000000       0.56250000000000000        0.0000000000000000     
  0.34375000000000000       0.56250000000000000        0.0000000000000000     
  0.37500000000000000       0.56250000000000000        0.0000000000000000     
  0.25000000000000000       0.59375000000000000        0.0000000000000000     
  0.28125000000000000       0.59375000000000000        0.0000000000000000     
  0.31250000000000000       0.59375000000000000        0.0000000000000000     
  0.34375000000000000       0.59375000000000000        0.0000000000000000     
  0.37500000000000000       0.59375000000000000        0.0000000000000000     
  0.25000000000000000       0.62500000000000000        0.0000000000000000     
  0.28125000000000000       0.62500000000000000        0.0000000000000000     
  0.31250000000000000       0.62500000000000000        0.0000000000000000     
  0.34375000000000000       0.62500000000000000        0.0000000000000000     
  0.37500000000000000       0.62500000000000000        0.0000000000000000     
  0.37500000000000000       0.50000000000000000        0.0000000000000000     
  0.40625000000000000       0.50000000000000000        0.0000000000000000     
  0.43750000000000000       0.50000000000000000        0.0000000000000000     
  0.46875000000000000       0.50000000000000000        0.0000000000000000     
  0.50000000000000000       0.50000000000000000        0.0000000000000000     
  0.37500000000000000       0.53125000000000000        0.0000000000000000     
  0.40625000000000000       0.53125000000000000        0.0000000000000000     
  0.43750000000000000       0.53125000000000000        0.0000000000000000     
  0.46875000000000000       0.53125000000000000        0.0000000000000000     
  0.50000000000000000       0.53125000000000000        0.0000000000000000     
  0.37500000000000000       0.56250000000000000        0.0000000000000000     
  0.40625000000000000       0.56250000000000000        0.0000000000000000     
  0.43750000000000000       0.56250000000000000        0.0000000000000000     
  0.46875000000000000       0.56250000000000000        0.0000000000000000     
  0.50000000000000000       0.56250000000000000        0.0000000000000000     
  0.37500000000000000       0.59375000000000000        0.0000000000000000     
  0.40625000000000000       0.59375000000000000        0.0000000000000000     
  0.43750000000000000       0.59375000000000000        0.0000000000000000     
  0.46875000000000000       0.59375000000000000        0.0000000000000000     
  0.50000000000000000       0.59375000000000000        0.0000000000000000     
  0.37500000000000000       0.62500000000000000        0.0000000000000000     
  0.40625000000000000       0.62500000000000000        0.0000000000000000     
  0.43750000000000000       0.62500000000000000        0.0000000000000000     
  0.46875000000000000       0.62500000000000000        0.0000000000000000     
  0.50000000000000000       0.62500000000000000        0.0000000000000000     
  0.50000000000000000       0.50000000000000000        0.0000000000000000     
  0.53125000000000000       0.50000000000000000        0.0000000000000000     
  0.56250000000000000       0.50000000000000000        0.0000000000000000     
  0.59375000000000000       0.50000000000000000        0.0000000000000000     
  0.62500000000000000       0.50000000000000000        0.0000000000000000     
  0.50000000000000000       0.53125000000000000        0.0000000000000000     
  0.53125000000000000       0.53125000000000000        0.0000000000000000     
  0.56250000000000000       0.53125000000000000        0.0000000000000000     
  0.59375000000000000       0.53125000000000000        0.0000000000000000     
  0.62500000000000000       0.53125000000000000        0.0000000000000000     
  0.50000000000000000       0.56250000000000000        0.0000000000000000     
  0.53125000000000000       0.56250000000000000        0.0000000000000000     
  0.56250000000000000       0.56250000000000000        0.0000000000000000     
  0.59375000000000000       0.56250000000000000        0.0000000000000000     
  0.62500000000000000       0.56250000000000000        0.0000000000000000     
  0.50000000000000000       0.59375000000000000        0.0000000000000000     
  0.53125000000000000       0.59375000000000000        0.0000000000000000     
  0.56250000000000000       0.59375000000000000        0.0000000000000000     
  0.59375000000000000       0.59375000000000000        0.0000000000000000     
  0.62500000000000000       0.59375000000000000        0.0000000000000000     
  0.50000000000000000       0.62500000000000000        0.0000000000000000     
  0.53125000000000000       0.62500000000000000        0.0000000000000000     
  0.56250000000000000       0.62500000000000000        0.0000000000000000     
  0.59375000000000000       0.62500000000000000        0.0000000000000000     
  0.62500000000000000       0.62500000000000000        0.0000000000000000     
  0.62500000000000000       0.50000000000000000        0.0000000000000000     
  0.65625000000000000       0.50000000000000000        0.0000000000000000     
  0.68750000000000000       0.50000000000000000        0.0000000000000000     
  0.71875000000000000       0.50000000000000000        0.0000000000000000     
  0.75000000000000000       0.50000000000000000        0.0000000000000000     
  0.62500000000000000       0.53125000000000000        0.0000000000000000     
  0.65625000000000000       0.53125000000000000        0.0000000000000000     
  0.68750000000000000       0.53125000000000000        0.0000000000000000     
  0.71875000000000000       0.53125000000000000        0.0000000000000000     
  0.75000000000000000       0.53125000000000000        0.0000000000000000     
  0.62500000000000000       0.56250000000000000        0.0000000000000000     
  0.65625000000000000       0.56250000000000000        0.0000000000000000     
  0.68750000000000000       0.56250000000000000        0.0000000000000000     
  0.71875000000000000       0.56250000000000000        0.0000000000000000     
  0.75000000000000000       0.56250000000000000        0.0000000000000000     
  0.62500000000000000       0.59375000000000000        0.0000000000000000     
  0.65625000000000000       0.59375000000000000        0.0000000000000000     
  0.68750000000000000       0.59375000000000000        0.0000000000000000     
  0.71875000000000000       0.59375000000000000        0.0000000000000000     
  0.75000000000000000       0.59375000000000000        0.0000000000000000     
  0.62500000000000000       0.62500000000000000        0.0000000000000000     
  0.65625000000000000       0.62500000000000000        0.0000000000000000     
  0.68750000000000000       0.62500000000000000        0.0000000000000000     
  0.71875000000000000       0.62500000000000000        0.0000000000000000     
  0.75000000000000000       0.62500000000000000        0.0000000000000000     
  0.75000000000000000       0.50000000000000000        0.0000000000000000     
  0.78125000000000000       0.50000000000000000        0.0000000000000000     
  0.81250000000000000       0.50000000000000000        0.0000000000000000     
  0.84375000000000000       0.50000000000000000        0.0000000000000000     
  0.87500000000000000       0.50000000000000000        0.0000000000000000     
  0.75000000000000000       0.53125000000000000        0.0000000000000000     
  0.78125000000000000       0.53125000000000000        0.0000000000000000     
  0.81250000000000000       0.53125000000000000        0.0000000000000000     
  0.84375000000000000       0.53125000000000000        0.0000000000000000     
  0.87500000000000000       0.53125000000000000        0.0000000000000000     
  0.75000000000000000       0.56250000000000000        0.0000000000000000     
  0.78125000000000000       0.56250000000000000        0.0000000000000000     
  0.81250000000000000       0.56250000000000000        0.0000000000000000     
  0.84375000000000000       0.56250000000000000        0.0000000000000000     
  0.87500000000000000       0.56250000000000000        0.0000000000000000     
  0.75000000000000000       0.59375000000000000        0.0000000000000000     
  0.78125000000000000       0.59375000000000000        0.0000000000000000     
  0.81250000000000000       0.59375000000000000        0.0000000000000000     
  0.84375000000000000       0.59375000000000000        0.0000000000000000     
  0.87500000000000000       0.59375000000000000        0.0000000000000000     
  0.75000000000000000       0.62500000000000000        0.0000000000000000     
  0.78125000000000000       0.62500000000000000        0.0000000000000000     
  0.81250000000000000       0.62500000000000000        0.0000000000000000     
  0.84375000000000000       0.62500000000000000        0.0000000000000000     
  0.87500000000000000       0.62500000000000000        0.0000000000000000     
  0.87500000000000000       0.50000000000000000        0.0000000000000000     
  0.90625000000000000       0.50000000000000000        0.0000000000000000     
  0.93750000000000000       0.50000000000000000        0.0000000000000000     
  0.96875000000000000       0.50000000000000000        0.0000000000000000     
   1.0000000000000000       0.50000000000000000        0.0000000000000000     
  0.87500000000000000       0.53125000000000000        0.0000000000000000     
  0.90625000000000000       0.53125000000000000        0.0000000000000000     
  0.93750000000000000       0.53125000000000000        0.0000000000000000     
  0.96875000000000000       0.53125000000000000        0.0000000000000000     
   1.0000000000000000       0.53125000000000000        0.0000000000000000     
  0.87500000000000000       0.56250000000000000        0.0000000000000000     
  0.90625000000000000       0.56250000000000000        0.0000000000000000     
  0.93750000000000000       0.56250000000000000        0.0000000000000000     
  0.96875000000000000       0.56250000000000000        0.0000000000000000     
   1.0000000000000000       0.56250000000000000        0.0000000000000000     
  0.87500000000000000       0.59375000000000000        0.0000000000000000     
  0.90625000000000000       0.59375000000000000        0.0000000000000000     
  0.93750000000000000       0.59375000000000000        0.0000000000000000     
  0.96875000000000000       0.59375000000000000        0.0000000000000000     
   1.0000000000000000       0.59375000000000000        0.0000000000000000     
  0.87500000000000000       0.62500000000000000        0.0000000000000000     
  0.90625000000000000       0.62500000000000000        0.0000000000000000     
  0.93750000000000000       0.62500000000000000        0.0000000000000000     
  0.96875000000000000       0.62500000000000000        0.0000000000000000     
   1.0000000000000000       0.62500000000000000        0.0000000000000000     
   0.0000000000000000       0.62500000000000000        0.0000000000000000     
   3.1250000000000000E-002  0.62500000000000000        0.0000000000000000     
   6.2500000000000000E-002  0.62500000000000000        0.0000000000000000     
   9.3750000000000000E-002  0.62500000000000000        0.0000000000000000     
  0.12500000000000000       0.62500000000000000        0.0000000000000000     
   0.0000000000000000       0.65625000000000000        0.0000000000000000     
   3.1250000000000000E-002  0.65625000000000000        0.0000000000000000     
   6.2500000000000000E-002  0.65625000000000000        0.0000000000000000     
   9.3750000000000000E-002  0.65625000000000000        0.0000000000000000     
  0.12500000000000000       0.65625000000000000        0.0000000000000000     
   0.0000000000000000       0.68750000000000000        0.0000000000000000     
   3.1250000000000000E-002  0.68750000000000000        0.0000000000000000     
   6.2500000000000000E-002  0.68750000000000000        0.0000000000000000     
   9.3750000000000000E-002  0.68750000000000000        0.0000000000000000     
  0.12500000000000000       0.68750000000000000        0.0000000000000000     
   0.0000000000000000       0.71875000000000000        0.0000000000000000     
   3.1250000000000000E-002  0.71875000000000000        0.0000000000000000     
   6.2500000000000000E-002  0.71875000000000000        0.0000000000000000     
   9.3750000000000000E-002  0.71875000000000000        0.0000000000000000     
  0.12500000000000000       0.71875000000000000        0.0000000000000000     
   0.0000000000000000       0.75000000000000000        0.0000000000000000     
   3.1250000000000000E-002  0.75000000000000000        0.0000000000000000     
   6.2500000000000000E-002  0.75000000000000000        0.0000000000000000     
   9.3750000000000000E-002  0.75000000000000000        0.0000000000000000     
  0.12500000000000000       0.75000000000000000        0.0000000000000000     
  0.12500000000000000       0.62500000000000000        0.0000000000000000     
  0.15625000000000000       0.62500000000000000        0.0000000000000000     
  0.18750000000000000       0.62500000000000000        0.0000000000000000     
  0.21875000000000000       0.62500000000000000        0.0000000000000000     
  0.25000000000000000       0.62500000000000000        0.0000000000000000     
  0.12500000000000000       0.65625000000000000        0.0000000000000000     
  0.15625000000000000       0.65625000000000000        0.0000000000000000     
  0.18750000000000000       0.65625000000000000        0.0000000000000000     
  0.21875000000000000       0.65625000000000000        0.0000000000000000     
  0.25000000000000000       0.65625000000000000        0.0000000000000000     
  0.12500000000000000       0.68750000000000000        0.0000000000000000     
  0.15625000000000000       0.68750000000000000        0.0000000000000000     
  0.18750000000000000       0.68750000000000000        0.0000000000000000     
  0.21875000000000000       0.68750000000000000        0.0000000000000000     
  0.25000000000000000       0.68750000000000000        0.0000000000000000     
  0.12500000000000000       0.71875000000000000        0.0000000000000000     
  0.15625000000000000       0.71875000000000000        0.0000000000000000     
  0.18750000000000000       0.71875000000000000        0.0000000000000000     
  0.21875000000000000       0.71875000000000000        0.0000000000000000     
  0.25000000000000000       0.71875000000000000        0.0000000000000000     
  0.12500000000000000       0.75000000000000000        0.0000000000000000     
  0.15625000000000000       0.75000000000000000        0.0000000000000000     
  0.18750000000000000       0.75000000000000000        0.0000000000000000     
  0.21875000000000000       0.75000000000000000        0.0000000000000000     
  0.25000000000000000       0.75000000000000000        0.0000000000000000     
  0.25000000000000000       0.62500000000000000        0.0000000000000000     
  0.28125000000000000       0.62500000000000000        0.0000000000000000     
  0.31250000000000000       0.62500000000000000        0.0000000000000000     
  0.34375000000000000       0.62500000000000000        0.0000000000000000     
  0.37500000000000000       0.62500000000000000        0.0000000000000000     
  0.25000000000000000       0.65625000000000000        0.0000000000000000     
  0.28125000000000000       0.65625000000000000        0.0000000000000000     
  0.31250000000000000       0.65625000000000000        0.0000000000000000     
  0.34375000000000000       0.65625000000000000        0.0000000000000000     
  0.37500000000000000       0.65625000000000000        0.0000000000000000     
  0.25000000000000000       0.68750000000000000        0.0000000000000000     
  0.28125000000000000       0.68750000000000000        0.0000000000000000     
  0.31250000000000000       0.68750000000000000        0.0000000000000000     
  0.34375000000000000       0.68750000000000000        0.0000000000000000     
  0.37500000000000000       0.68750000000000000        0.0000000000000000     
  0.25000000000000000       0.71875000000000000        0.0000000000000000     
  0.28125000000000000       0.71875000000000000        0.0000000000000000     
  0.31250000000000000       0.71875000000000000        0.0000000000000000     
  0.34375000000000000       0.71875000000000000        0.0000000000000000     
  0.37500000000000000       0.71875000000000000        0.0000000000000000     
  0.25000000000000000       0.75000000000000000        0.0000000000000000     
  0.28125000000000000       0.75000000000000000        0.0000000000000000     
  0.31250000000000000       0.75000000000000000        0.0000000000000000     
  0.34375000000000000       0.75000000000000000        0.0000000000000000     
  0.37500000000000000       0.75000000000000000        0.0000000000000000     
  0.37500000000000000       0.62500000000000000        0.0000000000000000     
  0.40625000000000000       0.62500000000000000        0.0000000000000000     
  0.43750000000000000       0.62500000000000000        0.0000000000000000     
  0.46875000000000000       0.62500000000000000        0.0000000000000000     
  0.50000000000000000       0.62500000000000000        0.0000000000000000     
  0.37500000000000000       0.65625000000000000        0.0000000000000000     
  0.40625000000000000       0.65625000000000000        0.0000000000000000     
  0.43750000000000000       0.65625000000000000        0.0000000000000000     
  0.46875000000000000       0.65625000000000000        0.0000000000000000     
  0.50000000000000000       0.65625000000000000        0.0000000000000000     
  0.37500000000000000       0.68750000000000000        0.0000000000000000     
  0.40625000000000000       0.68750000000000000        0.0000000000000000     
  0.43750000000000000       0.68750000000000000        0.0000000000000000     
  0.46875000000000000       0.68750000000000000        0.0000000000000000     
  0.50000000000000000       0.68750000000000000        0.0000000000000000     
  0.37500000000000000       0.71875000000000000        0.0000000000000000     
  0.40625000000000000       0.71875000000000000        0.0000000000000000     
  0.43750000000000000       0.71875000000000000        0.0000000000000000     
  0.46875000000000000       0.71875000000000000        0.0000000000000000     
  0.50000000000000000       0.71875000000000000        0.0000000000000000     
  0.37500000000000000       0.75000000000000000        0.0000000000000000     
  0.40625000000000000       0.75000000000000000        0.0000000000000000     
  0.43750000000000000       0.75000000000000000        0.0000000000000000     
  0.46875000000000000       0.75000000000000000        0.0000000000000000     
  0.50000000000000000       0.75000000000000000        0.0000000000000000     
  0.50000000000000000       0.62500000000000000        0.0000000000000000     
  0.53125000000000000       0.62500000000000000        0.0000000000000000     
  0.56250000000000000       0.62500000000000000        0.0000000000000000     
  0.59375000000000000       0.62500000000000000        0.0000000000000000     
  0.62500000000000000       0.62500000000000000        0.0000000000000000     
  0.50000000000000000       0.65625000000000000        0.0000000000000000     
  0.53125000000000000       0.65625000000000000        0.0000000000000000     
  0.56250000000000000       0.65625000000000000        0.0000000000000000     
  0.59375000000000000       0.65625000000000000        0.0000000000000000     
  0.62500000000000000       0.65625000000000000        0.0000000000000000     
  0.50000000000000000       0.68750000000000000        0.0000000000000000     
  0.53125000000000000       0.68750000000000000        0.0000000000000000     
  0.56250000000000000       0.68750000000000000        0.0000000000000000     
  0.59375000000000000       0.68750000000000000        0.0000000000000000     
  0.62500000000000000       0.68750000000000000        0.0000000000000000     
  0.50000000000000000       0.71875000000000000        0.0000000000000000     
  0.53125000000000000       0.71875000000000000        0.0000000000000000     
  0.56250000000000000       0.71875000000000000        0.0000000000000000     
  0.59375000000000000       0.71875000000000000        0.0000000000000000     
  0.62500000000000000       0.71875000000000000        0.0000000000000000     
  0.50000000000000000       0.75000000000000000        0.0000000000000000     
  0.53125000000000000       0.75000000000000000        0.0000000000000000     
  0.56250000000000000       0.75000000000000000        0.0000000000000000     
  0.59375000000000000       0.75000000000000000        0.0000000000000000     
  0.62500000000000000       0.75000000000000000        0.0000000000000000     
  0.62500000000000000       0.62500000000000000        0.0000000000000000     
  0.65625000000000000       0.62500000000000000        0.0000000000000000     
  0.68750000000000000       0.62500000000000000        0.0000000000000000     
  0.71875000000000000       0.62500000000000000        0.0000000000000000     
  0.75000000000000000       0.62500000000000000        0.0000000000000000     
  0.62500000000000000       0.65625000000000000        0.0000000000000000     
  0.65625000000000000       0.65625000000000000        0.0000000000000000     
  0.68750000000000000       0.65625000000000000        0.0000000000000000     
  0.71875000000000000       0.65625000000000000        0.0000000000000000     
  0.75000000000000000       0.65625000000000000        0.0000000000000000     
  0.62500000000000000       0.68750000000000000        0.0000000000000000     
  0.65625000000000000       0.68750000000000000        0.0000000000000000     
  0.68750000000000000       0.68750000000000000        0.0000000000000000     
  0.71875000000000000       0.68750000000000000        0.0000000000000000     
  0.75000000000000000       0.68750000000000000        0.0000000000000000     
  0.62500000000000000       0.71875000000000000        0.0000000000000000     
  0.65625000000000000       0.71875000000000000        0.0000000000000000     
  0.68750000000000000       0.71875000000000000        0.0000000000000000     
  0.71875000000000000       0.71875000000000000        0.0000000000000000     
  0.75000000000000000       0.71875000000000000        0.0000000000000000     
  0.62500000000000000       0.75000000000000000        0.0000000000000000     
  0.65625000000000000       0.75000000000000000        0.0000000000000000     
  0.68750000000000000       0.75000000000000000        0.0000000000000000     
  0.71875000000000000       0.75000000000000000        0.0000000000000000     
  0.75000000000000000       0.75000000000000000        0.0000000000000000     
  0.75000000000000000       0.62500000000000000        0.0000000000000000     
  0.78125000000000000       0.62500000000000000        0.0000000000000000     
  0.81250000000000000       0.62500000000000000        0.0000000000000000     
  0.84375000000000000       0.62500000000000000        0.0000000000000000     
  0.87500000000000000       0.62500000000000000        0.0000000000000000     
  0.75000000000000000       0.65625000000000000        0.0000000000000000     
  0.78125000000000000       0.65625000000000000        0.0000000000000000     
  0.81250000000000000       0.65625000000000000        0.0000000000000000     
  0.84375000000000000       0.65625000000000000        0.0000000000000000     
  0.87500000000000000       0.65625000000000000        0.0000000000000000     
  0.75000000000000000       0.68750000000000000        0.0000000000000000     
  0.78125000000000000       0.68750000000000000        0.0000000000000000     
  0.81250000000000000       0.68750000000000000        0.0000000000000000     
  0.84375000000000000       0.68750000000000000        0.0000000000000000     
  0.87500000000000000       0.68750000000000000        0.0000000000000000     
  0.75000000000000000       0.71875000000000000        0.0000000000000000     
  0.78125000000000000       0.71875000000000000        0.0000000000000000     
  0.81250000000000000       0.71875000000000000        0.0000000000000000     
  0.84375000000000000       0.71875000000000000        0.0000000000000000     
  0.87500000000000000       0.71875000000000000        0.0000000000000000     
  0.75000000000000000       0.75000000000000000        0.0000000000000000     
  0.78125000000000000       0.75000000000000000        0.0000000000000000     
  0.81250000000000000       0.75000000000000000        0.0000000000000000     
  0.84375000000000000       0.75000000000000000        0.0000000000000000     
  0.87500000000000000       0.75000000000000000        0.0000000000000000     
  0.87500000000000000       0.62500000000000000        0.0000000000000000     
  0.90625000000000000       0.62500000000000000        0.0000000000000000     
  0.93750000000000000       0.62500000000000000        0.0000000000000000     
  0.96875000000000000       0.62500000000000000        0.0000000000000000     
   1.0000000000000000       0.62500000000000000        0.0000000000000000     
  0.87500000000000000       0.65625000000000000        0.0000000000000000     
  0.90625000000000000       0.65625000000000000        0.0000000000000000     
  0.93750000000000000       0.65625000000000000        0.0000000000000000     
  0.96875000000000000       0.65625000000000000        0.0000000000000000     
   1.0000000000000000       0.65625000000000000        0.0000000000000000     
  0.87500000000000000       0.68750000000000000        0.0000000000000000     
  0.90625000000000000       0.68750000000000000        0.0000000000000000     
  0.93750000000000000       0.68750000000000000        0.0000000000000000     
  0.96875000000000000       0.68750000000000000        0.0000000000000000     
   1.0000000000000000       0.68750000000000000        0.0000000000000000     
  0.87500000000000000       0.71875000000000000        0.0000000000000000     
  0.90625000000000000       0.71875000000000000        0.0000000000000000     
  0.93750000000000000       0.71875000000000000        0.0000000000000000     
  0.96875000000000000       0.71875000000000000        0.0000000000000000     
   1.0000000000000000       0.71875000000000000        0.0000000000000000     
  0.87500000000000000       0.75000000000000000        0.0000000000000000     
  0.90625000000000000       0.75000000000000000        0.0000000000000000     
  0.93750000000000000       0.75000000000000000        0.0000000000000000     
  0.96875000000000000       0.75000000000000000        0.0000000000000000     
   1.0000000000000000       0.75000000000000000        0.0000000000000000     
   0.0000000000000000       0.75000000000000000        0.0000000000000000     
   3.1250000000000000E-002  0.75000000000000000        0.0000000000000000     
   6.2500000000000000E-002  0.75000000000000000        0.0000000000000000     
   9.3750000000000000E-002  0.75000000000000000        0.0000000000000000     
  0.12500000000000000       0.75000000000000000        0.0000000000000000     
   0.0000000000000000       0.78125000000000000        0.0000000000000000     
   3.1250000000000000E-002  0.78125000000000000        0.0000000000000000     
   6.2500000000000000E-002  0.78125000000000000        0.0000000000000000     
   9.3750000000000000E-002  0.78125000000000000        0.0000000000000000     
  0.12500000000000000       0.78125000000000000        0.0000000000000000     
   0.0000000000000000       0.81250000000000000        0.0000000000000000     
   3.1250000000000000E-002  0.81250000000000000        0.0000000000000000     
   6.2500000000000000E-002  0.81250000000000000        0.0000000000000000     
   9.3750000000000000E-002  0.81250000000000000        0.0000000000000000     
  0.12500000000000000       0.81250000000000000        0.0000000000000000     
   0.0000000000000000       0.84375000000000000        0.0000000000000000     
   3.1250000000000000E-002  0.84375000000000000        0.0000000000000000     
   6.2500000000000000E-002  0.84375000000000000        0.0000000000000000     
   9.3750000000000000E-002  0.84375000000000000        0.0000000000000000     
  0.12500000000000000       0.84375000000000000        0.0000000000000000     
   0.0000000000000000       0.87500000000000000        0.0000000000000000     
   3.1250000000000000E-002  0.87500000000000000        0.0000000000000000     
   6.2500000000000000E-002  0.87500000000000000        0.0000000000000000     
   9.3750000000000000E-002  0.87500000000000000        0.0000000000000000     
  0.12500000000000000       0.87500000000000000        0.0000000000000000     
  0.12500000000000000       0.75000000000000000        0.0000000000000000     
  0.15625000000000000       0.75000000000000000        0.0000000000000000     
  0.18750000000000000       0.75000000000000000        0.0000000000000000     
  0.21875000000000000       0.75000000000000000        0.0000000000000000     
  0.25000000000000000       0.75000000000000000        0.0000000000000000     
  0.12500000000000000       0.78125000000000000        0.0000000000000000     
  0.15625000000000000       0.78125000000000000        0.0000000000000000     
  0.18750000000000000       0.78125000000000000        0.0000000000000000     
  0.21875000000000000       0.78125000000000000        0.0000000000000000     
  0.25000000000000000       0.78125000000000000        0.0000000000000000     
  0.12500000000000000       0.81250000000000000        0.0000000000000000     
  0.15625000000000000       0.81250000000000000        0.0000000000000000     
  0.18750000000000000       0.81250000000000000        0.0000000000000000     
  0.21875000000000000       0.81250000000000000        0.0000000000000000     
  0.25000000000000000       0.81250000000000000        0.0000000000000000     
  0.12500000000000000       0.84375000000000000        0.0000000000000000     
  0.15625000000000000       0.84375000000000000        0.0000000000000000     
  0.18750000000000000       0.84375000000000000        0.0000000000000000     
  0.21875000000000000       0.84375000000000000        0.0000000000000000     
  0.25000000000000000       0.84375000000000000        0.0000000000000000     
  0.12500000000000000       0.87500000000000000        0.0000000000000000     
  0.15625000000000000       0.87500000000000000        0.0000000000000000     
  0.18750000000000000       0.87500000000000000        0.0000000000000000     
  0.21875000000000000       0.87500000000000000        0.0000000000000000     
  0.25000000000000000       0.87500000000000000        0.0000000000000000     
  0.25000000000000000       0.75000000000000000        0.0000000000000000     
  0.28125000000000000       0.75000000000000000        0.0000000000000000     
  0.31250000000000000       0.75000000000000000        0.0000000000000000     
  0.34375000000000000       0.75000000000000000        0.0000000000000000     
  0.37500000000000000       0.75000000000000000        0.0000000000000000     
  0.25000000000000000       0.78125000000000000        0.0000000000000000     
  0.28125000000000000       0.78125000000000000        0.0000000000000000     
  0.31250000000000000       0.78125000000000000        0.0000000000000000     
  0.34375000000000000       0.78125000000000000        0.0000000000000000     
  0.37500000000000000       0.78125000000000000        0.0000000000000000     
  0.25000000000000000       0.81250000000000000        0.0000000000000000     
  0.28125000000000000       0.81250000000000000        0.0000000000000000     
  0.31250000000000000       0.81250000000000000        0.0000000000000000     
  0.34375000000000000       0.81250000000000000        0.0000000000000000     
  0.37500000000000000       0.81250000000000000        0.0000000000000000     
  0.25000000000000000       0.84375000000000000        0.0000000000000000     
  0.28125000000000000       0.84375000000000000        0.0000000000000000     
  0.31250000000000000       0.84375000000000000        0.0000000000000000     
  0.34375000000000000       0.84375000000000000        0.0000000000000000     
  0.37500000000000000       0.84375000000000000        0.0000000000000000     
  0.25000000000000000       0.87500000000000000        0.0000000000000000     
  0.28125000000000000       0.87500000000000000        0.0000000000000000     
  0.31250000000000000       0.87500000000000000        0.0000000000000000     
  0.34375000000000000       0.87500000000000000        0.0000000000000000     
  0.37500000000000000       0.87500000000000000        0.0000000000000000     
  0.37500000000000000       0.75000000000000000        0.0000000000000000     
  0.40625000000000000       0.75000000000000000        0.0000000000000000     
  0.43750000000000000       0.75000000000000000        0.0000000000000000     
  0.46875000000000000       0.75000000000000000        0.0000000000000000     
  0.50000000000000000       0.75000000000000000        0.0000000000000000     
  0.37500000000000000       0.78125000000000000        0.0000000000000000     
  0.40625000000000000       0.78125000000000000        0.0000000000000000     
  0.43750000000000000       0.78125000000000000        0.0000000000000000     
  0.46875000000000000       0.78125000000000000        0.0000000000000000     
  0.50000000000000000       0.78125000000000000        0.0000000000000000     
  0.37500000000000000       0.81250000000000000        0.0000000000000000     
  0.40625000000000000       0.81250000000000000        0.0000000000000000     
  0.43750000000000000       0.81250000000000000        0.0000000000000000     
  0.46875000000000000       0.81250000000000000        0.0000000000000000     
  0.50000000000000000       0.81250000000000000        0.0000000000000000     
  0.37500000000000000       0.84375000000000000        0.0000000000000000     
  0.40625000000000000       0.84375000000000000        0.0000000000000000     
  0.43750000000000000       0.84375000000000000        0.0000000000000000     
  0.46875000000000000       0.84375000000000000        0.0000000000000000     
  0.50000000000000000       0.84375000000000000        0.0000000000000000     
  0.37500000000000000       0.87500000000000000        0.0000000000000000     
  0.40625000000000000       0.87500000000000000        0.0000000000000000     
  0.43750000000000000       0.87500000000000000        0.0000000000000000     
  0.46875000000000000       0.87500000000000000        0.0000000000000000     
  0.50000000000000000       0.87500000000000000        0.0000000000000000     
  0.50000000000000000       0.75000000000000000        0.0000000000000000     
  0.53125000000000000       0.75000000000000000        0.0000000000000000     
  0.56250000000000000       0.75000000000000000        0.0000000000000000     
  0.59375000000000000       0.75000000000000000        0.0000000000000000     
  0.62500000000000000       0.75000000000000000        0.0000000000000000     
  0.50000000000000000       0.78125000000000000        0.0000000000000000     
  0.53125000000000000       0.78125000000000000        0.0000000000000000     
  0.56250000000000000       0.78125000000000000        0.0000000000000000     
  0.59375000000000000       0.78125000000000000        0.0000000000000000     
  0.62500000000000000       0.78125000000000000        0.0000000000000000     
  0.50000000000000000       0.81250000000000000        0.0000000000000000     
  0.53125000000000000       0.81250000000000000        0.0000000000000000     
  0.56250000000000000       0.81250000000000000        0.0000000000000000     
  0.59375000000000000       0.81250000000000000        0.0000000000000000     
  0.62500000000000000       0.81250000000000000        0.0000000000000000     
  0.50000000000000000       0.84375000000000000        0.0000000000000000     
  0.53125000000000000       0.84375000000000000        0.0000000000000000     
  0.56250000000000000       0.84375000000000000        0.0000000000000000     
  0.59375000000000000       0.84375000000000000        0.0000000000000000     
  0.62500000000000000       0.84375000000000000        0.0000000000000000     
  0.50000000000000000       0.87500000000000000        0.0000000000000000     
  0.53125000000000000       0.87500000000000000        0.0000000000000000     
  0.56250000000000000       0.87500000000000000        0.0000000000000000     
  0.59375000000000000       0.87500000000000000        0.0000000000000000     
  0.62500000000000000       0.87500000000000000        0.0000000000000000     
  0.62500000000000000       0.75000000000000000        0.0000000000000000     
  0.65625000000000000       0.75000000000000000        0.0000000000000000     
  0.68750000000000000       0.75000000000000000        0.0000000000000000     
  0.71875000000000000       0.75000000000000000        0.0000000000000000     
  0.75000000000000000       0.75000000000000000        0.0000000000000000     
  0.62500000000000000       0.78125000000000000        0.0000000000000000     
  0.65625000000000000       0.78125000000000000        0.0000000000000000     
  0.68750000000000000       0.78125000000000000        0.0000000000000000     
  0.71875000000000000       0.78125000000000000        0.0000000000000000     
  0.75000000000000000       0.78125000000000000        0.0000000000000000     
  0.62500000000000000       0.81250000000000000        0.0000000000000000     
  0.65625000000000000       0.81250000000000000        0.0000000000000000     
  0.68750000000000000       0.81250000000000000        0.0000000000000000     
  0.71875000000000000       0.81250000000000000        0.0000000000000000     
  0.75000000000000000       0.81250000000000000        0.0000000000000000     
  0.62500000000000000       0.84375000000000000        0.0000000000000000     
  0.65625000000000000       0.84375000000000000        0.0000000000000000     
  0.68750000000000000       0.84375000000000000        0.0000000000000000     
  0.71875000000000000       0.84375000000000000        0.0000000000000000     
  0.75000000000000000       0.84375000000000000        0.0000000000000000     
  0.62500000000000000       0.87500000000000000        0.0000000000000000     
  0.65625000000000000       0.87500000000000000        0.0000000000000000     
  0.68750000000000000       0.87500000000000000        0.0000000000000000     
  0.71875000000000000       0.87500000000000000        0.0000000000000000     
  0.75000000000000000       0.87500000000000000        0.0000000000000000     
  0.75000000000000000       0.75000000000000000        0.0000000000000000     
  0.78125000000000000       0.75000000000000000        0.0000000000000000     
  0.81250000000000000       0.75000000000000000        0.0000000000000000     
  0.84375000000000000       0.75000000000000000        0.0000000000000000     
  0.87500000000000000       0.75000000000000000        0.0000000000000000     
  0.75000000000000000       0.78125000000000000        0.0000000000000000     
  0.78125000000000000       0.78125000000000000        0.0000000000000000     
  0.81250000000000000       0.78125000000000000        0.0000000000000000     
  0.84375000000000000       0.78125000000000000        0.0000000000000000     
  0.87500000000000000       0.78125000000000000        0.0000000000000000     
  0.75000000000000000       0.81250000000000000        0.0000000000000000     
  0.78125000000000000       0.81250000000000000        0.0000000000000000     
  0.81250000000000000       0.81250000000000000        0.0000000000000000     
  0.84375000000000000       0.81250000000000000        0.0000000000000000     
  0.87500000000000000       0.81250000000000000        0.0000000000000000     
  0.75000000000000000       0.84375000000000000        0.0000000000000000     
  0.78125000000000000       0.84375000000000000        0.0000000000000000     
  0.81250000000000000       0.84375000000000000        0.0000000000000000     
  0.84375000000000000       0.84375000000000000        0.0000000000000000     
  0.87500000000000000       0.84375000000000000        0.0000000000000000     
  0.75000000000000000       0.87500000000000000        0.0000000000000000     
  0.78125000000000000       0.87500000000000000        0.0000000000000000     
  0.81250000000000000       0.87500000000000000        0.0000000000000000     
  0.84375000000000000       0.87500000000000000        0.0000000000000000     
  0.87500000000000000       0.87500000000000000        0.0000000000000000     
  0.87500000000000000       0.75000000000000000        0.0000000000000000     
  0.90625000000000000       0.75000000000000000        0.0000000000000000     
  0.93750000000000000       0.75000000000000000        0.0000000000000000     
  0.96875000000000000       0.75000000000000000        0.0000000000000000     
   1.0000000000000000       0.75000000000000000        0.0000000000000000     
  0.87500000000000000       0.78125000000000000        0.0000000000000000     
  0.90625000000000000       0.78125000000000000        0.0000000000000000     
  0.93750000000000000       0.78125000000000000        0.0000000000000000     
  0.96875000000000000       0.78125000000000000        0.0000000000000000     
   1.0000000000000000       0.78125000000000000        0.0000000000000000     
  0.87500000000000000       0.81250000000000000        0.0000000000000000     
  0.90625000000000000       0.81250000000000000        0.0000000000000000     
  0.93750000000000000       0.81250000000000000        0.0000000000000000     
  0.96875000000000000       0.81250000000000000        0.0000000000000000     
   1.0000000000000000       0.81250000000000000        0.0000000000000000     
  0.87500000000000000       0.84375000000000000        0.0000000000000000     
  0.90625000000000000       0.84375000000000000        0.0000000000000000     
  0.93750000000000000       0.84375000000000000        0.0000000000000000     
  0.96875000000000000       0.84375000000000000        0.0000000000000000     
   1.0000000000000000       0.84375000000000000        0.0000000000000000     
  0.87500000000000000       0.87500000000000000        0.0000000000000000     
  0.90625000000000000       0.87500000000000000        0.0000000000000000     
  0.93750000000000000       0.87500000000000000        0.0000000000000000     
  0.96875000000000000       0.87500000000000000        0.0000000000000000     
   1.0000000000000000       0.87500000000000000        0.0000000000000000     
   0.0000000000000000       0.87500000000000000        0.0000000000000000     
   3.1250000000000000E-002  0.87500000000000000        0.0000000000000000     
   6.2500000000000000E-002  0.87500000000000000        0.0000000000000000     
   9.3750000000000000E-002  0.87500000000000000        0.0000000000000000     
  0.12500000000000000       0.87500000000000000        0.0000000000000000     
   0.0000000000000000       0.90625000000000000        0.0000000000000000     
   3.1250000000000000E-002  0.90625000000000000        0.0000000000000000     
   6.2500000000000000E-002  0.90625000000000000        0.0000000000000000     
   9.3750000000000000E-002  0.90625000000000000        0.0000000000000000     
  0.12500000000000000       0.90625000000000000        0.0000000000000000     
   0.0000000000000000       0.93750000000000000        0.0000000000000000     
   3.1250000000000000E-002  0.93750000000000000        0.0000000000000000     
   6.2500000000000000E-002  0.93750000000000000        0.0000000000000000     
   9.3750000000000000E-002  0.93750000000000000        0.0000000000000000     
  0.12500000000000000       0.93750000000000000        0.0000000000000000     
   0.0000000000000000       0.96875000000000000        0.0000000000000000     
   3.1250000000000000E-002  0.96875000000000000        0.0000000000000000     
   6.2500000000000000E-002  0.96875000000000000        0.0000000000000000     
   9.3750000000000000E-002  0.96875000000000000        0.0000000000000000     
  0.12500000000000000       0.96875000000000000        0.0000000000000000     
   0.0000000000000000        1.0000000000000000        0.0000000000000000     
   3.1250000000000000E-002   1.0000000000000000        0.0000000000000000     
   6.2500000000000000E-002   1.0000000000000000        0.0000000000000000     
   9.3750000000000000E-002   1.0000000000000000        0.0000000000000000     
  0.12500000000000000        1.0000000000000000        0.0000000000000000     
  0.12500000000000000       0.87500000000000000        0.0000000000000000     
  0.15625000000000000       0.87500000000000000        0.0000000000000000     
  0.18750000000000000       0.87500000000000000        0.0000000000000000     
  0.21875000000000000       0.87500000000000000        0.0000000000000000     
  0.25000000000000000       0.87500000000000000        0.0000000000000000     
  0.12500000000000000       0.90625000000000000        0.0000000000000000     
  0.15625000000000000       0.90625000000000000        0.0000000000000000     
  0.18750000000000000       0.90625000000000000        0.0000000000000000     
  0.21875000000000000       0.90625000000000000        0.0000000000000000     
  0.25000000000000000       0.90625000000000000        0.0000000000000000     
  0.12500000000000000       0.93750000000000000        0.0000000000000000     
  0.15625000000000000       0.93750000000000000        0.0000000000000000     
  0.18750000000000000       0.93750000000000000        0.0000000000000000     
  0.21875000000000000       0.93750000000000000        0.0000000000000000     
  0.25000000000000000       0.93750000000000000        0.0000000000000000     
  0.12500000000000000       0.96875000000000000        0.0000000000000000     
  0.15625000000000000       0.96875000000000000        0.0000000000000000     
  0.18750000000000000       0.96875000000000000        0.0000000000000000     
  0.21875000000000000       0.96875000000000000        0.0000000000000000     
  0.25000000000000000       0.96875000000000000        0.0000000000000000     
  0.12500000000000000        1.0000000000000000        0.0000000000000000     
  0.15625000000000000        1.0000000000000000        0.0000000000000000     
  0.18750000000000000        1.0000000000000000        0.0000000000000000     
  0.21875000000000000        1.0000000000000000        0.0000000000000000     
  0.25000000000000000        1.0000000000000000        0.0000000000000000     
  0.25000000000000000       0.87500000000000000        0.0000000000000000     
  0.28125000000000000       0.87500000000000000        0.0000000000000000     
  0.31250000000000000       0.87500000000000000        0.0000000000000000     
  0.34375000000000000       0.87500000000000000        0.0000000000000000     
  0.37500000000000000       0.87500000000000000        0.0000000000000000     
  0.25000000000000000       0.90625000000000000        0.0000000000000000     
  0.28125000000000000       0.90625000000000000        0.0000000000000000     
  0.31250000000000000       0.90625000000000000        0.0000000000000000     
  0.34375000000000000       0.90625000000000000        0.0000000000000000     
  0.37500000000000000       0.90625000000000000        0.0000000000000000     
  0.25000000000000000       0.93750000000000000        0.0000000000000000     
  0.28125000000000000       0.93750000000000000        0.0000000000000000     
  0.31250000000000000       0.93750000000000000        0.0000000000000000     
  0.34375000000000000       0.93750000000000000        0.0000000000000000     
  0.37500000000000000       0.93750000000000000        0.0000000000000000     
  0.25000000000000000       0.96875000000000000        0.0000000000000000     
  0.28125000000000000       0.96875000000000000        0.0000000000000000     
  0.31250000000000000       0.96875000000000000        0.0000000000000000     
  0.34375000000000000       0.96875000000000000        0.0000000000000000     
  0.37500000000000000       0.96875000000000000        0.0000000000000000     
  0.25000000000000000        1.0000000000000000        0.0000000000000000     
  0.28125000000000000        1.0000000000000000        0.0000000000000000     
  0.31250000000000000        1.0000000000000000        0.0000000000000000     
  0.34375000000000000        1.0000000000000000        0.0000000000000000     
  0.37500000000000000        1.0000000000000000        0.0000000000000000     
  0.37500000000000000       0.87500000000000000        0.0000000000000000     
  0.40625000000000000       0.87500000000000000        0.0000000000000000     
  0.43750000000000000       0.87500000000000000        0.0000000000000000     
  0.46875000000000000       0.87500000000000000        0.0000000000000000     
  0.50000000000000000       0.87500000000000000        0.0000000000000000     
  0.37500000000000000       0.90625000000000000        0.0000000000000000     
  0.40625000000000000       0.90625000000000000        0.0000000000000000     
  0.43750000000000000       0.90625000000000000        0.0000000000000000     
  0.46875000000000000       0.90625000000000000        0.0000000000000000     
  0.50000000000000000       0.90625000000000000        0.0000000000000000     
  0.37500000000000000       0.93750000000000000        0.0000000000000000     
  0.40625000000000000       0.93750000000000000        0.0000000000000000     
  0.43750000000000000       0.93750000000000000        0.0000000000000000     
  0.46875000000000000       0.93750000000000000        0.0000000000000000     
  0.50000000000000000       0.93750000000000000        0.0000000000000000     
  0.37500000000000000       0.96875000000000000        0.0000000000000000     
  0.40625000000000000       0.96875000000000000        0.0000000000000000     
  0.43750000000000000       0.96875000000000000        0.0000000000000000     
  0.46875000000000000       0.96875000000000000        0.0000000000000000     
  0.50000000000000000       0.96875000000000000        0.0000000000000000     
  0.37500000000000000        1.0000000000000000        0.0000000000000000     
  0.40625000000000000        1.0000000000000000        0.0000000000000000     
  0.43750000000000000        1.0000000000000000        0.0000000000000000     
  0.46875000000000000        1.0000000000000000        0.0000000000000000     
  0.50000000000000000        1.0000000000000000        0.0000000000000000     
  0.50000000000000000       0.87500000000000000        0.0000000000000000     
  0.53125000000000000       0.87500000000000000        0.0000000000000000     
  0.56250000000000000       0.87500000000000000        0.0000000000000000     
  0.59375000000000000       0.87500000000000000        0.0000000000000000     
  0.62500000000000000       0.87500000000000000        0.0000000000000000     
  0.50000000000000000       0.90625000000000000        0.0000000000000000     
  0.53125000000000000       0.90625000000000000        0.0000000000000000     
  0.56250000000000000       0.90625000000000000        0.0000000000000000     
  0.59375000000000000       0.90625000000000000        0.0000000000000000     
  0.62500000000000000       0.90625000000000000        0.0000000000000000     
  0.50000000000000000       0.93750000000000000        0.0000000000000000     
  0.53125000000000000       0.93750000000000000        0.0000000000000000     
  0.56250000000000000       0.93750000000000000        0.0000000000000000     
  0.59375000000000000       0.93750000000000000        0.0000000000000000     
  0.62500000000000000       0.93750000000000000        0.0000000000000000     
  0.50000000000000000       0.96875000000000000        0.0000000000000000     
  0.53125000000000000       0.96875000000000000        0.0000000000000000     
  0.56250000000000000       0.96875000000000000        0.0000000000000000     
  0.59375000000000000       0.96875000000000000        0.0000000000000000     
  0.62500000000000000       0.96875000000000000        0.0000000000000000     
  0.50000000000000000        1.0000000000000000        0.0000000000000000     
  0.53125000000000000        1.0000000000000000        0.0000000000000000     
  0.56250000000000000        1.0000000000000000        0.0000000000000000     
  0.59375000000000000        1.0000000000000000        0.0000000000000000     
  0.62500000000000000        1.0000000000000000        0.0000000000000000     
  0.62500000000000000       0.87500000000000000        0.0000000000000000     
  0.65625000000000000       0.87500000000000000        0.0000000000000000     
  0.68750000000000000       0.87500000000000000        0.0000000000000000     
  0.71875000000000000       0.87500000000000000        0.0000000000000000     
  0.75000000000000000       0.87500000000000000        0.0000000000000000     
  0.62500000000000000       0.90625000000000000        0.0000000000000000     
  0.65625000000000000       0.90625000000000000        0.0000000000000000     
  0.68750000000000000       0.90625000000000000        0.0000000000000000     
  0.71875000000000000       0.90625000000000000        0.0000000000000000     
  0.75000000000000000       0.90625000000000000        0.0000000000000000     
  0.62500000000000000       0.93750000000000000        0.0000000000000000     
  0.65625000000000000       0.93750000000000000        0.0000000000000000     
  0.68750000000000000       0.93750000000000000        0.0000000000000000     
  0.71875000000000000       0.93750000000000000        0.0000000000000000     
  0.75000000000000000       0.93750000000000000        0.0000000000000000     
  0.62500000000000000       0.96875000000000000        0.0000000000000000     
  0.65625000000000000       0.96875000000000000        0.0000000000000000     
  0.68750000000000000       0.96875000000000000        0.0000000000000000     
  0.71875000000000000       0.96875000000000000        0.0000000000000000     
  0.75000000000000000       0.96875000000000000        0.0000000000000000     
  0.62500000000000000        1.0000000000000000        0.0000000000000000     
  0.65625000000000000        1.0000000000000000        0.0000000000000000     
  0.68750000000000000        1.0000000000000000        0.0000000000000000     
  0.71875000000000000        1.0000000000000000        0.0000000000000000     
  0.75000000000000000        1.0000000000000000        0.0000000000000000     
  0.75000000000000000       0.87500000000000000        0.0000000000000000     
  0.78125000000000000       0.87500000000000000        0.0000000000000000     
  0.81250000000000000       0.87500000000000000        0.0000000000000000     
  0.84375000000000000       0.87500000000000000        0.0000000000000000     
  0.87500000000000000       0.87500000000000000        0.0000000000000000     
  0.75000000000000000       0.90625000000000000        0.0000000000000000     
  0.78125000000000000       0.90625000000000000        0.0000000000000000     
  0.81250000000000000       0.90625000000000000        0.0000000000000000     
  0.84375000000000000       0.90625000000000000        0.0000000000000000     
  0.87500000000000000       0.90625000000000000        0.0000000000000000     
  0.75000000000000000       0.93750000000000000        0.0000000000000000     
  0.78125000000000000       0.93750000000000000        0.0000000000000000     
  0.81250000000000000       0.93750000000000000        0.0000000000000000     
  0.84375000000000000       0.93750000000000000        0.0000000000000000     
  0.87500000000000000       0.93750000000000000        0.0000000000000000     
  0.75000000000000000       0.96875000000000000        0.0000000000000000     
  0.78125000000000000       0.96875000000000000        0.0000000000000000     
  0.81250000000000000       0.96875000000000000        0.0000000000000000     
  0.84375000000000000       0.96875000000000000        0.0000000000000000     
  0.87500000000000000       0.96875000000000000        0.0000000000000000     
  0.75000000000000000        1.0000000000000000        0.0000000000000000     
  0.78125000000000000        1.0000000000000000        0.0000000000000000     
  0.81250000000000000        1.0000000000000000        0.0000000000000000     
  0.84375000000000000        1.0000000000000000        0.0000000000000000     
  0.87500000000000000        1.0000000000000000        0.0000000000000000     
  0.87500000000000000       0.87500000000000000        0.0000000000000000     
  0.90625000000000000       0.87500000000000000        0.0000000000000000     
  0.93750000000000000       0.87500000000000000        0.0000000000000000     
  0.96875000000000000       0.87500000000000000        0.0000000000000000     
   1.0000000000000000       0.87500000000000000        0.0000000000000000     
  0.87500000000000000       0.90625000000000000        0.0000000000000000     
  0.90625000000000000       0.90625000000000000        0.0000000000000000     
  0.93750000000000000       0.90625000000000000        0.0000000000000000     
  0.96875000000000000       0.90625000000000000        0.0000000000000000     
   1.0000000000000000       0.90625000000000000        0.0000000000000000     
  0.87500000000000000       0.93750000000000000        0.0000000000000000     
  0.90625000000000000       0.93750000000000000        0.0000000000000000     
  0.93750000000000000       0.93750000000000000        0.0000000000000000     
  0.96875000000000000       0.93750000000000000        0.0000000000000000     
   1.0000000000000000       0.93750000000000000        0.0000000000000000     
  0.87500000000000000       0.96875000000000000        0.0000000000000000     
  0.90625000000000000       0.96875000000000000        0.0000000000000000     
  0.93750000000000000       0.96875000000000000        0.0000000000000000     
  0.96875000000000000       0.96875000000000000        0.0000000000000000     
   1.0000000000000000       0.96875000000000000        0.0000000000000000     
  0.87500000000000000        1.0000000000000000        0.0000000000000000     
  0.90625000000000000        1.0000000000000000        0.0000000000000000     
  0.93750000000000000        1.0000000000000000        0.0000000000000000     
  0.96875000000000000        1.0000000000000000        0.0000000000000000     
   1.0000000000000000        1.0000000000000000        0.0000000000000000     
 </DataArray>
 </Points>
 <Cells>
 <DataArray  type="Int32"  Name="connectivity"  format="ascii">
           0           1           6           5
           1           2           7           6
           2           3           8           7
           3           4           9           8
           5           6          11          10
           6           7          12          11
           7           8          13          12
           8           9          14          13
          10          11          16          15
          11          12          17          16
          12          13          18          17
          13          14          19          18
          15          16          21          20
          16          17          22          21
          17          18          23          22
          18          19          24          23
          25          26          31          30
          26          27          32          31
          27          28          33          32
          28          29          34          33
          30          31          36          35
          31          32          37          36
          32          33          38          37
          33          34          39          38
          35          36          41          40
          36          37          42          41
          37          38          43          42
          38          39          44          43
          40          41          46          45
          41          42          47          46
          42          43          48          47
          43          44          49          48
          50          51          56          55
          51          52          57          56
          52          53          58          57
          53          54          59          58
          55          56          61          60
          56          57          62          61
          57          58          63          62
          58          59          64          63
          60          61          66          65
          61          62          67          66
          62          63          68          67
          63          64          69          68
          65          66          71          70
          66          67          72          71
          67          68          73          72
          68          69          74          73
          75          76          81          80
          76          77          82          81
          77          78          83          82
          78          79          84          83
          80          81          86          85
          81          82          87          86
          82          83          88          87
          83          84          89          88
          85          86          91          90
          86          87          92          91
          87          88          93          92
          88          89          94          93
          90          91          96          95
          91          92          97          96
          92          93          98          97
          93          94          99          98
         100         101         106         105
         101         102         107         106
         102         103         108         107
         103         104         109         108
         105         106         111         110
         106         107         112         111
         107         108         113         112
         108         109         114         113
         110         111         116         115
         111         112         117         116
         112         113         118         117
         113         114         119         118
         115         116         121         120
         116         117         122         121
         117         118         123         122
         118         119         124         123
         125         126         131         130
         126         127         132         131
         127         128         133         132
         128         129         134         133
         130         131         136         135
         131         132         137         136
         132         133         138         137
         133         134         139         138
         135         136         141         140
         136         137         142         141
         137         138         143         142
         138         139         144         143
         140         141         146         145
         141         142         147         146
         142         143         148         147
         143         144         149         148
         150         151         156         155
         151         152         157         156
         152         153         158         157
         153         154         159         158
         155         156         161         160
         156         157         162         161
         157         158         163         162
         158         159         164         163
         160         161         166         165
         161         162         167         166
         162         163         168         167
         163         164         169         168
         165         166         171         170
         166         167         172         171
         167         168         173         172
         168         169         174         173
         175         176         181         180
         176         177         182         181
         177         178         183         182
         178         179         184         183
         180         181         186         185
         181         182         187         186
         182         183         188         187
         183         184         189         188
         185         186         191         190
         186         187         192         191
         187         188         193         192
         188         189         194         193
         190         191         196         195
         191         192         197         196
         192         193         198         197
         193         194         199         198
         200         201         206         205
         201         202         207         206
         202         203         208         207
         203         204         209         208
         205         206         211         210
         206         207         212         211
         207         208         213         212
         208         209         214         213
         210         211         216         215
         211         212         217         216
         212         213         218         217
         213         214         219         218
         215         216         221         220
         216         217         222         221
         217         218         223         222
         218         219         224         223
         225         226         231         230
         226         227         232         231
         227         228         233         232
         228         229         234         233
         230         231         236         235
         231         232         237         236
         232         233         238         237
         233         234         239         238
         235         236         241         240
         236         237         242         241
         237         238         243         242
         238         239         244         243
         240         241         246         245
         241         242         247         246
         242         243         248         247
         243         244         249         248
         250         251         256         255
         251         252         257         256
         252         253         258         257
         253         254         259         258
         255         256         261         260
         256         257         262         261
         257         258         263         262
         258         259         264         263
         260         261         266         265
         261         262         267         266
         262         263         268         267
         263         264         269         268
         265         266         271         270
         266         267         272         271
         267         268         273         272
         268         269         274         273
         275         276         281         280
         276         277         282         281
         277         278         283         282
         278         279         284         283
         280         281         286         285
         281         282         287         286
         282         283         288         287
         283         284         289         288
         285         286         291         290
         286         287         292         291
         287         288         293         292
         288         289         294         293
         290         291         296         295
         291         292         297         296
         292         293         298         297
         293         294         299         298
         300         301         306         305
         301         302         307         306
         302         303         308         307
         303         304         309         308
         305         306         311         310
         306         307         312         311
         307         308         313         312
         308         309         314         313
         310         311         316         315
         311         312         317         316
         312         313         318         317
         313         314         319         318
         315         316         321         320
         316         317         322         321
         317         318         323         322
         318         319         324         323
         325         326         331         330
         326         327         332         331
         327         328         333         332
         328         329         334         333
         330         331         336         335
         331         332         337         336
         332         333         338         337
         333         334         339         338
         335         336         341         340
         336         337         342         341
         337         338         343         342
         338         339         344         343
         340         341         346         345
         341         342         347         346
         342         343         348         347
         343         344         349         348
         350         351         356         355
         351         352         357         356
         352         353         358         357
         353         354         359         358
         355         356         361         360
         356         357         362         361
         357         358         363         362
         358         359         364         363
         360         361         366         365
         361         362         367         366
         362         363         368         367
         363         364         369         368
         365         366         371         370
         366         367         372         371
         367         368         373         372
         368         369         374         373
         375         376         381         380
         376         377         382         381
         377         378         383         382
         378         379         384         383
         380         381         386         385
         381         382         387         386
         382         383         388         387
         383         384         389         388
         385         386         391         390
         386         387         392         391
         387         388         393         392
         388         389         394         393
         390         391         396         395
         391         392         397         396
         392         393         398         397
         393         394         399         398
         400         401         406         405
         401         402         407         406
         402         403         408         407
         403         404         409         408
         405         406         411         410
         406         407         412         411
         407         408         413         412
         408         409         414         413
         410         411         416         415
         411         412         417         416
         412         413         418         417
         413         414         419         418
         415         416         421         420
         416         417         422         421
         417         418         423         422
         418         419         424         423
         425         426         431         430
         426         427         432         431
         427         428         433         432
         428         429         434         433
         430         431         436         435
         431         432         437         436
         432         433         438         437
         433         434         439         438
         435         436         441         440
         436         437         442         441
         437         438         443         442
         438         439         444         443
         440         441         446         445
         441         442         447         446
         442         443         448         447
         443         444         449         448
         450         451         456         455
         451         452         457         456
         452         453         458         457
         453         454         459         458
         455         456         461         460
         456         457         462         461
         457         458         463         462
         458         459         464         463
         460         461         466         465
         461         462         467         466
         462         463         468         467
         463         464         469         468
         465         466         471         470
         466         467         472         471
         467         468         473         472
         468         469         474         473
         475         476         481         480
         476         477         482         481
         477         478         483         482
         478         479         484         483
         480         481         486         485
         481         482         487         486
         482         483         488         487
         483         484         489         488
         485         486         491         490
         486         487         492         491
         487         488         493         492
         488         489         494         493
         490         491         496         495
         491         492         497         496
         492         493         498         497
         493         494         499         498
         500         501         506         505
         501         502         507         506
         502         503         508         507
         503         504         509         508
         505         506         511         510
         506         507         512         511
         507         508         513         512
         508         509         514         513
         510         511         516         515
         511         512         517         516
         512         513         518         517
         513         514         519         518
         515         516         521         520
         516         517         522         521
         517         518         523         522
         518         519         524         523
         525         526         531         530
         526         527         532         531
         527         528         533         532
         528         529         534         533
         530         531         536         535
         531         532         537         536
         532         533         538         537
         533         534         539         538
         535         536         541         540
         536         537         542         541
         537         538         543         542
         538         539         544         543
         540         541         546         545
         541         542         547         546
         542         543         548         547
         543         544         549         548
         550         551         556         555
         551         552         557         556
         552         553         558         557
         553         554         559         558
         555         556         561         560
         556         557         562         561
         557         558         563         562
         558         559         564         563
         560         561         566         565
         561         562         567         566
         562         563         568         567
         563         564         569         568
         565         566         571         570
         566         567         572         571
         567         568         573         572
         568         569         574         573
         575         576         581         580
         576         577         582         581
         577         578         583         582
         578         579         584         583
         580         581         586         585
         581         582         587         586
         582         583         588         587
         583         584         589         588
         585         586         591         590
         586         587         592         591
         587         588         593         592
         588         589         594         593
         590         591         596         595
         591         592         597         596
         592         593         598         597
         593         594         599         598
         600         601         606         605
         601         602         607         606
         602         603         608         607
         603         604         609         608
         605         606         611         610
         606         607         612         611
         607         608         613         612
         608         609         614         613
         610         611         616         615
         611         612         617         616
         612         613         618         617
         613         614         619         618
         615         616         621         620
         616         617         622         621
         617         618         623         622
         618         619         624         623
         625         626         631         630
         626         627         632         631
         627         628         633         632
         628         629         634         633
         630         631         636         635
         631         632         637         636
         632         633         638         637
         633         634         639         638
         635         636         641         640
         636         637         642         641
         637         638         643         642
         638         639         644         643
         640         641         646         645
         641         642         647         646
         642         643         648         647
         643         644         649         648
         650         651         656         655
         651         652         657         656
         652         653         658         657
         653         654         659         658
         655         656         661         660
         656         657         662         661
         657         658         663         662
         658         659         664         663
         660         661         666         665
         661         662         667         666
         662         663         668         667
         663         664         669         668
         665         666         671         670
         666         667         672         671
         667         668         673         672
         668         669         674         673
         675         676         681         680
         676         677         682         681
         677         678         683         682
         678         679         684         683
         680         681         686         685
         681         682         687         686
         682         683         688         687
         683         684         689         688
         685         686         691         690
         686         687         692         691
         687         688         693         692
         688         689         694         693
         690         691         696         695
         691         692         697         696
         692         693         698         697
         693         694         699         698
         700         701         706         705
         701         702         707         706
         702         703         708         707
         703         704         709         708
         705         706         711         710
         706         707         712         711
         707         708         713         712
         708         709         714         713
         710         711         716         715
         711         712         717         716
         712         713         718         717
         713         714         719         718
         715         716         721         720
         716         717         722         721
         717         718         723         722
         718         719         724         723
         725         726         731         730
         726         727         732         731
         727         728         733         732
         728         729         734         733
         730         731         736         735
         731         732         737         736
         732         733         738         737
         733         734         739         738
         735         736         741         740
         736         737         742         741
         737         738         743         742
         738         739         744         743
         740         741         746         745
         741         742         747         746
         742         743         748         747
         743         744         749         748
         750         751         756         755
         751         752         757         756
         752         753         758         757
         753         754         759         758
         755         756         761         760
         756         757         762         761
         757         758         763         762
         758         759         764         763
         760         761         766         765
         761         762         767         766
         762         763         768         767
         763         764         769         768
         765         766         771         770
         766         767         772         771
         767         768         773         772
         768         769         774         773
         775         776         781         780
         776         777         782         781
         777         778         783         782
         778         779         784         783
         780         781         786         785
         781         782         787         786
         782         783         788         787
         783         784         789         788
         785         786         791         790
         786         787         792         791
         787         788         793         792
         788         789         794         793
         790         791         796         795
         791         792         797         796
         792         793         798         797
         793         794         799         798
         800         801         806         805
         801         802         807         806
         802         803         808         807
         803         804         809         808
         805         806         811         810
         806         807         812         811
         807         808         813         812
         808         809         814         813
         810         811         816         815
         811         812         817         816
         812         813         818         817
         813         814         819         818
         815         816         821         820
         816         817         822         821
         817         818         823         822
         818         819         824         823
         825         826         831         830
         826         827         832         831
         827         828         833         832
         828         829         834         833
         830         831         836         835
         831         832         837         836
         832         833         838         837
         833         834         839         838
         835         836         841         840
         836         837         842         841
         837         838         843         842
         838         839         844         843
         840         841         846         845
         841         842         847         846
         842         843         848         847
         843         844         849         848
         850         851         856         855
         851         852         857         856
         852         853         858         857
         853         854         859         858
         855         856         861         860
         856         857         862         861
         857         858         863         862
         858         859         864         863
         860         861         866         865
         861         862         867         866
         862         863         868         867
         863         864         869         868
         865         866         871         870
         866         867         872         871
         867         868         873         872
         868         869         874         873
         875         876         881         880
         876         877         882         881
         877         878         883         882
         878         879         884         883
         880         881         886         885
         881         882         887         886
         882         883         888         887
         883         884         889         888
         885         886         891         890
         886         887         892         891
         887         888         893         892
         888         889         894         893
         890         891         896         895
         891         892         897         896
         892         893         898         897
         893         894         899         898
         900         901         906         905
         901         902         907         906
         902         903         908         907
         903         904         909         908
         905         906         911         910
         906         907         912         911
         907         908         913         912
         908         909         914         913
         910         911         916         915
         911         912         917         916
         912         913         918         917
         913         914         919         918
         915         916         921         920
         916         917         922         921
         917         918         923         922
         918         919         924         923
         925         926         931         930
         926         927         932         931
         927         928         933         932
         928         929         934         933
         930         931         936         935
         931         932         937         936
         932         933         938         937
         933         934         939         938
         935         936         941         940
         936         937         942         941
         937         938         943         942
         938         939         944         943
         940         941         946         945
         941         942         947         946
         942         943         948         947
         943         944         949         948
         950         951         956         955
         951         952         957         956
         952         953         958         957
         953         954         959         958
         955         956         961         960
         956         957         962         961
         957         958         963         962
         958         959         964         963
         960         961         966         965
         961         962         967         966
         962         963         968         967
         963         964         969         968
         965         966         971         970
         966         967         972         971
         967         968         973         972
         968         969         974         973
         975         976         981         980
         976         977         982         981
         977         978         983         982
         978         979         984         983
         980         981         986         985
         981         982         987         986
         982         983         988         987
         983         984         989         988
         985         986         991         990
         986         987         992         991
         987         988         993         992
         988         989         994         993
         990         991         996         995
         991         992         997         996
         992         993         998         997
         993         994         999         998
        1000        1001        1006        1005
        1001        1002        1007        1006
        1002        1003        1008        1007
        1003        1004        1009        1008
        1005        1006        1011        1010
        1006        1007        1012        1011
        1007        1008        1013        1012
        1008        1009        1014        1013
        1010        1011        1016        1015
        1011        1012        1017        1016
        1012        1013        1018        1017
        1013        1014        1019        1018
        1015        1016        1021        1020
        1016        1017        1022        1021
        1017        1018        1023        1022
        1018        1019        1024        1023
        1025        1026        1031        1030
        1026        1027        1032        1031
        1027        1028        1033        1032
        1028        1029        1034        1033
        1030        1031        1036        1035
        1031        1032        1037        1036
        1032        1033        1038        1037
        1033        1034        1039        1038
        1035        1036        1041        1040
        1036        1037        1042        1041
        1037        1038        1043        1042
        1038        1039        1044        1043
        1040        1041        1046        1045
        1041        1042        1047        1046
        1042        1043        1048        1047
        1043        1044        1049        1048
        1050        1051        1056        1055
        1051        1052        1057        1056
        1052        1053        1058        1057
        1053        1054        1059        1058
        1055        1056        1061        1060
        1056        1057        1062        1061
        1057        1058        1063        1062
        1058        1059        1064        1063
        1060        1061        1066        1065
        1061        1062        1067        1066
        1062        1063        1068        1067
        1063        1064        1069        1068
        1065        1066        1071        1070
        1066        1067        1072        1071
        1067        1068        1073        1072
        1068        1069        1074        1073
        1075        1076        1081        1080
        1076        1077        1082        1081
        1077        1078        1083        1082
        1078        1079        1084        1083
        1080        1081        1086        1085
        1081        1082        1087        1086
        1082        1083        1088        1087
        1083        1084        1089        1088
        1085        1086        1091        1090
        1086        1087        1092        1091
        1087        1088        1093        1092
        1088        1089        1094        1093
        1090        1091        1096        1095
        1091        1092        1097        1096
        1092        1093        1098        1097
        1093        1094        1099        1098
        1100        1101        1106        1105
        1101        1102        1107        1106
        1102        1103        1108        1107
        1103        1104        1109        1108
        1105        1106        1111        1110
        1106        1107        1112        1111
        1107        1108        1113        1112
        1108        1109        1114        1113
        1110        1111        1116        1115
        1111        1112        1117        1116
        1112        1113        1118        1117
        1113        1114        1119        1118
        1115        1116        1121        1120
        1116        1117        1122        1121
        1117        1118        1123        1122
        1118        1119        1124        1123
        1125        1126        1131        1130
        1126        1127        1132        1131
        1127        1128        1133        1132
        1128        1129        1134        1133
        1130        1131        1136        1135
        1131        1132        1137        1136
        1132        1133        1138        1137
        1133        1134        1139        1138
        1135        1136        1141        1140
        1136        1137        1142        1141
        1137        1138        1143        1142
        1138        1139        1144        1143
        1140        1141        1146        1145
        1141        1142        1147        1146
        1142        1143        1148        1147
        1143        1144        1149        1148
        1150        1151        1156        1155
        1151        1152        1157        1156
        1152        1153        1158        1157
        1153        1154        1159        1158
        1155        1156        1161        1160
        1156        1157        1162        1161
        1157        1158        1163        1162
        1158        1159        1164        1163
        1160        1161        1166        1165
        1161        1162        1167        1166
        1162        1163        1168        1167
        1163        1164        1169        1168
        1165        1166        1171        1170
        1166        1167        1172        1171
        1167        1168        1173        1172
        1168        1169        1174        1173
        1175        1176        1181        1180
        1176        1177        1182        1181
        1177        1178        1183        1182
        1178        1179        1184        1183
        1180        1181        1186        1185
        1181        1182        1187        1186
        1182        1183        1188        1187
        1183        1184        1189        1188
        1185        1186        1191        1190
        1186        1187        1192        1191
        1187        1188        1193        1192
        1188        1189        1194        1193
        1190        1191        1196        1195
        1191        1192        1197        1196
        1192        1193        1198        1197
        1193        1194        1199        1198
        1200        1201        1206        1205
        1201        1202        1207        1206
        1202        1203        1208        1207
        1203        1204        1209        1208
        1205        1206        1211        1210
        1206        1207        1212        1211
        1207        1208        1213        1212
        1208        1209        1214        1213
        1210        1211        1216        1215
        1211        1212        1217        1216
        1212        1213        1218        1217
        1213        1214        1219        1218
        1215        1216        1221        1220
        1216        1217        1222        1221
        1217        1218        1223        1222
        1218        1219        1224        1223
        1225        1226        1231        1230
        1226        1227        1232        1231
        1227        1228        1233        1232
        1228        1229        1234        1233
        1230        1231        1236        1235
        1231        1232        1237        1236
        1232        1233        1238        1237
        1233        1234        1239        1238
        1235        1236        1241        1240
        1236        1237        1242        1241
        1237        1238        1243        1242
        1238        1239        1244        1243
        1240        1241        1246        1245
        1241        1242        1247        1246
        1242        1243        1248        1247
        1243        1244        1249        1248
        1250        1251        1256        1255
        1251        1252        1257        1256
        1252        1253        1258        1257
        1253        1254        1259        1258
        1255        1256        1261        1260
        1256        1257        1262        1261
        1257        1258        1263        1262
        1258        1259        1264        1263
        1260        1261        1266        1265
        1261        1262        1267        1266
        1262        1263        1268        1267
        1263        1264        1269        1268
        1265        1266        1271        1270
        1266        1267        1272        1271
        1267        1268        1273        1272
        1268        1269        1274        1273
        1275        1276        1281        1280
        1276        1277        1282        1281
        1277        1278        1283        1282
        1278        1279        1284        1283
        1280        1281        1286        1285
        1281        1282        1287        1286
        1282        1283        1288        1287
        1283        1284        1289        1288
        1285        1286        1291        1290
        1286        1287        1292        1291
        1287        1288        1293        1292
        1288        1289        1294        1293
        1290        1291        1296        1295
        1291        1292        1297        1296
        1292        1293        1298        1297
        1293        1294        1299        1298
        1300        1301        1306        1305
        1301        1302        1307        1306
        1302        1303        1308        1307
        1303        1304        1309        1308
        1305        1306        1311        1310
        1306        1307        1312        1311
        1307        1308        1313        1312
        1308        1309        1314        1313
        1310        1311        1316        1315
        1311        1312        1317        1316
        1312        1313        1318        1317
        1313        1314        1319        1318
        1315        1316        1321        1320
        1316        1317        1322        1321
        1317        1318        1323        1322
        1318        1319        1324        1323
        1325        1326        1331        1330
        1326        1327        1332        1331
        1327        1328        1333        1332
        1328        1329        1334        1333
        1330        1331        1336        1335
        1331        1332        1337        1336
        1332        1333        1338        1337
        1333        1334        1339        1338
        1335        1336        1341        1340
        1336        1337        1342        1341
        1337        1338        1343        1342
        1338        1339        1344        1343
        1340        1341        1346        1345
        1341        1342        1347        1346
        1342        1343        1348        1347
        1343        1344        1349        1348
        1350        1351        1356        1355
        1351        1352        1357        1356
        1352        1353        1358        1357
        1353        1354        1359        1358
        1355        1356        1361        1360
        1356        1357        1362        1361
        1357        1358        1363        1362
        1358        1359        1364        1363
        1360        1361        1366        1365
        1361        1362        1367        1366
        1362        1363        1368        1367
        1363        1364        1369        1368
        1365        1366        1371        1370
        1366        1367        1372        1371
        1367        1368        1373        1372
        1368        1369        1374        1373
        1375        1376        1381        1380
        1376        1377        1382        1381
        1377        1378        1383        1382
        1378        1379        1384        1383
        1380        1381        1386        1385
        1381        1382        1387        1386
        1382        1383        1388        1387
        1383        1384        1389        1388
        1385        1386        1391        1390
        1386        1387        1392        1391
        1387        1388        1393        1392
        1388        1389        1394        1393
        1390        1391        1396        1395
        1391        1392        1397        1396
        1392        1393        1398        1397
        1393        1394        1399        1398
        1400        1401        1406        1405
        1401        1402        1407        1406
        1402        1403        1408        1407
        1403        1404        1409        1408
        1405        1406        1411        1410
        1406        1407        1412        1411
        1407        1408        1413        1412
        1408        1409        1414        1413
        1410        1411        1416        1415
        1411        1412        1417        1416
        1412        1413        1418        1417
        1413        1414        1419        1418
        1415        1416        1421        1420
        1416        1417        1422        1421
        1417        1418        1423        1422
        1418        1419        1424        1423
        1425        1426        1431        1430
        1426        1427        1432        1431
        1427        1428        1433        1432
        1428        1429        1434        1433
        1430        1431        1436        1435
        1431        1432        1437        1436
        1432        1433        1438        1437
        1433        1434        1439        1438
        1435        1436        1441        1440
        1436        1437        1442        1441
        1437        1438        1443        1442
        1438        1439        1444        1443
        1440        1441        1446        1445
        1441        1442        1447        1446
        1442        1443        1448        1447
        1443        1444        1449        1448
        1450        1451        1456        1455
        1451        1452        1457        1456
        1452        1453        1458        1457
        1453        1454        1459        1458
        1455        1456        1461        1460
        1456        1457        1462        1461
        1457        1458        1463        1462
        1458        1459        1464        1463
        1460        1461        1466        1465
        1461        1462        1467        1466
        1462        1463        1468        1467
        1463        1464        1469        1468
        1465        1466        1471        1470
        1466        1467        1472        1471
        1467        1468        1473        1472
        1468        1469        1474        1473
        1475        1476        1481        1480
        1476        1477        1482        1481
        1477        1478        1483        1482
        1478        1479        1484        1483
        1480        1481        1486        1485
        1481        1482        1487        1486
        1482        1483        1488        1487
        1483        1484        1489        1488
        1485        1486        1491        1490
        1486        1487        1492        1491
        1487        1488        1493        1492
        1488        1489        1494        1493
        1490        1491        1496        1495
        1491        1492        1497        1496
        1492        1493        1498        1497
        1493        1494        1499        1498
        1500        1501        1506        1505
        1501        1502        1507        1506
        1502        1503        1508        1507
        1503        1504        1509        1508
        1505        1506        1511        1510
        1506        1507        1512        1511
        1507        1508        1513        1512
        1508        1509        1514        1513
        1510        1511        1516        1515
        1511        1512        1517        1516
        1512        1513        1518        1517
        1513        1514        1519        1518
        1515        1516        1521        1520
        1516        1517        1522        1521
        1517        1518        1523        1522
        1518        1519        1524        1523
        1525        1526        1531        1530
        1526        1527        1532        1531
        1527        1528        1533        1532
        1528        1529        1534        1533
        1530        1531        1536        1535
        1531        1532        1537        1536
        1532        1533        1538        1537
        1533        1534        1539        1538
        1535        1536        1541        1540
        1536        1537        1542        1541
        1537        1538        1543        1542
        1538        1539        1544        1543
        1540        1541        1546        1545
        1541        1542        1547        1546
        1542        1543        1548        1547
        1543        1544        1549        1548
        1550        1551        1556        1555
        1551        1552        1557        1556
        1552        1553        1558        1557
        1553        1554        1559        1558
        1555        1556        1561        1560
        1556        1557        1562        1561
        1557        1558        1563        1562
        1558        1559        1564        1563
        1560        1561        1566        1565
        1561        1562        1567        1566
        1562        1563        1568        1567
        1563        1564        1569        1568
        1565        1566        1571        1570
        1566        1567        1572        1571
        1567        1568        1573        1572
        1568        1569        1574        1573
        1575        1576        1581        1580
        1576        1577        1582        1581
        1577        1578        1583        1582
        1578        1579        1584        1583
        1580        1581        1586        1585
        1581        1582        1587        1586
        1582        1583        1588        1587
        1583        1584        1589        1588
        1585        1586        1591        1590
        1586        1587        1592        1591
        1587        1588        1593        1592
        1588        1589        1594        1593
        1590        1591        1596        1595
        1591        1592        1597        1596
        1592        1593        1598        1597
        1593        1594        1599        1598
 </DataArray>
 <DataArray  type="Int32"  Name="offsets"  format="ascii"> 
           4
           8
          12
          16
          20
          24
          28
          32
          36
          40
          44
          48
          52
          56
          60
          64
          68
          72
          76
          80
          84
          88
          92
          96
         100
         104
         108
         112
         116
         120
         124
         128
         132
         136
         140
         144
         148
         152
         156
         160
         164
         168
         172
         176
         180
         184
         188
         192
         196
         200
         204
         208
         212
         216
         220
         224
         228
         232
         236
         240
         244
         248
         252
         256
         260
         264
         268
         272
         276
         280
         284
         288
         292
         296
         300
         304
         308
         312
         316
         320
         324
         328
         332
         336
         340
         344
         348
         352
         356
         360
         364
         368
         372
         376
         380
         384
         388
         392
         396
         400
         404
         408
         412
         416
         420
         424
         428
         432
         436
         440
         444
         448
         452
         456
         460
         464
         468
         472
         476
         480
         484
         488
         492
         496
         500
         504
         508
         512
         516
         520
         524
         528
         532
         536
         540
         544
         548
         552
         556
         560
         564
         568
         572
         576
         580
         584
         588
         592
         596
         600
         604
         608
         612
         616
         620
         624
         628
         632
         636
         640
         644
         648
         652
         656
         660
         664
         668
         672
         676
         680
         684
         688
         692
         696
         700
         704
         708
         712
         716
         720
         724
         728
         732
         736
         740
         744
         748
         752
         756
         760
         764
         768
         772
         776
         780
         784
         788
         792
         796
         800
         804
         808
         812
         816
         820
         824
         828
         832
         836
         840
         844
         848
         852
         856
         860
         864
         868
         872
         876
         880
         884
         888
         892
         896
         900
         904
         908
         912
         916
         920
         924
         928
         932
         936
         940
         944
         948
         952
         956
         960
         964
         968
         972
         976
         980
         984
         988
         992
         996
        1000
        1004
        1008
        1012
        1016
        1020
        1024
        1028
        1032
        1036
        1040
        1044
        1048
        1052
        1056
        1060
        1064
        1068
        1072
        1076
        1080
        1084
        1088
        1092
        1096
        1100
        1104
        1108
        1112
        1116
        1120
        1124
        1128
        1132
        1136
        1140
        1144
        1148
        1152
        1156
        1160
        1164
        1168
        1172
        1176
        1180
        1184
        1188
        1192
        1196
        1200
        1204
        1208
        1212
        1216
        1220
        1224
        1228
        1232
        1236
        1240
        1244
        1248
        1252
        1256
        1260
        1264
        1268
        1272
        1276
        1280
        1284
        1288
        1292
        1296
        1300
        1304
        1308
        1312
        1316
        1320
        1324
        1328
        1332
        1336
        1340
        1344
        1348
        1352
        1356
        1360
        1364
        1368
        1372
        1376
        1380
        1384
        1388
        1392
        1396
        1400
        1404
        1408
        1412
        1416
        1420
        1424
        1428
        1432
        1436
        1440
        1444
        1448
        1452
        1456
        1460
        1464
        1468
        1472
        1476
        1480
        1484
        1488
        1492
        1496
        1500
        1504
        1508
        1512
        1516
        1520
        1524
        1528
        1532
        1536
        1540
        1544
        1548
        1552
        1556
        1560
        1564
        1568
        1572
        1576
        1580
        1584
        1588
        1592
        1596
        1600
        1604
        1608
        1612
        1616
        1620
        1624
        1628
        1632
        1636
        1640
        1644
        1648
        1652
        1656
        1660
        1664
        1668
        1672
        1676
        1680
        1684
        1688
        1692
        1696
        1700
        1704
        1708
        1712
        1716
        1720
        1724
        1728
        1732
        1736
        1740
        1744
        1748
        1752
        1756
        1760
        1764
        1768
        1772
        1776
        1780
        1784
        1788
        1792
        1796
        1800
        1804
        1808
        1812
        1816
        1820
        1824
        1828
        1832
        1836
        1840
        1844
        1848
        1852
        1856
        1860
        1864
        1868
        1872
        1876
        1880
        1884
        1888
        1892
        1896
        1900
        1904
        1908
        1912
        1916
        1920
        1924
        1928
        1932
        1936
        1940
        1944
        1948
        1952
        1956
        1960
        1964
        1968
        1972
        1976
        1980
        1984
        1988
        1992
        1996
        2000
        2004
        2008
        2012
        2016
        2020
        2024
        2028
        2032
        2036
        2040
        2044
        2048
        2052
        2056
        2060
        2064
        2068
        2072
        2076
        2080
        2084
        2088
        2092
        2096
        2100
        2104
        2108
        2112
        2116
        2120
        2124
        2128
        2132
        2136
        2140
        2144
        2148
        2152
        2156
        2160
        2164
        2168
        2172
        2176
        2180
        2184
        2188
        2192
        2196
        2200
        2204
        2208
        2212
        2216
        2220
        2224
        2228
        2232
        2236
        2240
        2244
        2248
        2252
        2256
        2260
        2264
        2268
        2272
        2276
        2280
        2284
        2288
        2292
        2296
        2300
        2304
        2308
        2312
        2316
        2320
        2324
        2328
        2332
        2336
        2340
        2344
        2348
        2352
        2356
        2360
        2364
        2368
        2372
        2376
        2380
        2384
        2388
        2392
        2396
        2400
        2404
        2408
        2412
        2416
        2420
        2424
        2428
        2432
        2436
        2440
        2444
        2448
        2452
        2456
        2460
        2464
        2468
        2472
        2476
        2480
        2484
        2488
        2492
        2496
        2500
        2504
        2508
        2512
        2516
        2520
        2524
        2528
        2532
        2536
        2540
        2544
        2548
        2552
        2556
        2560
        2564
        2568
        2572
        2576
        2580
        2584
        2588
        2592
        2596
        2600
        2604
        2608
        2612
        2616
        2620
        2624
        2628
        2632
        2636
        2640
        2644
        2648
        2652
        2656
        2660
        2664
        2668
        2672
        2676
        2680
        2684
        2688
        2692
        2696
        2700
        2704
        2708
        2712
        2716
        2720
        2724
        2728
        2732
        2736
        2740
        2744
        2748
        2752
        2756
        2760
        2764
        2768
        2772
        2776
        2780
        2784
        2788
        2792
        2796
        2800
        2804
        2808
        2812
        2816
        2820
        2824
        2828
        2832
        2836
        2840
        2844
        2848
        2852
        2856
        2860
        2864
        2868
        2872
        2876
        2880
        2884
        2888
        2892
        2896
        2900
        2904
        2908
        2912
        2916
        2920
        2924
        2928
        2932
        2936
        2940
        2944
        2948
        2952
        2956
        2960
        2964
        2968
        2972
        2976
        2980
        2984
        2988
        2992
        2996
        3000
        3004
        3008
        3012
        3016
        3020
        3024
        3028
        3032
        3036
        3040
        3044
        3048
        3052
        3056
        3060
        3064
        3068
        3072
        3076
        3080
        3084
        3088
        3092
        3096
        3100
        3104
        3108
        3112
        3116
        3120
        3124
        3128
        3132
        3136
        3140
        3144
        3148
        3152
        3156
        3160
        3164
        3168
        3172
        3176
        3180
        3184
        3188
        3192
        3196
        3200
        3204
        3208
        3212
        3216
        3220
        3224
        3228
        3232
        3236
        3240
        3244
        3248
        3252
        3256
        3260
        3264
        3268
        3272
        3276
        3280
        3284
        3288
        3292
        3296
        3300
        3304
        3308
        3312
        3316
        3320
        3324
        3328
        3332
        3336
        3340
        3344
        3348
        3352
        3356
        3360
        3364
        3368
        3372
        3376
        3380
        3384
        3388
        3392
        3396
        3400
        3404
        3408
        3412
        3416
        3420
        3424
        3428
        3432
        3436
        3440
        3444
        3448
        3452
        3456
        3460
        3464
        3468
        3472
        3476
        3480
        3484
        3488
        3492
        3496
        3500
        3504
        3508
        3512
        3516
        3520
        3524
        3528
        3532
        3536
        3540
        3544
        3548
        3552
        3556
        3560
        3564
        3568
        3572
        3576
        3580
        3584
        3588
        3592
        3596
        3600
        3604
        3608
        3612
        3616
        3620
        3624
        3628
        3632
        3636
        3640
        3644
        3648
        3652
        3656
        3660
        3664
        3668
        3672
        3676
        3680
        3684
        3688
        3692
        3696
        3700
        3704
        3708
        3712
        3716
        3720
        3724
        3728
        3732
        3736
        3740
        3744
        3748
        3752
        3756
        3760
        3764
        3768
        3772
        3776
        3780
        3784
        3788
        3792
        3796
        3800
        3804
        3808
        3812
        3816
        3820
        3824
        3828
        3832
        3836
        3840
        3844
        3848
        3852
        3856
        3860
        3864
        3868
        3872
        3876
        3880
        3884
        3888
        3892
        3896
        3900
        3904
        3908
        3912
        3916
        3920
        3924
        3928
        3932
        3936
        3940
        3944
        3948
        3952
        3956
        3960
        3964
        3968
        3972
        3976
        3980
        3984
        3988
        3992
        3996
        4000
        4004
        4008
        4012
        4016
        4020
        4024
        4028
        4032
        4036
        4040
        4044
        4048
        4052
        4056
        4060
        4064
        4068
        4072
        4076
        4080
        4084
        4088
        4092
        4096
 </DataArray>
 <DataArray  type="UInt8"  Name="types"  format="ascii">
 9
 9
 9
 9
 9
 9
 9
 9
 9
 9
 9
 9
 9
 9
 9
 9
 9
 9
 9
 9
 9
 9
 9
 9
 9
 9
 9
 9
 9
 9
 9
 9
 9
 9
 9
 9
 9
 9
 9
 9
 9
 9
 9
 9
 9
 9
 9
 9
 9
 9
 9
 9
 9
 9
 9
 9
 9
 9
 9
 9
 9
 9
 9
 9
 9
 9
 9
 9
 9
 9
 9
 9
 9
 9
 9
 9
 9
 9
 9
 9
 9
 9
 9
 9
 9
 9
 9
 9
 9
 9
 9
 9
 9
 9
 9
 9
 9
 9
 9
 9
 9
 9
 9
 9
 9
 9
 9
 9
 9
 9
 9
 9
 9
 9
 9
 9
 9
 9
 9
 9
 9
 9
 9
 9
 9
 9
 9
 9
 9
 9
 9
 9
 9
 9
 9
 9
 9
 9
 9
 9
 9
 9
 9
 9
 9
 9
 9
 9
 9
 9
 9
 9
 9
 9
 9
 9
 9
 9
 9
 9
 9
 9
 9
 9
 9
 9
 9
 9
 9
 9
 9
 9
 9
 9
 9
 9
 9
 9
 9
 9
 9
 9
 9
 9
 9
 9
 9
 9
 9
 9
 9
 9
 9
 9
 9
 9
 9
 9
 9
 9
 9
 9
 9
 9
 9
 9
 9
 9
 9
 9
 9
 9
 9
 9
 9
 9
 9
 9
 9
 9
 9
 9
 9
 9
 9
 9
 9
 9
 9
 9
 9
 9
 9
 9
 9
 9
 9
 9
 9
 9
 9
 9
 9
 9
 9
 9
 9
 9
 9
 9
 9
 9
 9
 9
 9
 9
 9
 9
 9
 9
 9
 9
 9
 9
 9
 9
 9
 9
 9
 9
 9
 9
 9
 9
 9
 9
 9
 9
 9
 9
 9
 9
 9
 9
 9
 9
 9
 9
 9
 9
 9
 9
 9
 9
 9
 9
 9
 9
 9
 9
 9
 9
 9
 9
 9
 9
 9
 9
 9
 9
 9
 9
 9
 9
 9
 9
 9
 9
 9
 9
 9
 9
 9
 9
 9
 9
 9
 9
 9
 9
 9
 9
 9
 9
 9
 9
 9
 9
 9
 9
 9
 9
 9
 9
 9
 9
 9
 9
 9
 9
 9
 9
 9
 9
 9
 9
 9
 9
 9
 9
 9
 9
 9
 9
 9
 9
 9
 9
 9
 9
 9
 9
 9
 9
 9
 9
 9
 9
 9
 9
 9
 9
 9
 9
 9
 9
 9
 9
 9
 9
 9
 9
 9
 9
 9
 9
 9
 9
 9
 9
 9
 9
 9
 9
 9
 9
 9
 9
 9
 9
 9
 9
 9
 9
 9
 9
 9
 9
 9
 9
 9
 9
 9
 9
 9
 9
 9
 9
 9
 9
 9
 9
 9
 9
 9
 9
 9
 9
 9
 9
 9
 9
 9
 9
 9
 9
 9
 9
 9
 9
 9
 9
 9
 9
 9
 9
 9
 9
 9
 9
 9
 9
 9
 9
 9
 9
 9
 9
 9
 9
 9
 9
 9
 9
 9
 9
 9
 9
 9
 9
 9
 9
 9
 9
 9
 9
 9
 9
 9
 9
 9
 9
 9
 9
 9
 9
 9
 9
 9
 9
 9
 9
 9
 9
 9
 9
 9
 9
 9
 9
 9
 9
 9
 9
 9
 9
 9
 9
 9
 9
 9
 9
 9
 9
 9
 9
 9
 9
 9
 9
 9
 9
 9
 9
 9
 9
 9
 9
 9
 9
 9
 9
 9
 9
 9
 9
 9
 9
 9
 9
 9
 9
 9
 9
 9
 9
 9
 9
 9
 9
 9
 9
 9
 9
 9
 9
 9
 9
 9
 9
 9
 9
 9
 9
 9
 9
 9
 9
 9
 9
 9
 9
 9
 9
 9
 9
 9
 9
 9
 9
 9
 9
 9
 9
 9
 9
 9
 9
 9
 9
 9
 9
 9
 9
 9
 9
 9
 9
 9
 9
 9
 9
 9
 9
 9
 9
 9
 9
 9
 9
 9
 9
 9
 9
 9
 9
 9
 9
 9
 9
 9
 9
 9
 9
 9
 9
 9
 9
 9
 9
 9
 9
 9
 9
 9
 9
 9
 9
 9
 9
 9
 9
 9
 9
 9
 9
 9
 9
 9
 9
 9
 9
 9
 9
 9
 9
 9
 9
 9
 9
 9
 9
 9
 9
 9
 9
 9
 9
 9
 9
 9
 9
 9
 9
 9
 9
 9
 9
 9
 9
 9
 9
 9
 9
 9
 9
 9
 9
 9
 9
 9
 9
 9
 9
 9
 9
 9
 9
 9
 9
 9
 9
 9
 9
 9
 9
 9
 9
 9
 9
 9
 9
 9
 9
 9
 9
 9
 9
 9
 9
 9
 9
 9
 9
 9
 9
 9
 9
 9
 9
 9
 9
 9
 9
 9
 9
 9
 9
 9
 9
 9
 9
 9
 9
 9
 9
 9
 9
 9
 9
 9
 9
 9
 9
 9
 9
 9
 9
 9
 9
 9
 9
 9
 9
 9
 9
 9
 9
 9
 9
 9
 9
 9
 9
 9
 9
 9
 9
 9
 9
 9
 9
 9
 9
 9
 9
 9
 9
 9
 9
 9
 9
 9
 9
 9
 9
 9
 9
 9
 9
 9
 9
 9
 9
 9
 9
 9
 9
 9
 9
 9
 9
 9
 9
 9
 9
 9
 9
 9
 9
 9
 9
 9
 9
 9
 9
 9
 9
 9
 9
 9
 9
 9
 9
 9
 9
 9
 9
 9
 9
 9
 9
 9
 9
 9
 9
 9
 9
 9
 9
 9
 9
 9
 9
 9
 9
 9
 9
 9
 9
 9
 9
 9
 9
 9
 9
 9
 9
 9
 9
 9
 9
 9
 9
 9
 9
 9
 9
 9
 9
 9
 9
 9
 9
 9
 9
 9
 9
 9
 9
 9
 9
 9
 9
 9
 9
 9
 9
 9
 9
 9
 9
 9
 9
 9
 9
 9
 9
 9
 9
 9
 9
 9
 9
 9
 9
 9
 9
 9
 9
 9
 9
 9
 9
 9
 9
 9
 9
 9
 9
 9
 9
 9
 9
 9
 9
 9
 9
 9
 9
 9
 9
 9
 9
 9
 9
 9
 9
 9
 9
 9
 9
 9
 9
 9
 9
 9
 9
 9
 9
 9
 9
 9
 9
 9
 9
 9
 9
 9
 9
 9
 9
 9
 9
 9
 9
 9
 9
 9
 9
 9
 9
 9
 9
 9
 9
 9
 9
 9
 9
 9
 9
 9
 9
 9
 9
 9
 9
 9
 9
 9
 9
 9
 9
 9
 9
 9
 9
 9
 9
 9
 9
 9
 9
 </DataArray>
 </Cells> 
 <PointData>
 <DataArray  type="Float64" Name="disp" NumberOfComponents="3" format="ascii">
   0.0000000000000000        0.0000000000000000        0.0000000000000000     
   6.0961458881504099E-003   3.7902623207844346E-003   0.0000000000000000     
   1.1666128747132515E-002   7.3238310568565944E-003   0.0000000000000000     
   1.6709948576946312E-002   1.0600706208216480E-002   0.0000000000000000     
   2.1227605377591809E-002   1.3620887774864093E-002   0.0000000000000000     
   0.0000000000000000        0.0000000000000000        0.0000000000000000     
   4.8911058799471826E-003   3.0221407699767239E-003   0.0000000000000000     
   9.5734580953892763E-003   6.0607226715445606E-003   0.0000000000000000     
   1.4047056646326279E-002   9.1157457047035088E-003   0.0000000000000000     
   1.8311901532758190E-002   1.2187209869453569E-002   0.0000000000000000     
   0.0000000000000000        0.0000000000000000        0.0000000000000000     
   3.9533882520055540E-003   2.4252471091835582E-003   0.0000000000000000     
   7.9102796974813983E-003   5.0632402701021890E-003   0.0000000000000000     
   1.1870674336427535E-002   7.9139794827558924E-003   0.0000000000000000     
   1.5834572168843958E-002   1.0977464747144668E-002   0.0000000000000000     
   0.0000000000000000        0.0000000000000000        0.0000000000000000     
   3.2829930043255262E-003   1.9995813384049376E-003   0.0000000000000000     
   6.6765935534088862E-003   4.3313838525294822E-003   0.0000000000000000     
   1.0180801647250080E-002   6.9954075423736359E-003   0.0000000000000000     
   1.3795617285849104E-002   9.9916524079373958E-003   0.0000000000000000     
   0.0000000000000000        0.0000000000000000        0.0000000000000000     
   2.8799201369070970E-003   1.7451434576408616E-003   0.0000000000000000     
   5.8723996631717349E-003   3.8651534188264402E-003   0.0000000000000000     
   8.9774385787939146E-003   6.3600298835567344E-003   0.0000000000000000     
   1.2195036883773634E-002   9.2297728518317464E-003   0.0000000000000000     
   2.1227605377591809E-002   1.3620887774864093E-002   0.0000000000000000     
   2.5432231235896989E-002   1.6614440473284597E-002   0.0000000000000000     
   2.9536958238689855E-002   1.9811429019963155E-002   0.0000000000000000     
   3.3541786385970405E-002   2.3211853414899772E-002   0.0000000000000000     
   3.7446715677738635E-002   2.6815713658094441E-002   0.0000000000000000     
   1.8311901532758190E-002   1.2187209869453569E-002   0.0000000000000000     
   2.2406298979950723E-002   1.5343103630213784E-002   0.0000000000000000     
   2.6368555213169588E-002   1.8651415451403190E-002   0.0000000000000000     
   3.0198670232414768E-002   2.2112145333021790E-002   0.0000000000000000     
   3.3896644037686281E-002   2.5725293275069581E-002   0.0000000000000000     
   1.5834572168843958E-002   1.0977464747144668E-002   0.0000000000000000     
   1.9730184828033601E-002   1.4212317172508352E-002   0.0000000000000000     
   2.3485723947299364E-002   1.7577157868086765E-002   0.0000000000000000     
   2.7101189526641284E-002   2.1071986833879917E-002   0.0000000000000000     
   3.0576581566059323E-002   2.4696804069887800E-002   0.0000000000000000     
   1.3795617285849104E-002   9.9916524079373958E-003   0.0000000000000000     
   1.7403888780145600E-002   1.3222081100168299E-002   0.0000000000000000     
   2.0888464441079217E-002   1.6588656270013886E-002   0.0000000000000000     
   2.4249344268649935E-002   2.0091377917474149E-002   0.0000000000000000     
   2.7486528262857760E-002   2.3730246042549093E-002   0.0000000000000000     
   1.2195036883773634E-002   9.2297728518317464E-003   0.0000000000000000     
   1.5427410836286749E-002   1.2372395413193632E-002   0.0000000000000000     
   1.8576776694509113E-002   1.5685910657184547E-002   0.0000000000000000     
   2.1643134458440728E-002   1.9170318583804490E-002   0.0000000000000000     
   2.4626484128081591E-002   2.2825619193053467E-002   0.0000000000000000     
   3.7446715677738635E-002   2.6815713658094441E-002   0.0000000000000000     
   4.1255620598193987E-002   3.0620079866253154E-002   0.0000000000000000     
   4.4972375631535881E-002   3.4622022156081893E-002   0.0000000000000000     
   4.8596980777764337E-002   3.8821540527580668E-002   0.0000000000000000     
   5.2129436036879334E-002   4.3218634980749460E-002   0.0000000000000000     
   3.3896644037686281E-002   2.5725293275069581E-002   0.0000000000000000     
   3.7485220720344534E-002   2.9521053260394208E-002   0.0000000000000000     
   4.0987144371749926E-002   3.3529619271843294E-002   0.0000000000000000     
   4.4402414991902471E-002   3.7750991309416879E-002   0.0000000000000000     
   4.7731032580802163E-002   4.2185169373114909E-002   0.0000000000000000     
   3.0576581566059323E-002   2.4696804069887800E-002   0.0000000000000000     
   3.3940963570390212E-002   2.8497110115668300E-002   0.0000000000000000     
   3.7223399044470640E-002   3.2518405510779315E-002   0.0000000000000000     
   4.0423887988300607E-002   3.6760690255220836E-002   0.0000000000000000     
   4.3542430401880126E-002   4.1223964348992864E-002   0.0000000000000000     
   2.7486528262857760E-002   2.3730246042549093E-002   0.0000000000000000     
   3.0622849148331015E-002   2.7548250432075445E-002   0.0000000000000000     
   3.3681139649698016E-002   3.1588380872889933E-002   0.0000000000000000     
   3.6661399766958744E-002   3.5850637364992569E-002   0.0000000000000000     
   3.9563629500113232E-002   4.0335019908383334E-002   0.0000000000000000     
   2.4626484128081591E-002   2.2825619193053467E-002   0.0000000000000000     
   2.7530877454166956E-002   2.6674474209615634E-002   0.0000000000000000     
   3.0360366187432056E-002   3.0739545358175167E-002   0.0000000000000000     
   3.3114950327876896E-002   3.5020832638732055E-002   0.0000000000000000     
   3.5794629875501485E-002   3.9518336051286303E-002   0.0000000000000000     
   5.2129436036879334E-002   4.3218634980749460E-002   0.0000000000000000     
   5.5564053235382452E-002   4.7814622736503859E-002   0.0000000000000000     
   5.8895144199775283E-002   5.2610821015759424E-002   0.0000000000000000     
   6.2122708930057821E-002   5.7607229818516160E-002   0.0000000000000000     
   6.5246747426230059E-002   6.2803849144774063E-002   0.0000000000000000     
   4.7731032580802163E-002   4.2185169373114909E-002   0.0000000000000000     
   5.0969669172750171E-002   4.6822936644044397E-002   0.0000000000000000     
   5.4114996802047670E-002   5.1655076303312293E-002   0.0000000000000000     
   5.7167015468694682E-002   5.6681588350918612E-002   0.0000000000000000     
   6.0125725172691172E-002   6.1902472786863345E-002   0.0000000000000000     
   4.3542430401880126E-002   4.1223964348992864E-002   0.0000000000000000     
   4.6577891365012378E-002   4.5893550632109904E-002   0.0000000000000000     
   4.9529135957500574E-002   5.0754771944586489E-002   0.0000000000000000     
   5.2396164179344680E-002   5.5807628286422592E-002   0.0000000000000000     
   5.5178976030544724E-002   6.1052119657618212E-002   0.0000000000000000     
   3.9563629500113232E-002   4.0335019908383334E-002   0.0000000000000000     
   4.2388719812169101E-002   4.5026464700700417E-002   0.0000000000000000     
   4.5137561666133967E-002   4.9909907939581999E-002   0.0000000000000000     
   4.7810155062007836E-002   5.4985349625028088E-002   0.0000000000000000     
   5.0406499999790737E-002   6.0252789757038676E-002   0.0000000000000000     
   3.5794629875501485E-002   3.9518336051286303E-002   0.0000000000000000     
   3.8402154514220306E-002   4.4221678849815899E-002   0.0000000000000000     
   4.0940273927947864E-002   4.9120484288298828E-002   0.0000000000000000     
   4.3408988116684158E-002   5.4214752366735106E-002   0.0000000000000000     
   4.5808297080429189E-002   5.9504483085124710E-002   0.0000000000000000     
   6.5246747426230059E-002   6.2803849144774063E-002   0.0000000000000000     
   6.8275860310333752E-002   6.8189557587638699E-002   0.0000000000000000     
   7.1218648204410651E-002   7.3753233740215668E-002   0.0000000000000000     
   7.4075111108460739E-002   7.9494877602504940E-002   0.0000000000000000     
   7.6845249022484047E-002   8.5414489174506530E-002   0.0000000000000000     
   6.0125725172691172E-002   6.1902472786863345E-002   0.0000000000000000     
   6.2993734595428882E-002   6.7310827306731782E-002   0.0000000000000000     
   6.5773652418299564E-002   7.2899749606109190E-002   0.0000000000000000     
   6.8465478641303187E-002   7.8669239684995590E-002   0.0000000000000000     
   7.1069213264439754E-002   8.4619297543390953E-002   0.0000000000000000     
   5.5178976030544724E-002   6.1052119657618212E-002   0.0000000000000000     
   5.7875997522798144E-002   6.6483573223669393E-002   0.0000000000000000     
   6.0485654667802327E-002   7.2097316150072088E-002   0.0000000000000000     
   6.3007947465557296E-002   7.7893348436826368E-002   0.0000000000000000     
   6.5442875916063029E-002   8.3871670083932162E-002   0.0000000000000000     
   5.0406499999790737E-002   6.0252789757038676E-002   0.0000000000000000     
   5.2922649092441480E-002   6.5707795338451530E-002   0.0000000000000000     
   5.5354654952918921E-002   7.1345933372104389E-002   0.0000000000000000     
   5.7702517581223044E-002   7.7167203857997260E-002   0.0000000000000000     
   5.9966236977353857E-002   8.3171606796130185E-002   0.0000000000000000     
   4.5808297080429189E-002   5.9504483085124710E-002   0.0000000000000000     
   4.8133689304358927E-002   6.4983493651078195E-002   0.0000000000000000     
   5.0380653273649344E-002   7.0645601272206038E-002   0.0000000000000000     
   5.2549188988300445E-002   7.6490805948508309E-002   0.0000000000000000     
   5.4639296448312245E-002   8.2519107679984993E-002   0.0000000000000000     
   7.6845249022484047E-002   8.5414489174506530E-002   0.0000000000000000     
   7.9523593922463581E-002   9.1507644115483983E-002   0.0000000000000000     
   8.2104677784382393E-002   9.7769918084700827E-002   0.0000000000000000     
   8.4588500608240483E-002  0.10420131108215706        0.0000000000000000     
   8.6975062394037850E-002  0.11080182310785269        0.0000000000000000     
   7.1069213264439754E-002   8.4619297543390953E-002   0.0000000000000000     
   7.3583694315696363E-002   9.0743450674795056E-002   0.0000000000000000     
   7.6007759823060073E-002   9.7035226572707592E-002   0.0000000000000000     
   7.8341409786530897E-002  0.10349462523712860        0.0000000000000000     
   8.0584644206108849E-002  0.11012164666805807        0.0000000000000000     
   6.5442875916063029E-002   8.3871670083932162E-002   0.0000000000000000     
   6.7792202562922829E-002   9.0024128617668731E-002   0.0000000000000000     
   7.0057689949739987E-002   9.6342571564315277E-002   0.0000000000000000     
   7.2239338076514489E-002  0.10282699892387173        0.0000000000000000     
   7.4337146943246349E-002  0.10947741069633818        0.0000000000000000     
   5.9966236977353857E-002   8.3171606796130185E-002   0.0000000000000000     
   6.2149118664143008E-002   8.9349677944105060E-002   0.0000000000000000     
   6.4254468164422138E-002   9.5691953059523799E-002   0.0000000000000000     
   6.6282285478191261E-002  0.10219843214238651        0.0000000000000000     
   6.8232570605450363E-002  0.10886911519269306        0.0000000000000000     
   5.4639296448312245E-002   8.2519107679984993E-002   0.0000000000000000     
   5.6654442619356885E-002   8.8720098654103990E-002   0.0000000000000000     
   5.8598094467106523E-002   9.5083371058333283E-002   0.0000000000000000     
   6.0470251991561183E-002  0.10160892489267284        0.0000000000000000     
   6.2270915192720849E-002  0.10829676015712268        0.0000000000000000     
   8.6975062394037850E-002  0.11080182310785269        0.0000000000000000     
   8.9254951458768939E-002  0.11755326921969902        0.0000000000000000     
   9.1418756119428166E-002  0.12443746447560741        0.0000000000000000     
   9.3466476376015545E-002  0.13145440887557786        0.0000000000000000     
   9.5398112228531062E-002  0.13860410241961035        0.0000000000000000     
   8.0584644206108849E-002  0.11012164666805807        0.0000000000000000     
   8.2736609838369932E-002  0.11689972501819176        0.0000000000000000     
   8.4796453439890174E-002  0.12381229444022551        0.0000000000000000     
   8.6764175010669561E-002  0.13085935493415929        0.0000000000000000     
   8.8639774550708123E-002  0.13804090649999312        0.0000000000000000     
   7.4337146943246349E-002  0.10947741069633818        0.0000000000000000     
   7.6355519406869868E-002  0.11627868598062439        0.0000000000000000     
   7.8298858324319376E-002  0.12321570387564021        0.0000000000000000     
   8.0167163695594873E-002  0.13028846438138564        0.0000000000000000     
   8.1960435520696373E-002  0.13749696749786064        0.0000000000000000     
   6.8232570605450363E-002  0.10886911519269306        0.0000000000000000     
   7.0111680164268747E-002  0.11569015210699696        0.0000000000000000     
   7.1925970772715814E-002  0.12264769278185154        0.0000000000000000     
   7.3675442430791466E-002  0.12974173721725688        0.0000000000000000     
   7.5360095138495800E-002  0.13697228541321294        0.0000000000000000     
   6.2270915192720849E-002  0.10829676015712268        0.0000000000000000     
   6.4005092110566583E-002  0.11513412339730936        0.0000000000000000     
   6.5677790785079418E-002  0.12210826115885946        0.0000000000000000     
   6.7289011216259381E-002  0.12921917344177300        0.0000000000000000     
   6.8838753404106445E-002  0.13646686024604995        0.0000000000000000     
   9.5398112228531062E-002  0.13860410241961035        0.0000000000000000     
   9.7150049858844942E-002  0.14580488570910502        0.0000000000000000     
   9.8658675448827407E-002  0.15297509934546202        0.0000000000000000     
   9.9923988998478472E-002  0.16011474332868134        0.0000000000000000     
  0.10094599050779811       0.16722381765876301        0.0000000000000000     
   8.8639774550708123E-002  0.13804090649999312        0.0000000000000000     
   9.0379218630228103E-002  0.14529817008984761        0.0000000000000000     
   9.1938473819451805E-002  0.15257236665584342        0.0000000000000000     
   9.3317540118379214E-002  0.15986349619798057        0.0000000000000000     
   9.4516417527010330E-002  0.16717155871625902        0.0000000000000000     
   8.1960435520696373E-002  0.13749696749786064        0.0000000000000000     
   8.3648109457392220E-002  0.14479960191609065        0.0000000000000000     
   8.5199621163450770E-002  0.15215475632710115        0.0000000000000000     
   8.6614970638872052E-002  0.15956243073089205        0.0000000000000000     
   8.7894157883656038E-002  0.16702262512746346        0.0000000000000000     
   7.5360095138495800E-002  0.13697228541321294        0.0000000000000000     
   7.6956722340337264E-002  0.14430918118783420        0.0000000000000000     
   7.8442117480824303E-002  0.15172226835923519        0.0000000000000000     
   7.9816280559956959E-002  0.15921154692741593        0.0000000000000000     
   8.1079211577735191E-002  0.16677701689237631        0.0000000000000000     
   6.8838753404106445E-002  0.13646686024604995        0.0000000000000000     
   7.0305057279063249E-002  0.14382690790507816        0.0000000000000000     
   7.1665962771572403E-002  0.15127490275224550        0.0000000000000000     
   7.2921469881633949E-002  0.15881084478755197        0.0000000000000000     
   7.4071578609247846E-002  0.16643473401099765        0.0000000000000000     
   0.0000000000000000        0.0000000000000000        0.0000000000000000     
   2.8799201369070970E-003   1.7451434576408616E-003   0.0000000000000000     
   5.8723996631717349E-003   3.8651534188264402E-003   0.0000000000000000     
   8.9774385787939146E-003   6.3600298835567344E-003   0.0000000000000000     
   1.2195036883773634E-002   9.2297728518317464E-003   0.0000000000000000     
   0.0000000000000000        0.0000000000000000        0.0000000000000000     
   2.6102723034595473E-003   1.5892686193785602E-003   0.0000000000000000     
   5.2896429442519334E-003   3.5572327318504665E-003   0.0000000000000000     
   8.0381119223771561E-003   5.9038923374157186E-003   0.0000000000000000     
   1.0855679237835219E-002   8.6292474360743186E-003   0.0000000000000000     
   0.0000000000000000        0.0000000000000000        0.0000000000000000     
   2.3401521576921561E-003   1.4592919761052630E-003   0.0000000000000000     
   4.7202683141314636E-003   3.3003055544589687E-003   0.0000000000000000     
   7.1403484693179243E-003   5.5230407350611178E-003   0.0000000000000000     
   9.6003926232515347E-003   8.1274975179117075E-003   0.0000000000000000     
   0.0000000000000000        0.0000000000000000        0.0000000000000000     
   2.0695596996049238E-003   1.3552135278209689E-003   0.0000000000000000     
   4.1642757728103290E-003   3.0943718866519453E-003   0.0000000000000000     
   6.2841482196162174E-003   5.2174750764929275E-003   0.0000000000000000     
   8.4291770400225854E-003   7.7245230973439181E-003   0.0000000000000000     
   0.0000000000000000        0.0000000000000000        0.0000000000000000     
   1.7984949291978505E-003   1.2770332745256790E-003   0.0000000000000000     
   3.6216653202885284E-003   2.9394317284293968E-003   0.0000000000000000     
   5.4695111732720337E-003   4.9871953617111522E-003   0.0000000000000000     
   7.3420324881483673E-003   7.4203241743709463E-003   0.0000000000000000     
   1.2195036883773634E-002   9.2297728518317464E-003   0.0000000000000000     
   1.5427410836286749E-002   1.2372395413193632E-002   0.0000000000000000     
   1.8576776694509113E-002   1.5685910657184547E-002   0.0000000000000000     
   2.1643134458440728E-002   1.9170318583804490E-002   0.0000000000000000     
   2.4626484128081591E-002   2.2825619193053467E-002   0.0000000000000000     
   1.0855679237835219E-002   8.6292474360743186E-003   0.0000000000000000     
   1.3688998508161538E-002   1.1651223602213996E-002   0.0000000000000000     
   1.6484723350891534E-002   1.4887746410222492E-002   0.0000000000000000     
   1.9242853766025209E-002   1.8338815860099809E-002   0.0000000000000000     
   2.1963389753562566E-002   2.2004431951845940E-002   0.0000000000000000     
   9.6003926232515347E-003   8.1274975179117075E-003   0.0000000000000000     
   1.2076899307474480E-002   1.1046529157859059E-002   0.0000000000000000     
   1.4546367053528944E-002   1.4212988909751478E-002   0.0000000000000000     
   1.7008795861414926E-002   1.7626876773588970E-002   0.0000000000000000     
   1.9464185731132427E-002   2.1288192749371534E-002   0.0000000000000000     
   8.4291770400225854E-003   7.7245230973439181E-003   0.0000000000000000     
   1.0591113234225577E-002   1.0558312080128808E-002   0.0000000000000000     
   1.2761707802421338E-002   1.3661638155771495E-002   0.0000000000000000     
   1.4940960744609872E-002   1.7034501324271971E-002   0.0000000000000000     
   1.7128872060791171E-002   2.0676901585630250E-002   0.0000000000000000     
   7.3420324881483673E-003   7.4203241743709463E-003   0.0000000000000000     
   9.2316402884148295E-003   1.0186572369023253E-002   0.0000000000000000     
   1.1130745597568725E-002   1.3233694148282543E-002   0.0000000000000000     
   1.3039348415610049E-002   1.6561689512148824E-002   0.0000000000000000     
   1.4957448742538806E-002   2.0170558460622087E-002   0.0000000000000000     
   2.4626484128081591E-002   2.2825619193053467E-002   0.0000000000000000     
   2.7530877454166956E-002   2.6674474209615634E-002   0.0000000000000000     
   3.0360366187432056E-002   3.0739545358175167E-002   0.0000000000000000     
   3.3114950327876896E-002   3.5020832638732055E-002   0.0000000000000000     
   3.5794629875501485E-002   3.9518336051286303E-002   0.0000000000000000     
   2.1963389753562566E-002   2.2004431951845940E-002   0.0000000000000000     
   2.4629748085564101E-002   2.5882082188120652E-002   0.0000000000000000     
   2.7225345534090329E-002   2.9969254071583715E-002   0.0000000000000000     
   2.9750182099141254E-002   3.4265947602235128E-002   0.0000000000000000     
   3.2204257780716859E-002   3.8772162780074879E-002   0.0000000000000000     
   1.9464185731132427E-002   2.1288192749371534E-002   0.0000000000000000     
   2.1884160640188551E-002   2.5177375107422271E-002   0.0000000000000000     
   2.4240344566090418E-002   2.9274862118064286E-002   0.0000000000000000     
   2.6532737508838021E-002   3.3580653781297591E-002   0.0000000000000000     
   2.8761339468431353E-002   3.8094750097122161E-002   0.0000000000000000     
   1.7128872060791171E-002   2.0676901585630250E-002   0.0000000000000000     
   1.9294115118040300E-002   2.4560352967520502E-002   0.0000000000000000     
   2.1405363283432306E-002   2.8656369497616893E-002   0.0000000000000000     
   2.3462616556967200E-002   3.2964951175919438E-002   0.0000000000000000     
   2.5465874938644974E-002   3.7486098002428136E-002   0.0000000000000000     
   1.4957448742538806E-002   2.0170558460622087E-002   0.0000000000000000     
   1.6859611519119341E-002   2.4031015768415327E-002   0.0000000000000000     
   1.8720401686116002E-002   2.8113776210241529E-002   0.0000000000000000     
   2.0539819243528788E-002   3.2418839786100696E-002   0.0000000000000000     
   2.2317864191357707E-002   3.6946206495992819E-002   0.0000000000000000     
   3.5794629875501485E-002   3.9518336051286303E-002   0.0000000000000000     
   3.8402154514220306E-002   4.4221678849815899E-002   0.0000000000000000     
   4.0940273927947864E-002   4.9120484288298828E-002   0.0000000000000000     
   4.3408988116684158E-002   5.4214752366735106E-002   0.0000000000000000     
   4.5808297080429189E-002   5.9504483085124710E-002   0.0000000000000000     
   3.2204257780716859E-002   3.8772162780074879E-002   0.0000000000000000     
   3.4591303469870917E-002   4.3483059022491589E-002   0.0000000000000000     
   3.6915050057657148E-002   4.8393795746873858E-002   0.0000000000000000     
   3.9175497544075573E-002   5.3504372953221670E-002   0.0000000000000000     
   4.1372645929126185E-002   5.8814790641535053E-002   0.0000000000000000     
   2.8761339468431353E-002   3.8094750097122161E-002   0.0000000000000000     
   3.0929274677825792E-002   4.2814471161762714E-002   0.0000000000000000     
   3.3039667369976683E-002   4.7737137071443940E-002   0.0000000000000000     
   3.5092517544884023E-002   5.2862747826165846E-002   0.0000000000000000     
   3.7087825202547817E-002   5.8191303425928431E-002   0.0000000000000000     
   2.5465874938644974E-002   3.7486098002428136E-002   0.0000000000000000     
   2.7416068138084955E-002   4.2215915267629266E-002   0.0000000000000000     
   2.9314125864906466E-002   4.7150508262009096E-002   0.0000000000000000     
   3.1160048119109517E-002   5.2289876985567620E-002   0.0000000000000000     
   3.2953834900694097E-002   5.7634021438304851E-002   0.0000000000000000     
   2.2317864191357707E-002   3.6946206495992819E-002   0.0000000000000000     
   2.4051683850648389E-002   4.1687391340091244E-002   0.0000000000000000     
   2.5738425542446507E-002   4.6633909318569290E-002   0.0000000000000000     
   2.7378089266752049E-002   5.1785760431426985E-002   0.0000000000000000     
   2.8970675023565012E-002   5.7142944678664306E-002   0.0000000000000000     
   4.5808297080429189E-002   5.9504483085124710E-002   0.0000000000000000     
   4.8133689304358927E-002   6.4983493651078195E-002   0.0000000000000000     
   5.0380653273649344E-002   7.0645601272206038E-002   0.0000000000000000     
   5.2549188988300445E-002   7.6490805948508309E-002   0.0000000000000000     
   5.4639296448312245E-002   8.2519107679984993E-002   0.0000000000000000     
   4.1372645929126185E-002   5.8814790641535053E-002   0.0000000000000000     
   4.3502403800889433E-002   6.4316520654282353E-002   0.0000000000000000     
   4.5560679747445786E-002   7.0001034833931899E-002   0.0000000000000000     
   4.7547473768795229E-002   7.5868333180483735E-002   0.0000000000000000     
   4.9462785864937769E-002   8.1918415693937846E-002   0.0000000000000000     
   3.7087825202547817E-002   5.8191303425928431E-002   0.0000000000000000     
   3.9022078224371967E-002   6.3712728840796970E-002   0.0000000000000000     
   4.0891764491760386E-002   6.9416949040836756E-002   0.0000000000000000     
   4.2696884004713068E-002   7.5303964026047762E-002   0.0000000000000000     
   4.4437436763230018E-002   8.1373773796430016E-002   0.0000000000000000     
   3.2953834900694097E-002   5.7634021438304851E-002   0.0000000000000000     
   3.4692712574806536E-002   6.3172118210622089E-002   0.0000000000000000     
   3.6373907506593167E-002   6.8893343892920594E-002   0.0000000000000000     
   3.7997419696053976E-002   7.4797698485200390E-002   0.0000000000000000     
   3.9563249143188976E-002   8.0885181987461502E-002   0.0000000000000000     
   2.8970675023565012E-002   5.7142944678664306E-002   0.0000000000000000     
   3.0514306852193127E-002   6.2694688763757653E-002   0.0000000000000000     
   3.2007108791944114E-002   6.8430219390183442E-002   0.0000000000000000     
   3.3449080842817953E-002   7.4349536557941645E-002   0.0000000000000000     
   3.4840223004814666E-002   8.0452640267032291E-002   0.0000000000000000     
   5.4639296448312245E-002   8.2519107679984993E-002   0.0000000000000000     
   5.6654442619356885E-002   8.8720098654103990E-002   0.0000000000000000     
   5.8598094467106523E-002   9.5083371058333283E-002   0.0000000000000000     
   6.0470251991561183E-002  0.10160892489267284        0.0000000000000000     
   6.2270915192720849E-002  0.10829676015712268        0.0000000000000000     
   4.9462785864937769E-002   8.1918415693937846E-002   0.0000000000000000     
   5.1309552124249688E-002   8.8140143405743859E-002   0.0000000000000000     
   5.3090708635107280E-002   9.4522377347351458E-002   0.0000000000000000     
   5.4806255397510530E-002  0.10106511751876061        0.0000000000000000     
   5.6456192411459438E-002  0.10776836391997133        0.0000000000000000     
   4.4437436763230018E-002   8.1373773796430016E-002   0.0000000000000000     
   4.6115824874506682E-002   8.7614564857102992E-002   0.0000000000000000     
   4.7734450445738520E-002   9.4014523713186207E-002   0.0000000000000000     
   4.9293313476925532E-002  0.10057365036467965        0.0000000000000000     
   5.0792413968067697E-002  0.10729194481158329        0.0000000000000000     
   3.9563249143188976E-002   8.0885181987461502E-002   0.0000000000000000     
   4.1073260870127845E-002   8.7143363008181374E-002   0.0000000000000000     
   4.2529319899000238E-002   9.3559810155837517E-002   0.0000000000000000     
   4.3931426229806177E-002  0.10013452343042992        0.0000000000000000     
   4.5279579862545639E-002  0.10686750283195857        0.0000000000000000     
   3.4840223004814666E-002   8.0452640267032291E-002   0.0000000000000000     
   3.6181860111113191E-002   8.6726537858979005E-002   0.0000000000000000     
   3.7475316994892462E-002   9.3158236675305386E-002   0.0000000000000000     
   3.8720593656152484E-002   9.9747736716011448E-002   0.0000000000000000     
   3.9917690094893252E-002  0.10649503798109718        0.0000000000000000     
   6.2270915192720849E-002  0.10829676015712268        0.0000000000000000     
   6.4005092110566583E-002  0.11513412339730936        0.0000000000000000     
   6.5677790785079418E-002  0.12210826115885946        0.0000000000000000     
   6.7289011216259381E-002  0.12921917344177300        0.0000000000000000     
   6.8838753404106445E-002  0.13646686024604995        0.0000000000000000     
   5.6456192411459438E-002  0.10776836391997133        0.0000000000000000     
   5.8042937761975381E-002  0.11462032938665040        0.0000000000000000     
   5.9568909534079721E-002  0.12160922675446455        0.0000000000000000     
   6.1034107727772458E-002  0.12873505602341379        0.0000000000000000     
   6.2438532343053597E-002  0.13599781719349816        0.0000000000000000     
   5.0792413968067697E-002  0.10729194481158329        0.0000000000000000     
   5.2232399634707209E-002  0.11415849961010865        0.0000000000000000     
   5.3613918192386201E-002  0.12116240731646725        0.0000000000000000     
   5.4936969641104678E-002  0.12830366793065903        0.0000000000000000     
   5.6201553980862635E-002  0.13558228145268397        0.0000000000000000     
   4.5279579862545639E-002  0.10686750283195857        0.0000000000000000     
   4.6573477728762053E-002  0.11374863406768423        0.0000000000000000     
   4.7812816759998843E-002  0.12076780284486757        0.0000000000000000     
   4.8997596956256009E-002  0.12792500916350869        0.0000000000000000     
   5.0127818317533560E-002  0.13522025302360743        0.0000000000000000     
   3.9917690094893252E-002  0.10649503798109718        0.0000000000000000     
   4.1066172044139919E-002  0.11339073275937707        0.0000000000000000     
   4.2165605236917661E-002  0.12042541333966558        0.0000000000000000     
   4.3215989673226471E-002  0.12759907972196274        0.0000000000000000     
   4.4217325353066349E-002  0.13491173190626851        0.0000000000000000     
   6.8838753404106445E-002  0.13646686024604995        0.0000000000000000     
   7.0305057279063249E-002  0.14382690790507816        0.0000000000000000     
   7.1665962771572403E-002  0.15127490275224550        0.0000000000000000     
   7.2921469881633949E-002  0.15881084478755197        0.0000000000000000     
   7.4071578609247846E-002  0.16643473401099765        0.0000000000000000     
   6.2438532343053597E-002  0.13599781719349816        0.0000000000000000     
   6.3759144126028705E-002  0.14337457703044088        0.0000000000000000     
   6.4972903822803352E-002  0.15084240229996521        0.0000000000000000     
   6.6079811433377572E-002  0.15840129300207118        0.0000000000000000     
   6.7079866957751311E-002  0.16605124913675873        0.0000000000000000     
   5.6201553980862635E-002  0.13558228145268397        0.0000000000000000     
   5.7385012733692189E-002  0.14297398352654059        0.0000000000000000     
   5.8464687421625430E-002  0.15045450979622729        0.0000000000000000     
   5.9440578044662351E-002  0.15802386026174403        0.0000000000000000     
   6.0312684602802979E-002  0.16568203492309089        0.0000000000000000     
   5.0127818317533560E-002  0.13522025302360743        0.0000000000000000     
   5.1182663102053681E-002  0.14262512739337735        0.0000000000000000     
   5.2141313568038597E-002  0.15011122524103174        0.0000000000000000     
   5.3003769715488314E-002  0.15767854656657068        0.0000000000000000     
   5.3770031544402831E-002  0.16532709136999410        0.0000000000000000     
   4.4217325353066349E-002  0.13491173190626851        0.0000000000000000     
   4.5152095231113187E-002  0.14232800863095110        0.0000000000000000     
   4.6002782262042879E-002  0.14981254863437860        0.0000000000000000     
   4.6769386445855446E-002  0.15736535191655104        0.0000000000000000     
   4.7451907782550873E-002  0.16498641847746839        0.0000000000000000     
   0.0000000000000000        0.0000000000000000        0.0000000000000000     
   1.7984949291978505E-003   1.2770332745256790E-003   0.0000000000000000     
   3.6216653202885284E-003   2.9394317284293968E-003   0.0000000000000000     
   5.4695111732720337E-003   4.9871953617111522E-003   0.0000000000000000     
   7.3420324881483673E-003   7.4203241743709463E-003   0.0000000000000000     
   0.0000000000000000        0.0000000000000000        0.0000000000000000     
   1.5352276835415347E-003   1.2176604782227233E-003   0.0000000000000000     
   3.0997777535160444E-003   2.8209974314403414E-003   0.0000000000000000     
   4.6936502099235279E-003   4.8100108596528550E-003   0.0000000000000000     
   6.3168450527639874E-003   7.1847007628602650E-003   0.0000000000000000     
   0.0000000000000000        0.0000000000000000        0.0000000000000000     
   1.2880277997065752E-003   1.1700044009154316E-003   0.0000000000000000     
   2.6059538694428596E-003   2.7245813473337995E-003   0.0000000000000000     
   3.9537782092088523E-003   4.6637308392551025E-003   0.0000000000000000     
   5.3315008190045528E-003   6.9874528766793427E-003   0.0000000000000000     
   0.0000000000000000        0.0000000000000000        0.0000000000000000     
   1.0568952776929725E-003   1.1340650426038045E-003   0.0000000000000000     
   2.1401936680689741E-003   2.6501834761097696E-003   0.0000000000000000     
   3.2498951711280050E-003   4.5483553005178966E-003   0.0000000000000000     
   4.3859997868700646E-003   6.8285805158281839E-003   0.0000000000000000     
   0.0000000000000000        0.0000000000000000        0.0000000000000000     
   8.4183011750072617E-004   1.1098424032878417E-003   0.0000000000000000     
   1.7024971493943884E-003   2.5978038177682534E-003   0.0000000000000000     
   2.5820010956809866E-003   4.4638842434412337E-003   0.0000000000000000     
   3.4803419563605208E-003   6.7080836803067850E-003   0.0000000000000000     
   7.3420324881483673E-003   7.4203241743709463E-003   0.0000000000000000     
   9.2316402884148295E-003   1.0186572369023253E-002   0.0000000000000000     
   1.1130745597568725E-002   1.3233694148282543E-002   0.0000000000000000     
   1.3039348415610049E-002   1.6561689512148824E-002   0.0000000000000000     
   1.4957448742538806E-002   2.0170558460622087E-002   0.0000000000000000     
   6.3168450527639874E-003   7.1847007628602650E-003   0.0000000000000000     
   7.9567558809803002E-003   9.8956066756410999E-003   0.0000000000000000     
   9.6007762935153406E-003   1.2893268132573894E-002   0.0000000000000000     
   1.1248906290369114E-002   1.6177685133658644E-002   0.0000000000000000     
   1.2901145871541612E-002   1.9748857678895344E-002   0.0000000000000000     
   5.3315008190045528E-003   6.9874528766793427E-003   0.0000000000000000     
   6.7247354228600542E-003   9.6497116510810606E-003   0.0000000000000000     
   8.1190957448054428E-003   1.2604471353934797E-002   0.0000000000000000     
   9.5145817848407161E-003   1.5851731985240553E-002   0.0000000000000000     
   1.0911193542965880E-002   1.9391493544998327E-002   0.0000000000000000     
   4.3859997868700646E-003   6.8285805158281839E-003   0.0000000000000000     
   5.5355789140540922E-003   9.4488872953431367E-003   0.0000000000000000     
   6.6857039514390251E-003   1.2367303812365263E-002   0.0000000000000000     
   7.8363748990248616E-003   1.5583830066894558E-002   0.0000000000000000     
   8.9875917568116043E-003   1.9098466058931028E-002   0.0000000000000000     
   3.4803419563605208E-003   6.7080836803067850E-003   0.0000000000000000     
   4.3892863545624151E-003   9.2931336084273262E-003   0.0000000000000000     
   5.3006009134160910E-003   1.2181765507865285E-002   0.0000000000000000     
   6.2142856329215493E-003   1.5373979378620660E-002   0.0000000000000000     
   7.1303405130787902E-003   1.8869775220693451E-002   0.0000000000000000     
   1.4957448742538806E-002   2.0170558460622087E-002   0.0000000000000000     
   1.6859611519119341E-002   2.4031015768415327E-002   0.0000000000000000     
   1.8720401686116002E-002   2.8113776210241529E-002   0.0000000000000000     
   2.0539819243528788E-002   3.2418839786100696E-002   0.0000000000000000     
   2.2317864191357707E-002   3.6946206495992819E-002   0.0000000000000000     
   1.2901145871541612E-002   1.9748857678895344E-002   0.0000000000000000     
   1.4540972053086592E-002   2.3580143024880068E-002   0.0000000000000000     
   1.6151861851057790E-002   2.7644898428208872E-002   0.0000000000000000     
   1.7733815265455210E-002   3.1943123888881743E-002   0.0000000000000000     
   1.9286832296278852E-002   3.6474819406898701E-002   0.0000000000000000     
   1.0911193542965880E-002   1.9391493544998327E-002   0.0000000000000000     
   1.2298518929602952E-002   2.3198514251688035E-002   0.0000000000000000     
   1.3666145855173950E-002   2.7247552323789594E-002   0.0000000000000000     
   1.5014074319678874E-002   3.1538607761303003E-002   0.0000000000000000     
   1.6342304323117725E-002   3.6071680564228256E-002   0.0000000000000000     
   8.9875917568116043E-003   1.9098466058931028E-002   0.0000000000000000     
   1.0132252148668423E-002   2.2886129448839224E-002   0.0000000000000000     
   1.1263253698464480E-002   2.6921737896983707E-002   0.0000000000000000     
   1.2380596406199778E-002   3.1205291403364473E-002   0.0000000000000000     
   1.3484280271874316E-002   3.5736789967981519E-002   0.0000000000000000     
   7.1303405130787902E-003   1.8869775220693451E-002   0.0000000000000000     
   8.0421717102830033E-003   2.2642988616333640E-002   0.0000000000000000     
   8.9431853809293811E-003   2.6667455147791203E-002   0.0000000000000000     
   9.8333815250179236E-003   3.0943174815066147E-002   0.0000000000000000     
   1.0712760142548627E-002   3.5470147618158469E-002   0.0000000000000000     
   2.2317864191357707E-002   3.6946206495992819E-002   0.0000000000000000     
   2.4051683850648389E-002   4.1687391340091244E-002   0.0000000000000000     
   2.5738425542446507E-002   4.6633909318569290E-002   0.0000000000000000     
   2.7378089266752049E-002   5.1785760431426985E-002   0.0000000000000000     
   2.8970675023565012E-002   5.7142944678664306E-002   0.0000000000000000     
   1.9286832296278852E-002   3.6474819406898701E-002   0.0000000000000000     
   2.0804424399771020E-002   4.1226142396956683E-002   0.0000000000000000     
   2.2280103032174012E-002   4.6183250273752675E-002   0.0000000000000000     
   2.3713868193487829E-002   5.1346143037286671E-002   0.0000000000000000     
   2.5105719883712477E-002   5.6714820687558662E-002   0.0000000000000000     
   1.6342304323117725E-002   3.6071680564228256E-002   0.0000000000000000     
   1.7642592369707753E-002   4.0829411456033617E-002   0.0000000000000000     
   1.8906694963666204E-002   4.5794441160187334E-002   0.0000000000000000     
   2.0134612104993073E-002   5.0966769676689387E-002   0.0000000000000000     
   2.1326343793688377E-002   5.6346397005539804E-002   0.0000000000000000     
   1.3484280271874316E-002   3.5736789967981519E-002   0.0000000000000000     
   1.4566187760458586E-002   4.0497198517322044E-002   0.0000000000000000     
   1.5618201336923074E-002   4.5467481977873266E-002   0.0000000000000000     
   1.6640321001267781E-002   5.0647640349635162E-002   0.0000000000000000     
   1.7632546753492705E-002   5.6037673632607740E-002   0.0000000000000000     
   1.0712760142548627E-002   3.5470147618158469E-002   0.0000000000000000     
   1.1575210572023523E-002   4.0229503580821974E-002   0.0000000000000000     
   1.2414622151944631E-002   4.5202372726810471E-002   0.0000000000000000     
   1.3230994882311950E-002   5.0388755056123960E-002   0.0000000000000000     
   1.4024328763125482E-002   5.5788650568762449E-002   0.0000000000000000     
   2.8970675023565012E-002   5.7142944678664306E-002   0.0000000000000000     
   3.0514306852193127E-002   6.2694688763757653E-002   0.0000000000000000     
   3.2007108791944114E-002   6.8430219390183442E-002   0.0000000000000000     
   3.3449080842817953E-002   7.4349536557941645E-002   0.0000000000000000     
   3.4840223004814666E-002   8.0452640267032291E-002   0.0000000000000000     
   2.5105719883712477E-002   5.6714820687558662E-002   0.0000000000000000     
   2.6454553450715453E-002   6.2278577657013709E-002   0.0000000000000000     
   2.7759264242364280E-002   6.8026708378096865E-002   0.0000000000000000     
   2.9019852258658951E-002   7.3959212850808143E-002   0.0000000000000000     
   3.0236317499599465E-002   8.0076091075147529E-002   0.0000000000000000     
   2.1326343793688377E-002   5.6346397005539804E-002   0.0000000000000000     
   2.2481144764557214E-002   6.1921922047200276E-002   0.0000000000000000     
   2.3598269752404727E-002   6.7681943702132527E-002   0.0000000000000000     
   2.4677718757230915E-002   7.3626461970336551E-002   0.0000000000000000     
   2.5719491779035764E-002   7.9755476851812335E-002   0.0000000000000000     
   1.7632546753492705E-002   5.6037673632607740E-002   0.0000000000000000     
   1.8594080793718416E-002   6.1624721934317360E-002   0.0000000000000000     
   1.9524125322065461E-002   6.7395925362290401E-002   0.0000000000000000     
   2.0422680338533835E-002   7.3351283916526858E-002   0.0000000000000000     
   2.1289745843123552E-002   7.9490797597026708E-002   0.0000000000000000     
   1.4024328763125482E-002   5.5788650568762449E-002   0.0000000000000000     
   1.4793361538199047E-002   6.1386977318364948E-002   0.0000000000000000     
   1.5536830951346465E-002   6.7168653358570474E-002   0.0000000000000000     
   1.6254737002567729E-002   7.3133678689379034E-002   0.0000000000000000     
   1.6947079691862845E-002   7.9282053310790634E-002   0.0000000000000000     
   3.4840223004814666E-002   8.0452640267032291E-002   0.0000000000000000     
   3.6181860111113191E-002   8.6726537858979005E-002   0.0000000000000000     
   3.7475316994892462E-002   9.3158236675305386E-002   0.0000000000000000     
   3.8720593656152484E-002   9.9747736716011448E-002   0.0000000000000000     
   3.9917690094893252E-002  0.10649503798109718        0.0000000000000000     
   3.0236317499599465E-002   8.0076091075147529E-002   0.0000000000000000     
   3.1409547500502677E-002   8.6363975188680026E-002   0.0000000000000000     
   3.2540429796685442E-002   9.2809497328970633E-002   0.0000000000000000     
   3.3628964388147754E-002   9.9412657496019324E-002   0.0000000000000000     
   3.4675151274889605E-002  0.10617345568982611        0.0000000000000000     
   2.5719491779035764E-002   7.9755476851812335E-002   0.0000000000000000     
   2.6724247941336276E-002   8.6055560776468587E-002   0.0000000000000000     
   2.7692646367649447E-002   9.2513286174214004E-002   0.0000000000000000     
   2.8624687057975284E-002   9.9128653045048656E-002   0.0000000000000000     
   2.9520370012313779E-002  0.10590166138897243        0.0000000000000000     
   2.1289745843123552E-002   7.9490797597026708E-002   0.0000000000000000     
   2.2125961433613981E-002   8.5801294622344718E-002   0.0000000000000000     
   2.2931966707784496E-002   9.2269603211035639E-002   0.0000000000000000     
   2.3707761665635086E-002   9.8895723363099430E-002   0.0000000000000000     
   2.4453346307165769E-002  0.10567965507853615        0.0000000000000000     
   1.6947079691862845E-002   7.9282053310790634E-002   0.0000000000000000     
   1.7614687977335793E-002   8.5601176726308376E-002   0.0000000000000000     
   1.8258390817090565E-002   9.2078448439435412E-002   0.0000000000000000     
   1.8878188211127158E-002   9.8713868450171674E-002   0.0000000000000000     
   1.9474080159445573E-002  0.10550743675851723        0.0000000000000000     
   3.9917690094893252E-002  0.10649503798109718        0.0000000000000000     
   4.1066172044139919E-002  0.11339073275937707        0.0000000000000000     
   4.2165605236917661E-002  0.12042541333966558        0.0000000000000000     
   4.3215989673226471E-002  0.12759907972196274        0.0000000000000000     
   4.4217325353066349E-002  0.13491173190626851        0.0000000000000000     
   3.4675151274889605E-002  0.10617345568982611        0.0000000000000000     
   3.5678773175261753E-002  0.11308312241378284        0.0000000000000000     
   3.6639612807614928E-002  0.12013288817128130        0.0000000000000000     
   3.7557670171949137E-002  0.12732275296232154        0.0000000000000000     
   3.8432945268264379E-002  0.13465271678690349        0.0000000000000000     
   2.9520370012313779E-002  0.10590166138897243        0.0000000000000000     
   3.0379571716548471E-002  0.11282412975949724        0.0000000000000000     
   3.1202168656562900E-002  0.11988787671013484        0.0000000000000000     
   3.1988160832357074E-002  0.12709290224088529        0.0000000000000000     
   3.2737548243930971E-002  0.13443920635174858        0.0000000000000000     
   2.4453346307165769E-002  0.10567965507853615        0.0000000000000000     
   2.5168567668000085E-002  0.11261375479652024        0.0000000000000000     
   2.5853272783761587E-002  0.11969037895622622        0.0000000000000000     
   2.6507461654450282E-002  0.12690952755765408        0.0000000000000000     
   2.7131134280066159E-002  0.13427120060080383        0.0000000000000000     
   1.9474080159445573E-002  0.10550743675851723        0.0000000000000000     
   2.0045761029616593E-002  0.11245199752485187        0.0000000000000000     
   2.0592925189210989E-002  0.11954039490955540        0.0000000000000000     
   2.1115572638228761E-002  0.12677262891262786        0.0000000000000000     
   2.1613703376669919E-002  0.13414869953406922        0.0000000000000000     
   4.4217325353066349E-002  0.13491173190626851        0.0000000000000000     
   4.5152095231113187E-002  0.14232800863095110        0.0000000000000000     
   4.6002782262042879E-002  0.14981254863437860        0.0000000000000000     
   4.6769386445855446E-002  0.15736535191655104        0.0000000000000000     
   4.7451907782550873E-002  0.16498641847746839        0.0000000000000000     
   3.8432945268264379E-002  0.13465271678690349        0.0000000000000000     
   3.9251448939287586E-002  0.14208046565893778        0.0000000000000000     
   3.9999192027745732E-002  0.14956368559233499        0.0000000000000000     
   4.0676174533638795E-002  0.15710237658709514        0.0000000000000000     
   4.1282396456966783E-002  0.16469653864321818        0.0000000000000000     
   3.2737548243930971E-002  0.13443920635174858        0.0000000000000000     
   3.3438864044993764E-002  0.14188033689701332        0.0000000000000000     
   3.4080641389254568E-002  0.14936984173096809        0.0000000000000000     
   3.4662880276713395E-002  0.15690772085361296        0.0000000000000000     
   3.5185580707370233E-002  0.16449397426494786        0.0000000000000000     
   2.7131134280066159E-002  0.13427120060080383        0.0000000000000000     
   2.7714340548231707E-002  0.14172762234517769        0.0000000000000000     
   2.8247130346569400E-002  0.14923101705027789        0.0000000000000000     
   2.8729503675079239E-002  0.15678138471610448        0.0000000000000000     
   2.9161460533761226E-002  0.16437872534265743        0.0000000000000000     
   2.1613703376669919E-002  0.13414869953406922        0.0000000000000000     
   2.2077878449001422E-002  0.14162232200343094        0.0000000000000000     
   2.2498658899690226E-002  0.14914721155026445        0.0000000000000000     
   2.2876044728736340E-002  0.15672336817456980        0.0000000000000000     
   2.3210035936139760E-002  0.16435079187634691        0.0000000000000000     
   0.0000000000000000        0.0000000000000000        0.0000000000000000     
   8.4183011750072617E-004   1.1098424032878417E-003   0.0000000000000000     
   1.7024971493943884E-003   2.5978038177682534E-003   0.0000000000000000     
   2.5820010956809866E-003   4.4638842434412337E-003   0.0000000000000000     
   3.4803419563605208E-003   6.7080836803067850E-003   0.0000000000000000     
   0.0000000000000000        0.0000000000000000        0.0000000000000000     
   6.3394212569587599E-004   1.0937736584469299E-003   0.0000000000000000     
   1.2783425695637902E-003   2.5616045848554422E-003   0.0000000000000000     
   1.9332013316037430E-003   4.4034927792255367E-003   0.0000000000000000     
   2.5985184118157336E-003   6.6194382415572135E-003   0.0000000000000000     
   0.0000000000000000        0.0000000000000000        0.0000000000000000     
   4.2434110884446145E-004   1.0822959835604549E-003   0.0000000000000000     
   8.5320818472186741E-004   2.5357479899175295E-003   0.0000000000000000     
   1.2866012276322180E-003   4.3603560190712256E-003   0.0000000000000000     
   1.7245202375755133E-003   6.5561200710215397E-003   0.0000000000000000     
   0.0000000000000000        0.0000000000000000        0.0000000000000000     
   2.1302706694648266E-004   1.0754093786284173E-003   0.0000000000000000     
   4.2709399486862024E-004   2.5202340329545168E-003   0.0000000000000000     
   6.4220078376641277E-004   4.3344739629782988E-003   0.0000000000000000     
   8.5834743363986000E-004   6.5181291686997643E-003   0.0000000000000000     
   0.0000000000000000        0.0000000000000000        0.0000000000000000     
   1.9396376865765674E-015   1.0731138436508164E-003   0.0000000000000000     
   4.0485735423867464E-015   2.5150627139664027E-003   0.0000000000000000     
   6.3266991472132883E-015   4.3258466109467597E-003   0.0000000000000000     
   8.7740416061105053E-015   6.5054655345918857E-003   0.0000000000000000     
   3.4803419563605208E-003   6.7080836803067850E-003   0.0000000000000000     
   4.3892863545624151E-003   9.2931336084273262E-003   0.0000000000000000     
   5.3006009134160910E-003   1.2181765507865285E-002   0.0000000000000000     
   6.2142856329215493E-003   1.5373979378620660E-002   0.0000000000000000     
   7.1303405130787902E-003   1.8869775220693451E-002   0.0000000000000000     
   2.5985184118157336E-003   6.6194382415572135E-003   0.0000000000000000     
   3.2713105187770711E-003   9.1765675499855502E-003   0.0000000000000000     
   3.9485943610650647E-003   1.2042007282645630E-002   0.0000000000000000     
   4.6303699386797134E-003   1.5215757439537450E-002   0.0000000000000000     
   5.3166372516210182E-003   1.8697818020661009E-002   0.0000000000000000     
   1.7245202375755133E-003   6.5561200710215397E-003   0.0000000000000000     
   2.1671041810901116E-003   9.0933060796697333E-003   0.0000000000000000     
   2.6144920247143724E-003   1.1942179978917061E-002   0.0000000000000000     
   3.0666837684482943E-003   1.5102741768763528E-002   0.0000000000000000     
   3.5236794122918791E-003   1.8574991449209127E-002   0.0000000000000000     
   8.5834743363986000E-004   6.5181291686997643E-003   0.0000000000000000     
   1.0766673415015355E-003   9.0433491974798736E-003   0.0000000000000000     
   1.2982939043640123E-003   1.1882283596679579E-002   0.0000000000000000     
   1.5232271222272900E-003   1.5034932366298891E-002   0.0000000000000000     
   1.7514669950913699E-003   1.8501295506337802E-002   0.0000000000000000     
   8.7740416061105053E-015   6.5054655345918857E-003   0.0000000000000000     
   1.1342923128543347E-014   9.0266969034159660E-003   0.0000000000000000     
   1.3985482964860158E-014   1.1862318135933182E-002   0.0000000000000000     
   1.6701844781871235E-014   1.5012329232143538E-002   0.0000000000000000     
   1.9491569816509902E-014   1.8476730192047031E-002   0.0000000000000000     
   7.1303405130787902E-003   1.8869775220693451E-002   0.0000000000000000     
   8.0421717102830033E-003   2.2642988616333640E-002   0.0000000000000000     
   8.9431853809293811E-003   2.6667455147791203E-002   0.0000000000000000     
   9.8333815250179236E-003   3.0943174815066147E-002   0.0000000000000000     
   1.0712760142548627E-002   3.5470147618158469E-002   0.0000000000000000     
   5.3166372516210182E-003   1.8697818020661009E-002   0.0000000000000000     
   6.0005455280585625E-003   2.2460534624916387E-002   0.0000000000000000     
   6.6752439961619255E-003   2.6476252851203651E-002   0.0000000000000000     
   7.3407326559311098E-003   3.0744972699522803E-002   0.0000000000000000     
   7.9970115073661144E-003   3.5266694169873845E-002   0.0000000000000000     
   3.5236794122918791E-003   1.8574991449209127E-002   0.0000000000000000     
   3.9796415156069624E-003   2.2330210345332582E-002   0.0000000000000000     
   4.4287326377553827E-003   2.6339679782212615E-002   0.0000000000000000     
   4.8709527787371377E-003   3.0603399759849222E-002   0.0000000000000000     
   5.3063019385522301E-003   3.5121370278242400E-002   0.0000000000000000     
   1.7514669950913699E-003   1.8501295506337802E-002   0.0000000000000000     
   1.9794596729282047E-003   2.2252015777582231E-002   0.0000000000000000     
   2.2036513057097514E-003   2.6257735940818098E-002   0.0000000000000000     
   2.4240418934360079E-003   3.0518455996045399E-002   0.0000000000000000     
   2.6406314361069765E-003   3.5034175943264141E-002   0.0000000000000000     
   1.9491569816509902E-014   1.8476730192047031E-002   0.0000000000000000     
   2.2290275094455358E-014   2.2225950921665332E-002   0.0000000000000000     
   2.5033360800952309E-014   2.6230421327020095E-002   0.0000000000000000     
   2.7720393255131759E-014   3.0490141408111338E-002   0.0000000000000000     
   3.0351589297428205E-014   3.5005111164939047E-002   0.0000000000000000     
   1.0712760142548627E-002   3.5470147618158469E-002   0.0000000000000000     
   1.1575210572023523E-002   4.0229503580821974E-002   0.0000000000000000     
   1.2414622151944631E-002   4.5202372726810471E-002   0.0000000000000000     
   1.3230994882311950E-002   5.0388755056123960E-002   0.0000000000000000     
   1.4024328763125482E-002   5.5788650568762449E-002   0.0000000000000000     
   7.9970115073661144E-003   3.5266694169873845E-002   0.0000000000000000     
   8.6405623027530892E-003   4.0023497137352225E-002   0.0000000000000000     
   9.2678667943781826E-003   4.4997461477053378E-002   0.0000000000000000     
   9.8789249822413966E-003   5.0188587188977306E-002   0.0000000000000000     
   1.0473736866342729E-002   5.5596874273124021E-002   0.0000000000000000     
   5.3063019385522301E-003   3.5121370278242400E-002   0.0000000000000000     
   5.7331444509978163E-003   3.9876349677731647E-002   0.0000000000000000     
   6.1498446498710526E-003   4.4851096298656412E-002   0.0000000000000000     
   6.5564025351719400E-003   5.0045610141016710E-002   0.0000000000000000     
   6.9528181069004767E-003   5.5459891204812532E-002   0.0000000000000000     
   2.6406314361069765E-003   3.5034175943264141E-002   0.0000000000000000     
   2.8529570167577030E-003   3.9788061201960226E-002   0.0000000000000000     
   3.0605557184232375E-003   4.4763277191619551E-002   0.0000000000000000     
   3.2634275411035783E-003   4.9959823912242143E-002   0.0000000000000000     
   3.4615724847987281E-003   5.5377701363827983E-002   0.0000000000000000     
   3.0351589297428205E-014   3.5005111164939047E-002   0.0000000000000000     
   3.2749410822097147E-014   3.9758631710037969E-002   0.0000000000000000     
   3.4736807614371701E-014   4.4734004155942822E-002   0.0000000000000000     
   3.6314118487430769E-014   4.9931228502653621E-002   0.0000000000000000     
   3.7480652262389391E-014   5.5350304750170359E-002   0.0000000000000000     
   1.4024328763125482E-002   5.5788650568762449E-002   0.0000000000000000     
   1.4793361538199047E-002   6.1386977318364948E-002   0.0000000000000000     
   1.5536830951346465E-002   6.7168653358570474E-002   0.0000000000000000     
   1.6254737002567729E-002   7.3133678689379034E-002   0.0000000000000000     
   1.6947079691862845E-002   7.9282053310790634E-002   0.0000000000000000     
   1.0473736866342729E-002   5.5596874273124021E-002   0.0000000000000000     
   1.1050616268669256E-002   6.1204962559314610E-002   0.0000000000000000     
   1.1607877011208058E-002   6.6995491877370125E-002   0.0000000000000000     
   1.2145519093959127E-002   7.2968462227290601E-002   0.0000000000000000     
   1.2663542516922472E-002   7.9123873609076051E-002   0.0000000000000000     
   6.9528181069004767E-003   5.5459891204812532E-002   0.0000000000000000     
   7.3374742557991736E-003   6.1074952017137869E-002   0.0000000000000000     
   7.7087538726105381E-003   6.6871805105086696E-002   0.0000000000000000     
   8.0666569573345677E-003   7.2850450468659025E-002   0.0000000000000000     
   8.4111835099712675E-003   7.9010888107854851E-002   0.0000000000000000     
   3.4615724847987281E-003   5.5377701363827983E-002   0.0000000000000000     
   3.6539354995887988E-003   6.0996945691834767E-002   0.0000000000000000     
   3.8394615355539070E-003   6.6797593041720199E-002   0.0000000000000000     
   4.0181505926940534E-003   7.2779643413484266E-002   0.0000000000000000     
   4.1900026710092360E-003   7.8943096807126995E-002   0.0000000000000000     
   3.7480652262389391E-014   5.5350304750170359E-002   0.0000000000000000     
   3.8132583028704925E-014   6.0970943583405275E-002   0.0000000000000000     
   3.8165380144422612E-014   6.6772855687270607E-002   0.0000000000000000     
   3.7581523722012011E-014   7.2756041061766363E-002   0.0000000000000000     
   3.6377151291233645E-014   7.8920499706892550E-002   0.0000000000000000     
   1.6947079691862845E-002   7.9282053310790634E-002   0.0000000000000000     
   1.7614687977335793E-002   8.5601176726308376E-002   0.0000000000000000     
   1.8258390817090565E-002   9.2078448439435412E-002   0.0000000000000000     
   1.8878188211127158E-002   9.8713868450171674E-002   0.0000000000000000     
   1.9474080159445573E-002  0.10550743675851723        0.0000000000000000     
   1.2663542516922472E-002   7.9123873609076051E-002   0.0000000000000000     
   1.3162944780837363E-002   8.5449763430191658E-002   0.0000000000000000     
   1.3644723386443082E-002   9.1934169098102661E-002   0.0000000000000000     
   1.4108878333739631E-002   9.8577090612809046E-002   0.0000000000000000     
   1.4555409622727014E-002  0.10537852797431084        0.0000000000000000     
   8.4111835099712675E-003   7.9010888107854851E-002   0.0000000000000000     
   8.7432490524543289E-003   8.5341611075826593E-002   0.0000000000000000     
   9.0637691067174571E-003   9.1831112425726710E-002   0.0000000000000000     
   9.3727436727606434E-003   9.8479392157555204E-002   0.0000000000000000     
   9.6701727505838948E-003  0.10528645027131210        0.0000000000000000     
   4.1900026710092360E-003   7.8943096807126995E-002   0.0000000000000000     
   4.3556007921866985E-003   8.5276719663213166E-002   0.0000000000000000     
   4.5155279779136833E-003   9.1769278422307546E-002   0.0000000000000000     
   4.6697842281901904E-003   9.8420773084410176E-002   0.0000000000000000     
   4.8183695430162200E-003  0.10523120364952100        0.0000000000000000     
   3.6377151291233645E-014   7.8920499706892550E-002   0.0000000000000000     
   3.4467871265486671E-014   8.5255089192351405E-002   0.0000000000000000     
   3.1767015233608031E-014   9.1748667087845195E-002   0.0000000000000000     
   2.8274230829891667E-014   9.8401233393373935E-002   0.0000000000000000     
   2.3990358311021254E-014  0.10521278810893757        0.0000000000000000     
   1.9474080159445573E-002  0.10550743675851723        0.0000000000000000     
   2.0045761029616593E-002  0.11245199752485187        0.0000000000000000     
   2.0592925189210989E-002  0.11954039490955540        0.0000000000000000     
   2.1115572638228761E-002  0.12677262891262786        0.0000000000000000     
   2.1613703376669919E-002  0.13414869953406922        0.0000000000000000     
   1.4555409622727014E-002  0.10537852797431084        0.0000000000000000     
   1.4983870015290938E-002  0.11233173015209238        0.0000000000000000     
   1.5393812273317131E-002  0.11942994611563816        0.0000000000000000     
   1.5785236396805593E-002  0.12667317586494808        0.0000000000000000     
   1.6158142385756320E-002  0.13406141940002225        0.0000000000000000     
   9.6701727505838948E-003  0.10528645027131210        0.0000000000000000     
   9.9556128389160763E-003  0.11224582488584214        0.0000000000000000     
   1.0228620436486055E-002  0.11935105411999024        0.0000000000000000     
   1.0489195543293835E-002  0.12660213797375633        0.0000000000000000     
   1.0737338159339414E-002  0.13399907644714046        0.0000000000000000     
   4.8183695430162200E-003  0.10523120364952100        0.0000000000000000     
   4.9609895004919984E-003  0.11219428172610114        0.0000000000000000     
   5.0973496787177566E-003  0.11930371892261167        0.0000000000000000     
   5.2274500776934929E-003  0.12655951523905257        0.0000000000000000     
   5.3512906974192056E-003  0.13396167067542383        0.0000000000000000     
   2.3990358311021254E-014  0.10521278810893757        0.0000000000000000     
   1.8712028454492824E-014  0.11217710067286935        0.0000000000000000     
   1.2236414138888652E-014  0.11928794052350239        0.0000000000000000     
   4.5637593096975460E-015  0.12654530766083674        0.0000000000000000     
  -4.3051499865054410E-015  0.13394920208487240        0.0000000000000000     
   2.1613703376669919E-002  0.13414869953406922        0.0000000000000000     
   2.2077878449001422E-002  0.14162232200343094        0.0000000000000000     
   2.2498658899690226E-002  0.14914721155026445        0.0000000000000000     
   2.2876044728736340E-002  0.15672336817456980        0.0000000000000000     
   2.3210035936139760E-002  0.16435079187634691        0.0000000000000000     
   1.6158142385756320E-002  0.13406141940002225        0.0000000000000000     
   1.6503687495589621E-002  0.14155092792132065        0.0000000000000000     
   1.6813028981725809E-002  0.14909795262930339        0.0000000000000000     
   1.7086166844164877E-002  0.15670249352397042        0.0000000000000000     
   1.7323101082906835E-002  0.16436455060532176        0.0000000000000000     
   1.0737338159339414E-002  0.13399907644714046        0.0000000000000000     
   1.0965977436283025E-002  0.14149993214839451        0.0000000000000000     
   1.1168042525784903E-002  0.14906276768577037        0.0000000000000000     
   1.1343533427845044E-002  0.15668758305926803        0.0000000000000000     
   1.1492450142463447E-002  0.16437437826888757        0.0000000000000000     
   5.3512906974192056E-003  0.13396167067542383        0.0000000000000000     
   5.4647482710816356E-003  0.14146933468465248        0.0000000000000000     
   5.5636995318675076E-003  0.14904165671966541        0.0000000000000000     
   5.6481444797768310E-003  0.15667863678046265        0.0000000000000000     
   5.7180831148096025E-003  0.16438027486704418        0.0000000000000000     
  -4.3051499865054410E-015  0.13394920208487240        0.0000000000000000     
  -1.4556932048659377E-014  0.14145913553009457        0.0000000000000000     
  -2.6372458904189156E-014  0.14903461973098850        0.0000000000000000     
  -3.9755281315209667E-014  0.15667565468755423        0.0000000000000000     
  -5.4701035367976658E-014  0.16438224039979177        0.0000000000000000     
   0.0000000000000000        0.0000000000000000        0.0000000000000000     
   1.9396376865765674E-015   1.0731138436508164E-003   0.0000000000000000     
   4.0485735423867464E-015   2.5150627139664027E-003   0.0000000000000000     
   6.3266991472132883E-015   4.3258466109467597E-003   0.0000000000000000     
   8.7740416061105053E-015   6.5054655345918857E-003   0.0000000000000000     
   0.0000000000000000        0.0000000000000000        0.0000000000000000     
  -2.1302706694266400E-004   1.0754093786276792E-003   0.0000000000000000     
  -4.2709399486064669E-004   2.5202340329532310E-003   0.0000000000000000     
  -6.4220078375394813E-004   4.3344739629766552E-003   0.0000000000000000     
  -8.5834743362256827E-004   6.5181291686979524E-003   0.0000000000000000     
   0.0000000000000000        0.0000000000000000        0.0000000000000000     
  -4.2434110884082455E-004   1.0822959835590318E-003   0.0000000000000000     
  -8.5320818471426433E-004   2.5357479899150446E-003   0.0000000000000000     
  -1.2866012276203198E-003   4.3603560190680372E-003   0.0000000000000000     
  -1.7245202375589903E-003   6.5561200710180113E-003   0.0000000000000000     
   0.0000000000000000        0.0000000000000000        0.0000000000000000     
  -6.3394212569254217E-004   1.0937736584448743E-003   0.0000000000000000     
  -1.2783425695568047E-003   2.5616045848518430E-003   0.0000000000000000     
  -1.9332013315927880E-003   4.4034927792209059E-003   0.0000000000000000     
  -2.5985184118004923E-003   6.6194382415520623E-003   0.0000000000000000     
   0.0000000000000000        0.0000000000000000        0.0000000000000000     
  -8.4183011749781661E-004   1.1098424032852069E-003   0.0000000000000000     
  -1.7024971493882677E-003   2.5978038177636269E-003   0.0000000000000000     
  -2.5820010956713537E-003   4.4638842434352594E-003   0.0000000000000000     
  -3.4803419563470741E-003   6.7080836803001071E-003   0.0000000000000000     
   8.7740416061105053E-015   6.5054655345918857E-003   0.0000000000000000     
   1.1342923128543347E-014   9.0266969034159660E-003   0.0000000000000000     
   1.3985482964860158E-014   1.1862318135933182E-002   0.0000000000000000     
   1.6701844781871235E-014   1.5012329232143538E-002   0.0000000000000000     
   1.9491569816509902E-014   1.8476730192047031E-002   0.0000000000000000     
  -8.5834743362256827E-004   6.5181291686979524E-003   0.0000000000000000     
  -1.0766673414791749E-003   9.0433491974780591E-003   0.0000000000000000     
  -1.2982939043364348E-003   1.1882283596677909E-002   0.0000000000000000     
  -1.5232271221943491E-003   1.5034932366297504E-002   0.0000000000000000     
  -1.7514669950529163E-003   1.8501295506336841E-002   0.0000000000000000     
  -1.7245202375589903E-003   6.5561200710180113E-003   0.0000000000000000     
  -2.1671041810687251E-003   9.0933060796661875E-003   0.0000000000000000     
  -2.6144920246879747E-003   1.1942179978913788E-002   0.0000000000000000     
  -3.0666837684167380E-003   1.5102741768760810E-002   0.0000000000000000     
  -3.5236794122550149E-003   1.8574991449207257E-002   0.0000000000000000     
  -2.5985184118004923E-003   6.6194382415520623E-003   0.0000000000000000     
  -3.2713105187573100E-003   9.1765675499803530E-003   0.0000000000000000     
  -3.9485943610406346E-003   1.2042007282640819E-002   0.0000000000000000     
  -4.6303699386504651E-003   1.5215757439533456E-002   0.0000000000000000     
  -5.3166372515868034E-003   1.8697818020658272E-002   0.0000000000000000     
  -3.4803419563470741E-003   6.7080836803001071E-003   0.0000000000000000     
  -4.3892863545449273E-003   9.2931336084205590E-003   0.0000000000000000     
  -5.3006009133944147E-003   1.2181765507859005E-002   0.0000000000000000     
  -6.2142856328955319E-003   1.5373979378615449E-002   0.0000000000000000     
  -7.1303405130482824E-003   1.8869775220689892E-002   0.0000000000000000     
   1.9491569816509902E-014   1.8476730192047031E-002   0.0000000000000000     
   2.2290275094455358E-014   2.2225950921665332E-002   0.0000000000000000     
   2.5033360800952309E-014   2.6230421327020095E-002   0.0000000000000000     
   2.7720393255131759E-014   3.0490141408111338E-002   0.0000000000000000     
   3.0351589297428205E-014   3.5005111164939047E-002   0.0000000000000000     
  -1.7514669950529163E-003   1.8501295506336841E-002   0.0000000000000000     
  -1.9794596728842213E-003   2.2252015777581888E-002   0.0000000000000000     
  -2.2036513056603469E-003   2.6257735940818622E-002   0.0000000000000000     
  -2.4240418933812930E-003   3.0518455996047019E-002   0.0000000000000000     
  -2.6406314360470596E-003   3.5034175943267097E-002   0.0000000000000000     
  -3.5236794122550149E-003   1.8574991449207257E-002   0.0000000000000000     
  -3.9796415155647687E-003   2.2330210345331933E-002   0.0000000000000000     
  -4.4287326377079623E-003   2.6339679782213667E-002   0.0000000000000000     
  -4.8709527786845973E-003   3.0603399759852441E-002   0.0000000000000000     
  -5.3063019384946728E-003   3.5121370278248271E-002   0.0000000000000000     
  -5.3166372515868034E-003   1.8697818020658272E-002   0.0000000000000000     
  -6.0005455280193517E-003   2.2460534624915464E-002   0.0000000000000000     
  -6.6752439961178149E-003   2.6476252851205240E-002   0.0000000000000000     
  -7.3407326558821949E-003   3.0744972699527601E-002   0.0000000000000000     
  -7.9970115073124855E-003   3.5266694169882540E-002   0.0000000000000000     
  -7.1303405130482824E-003   1.8869775220689892E-002   0.0000000000000000     
  -8.0421717102479705E-003   2.2642988616332470E-002   0.0000000000000000     
  -8.9431853808899040E-003   2.6667455147793343E-002   0.0000000000000000     
  -9.8333815249740802E-003   3.0943174815072489E-002   0.0000000000000000     
  -1.0712760142500504E-002   3.5470147618169925E-002   0.0000000000000000     
   3.0351589297428205E-014   3.5005111164939047E-002   0.0000000000000000     
   3.2749410822097147E-014   3.9758631710037969E-002   0.0000000000000000     
   3.4736807614371701E-014   4.4734004155942822E-002   0.0000000000000000     
   3.6314118487430769E-014   4.9931228502653621E-002   0.0000000000000000     
   3.7480652262389391E-014   5.5350304750170359E-002   0.0000000000000000     
  -2.6406314360470596E-003   3.5034175943267097E-002   0.0000000000000000     
  -2.8529570166930477E-003   3.9788061201964812E-002   0.0000000000000000     
  -3.0605557183546557E-003   4.4763277191626129E-002   0.0000000000000000     
  -3.2634275410318853E-003   4.9959823912251046E-002   0.0000000000000000     
  -3.4615724847247365E-003   5.5377701363839557E-002   0.0000000000000000     
  -5.3063019384946728E-003   3.5121370278248271E-002   0.0000000000000000     
  -5.7331444509356889E-003   3.9876349677740723E-002   0.0000000000000000     
  -6.1498446498051487E-003   4.4851096298669409E-002   0.0000000000000000     
  -6.5564025351030498E-003   5.0045610141034327E-002   0.0000000000000000     
  -6.9528181068293955E-003   5.5459891204835479E-002   0.0000000000000000     
  -7.9970115073124855E-003   3.5266694169882540E-002   0.0000000000000000     
  -8.6405623026951737E-003   4.0023497137365686E-002   0.0000000000000000     
  -9.2678667943167405E-003   4.4997461477072655E-002   0.0000000000000000     
  -9.8789249821771823E-003   5.0188587189003458E-002   0.0000000000000000     
  -1.0473736866276499E-002   5.5596874273158098E-002   0.0000000000000000     
  -1.0712760142500504E-002   3.5470147618169925E-002   0.0000000000000000     
  -1.1575210571971507E-002   4.0229503580839703E-002   0.0000000000000000     
  -1.2414622151889432E-002   4.5202372726835881E-002   0.0000000000000000     
  -1.3230994882254279E-002   5.0388755056158453E-002   0.0000000000000000     
  -1.4024328763066043E-002   5.5788650568807441E-002   0.0000000000000000     
   3.7480652262389391E-014   5.5350304750170359E-002   0.0000000000000000     
   3.8132583028704925E-014   6.0970943583405275E-002   0.0000000000000000     
   3.8165380144422612E-014   6.6772855687270607E-002   0.0000000000000000     
   3.7581523722012011E-014   7.2756041061766363E-002   0.0000000000000000     
   3.6377151291233645E-014   7.8920499706892550E-002   0.0000000000000000     
  -3.4615724847247365E-003   5.5377701363839557E-002   0.0000000000000000     
  -3.6539354995135335E-003   6.0996945691849276E-002   0.0000000000000000     
  -3.8394615354785991E-003   6.6797593041737796E-002   0.0000000000000000     
  -4.0181505926199339E-003   7.2779643413505138E-002   0.0000000000000000     
  -4.1900026709375364E-003   7.8943096807151281E-002   0.0000000000000000     
  -6.9528181068293955E-003   5.5459891204835479E-002   0.0000000000000000     
  -7.3374742557269050E-003   6.1074952017166645E-002   0.0000000000000000     
  -7.7087538725382938E-003   6.6871805105121612E-002   0.0000000000000000     
  -8.0666569572635689E-003   7.2850450468700423E-002   0.0000000000000000     
  -8.4111835099027268E-003   7.9010888107902993E-002   0.0000000000000000     
  -1.0473736866276499E-002   5.5596874273158098E-002   0.0000000000000000     
  -1.1050616268601984E-002   6.1204962559357354E-002   0.0000000000000000     
  -1.1607877011140929E-002   6.6995491877422056E-002   0.0000000000000000     
  -1.2145519093893329E-002   7.2968462227352149E-002   0.0000000000000000     
  -1.2663542516859194E-002   7.9123873609147702E-002   0.0000000000000000     
  -1.4024328763066043E-002   5.5788650568807441E-002   0.0000000000000000     
  -1.4793361538138768E-002   6.1386977318421437E-002   0.0000000000000000     
  -1.5536830951286495E-002   6.7168653358639099E-002   0.0000000000000000     
  -1.6254737002509213E-002   7.3133678689460413E-002   0.0000000000000000     
  -1.6947079691806938E-002   7.9282053310885364E-002   0.0000000000000000     
   3.6377151291233645E-014   7.8920499706892550E-002   0.0000000000000000     
   3.4467871265486671E-014   8.5255089192351405E-002   0.0000000000000000     
   3.1767015233608031E-014   9.1748667087845195E-002   0.0000000000000000     
   2.8274230829891667E-014   9.8401233393373935E-002   0.0000000000000000     
   2.3990358311021254E-014  0.10521278810893757        0.0000000000000000     
  -4.1900026709375364E-003   7.8943096807151281E-002   0.0000000000000000     
  -4.3556007921188196E-003   8.5276719663241060E-002   0.0000000000000000     
  -4.5155279778511994E-003   9.1769278422339381E-002   0.0000000000000000     
  -4.6697842281346741E-003   9.8420773084446203E-002   0.0000000000000000     
  -4.8183695429692419E-003  0.10523120364956152        0.0000000000000000     
  -8.4111835099027268E-003   7.9010888107902993E-002   0.0000000000000000     
  -8.7432490523896237E-003   8.5341611075881965E-002   0.0000000000000000     
  -9.0637691066581243E-003   9.1831112425789882E-002   0.0000000000000000     
  -9.3727436727082218E-003   9.8479392157626772E-002   0.0000000000000000     
  -9.6701727505399248E-003  0.10528645027139259        0.0000000000000000     
  -1.2663542516859194E-002   7.9123873609147702E-002   0.0000000000000000     
  -1.3162944780777943E-002   8.5449763430274051E-002   0.0000000000000000     
  -1.3644723386389005E-002   9.1934169098196683E-002   0.0000000000000000     
  -1.4108878333692374E-002   9.8577090612915585E-002   0.0000000000000000     
  -1.4555409622688057E-002  0.10537852797443076        0.0000000000000000     
  -1.6947079691806938E-002   7.9282053310885364E-002   0.0000000000000000     
  -1.7614687977283772E-002   8.5601176726417372E-002   0.0000000000000000     
  -1.8258390817043835E-002   9.2078448439559812E-002   0.0000000000000000     
  -1.8878188211087128E-002   9.8713868450312686E-002   0.0000000000000000     
  -1.9474080159413643E-002  0.10550743675867601        0.0000000000000000     
   2.3990358311021254E-014  0.10521278810893757        0.0000000000000000     
   1.8712028454492824E-014  0.11217710067286935        0.0000000000000000     
   1.2236414138888652E-014  0.11928794052350239        0.0000000000000000     
   4.5637593096975460E-015  0.12654530766083674        0.0000000000000000     
  -4.3051499865054410E-015  0.13394920208487240        0.0000000000000000     
  -4.8183695429692419E-003  0.10523120364956152        0.0000000000000000     
  -4.9609895004555414E-003  0.11219428172614648        0.0000000000000000     
  -5.0973496786942095E-003  0.11930371892266219        0.0000000000000000     
  -5.2274500776852435E-003  0.12655951523910861        0.0000000000000000     
  -5.3512906974286433E-003  0.13396167067548581        0.0000000000000000     
  -9.6701727505399248E-003  0.10528645027139259        0.0000000000000000     
  -9.9556128388825164E-003  0.11224582488593227        0.0000000000000000     
  -1.0228620436465281E-002  0.11935105412009067        0.0000000000000000     
  -1.0489195543288218E-002  0.12660213797386782        0.0000000000000000     
  -1.0737338159351332E-002  0.13399907644726375        0.0000000000000000     
  -1.4555409622688057E-002  0.10537852797443076        0.0000000000000000     
  -1.4983870015262210E-002  0.11233173015222669        0.0000000000000000     
  -1.5393812273300979E-002  0.11942994611578790        0.0000000000000000     
  -1.5785236396804361E-002  0.12667317586511445        0.0000000000000000     
  -1.6158142385772369E-002  0.13406141940020630        0.0000000000000000     
  -1.9474080159413643E-002  0.10550743675867601        0.0000000000000000     
  -2.0045761029594628E-002  0.11245199752502973        0.0000000000000000     
  -2.0592925189201305E-002  0.11954039490975388        0.0000000000000000     
  -2.1115572638233680E-002  0.12677262891284841        0.0000000000000000     
  -2.1613703376691759E-002  0.13414869953431335        0.0000000000000000     
  -4.3051499865054410E-015  0.13394920208487240        0.0000000000000000     
  -1.4556932048659377E-014  0.14145913553009457        0.0000000000000000     
  -2.6372458904189156E-014  0.14903461973098850        0.0000000000000000     
  -3.9755281315209667E-014  0.15667565468755423        0.0000000000000000     
  -5.4701035367976658E-014  0.16438224039979177        0.0000000000000000     
  -5.3512906974286433E-003  0.13396167067548581        0.0000000000000000     
  -5.4647482711115188E-003  0.14146933468472050        0.0000000000000000     
  -5.5636995319209700E-003  0.14904165671973948        0.0000000000000000     
  -5.6481444798569978E-003  0.15667863678054275        0.0000000000000000     
  -5.7180831149196022E-003  0.16438027486713030        0.0000000000000000     
  -1.0737338159351332E-002  0.13399907644726375        0.0000000000000000     
  -1.0965977436315229E-002  0.14149993214853002        0.0000000000000000     
  -1.1168042525840513E-002  0.14906276768591811        0.0000000000000000     
  -1.1343533427927181E-002  0.15668758305942809        0.0000000000000000     
  -1.1492450142575241E-002  0.16437437826905993        0.0000000000000000     
  -1.6158142385772369E-002  0.13406141940020630        0.0000000000000000     
  -1.6503687495625682E-002  0.14155092792152302        0.0000000000000000     
  -1.6813028981784998E-002  0.14909795262952438        0.0000000000000000     
  -1.7086166844250301E-002  0.15670249352421023        0.0000000000000000     
  -1.7323101083021614E-002  0.16436455060558069        0.0000000000000000     
  -2.1613703376691759E-002  0.13414869953431335        0.0000000000000000     
  -2.2077878449042888E-002  0.14162232200369967        0.0000000000000000     
  -2.2498658899754432E-002  0.14914721155055830        0.0000000000000000     
  -2.2876044728826372E-002  0.15672336817488922        0.0000000000000000     
  -2.3210035936258727E-002  0.16435079187669249        0.0000000000000000     
   0.0000000000000000        0.0000000000000000        0.0000000000000000     
  -8.4183011749781661E-004   1.1098424032852069E-003   0.0000000000000000     
  -1.7024971493882677E-003   2.5978038177636269E-003   0.0000000000000000     
  -2.5820010956713537E-003   4.4638842434352594E-003   0.0000000000000000     
  -3.4803419563470741E-003   6.7080836803001071E-003   0.0000000000000000     
   0.0000000000000000        0.0000000000000000        0.0000000000000000     
  -1.0568952776905838E-003   1.1340650426006585E-003   0.0000000000000000     
  -2.1401936680639218E-003   2.6501834761042350E-003   0.0000000000000000     
  -3.2498951711200132E-003   4.5483553005107296E-003   0.0000000000000000     
  -4.3859997868588583E-003   6.8285805158201417E-003   0.0000000000000000     
   0.0000000000000000        0.0000000000000000        0.0000000000000000     
  -1.2880277997047798E-003   1.1700044009118581E-003   0.0000000000000000     
  -2.6059538694390345E-003   2.7245813473275051E-003   0.0000000000000000     
  -3.9537782092027643E-003   4.6637308392469407E-003   0.0000000000000000     
  -5.3315008189959686E-003   6.9874528766701669E-003   0.0000000000000000     
   0.0000000000000000        0.0000000000000000        0.0000000000000000     
  -1.5352276835404043E-003   1.2176604782188059E-003   0.0000000000000000     
  -3.0997777535136067E-003   2.8209974314334380E-003   0.0000000000000000     
  -4.6936502099196075E-003   4.8100108596438968E-003   0.0000000000000000     
  -6.3168450527584050E-003   7.1847007628501828E-003   0.0000000000000000     
   0.0000000000000000        0.0000000000000000        0.0000000000000000     
  -1.7984949291974571E-003   1.2770332745215020E-003   0.0000000000000000     
  -3.6216653202876376E-003   2.9394317284220338E-003   0.0000000000000000     
  -5.4695111732705410E-003   4.9871953617015956E-003   0.0000000000000000     
  -7.3420324881461685E-003   7.4203241743601876E-003   0.0000000000000000     
  -3.4803419563470741E-003   6.7080836803001071E-003   0.0000000000000000     
  -4.3892863545449273E-003   9.2931336084205590E-003   0.0000000000000000     
  -5.3006009133944147E-003   1.2181765507859005E-002   0.0000000000000000     
  -6.2142856328955319E-003   1.5373979378615449E-002   0.0000000000000000     
  -7.1303405130482824E-003   1.8869775220689892E-002   0.0000000000000000     
  -4.3859997868588583E-003   6.8285805158201417E-003   0.0000000000000000     
  -5.5355789140394589E-003   9.4488872953349574E-003   0.0000000000000000     
  -6.6857039514208140E-003   1.2367303812357663E-002   0.0000000000000000     
  -7.8363748990029260E-003   1.5583830066888260E-002   0.0000000000000000     
  -8.9875917567857917E-003   1.9098466058926750E-002   0.0000000000000000     
  -5.3315008189959686E-003   6.9874528766701669E-003   0.0000000000000000     
  -6.7247354228487828E-003   9.6497116510717157E-003   0.0000000000000000     
  -8.1190957447913360E-003   1.2604471353926115E-002   0.0000000000000000     
  -9.5145817848236326E-003   1.5851731985233375E-002   0.0000000000000000     
  -1.0911193542945669E-002   1.9391493544993487E-002   0.0000000000000000     
  -6.3168450527584050E-003   7.1847007628501828E-003   0.0000000000000000     
  -7.9567558809728982E-003   9.8956066756308251E-003   0.0000000000000000     
  -9.6007762935059818E-003   1.2893268132564358E-002   0.0000000000000000     
  -1.1248906290357654E-002   1.6177685133650786E-002   0.0000000000000000     
  -1.2901145871527919E-002   1.9748857678890099E-002   0.0000000000000000     
  -7.3420324881461685E-003   7.4203241743601876E-003   0.0000000000000000     
  -9.2316402884118094E-003   1.0186572369012291E-002   0.0000000000000000     
  -1.1130745597564749E-002   1.3233694148272395E-002   0.0000000000000000     
  -1.3039348415604992E-002   1.6561689512140491E-002   0.0000000000000000     
  -1.4957448742532537E-002   2.0170558460616588E-002   0.0000000000000000     
  -7.1303405130482824E-003   1.8869775220689892E-002   0.0000000000000000     
  -8.0421717102479705E-003   2.2642988616332470E-002   0.0000000000000000     
  -8.9431853808899040E-003   2.6667455147793343E-002   0.0000000000000000     
  -9.8333815249740802E-003   3.0943174815072489E-002   0.0000000000000000     
  -1.0712760142500504E-002   3.5470147618169925E-002   0.0000000000000000     
  -8.9875917567857917E-003   1.9098466058926750E-002   0.0000000000000000     
  -1.0132252148638688E-002   2.2886129448837885E-002   0.0000000000000000     
  -1.1263253698430890E-002   2.6921737896986413E-002   0.0000000000000000     
  -1.2380596406162396E-002   3.1205291403372335E-002   0.0000000000000000     
  -1.3484280271833207E-002   3.5736789967995654E-002   0.0000000000000000     
  -1.0911193542945669E-002   1.9391493544993487E-002   0.0000000000000000     
  -1.2298518929579564E-002   2.3198514251686609E-002   0.0000000000000000     
  -1.3666145855147435E-002   2.7247552323792893E-002   0.0000000000000000     
  -1.5014074319649276E-002   3.1538607761312343E-002   0.0000000000000000     
  -1.6342304323085088E-002   3.6071680564244965E-002   0.0000000000000000     
  -1.2901145871527919E-002   1.9748857678890099E-002   0.0000000000000000     
  -1.4540972053070603E-002   2.3580143024878656E-002   0.0000000000000000     
  -1.6151861851039534E-002   2.7644898428212800E-002   0.0000000000000000     
  -1.7733815265434719E-002   3.1943123888892526E-002   0.0000000000000000     
  -1.9286832296256148E-002   3.6474819406917838E-002   0.0000000000000000     
  -1.4957448742532537E-002   2.0170558460616588E-002   0.0000000000000000     
  -1.6859611519111799E-002   2.4031015768414016E-002   0.0000000000000000     
  -1.8720401686107193E-002   2.8113776210246109E-002   0.0000000000000000     
  -2.0539819243518723E-002   3.2418839786112867E-002   0.0000000000000000     
  -2.2317864191346386E-002   3.6946206496014301E-002   0.0000000000000000     
  -1.0712760142500504E-002   3.5470147618169925E-002   0.0000000000000000     
  -1.1575210571971507E-002   4.0229503580839703E-002   0.0000000000000000     
  -1.2414622151889432E-002   4.5202372726835881E-002   0.0000000000000000     
  -1.3230994882254279E-002   5.0388755056158453E-002   0.0000000000000000     
  -1.4024328763066043E-002   5.5788650568807441E-002   0.0000000000000000     
  -1.3484280271833207E-002   3.5736789967995654E-002   0.0000000000000000     
  -1.4566187760414110E-002   4.0497198517343895E-002   0.0000000000000000     
  -1.5618201336875880E-002   4.5467481977904581E-002   0.0000000000000000     
  -1.6640321001218514E-002   5.0647640349677704E-002   0.0000000000000000     
  -1.7632546753442023E-002   5.6037673632663265E-002   0.0000000000000000     
  -1.6342304323085088E-002   3.6071680564244965E-002   0.0000000000000000     
  -1.7642592369672402E-002   4.0829411456059388E-002   0.0000000000000000     
  -1.8906694963628727E-002   4.5794441160224256E-002   0.0000000000000000     
  -2.0134612104954080E-002   5.0966769676739569E-002   0.0000000000000000     
  -2.1326343793648436E-002   5.6346397005605335E-002   0.0000000000000000     
  -1.9286832296256148E-002   3.6474819406917838E-002   0.0000000000000000     
  -2.0804424399746391E-002   4.1226142396986167E-002   0.0000000000000000     
  -2.2280103032147988E-002   4.6183250273794905E-002   0.0000000000000000     
  -2.3713868193460955E-002   5.1346143037344083E-002   0.0000000000000000     
  -2.5105719883685280E-002   5.6714820687633671E-002   0.0000000000000000     
  -2.2317864191346386E-002   3.6946206496014301E-002   0.0000000000000000     
  -2.4051683850636069E-002   4.1687391340124245E-002   0.0000000000000000     
  -2.5738425542433663E-002   4.6633909318616551E-002   0.0000000000000000     
  -2.7378089266739156E-002   5.1785760431491218E-002   0.0000000000000000     
  -2.8970675023552554E-002   5.7142944678748253E-002   0.0000000000000000     
  -1.4024328763066043E-002   5.5788650568807441E-002   0.0000000000000000     
  -1.4793361538138768E-002   6.1386977318421437E-002   0.0000000000000000     
  -1.5536830951286495E-002   6.7168653358639099E-002   0.0000000000000000     
  -1.6254737002509213E-002   7.3133678689460413E-002   0.0000000000000000     
  -1.6947079691806938E-002   7.9282053310885364E-002   0.0000000000000000     
  -1.7632546753442023E-002   5.6037673632663265E-002   0.0000000000000000     
  -1.8594080793667190E-002   6.1624721934387131E-002   0.0000000000000000     
  -1.9524125322014786E-002   6.7395925362375153E-002   0.0000000000000000     
  -2.0422680338484822E-002   7.3351283916627374E-002   0.0000000000000000     
  -2.1289745843077294E-002   7.9490797597143767E-002   0.0000000000000000     
  -2.1326343793648436E-002   5.6346397005605335E-002   0.0000000000000000     
  -2.2481144764517163E-002   6.1921922047282661E-002   0.0000000000000000     
  -2.3598269752365595E-002   6.7681943702232641E-002   0.0000000000000000     
  -2.4677718757193740E-002   7.3626461970455276E-002   0.0000000000000000     
  -2.5719491779001600E-002   7.9755476851950585E-002   0.0000000000000000     
  -2.5105719883685280E-002   5.6714820687633671E-002   0.0000000000000000     
  -2.6454553450688697E-002   6.2278577657108015E-002   0.0000000000000000     
  -2.7759264242338932E-002   6.8026708378211523E-002   0.0000000000000000     
  -2.9019852258635979E-002   7.3959212850944131E-002   0.0000000000000000     
  -3.0236317499579845E-002   8.0076091075305875E-002   0.0000000000000000     
  -2.8970675023552554E-002   5.7142944678748253E-002   0.0000000000000000     
  -3.0514306852181788E-002   6.2694688763863249E-002   0.0000000000000000     
  -3.2007108791934781E-002   6.8430219390311797E-002   0.0000000000000000     
  -3.3449080842811528E-002   7.4349536558093898E-002   0.0000000000000000     
  -3.4840223004812043E-002   8.0452640267209552E-002   0.0000000000000000     
  -1.6947079691806938E-002   7.9282053310885364E-002   0.0000000000000000     
  -1.7614687977283772E-002   8.5601176726417372E-002   0.0000000000000000     
  -1.8258390817043835E-002   9.2078448439559812E-002   0.0000000000000000     
  -1.8878188211087128E-002   9.8713868450312686E-002   0.0000000000000000     
  -1.9474080159413643E-002  0.10550743675867601        0.0000000000000000     
  -2.1289745843077294E-002   7.9490797597143767E-002   0.0000000000000000     
  -2.2125961433571685E-002   8.5801294622479429E-002   0.0000000000000000     
  -2.2931966707747463E-002   9.2269603211189447E-002   0.0000000000000000     
  -2.3707761665604631E-002   9.8895723363273833E-002   0.0000000000000000     
  -2.4453346307143194E-002  0.10567965507873260        0.0000000000000000     
  -2.5719491779001600E-002   7.9755476851950585E-002   0.0000000000000000     
  -2.6724247941306230E-002   8.6055560776627710E-002   0.0000000000000000     
  -2.7692646367624710E-002   9.2513286174395762E-002   0.0000000000000000     
  -2.8624687057957034E-002   9.9128653045254797E-002   0.0000000000000000     
  -2.9520370012303208E-002  0.10590166138920476        0.0000000000000000     
  -3.0236317499579845E-002   8.0076091075305875E-002   0.0000000000000000     
  -3.1409547500487418E-002   8.6363975188862227E-002   0.0000000000000000     
  -3.2540429796675582E-002   9.2809497329178828E-002   0.0000000000000000     
  -3.3628964388144340E-002   9.9412657496255580E-002   0.0000000000000000     
  -3.4675151274893699E-002  0.10617345569009252        0.0000000000000000     
  -3.4840223004812043E-002   8.0452640267209552E-002   0.0000000000000000     
  -3.6181860111115238E-002   8.6726537859183023E-002   0.0000000000000000     
  -3.7475316994900087E-002   9.3158236675538575E-002   0.0000000000000000     
  -3.8720593656166549E-002   9.9747736716276167E-002   0.0000000000000000     
  -3.9917690094914651E-002  0.10649503798139584        0.0000000000000000     
  -1.9474080159413643E-002  0.10550743675867601        0.0000000000000000     
  -2.0045761029594628E-002  0.11245199752502973        0.0000000000000000     
  -2.0592925189201305E-002  0.11954039490975388        0.0000000000000000     
  -2.1115572638233680E-002  0.12677262891284841        0.0000000000000000     
  -2.1613703376691759E-002  0.13414869953431335        0.0000000000000000     
  -2.4453346307143194E-002  0.10567965507873260        0.0000000000000000     
  -2.5168567667987165E-002  0.11261375479674045        0.0000000000000000     
  -2.5853272783760588E-002  0.11969037895647210        0.0000000000000000     
  -2.6507461654463452E-002  0.12690952755792759        0.0000000000000000     
  -2.7131134280095757E-002  0.13427120060110687        0.0000000000000000     
  -2.9520370012303208E-002  0.10590166138920476        0.0000000000000000     
  -3.0379571716547243E-002  0.11282412975975785        0.0000000000000000     
  -3.1202168656573156E-002  0.11988787671042621        0.0000000000000000     
  -3.1988160832380957E-002  0.12709290224120978        0.0000000000000000     
  -3.2737548243970634E-002  0.13443920635210868        0.0000000000000000     
  -3.4675151274893699E-002  0.10617345569009252        0.0000000000000000     
  -3.5678773175274847E-002  0.11308312241408194        0.0000000000000000     
  -3.6639612807639013E-002  0.12013288817161610        0.0000000000000000     
  -3.7557670171986184E-002  0.12732275296269507        0.0000000000000000     
  -3.8432945268316379E-002  0.13465271678731880        0.0000000000000000     
  -3.9917690094914651E-002  0.10649503798139584        0.0000000000000000     
  -4.1066172044169992E-002  0.11339073275971268        0.0000000000000000     
  -4.2165605236958156E-002  0.12042541334004188        0.0000000000000000     
  -4.3215989673279165E-002  0.12759907972238341        0.0000000000000000     
  -4.4217325353132997E-002  0.13491173190673728        0.0000000000000000     
  -2.1613703376691759E-002  0.13414869953431335        0.0000000000000000     
  -2.2077878449042888E-002  0.14162232200369967        0.0000000000000000     
  -2.2498658899754432E-002  0.14914721155055830        0.0000000000000000     
  -2.2876044728826372E-002  0.15672336817488922        0.0000000000000000     
  -2.3210035936258727E-002  0.16435079187669249        0.0000000000000000     
  -2.7131134280095757E-002  0.13427120060110687        0.0000000000000000     
  -2.7714340548280415E-002  0.14172762234551162        0.0000000000000000     
  -2.8247130346640340E-002  0.14923101705064357        0.0000000000000000     
  -2.8729503675175506E-002  0.15678138471650263        0.0000000000000000     
  -2.9161460533885943E-002  0.16437872534308892        0.0000000000000000     
  -3.2737548243970634E-002  0.13443920635210868        0.0000000000000000     
  -3.3438864045051850E-002  0.14188033689741075        0.0000000000000000     
  -3.4080641389334254E-002  0.14936984173140386        0.0000000000000000     
  -3.4662880276817853E-002  0.15690772085408808        0.0000000000000000     
  -3.5185580707502634E-002  0.16449397426546336        0.0000000000000000     
  -3.8432945268316379E-002  0.13465271678731880        0.0000000000000000     
  -3.9251448939357177E-002  0.14208046565939697        0.0000000000000000     
  -3.9999192027836181E-002  0.14956368559283920        0.0000000000000000     
  -4.0676174533753377E-002  0.15710237658764548        0.0000000000000000     
  -4.1282396457108787E-002  0.16469653864381587        0.0000000000000000     
  -4.4217325353132997E-002  0.13491173190673728        0.0000000000000000     
  -4.5152095231196412E-002  0.14232800863147035        0.0000000000000000     
  -4.6002782262146109E-002  0.14981254863494958        0.0000000000000000     
  -4.6769386445982115E-002  0.15736535191717493        0.0000000000000000     
  -4.7451907782704417E-002  0.16498641847814641        0.0000000000000000     
   0.0000000000000000        0.0000000000000000        0.0000000000000000     
  -1.7984949291974571E-003   1.2770332745215020E-003   0.0000000000000000     
  -3.6216653202876376E-003   2.9394317284220338E-003   0.0000000000000000     
  -5.4695111732705410E-003   4.9871953617015956E-003   0.0000000000000000     
  -7.3420324881461685E-003   7.4203241743601876E-003   0.0000000000000000     
   0.0000000000000000        0.0000000000000000        0.0000000000000000     
  -2.0695596996053241E-003   1.3552135278166561E-003   0.0000000000000000     
  -4.1642757728111036E-003   3.0943718866443407E-003   0.0000000000000000     
  -6.2841482196173380E-003   5.2174750764830543E-003   0.0000000000000000     
  -8.4291770400240270E-003   7.7245230973327951E-003   0.0000000000000000     
   0.0000000000000000        0.0000000000000000        0.0000000000000000     
  -2.3401521576933903E-003   1.4592919761009784E-003   0.0000000000000000     
  -4.7202683141339781E-003   3.3003055544514079E-003   0.0000000000000000     
  -7.1403484693217641E-003   5.5230407350512880E-003   0.0000000000000000     
  -9.6003926232567458E-003   8.1274975179006208E-003   0.0000000000000000     
   0.0000000000000000        0.0000000000000000        0.0000000000000000     
  -2.6102723034616563E-003   1.5892686193744688E-003   0.0000000000000000     
  -5.2896429442562641E-003   3.5572327318432345E-003   0.0000000000000000     
  -8.0381119223838209E-003   5.9038923374062999E-003   0.0000000000000000     
  -1.0855679237844333E-002   8.6292474360636588E-003   0.0000000000000000     
   0.0000000000000000        0.0000000000000000        0.0000000000000000     
  -2.8799201369101206E-003   1.7451434576371272E-003   0.0000000000000000     
  -5.8723996631779582E-003   3.8651534188198218E-003   0.0000000000000000     
  -8.9774385788035128E-003   6.3600298835480842E-003   0.0000000000000000     
  -1.2195036883786783E-002   9.2297728518219140E-003   0.0000000000000000     
  -7.3420324881461685E-003   7.4203241743601876E-003   0.0000000000000000     
  -9.2316402884118094E-003   1.0186572369012291E-002   0.0000000000000000     
  -1.1130745597564749E-002   1.3233694148272395E-002   0.0000000000000000     
  -1.3039348415604992E-002   1.6561689512140491E-002   0.0000000000000000     
  -1.4957448742532537E-002   2.0170558460616588E-002   0.0000000000000000     
  -8.4291770400240270E-003   7.7245230973327951E-003   0.0000000000000000     
  -1.0591113234227276E-002   1.0558312080117486E-002   0.0000000000000000     
  -1.2761707802423188E-002   1.3661638155761040E-002   0.0000000000000000     
  -1.4940960744611761E-002   1.7034501324263457E-002   0.0000000000000000     
  -1.7128872060793002E-002   2.0676901585624741E-002   0.0000000000000000     
  -9.6003926232567458E-003   8.1274975179006208E-003   0.0000000000000000     
  -1.2076899307481063E-002   1.1046529157847769E-002   0.0000000000000000     
  -1.4546367053536841E-002   1.4212988909741108E-002   0.0000000000000000     
  -1.7008795861424082E-002   1.7626876773580637E-002   0.0000000000000000     
  -1.9464185731142787E-002   2.1288192749366344E-002   0.0000000000000000     
  -1.0855679237844333E-002   8.6292474360636588E-003   0.0000000000000000     
  -1.3688998508173171E-002   1.1651223602203151E-002   0.0000000000000000     
  -1.6484723350905714E-002   1.4887746410212606E-002   0.0000000000000000     
  -1.9242853766041956E-002   1.8338815860092023E-002   0.0000000000000000     
  -2.1963389753581898E-002   2.2004431951841406E-002   0.0000000000000000     
  -1.2195036883786783E-002   9.2297728518219140E-003   0.0000000000000000     
  -1.5427410836303602E-002   1.2372395413183628E-002   0.0000000000000000     
  -1.8576776694529801E-002   1.5685910657175530E-002   0.0000000000000000     
  -2.1643134458465378E-002   1.9170318583797627E-002   0.0000000000000000     
  -2.4626484128110332E-002   2.2825619193049915E-002   0.0000000000000000     
  -1.4957448742532537E-002   2.0170558460616588E-002   0.0000000000000000     
  -1.6859611519111799E-002   2.4031015768414016E-002   0.0000000000000000     
  -1.8720401686107193E-002   2.8113776210246109E-002   0.0000000000000000     
  -2.0539819243518723E-002   3.2418839786112867E-002   0.0000000000000000     
  -2.2317864191346386E-002   3.6946206496014301E-002   0.0000000000000000     
  -1.7128872060793002E-002   2.0676901585624741E-002   0.0000000000000000     
  -1.9294115118042011E-002   2.4560352967519471E-002   0.0000000000000000     
  -2.1405363283433902E-002   2.8656369497622240E-002   0.0000000000000000     
  -2.3462616556968675E-002   3.2964951175933031E-002   0.0000000000000000     
  -2.5465874938646323E-002   3.7486098002451868E-002   0.0000000000000000     
  -1.9464185731142787E-002   2.1288192749366344E-002   0.0000000000000000     
  -2.1884160640200098E-002   2.5177375107421809E-002   0.0000000000000000     
  -2.4240344566103147E-002   2.9274862118070587E-002   0.0000000000000000     
  -2.6532737508851944E-002   3.3580653781312669E-002   0.0000000000000000     
  -2.8761339468446483E-002   3.8094750097148078E-002   0.0000000000000000     
  -2.1963389753581898E-002   2.2004431951841406E-002   0.0000000000000000     
  -2.4629748085586056E-002   2.5882082188121019E-002   0.0000000000000000     
  -2.7225345534114941E-002   2.9969254071591143E-002   0.0000000000000000     
  -2.9750182099168538E-002   3.4265947602251788E-002   0.0000000000000000     
  -3.2204257780746870E-002   3.8772162780102919E-002   0.0000000000000000     
  -2.4626484128110332E-002   2.2825619193049915E-002   0.0000000000000000     
  -2.7530877454199892E-002   2.6674474209617108E-002   0.0000000000000000     
  -3.0360366187469266E-002   3.0739545358183924E-002   0.0000000000000000     
  -3.3114950327918460E-002   3.5020832638750360E-002   0.0000000000000000     
  -3.5794629875547476E-002   3.9518336051316418E-002   0.0000000000000000     
  -2.2317864191346386E-002   3.6946206496014301E-002   0.0000000000000000     
  -2.4051683850636069E-002   4.1687391340124245E-002   0.0000000000000000     
  -2.5738425542433663E-002   4.6633909318616551E-002   0.0000000000000000     
  -2.7378089266739156E-002   5.1785760431491218E-002   0.0000000000000000     
  -2.8970675023552554E-002   5.7142944678748253E-002   0.0000000000000000     
  -2.5465874938646323E-002   3.7486098002451868E-002   0.0000000000000000     
  -2.7416068138086388E-002   4.2215915267665577E-002   0.0000000000000000     
  -2.9314125864908412E-002   4.7150508262061026E-002   0.0000000000000000     
  -3.1160048119112389E-002   5.2289876985638223E-002   0.0000000000000000     
  -3.2953834900698316E-002   5.7634021438397159E-002   0.0000000000000000     
  -2.8761339468446483E-002   3.8094750097148078E-002   0.0000000000000000     
  -3.0929274677842299E-002   4.2814471161802148E-002   0.0000000000000000     
  -3.3039667369994932E-002   4.7737137071500214E-002   0.0000000000000000     
  -3.5092517544904361E-002   5.2862747826242319E-002   0.0000000000000000     
  -3.7087825202570618E-002   5.8191303426028435E-002   0.0000000000000000     
  -3.2204257780746870E-002   3.8772162780102919E-002   0.0000000000000000     
  -3.4591303469903793E-002   4.3483059022533924E-002   0.0000000000000000     
  -3.6915050057693202E-002   4.8393795746934115E-002   0.0000000000000000     
  -3.9175497544115097E-002   5.3504372953303507E-002   0.0000000000000000     
  -4.1372645929169449E-002   5.8814790641642099E-002   0.0000000000000000     
  -3.5794629875547476E-002   3.9518336051316418E-002   0.0000000000000000     
  -3.8402154514270870E-002   4.4221678849860925E-002   0.0000000000000000     
  -4.0940273928003236E-002   4.9120484288362708E-002   0.0000000000000000     
  -4.3408988116744547E-002   5.4214752366821779E-002   0.0000000000000000     
  -4.5808297080494831E-002   5.9504483085238126E-002   0.0000000000000000     
  -2.8970675023552554E-002   5.7142944678748253E-002   0.0000000000000000     
  -3.0514306852181788E-002   6.2694688763863249E-002   0.0000000000000000     
  -3.2007108791934781E-002   6.8430219390311797E-002   0.0000000000000000     
  -3.3449080842811528E-002   7.4349536558093898E-002   0.0000000000000000     
  -3.4840223004812043E-002   8.0452640267209552E-002   0.0000000000000000     
  -3.2953834900698316E-002   5.7634021438397159E-002   0.0000000000000000     
  -3.4692712574812719E-002   6.3172118210738218E-002   0.0000000000000000     
  -3.6373907506602139E-002   6.8893343893061759E-002   0.0000000000000000     
  -3.7997419696066556E-002   7.4797698485367811E-002   0.0000000000000000     
  -3.9563249143205984E-002   8.0885181987656374E-002   0.0000000000000000     
  -3.7087825202570618E-002   5.8191303426028435E-002   0.0000000000000000     
  -3.9022078224397780E-002   6.3712728840922828E-002   0.0000000000000000     
  -4.0891764491789988E-002   6.9416949040989703E-002   0.0000000000000000     
  -4.2696884004747214E-002   7.5303964026229089E-002   0.0000000000000000     
  -4.4437436763269479E-002   8.1373773796640958E-002   0.0000000000000000     
  -4.1372645929169449E-002   5.8814790641642099E-002   0.0000000000000000     
  -4.3502403800936978E-002   6.4316520654417050E-002   0.0000000000000000     
  -4.5560679747498320E-002   7.0001034834095588E-002   0.0000000000000000     
  -4.7547473768853508E-002   7.5868333180677691E-002   0.0000000000000000     
  -4.9462785865002509E-002   8.1918415694163318E-002   0.0000000000000000     
  -4.5808297080494831E-002   5.9504483085238126E-002   0.0000000000000000     
  -4.8133689304430301E-002   6.4983493651220942E-002   0.0000000000000000     
  -5.0380653273727156E-002   7.0645601272379441E-002   0.0000000000000000     
  -5.2549188988385440E-002   7.6490805948713617E-002   0.0000000000000000     
  -5.4639296448405116E-002   8.2519107680223469E-002   0.0000000000000000     
  -3.4840223004812043E-002   8.0452640267209552E-002   0.0000000000000000     
  -3.6181860111115238E-002   8.6726537859183023E-002   0.0000000000000000     
  -3.7475316994900087E-002   9.3158236675538575E-002   0.0000000000000000     
  -3.8720593656166549E-002   9.9747736716276167E-002   0.0000000000000000     
  -3.9917690094914651E-002  0.10649503798139584        0.0000000000000000     
  -3.9563249143205984E-002   8.0885181987656374E-002   0.0000000000000000     
  -4.1073260870150029E-002   8.7143363008405653E-002   0.0000000000000000     
  -4.2529319899028348E-002   9.3559810156093839E-002   0.0000000000000000     
  -4.3931426229840899E-002  0.10013452343072099        0.0000000000000000     
  -4.5279579862587731E-002  0.10686750283228705        0.0000000000000000     
  -4.4437436763269479E-002   8.1373773796640958E-002   0.0000000000000000     
  -4.6115824874552125E-002   8.7614564857345659E-002   0.0000000000000000     
  -4.7734450445790513E-002   9.4014523713463485E-002   0.0000000000000000     
  -4.9293313476984658E-002  0.10057365036499442        0.0000000000000000     
  -5.0792413968134546E-002  0.10729194481193849        0.0000000000000000     
  -4.9462785865002509E-002   8.1918415694163318E-002   0.0000000000000000     
  -5.1309552124321499E-002   8.8140143406003069E-002   0.0000000000000000     
  -5.3090708635186598E-002   9.4522377347647471E-002   0.0000000000000000     
  -5.4806255397597800E-002  0.10106511751909651        0.0000000000000000     
  -5.6456192411555126E-002  0.10776836392035019        0.0000000000000000     
  -5.4639296448405116E-002   8.2519107680223469E-002   0.0000000000000000     
  -5.6654442619458172E-002   8.8720098654377896E-002   0.0000000000000000     
  -5.8598094467216574E-002   9.5083371058645810E-002   0.0000000000000000     
  -6.0470251991680352E-002  0.10160892489302722        0.0000000000000000     
  -6.2270915192849476E-002  0.10829676015752213        0.0000000000000000     
  -3.9917690094914651E-002  0.10649503798139584        0.0000000000000000     
  -4.1066172044169992E-002  0.11339073275971268        0.0000000000000000     
  -4.2165605236958156E-002  0.12042541334004188        0.0000000000000000     
  -4.3215989673279165E-002  0.12759907972238341        0.0000000000000000     
  -4.4217325353132997E-002  0.13491173190673728        0.0000000000000000     
  -4.5279579862587731E-002  0.10686750283228705        0.0000000000000000     
  -4.6573477728812603E-002  0.11374863406805368        0.0000000000000000     
  -4.7812816760059350E-002  0.12076780284528242        0.0000000000000000     
  -4.8997596956327986E-002  0.12792500916397334        0.0000000000000000     
  -5.0127818317618492E-002  0.13522025302412641        0.0000000000000000     
  -5.0792413968134546E-002  0.10729194481193849        0.0000000000000000     
  -5.2232399634782642E-002  0.11415849961050836        0.0000000000000000     
  -5.3613918192471376E-002  0.12116240731691667        0.0000000000000000     
  -5.4936969641200768E-002  0.12830366793116338        0.0000000000000000     
  -5.6201553980970813E-002  0.13558228145324858        0.0000000000000000     
  -5.6456192411555126E-002  0.10776836392035019        0.0000000000000000     
  -5.8042937762080096E-002  0.11462032938707679        0.0000000000000000     
  -5.9568909534194234E-002  0.12160922675494462        0.0000000000000000     
  -6.1034107727897531E-002  0.12873505602395366        0.0000000000000000     
  -6.2438532343190009E-002  0.13599781719410392        0.0000000000000000     
  -6.2270915192849476E-002  0.10829676015752213        0.0000000000000000     
  -6.4005092110704986E-002  0.11513412339775897        0.0000000000000000     
  -6.5677790785227924E-002  0.12210826115936629        0.0000000000000000     
  -6.7289011216418268E-002  0.12921917344234404        0.0000000000000000     
  -6.8838753404276046E-002  0.13646686024669225        0.0000000000000000     
  -4.4217325353132997E-002  0.13491173190673728        0.0000000000000000     
  -4.5152095231196412E-002  0.14232800863147035        0.0000000000000000     
  -4.6002782262146109E-002  0.14981254863494958        0.0000000000000000     
  -4.6769386445982115E-002  0.15736535191717493        0.0000000000000000     
  -4.7451907782704417E-002  0.16498641847814641        0.0000000000000000     
  -5.0127818317618492E-002  0.13522025302412641        0.0000000000000000     
  -5.1182663102154073E-002  0.14262512739395361        0.0000000000000000     
  -5.2141313568157967E-002  0.15011122524166698        0.0000000000000000     
  -5.3003769715630158E-002  0.15767854656726651        0.0000000000000000     
  -5.3770031544570655E-002  0.16532709137075224        0.0000000000000000     
  -5.6201553980970813E-002  0.13558228145324858        0.0000000000000000     
  -5.7385012733814710E-002  0.14297398352716956        0.0000000000000000     
  -5.8464687421765645E-002  0.15045450979692354        0.0000000000000000     
  -5.9440578044823618E-002  0.15802386026251056        0.0000000000000000     
  -6.0312684602988630E-002  0.16568203492393058        0.0000000000000000     
  -6.2438532343190009E-002  0.13599781719410392        0.0000000000000000     
  -6.3759144126178321E-002  0.14337457703111811        0.0000000000000000     
  -6.4972903822969150E-002  0.15084240230071910        0.0000000000000000     
  -6.6079811433562494E-002  0.15840129300290687        0.0000000000000000     
  -6.7079866957958353E-002  0.16605124913768143        0.0000000000000000     
  -6.8838753404276046E-002  0.13646686024669225        0.0000000000000000     
  -7.0305057279244881E-002  0.14382690790579936        0.0000000000000000     
  -7.1665962771768468E-002  0.15127490275305383        0.0000000000000000     
  -7.2921469881846779E-002  0.15881084478845561        0.0000000000000000     
  -7.4071578609479799E-002  0.16643473401200476        0.0000000000000000     
   0.0000000000000000        0.0000000000000000        0.0000000000000000     
  -2.8799201369101206E-003   1.7451434576371272E-003   0.0000000000000000     
  -5.8723996631779582E-003   3.8651534188198218E-003   0.0000000000000000     
  -8.9774385788035128E-003   6.3600298835480842E-003   0.0000000000000000     
  -1.2195036883786783E-002   9.2297728518219140E-003   0.0000000000000000     
   0.0000000000000000        0.0000000000000000        0.0000000000000000     
  -3.2829930043293300E-003   1.9995813384017253E-003   0.0000000000000000     
  -6.6765935534167627E-003   4.3313838525237637E-003   0.0000000000000000     
  -1.0180801647262296E-002   6.9954075423661142E-003   0.0000000000000000     
  -1.3795617285865931E-002   9.9916524079287777E-003   0.0000000000000000     
   0.0000000000000000        0.0000000000000000        0.0000000000000000     
  -3.9533882520098292E-003   2.4252471091810363E-003   0.0000000000000000     
  -7.9102796974903754E-003   5.0632402700976535E-003   0.0000000000000000     
  -1.1870674336441634E-002   7.9139794827498555E-003   0.0000000000000000     
  -1.5834572168863612E-002   1.0977464747137634E-002   0.0000000000000000     
   0.0000000000000000        0.0000000000000000        0.0000000000000000     
  -4.8911058799516191E-003   3.0221407699750585E-003   0.0000000000000000     
  -9.5734580953987947E-003   6.0607226715414944E-003   0.0000000000000000     
  -1.4047056646341531E-002   9.1157457046993056E-003   0.0000000000000000     
  -1.8311901532779826E-002   1.2187209869448492E-002   0.0000000000000000     
   0.0000000000000000        0.0000000000000000        0.0000000000000000     
  -6.0961458881546972E-003   3.7902623207837940E-003   0.0000000000000000     
  -1.1666128747142025E-002   7.3238310568552820E-003   0.0000000000000000     
  -1.6709948576961980E-002   1.0600706208214466E-002   0.0000000000000000     
  -2.1227605377614572E-002   1.3620887774861343E-002   0.0000000000000000     
  -1.2195036883786783E-002   9.2297728518219140E-003   0.0000000000000000     
  -1.5427410836303602E-002   1.2372395413183628E-002   0.0000000000000000     
  -1.8576776694529801E-002   1.5685910657175530E-002   0.0000000000000000     
  -2.1643134458465378E-002   1.9170318583797627E-002   0.0000000000000000     
  -2.4626484128110332E-002   2.2825619193049915E-002   0.0000000000000000     
  -1.3795617285865931E-002   9.9916524079287777E-003   0.0000000000000000     
  -1.7403888780167302E-002   1.3222081100159528E-002   0.0000000000000000     
  -2.0888464441106036E-002   1.6588656270006143E-002   0.0000000000000000     
  -2.4249344268682155E-002   2.0091377917468612E-002   0.0000000000000000     
  -2.7486528262895632E-002   2.3730246042546949E-002   0.0000000000000000     
  -1.5834572168863612E-002   1.0977464747137634E-002   0.0000000000000000     
  -1.9730184828059223E-002   1.4212317172501187E-002   0.0000000000000000     
  -2.3485723947331377E-002   1.7577157868080701E-002   0.0000000000000000     
  -2.7101189526680083E-002   2.1071986833876163E-002   0.0000000000000000     
  -3.0576581566105338E-002   2.4696804069887581E-002   0.0000000000000000     
  -1.8311901532779826E-002   1.2187209869448492E-002   0.0000000000000000     
  -2.2406298979979356E-002   1.5343103630208608E-002   0.0000000000000000     
  -2.6368555213205802E-002   1.8651415451399197E-002   0.0000000000000000     
  -3.0198670232459163E-002   2.2112145333020271E-002   0.0000000000000000     
  -3.3896644037739440E-002   2.5725293275071819E-002   0.0000000000000000     
  -2.1227605377614572E-002   1.3620887774861343E-002   0.0000000000000000     
  -2.5432231235927714E-002   1.6614440473281780E-002   0.0000000000000000     
  -2.9536958238729323E-002   1.9811429019961645E-002   0.0000000000000000     
  -3.3541786386019401E-002   2.3211853414900934E-002   0.0000000000000000     
  -3.7446715677797955E-002   2.6815713658099649E-002   0.0000000000000000     
  -2.4626484128110332E-002   2.2825619193049915E-002   0.0000000000000000     
  -2.7530877454199892E-002   2.6674474209617108E-002   0.0000000000000000     
  -3.0360366187469266E-002   3.0739545358183924E-002   0.0000000000000000     
  -3.3114950327918460E-002   3.5020832638750360E-002   0.0000000000000000     
  -3.5794629875547476E-002   3.9518336051316418E-002   0.0000000000000000     
  -2.7486528262895632E-002   2.3730246042546949E-002   0.0000000000000000     
  -3.0622849148374758E-002   2.7548250432078449E-002   0.0000000000000000     
  -3.3681139649747810E-002   3.1588380872900418E-002   0.0000000000000000     
  -3.6661399767014796E-002   3.5850637365012844E-002   0.0000000000000000     
  -3.9563629500175716E-002   4.0335019908415738E-002   0.0000000000000000     
  -3.0576581566105338E-002   2.4696804069887581E-002   0.0000000000000000     
  -3.3940963570443829E-002   2.8497110115673411E-002   0.0000000000000000     
  -3.7223399044532278E-002   3.2518405510792103E-002   0.0000000000000000     
  -4.0423887988370669E-002   3.6760690255243658E-002   0.0000000000000000     
  -4.3542430401958994E-002   4.1223964349028065E-002   0.0000000000000000     
  -3.3896644037739440E-002   2.5725293275071819E-002   0.0000000000000000     
  -3.7485220720407116E-002   2.9521053260402007E-002   0.0000000000000000     
  -4.0987144371822652E-002   3.3529619271859011E-002   0.0000000000000000     
  -4.4402414991986064E-002   3.7750991309442809E-002   0.0000000000000000     
  -4.7731032580897330E-002   4.2185169373153426E-002   0.0000000000000000     
  -3.7446715677797955E-002   2.6815713658099649E-002   0.0000000000000000     
  -4.1255620598264590E-002   3.0620079866264225E-002   0.0000000000000000     
  -4.4972375631618926E-002   3.4622022156101107E-002   0.0000000000000000     
  -4.8596980777860961E-002   3.8821540527610290E-002   0.0000000000000000     
  -5.2129436036990703E-002   4.3218634980791787E-002   0.0000000000000000     
  -3.5794629875547476E-002   3.9518336051316418E-002   0.0000000000000000     
  -3.8402154514270870E-002   4.4221678849860925E-002   0.0000000000000000     
  -4.0940273928003236E-002   4.9120484288362708E-002   0.0000000000000000     
  -4.3408988116744547E-002   5.4214752366821779E-002   0.0000000000000000     
  -4.5808297080494831E-002   5.9504483085238126E-002   0.0000000000000000     
  -3.9563629500175716E-002   4.0335019908415738E-002   0.0000000000000000     
  -4.2388719812238164E-002   4.5026464700748219E-002   0.0000000000000000     
  -4.5137561666209781E-002   4.9909907939649389E-002   0.0000000000000000     
  -4.7810155062090548E-002   5.4985349625119286E-002   0.0000000000000000     
  -5.0406499999880477E-002   6.0252789757157872E-002   0.0000000000000000     
  -4.3542430401958994E-002   4.1223964349028065E-002   0.0000000000000000     
  -4.6577891365100293E-002   4.5893550632160870E-002   0.0000000000000000     
  -4.9529135957597573E-002   5.0754771944657572E-002   0.0000000000000000     
  -5.2396164179450845E-002   5.5807628286518161E-002   0.0000000000000000     
  -5.5178976030660083E-002   6.1052119657742668E-002   0.0000000000000000     
  -4.7731032580897330E-002   4.2185169373153426E-002   0.0000000000000000     
  -5.0969669172857252E-002   4.6822936644098881E-002   0.0000000000000000     
  -5.4114996802166616E-002   5.1655076303387205E-002   0.0000000000000000     
  -5.7167015468825425E-002   5.6681588351018421E-002   0.0000000000000000     
  -6.0125725172833683E-002   6.1902472786992506E-002   0.0000000000000000     
  -5.2129436036990703E-002   4.3218634980791787E-002   0.0000000000000000     
  -5.5564053235509052E-002   4.7814622736562236E-002   0.0000000000000000     
  -5.8895144199916927E-002   5.2610821015838319E-002   0.0000000000000000     
  -6.2122708930214328E-002   5.7607229818620050E-002   0.0000000000000000     
  -6.5246747426401269E-002   6.2803849144907387E-002   0.0000000000000000     
  -4.5808297080494831E-002   5.9504483085238126E-002   0.0000000000000000     
  -4.8133689304430301E-002   6.4983493651220942E-002   0.0000000000000000     
  -5.0380653273727156E-002   7.0645601272379441E-002   0.0000000000000000     
  -5.2549188988385440E-002   7.6490805948713617E-002   0.0000000000000000     
  -5.4639296448405116E-002   8.2519107680223469E-002   0.0000000000000000     
  -5.0406499999880477E-002   6.0252789757157872E-002   0.0000000000000000     
  -5.2922649092538673E-002   6.5707795338601452E-002   0.0000000000000000     
  -5.5354654953024239E-002   7.1345933372286299E-002   0.0000000000000000     
  -5.7702517581337175E-002   7.7167203858212463E-002   0.0000000000000000     
  -5.9966236977477480E-002   8.3171606796379902E-002   0.0000000000000000     
  -5.5178976030660083E-002   6.1052119657742668E-002   0.0000000000000000     
  -5.7875997522923016E-002   6.6483573223825518E-002   0.0000000000000000     
  -6.0485654667937275E-002   7.2097316150261215E-002   0.0000000000000000     
  -6.3007947465702874E-002   7.7893348437049745E-002   0.0000000000000000     
  -6.5442875916219861E-002   8.3871670084191094E-002   0.0000000000000000     
  -6.0125725172833683E-002   6.1902472786992506E-002   0.0000000000000000     
  -6.2993734595583328E-002   6.7310827306893181E-002   0.0000000000000000     
  -6.5773652418466291E-002   7.2899749606304173E-002   0.0000000000000000     
  -6.8465478641482586E-002   7.8669239685225448E-002   0.0000000000000000     
  -7.1069213264632225E-002   8.4619297543657046E-002   0.0000000000000000     
  -6.5246747426401269E-002   6.2803849144907387E-002   0.0000000000000000     
  -6.8275860310519618E-002   6.8189557587804400E-002   0.0000000000000000     
  -7.1218648204611282E-002   7.3753233740415147E-002   0.0000000000000000     
  -7.4075111108676289E-002   7.9494877602739600E-002   0.0000000000000000     
  -7.6845249022714612E-002   8.5414489174777786E-002   0.0000000000000000     
  -5.4639296448405116E-002   8.2519107680223469E-002   0.0000000000000000     
  -5.6654442619458172E-002   8.8720098654377896E-002   0.0000000000000000     
  -5.8598094467216574E-002   9.5083371058645810E-002   0.0000000000000000     
  -6.0470251991680352E-002  0.10160892489302722        0.0000000000000000     
  -6.2270915192849476E-002  0.10829676015752213        0.0000000000000000     
  -5.9966236977477480E-002   8.3171606796379902E-002   0.0000000000000000     
  -6.2149118664276658E-002   8.9349677944391581E-002   0.0000000000000000     
  -6.4254468164566203E-002   9.5691953059850426E-002   0.0000000000000000     
  -6.6282285478346095E-002  0.10219843214275652        0.0000000000000000     
  -6.8232570605616341E-002  0.10886911519310982        0.0000000000000000     
  -6.5442875916219861E-002   8.3871670084191094E-002   0.0000000000000000     
  -6.7792202563091500E-002   9.0024128617965521E-002   0.0000000000000000     
  -7.0057689949921162E-002   9.6342571564653298E-002   0.0000000000000000     
  -7.2239338076708848E-002  0.10282699892425437        0.0000000000000000     
  -7.4337146943454502E-002  0.10947741069676885        0.0000000000000000     
  -7.1069213264632225E-002   8.4619297543657046E-002   0.0000000000000000     
  -7.3583694315902712E-002   9.0743450675099757E-002   0.0000000000000000     
  -7.6007759823281479E-002   9.7035226573054328E-002   0.0000000000000000     
  -7.8341409786768582E-002  0.10349462523752082        0.0000000000000000     
  -8.0584644206363992E-002  0.11012164666849920        0.0000000000000000     
  -7.6845249022714612E-002   8.5414489174777786E-002   0.0000000000000000     
  -7.9523593922710217E-002   9.1507644115794262E-002   0.0000000000000000     
  -8.2104677784647126E-002   9.7769918085053600E-002   0.0000000000000000     
  -8.4588500608525310E-002  0.10420131108255580        0.0000000000000000     
  -8.6975062394344771E-002  0.11080182310830088        0.0000000000000000     
  -6.2270915192849476E-002  0.10829676015752213        0.0000000000000000     
  -6.4005092110704986E-002  0.11513412339775897        0.0000000000000000     
  -6.5677790785227924E-002  0.12210826115936629        0.0000000000000000     
  -6.7289011216418268E-002  0.12921917344234404        0.0000000000000000     
  -6.8838753404276046E-002  0.13646686024669225        0.0000000000000000     
  -6.8232570605616341E-002  0.10886911519310982        0.0000000000000000     
  -7.0111680164446105E-002  0.11569015210746600        0.0000000000000000     
  -7.1925970772904510E-002  0.12264769278238076        0.0000000000000000     
  -7.3675442430991542E-002  0.12974173721785406        0.0000000000000000     
  -7.5360095138707256E-002  0.13697228541388601        0.0000000000000000     
  -7.4337146943454502E-002  0.10947741069676885        0.0000000000000000     
  -7.6355519407092245E-002  0.11627868598110896        0.0000000000000000     
  -7.8298858324556062E-002  0.12321570387618712        0.0000000000000000     
  -8.0167163695845950E-002  0.13028846438200326        0.0000000000000000     
  -8.1960435520961925E-002  0.13749696749855742        0.0000000000000000     
  -8.0584644206363992E-002  0.11012164666849920        0.0000000000000000     
  -8.2736609838643449E-002  0.11689972501868789        0.0000000000000000     
  -8.4796453440182579E-002  0.12381229444078537        0.0000000000000000     
  -8.6764175010981492E-002  0.13085935493479159        0.0000000000000000     
  -8.8639774551040079E-002  0.13804090650070658        0.0000000000000000     
  -8.6975062394344771E-002  0.11080182310830088        0.0000000000000000     
  -8.9254951459099674E-002  0.11755326922020279        0.0000000000000000     
  -9.1418756119784117E-002  0.12443746447617551        0.0000000000000000     
  -9.3466476376398142E-002  0.13145440887621906        0.0000000000000000     
  -9.5398112228941706E-002  0.13860410242033341        0.0000000000000000     
  -6.8838753404276046E-002  0.13646686024669225        0.0000000000000000     
  -7.0305057279244881E-002  0.14382690790579936        0.0000000000000000     
  -7.1665962771768468E-002  0.15127490275305383        0.0000000000000000     
  -7.2921469881846779E-002  0.15881084478845561        0.0000000000000000     
  -7.4071578609479799E-002  0.16643473401200476        0.0000000000000000     
  -7.5360095138707256E-002  0.13697228541388601        0.0000000000000000     
  -7.6956722340560807E-002  0.14430918118859271        0.0000000000000000     
  -7.8442117481061432E-002  0.15172226836009040        0.0000000000000000     
  -7.9816280560209105E-002  0.15921154692837911        0.0000000000000000     
  -8.1079211578003837E-002  0.16677701689345881        0.0000000000000000     
  -8.1960435520961925E-002  0.13749696749855742        0.0000000000000000     
  -8.3648109457672398E-002  0.14479960191687760        0.0000000000000000     
  -8.5199621163745784E-002  0.15215475632799166        0.0000000000000000     
  -8.6614970639182082E-002  0.15956243073189974        0.0000000000000000     
  -8.7894157883981278E-002  0.16702262512860175        0.0000000000000000     
  -8.8639774551040079E-002  0.13804090650070658        0.0000000000000000     
  -9.0379218630579697E-002  0.14529817009065404        0.0000000000000000     
  -9.1938473819821565E-002  0.15257236665675766        0.0000000000000000     
  -9.3317540118765710E-002  0.15986349619901749        0.0000000000000000     
  -9.4516417527412147E-002  0.16717155871743353        0.0000000000000000     
  -9.5398112228941706E-002  0.13860410242033341        0.0000000000000000     
  -9.7150049859282633E-002  0.14580488570992203        0.0000000000000000     
  -9.8658675449288746E-002  0.15297509934638837        0.0000000000000000     
  -9.9923988998959989E-002  0.16011474332973244        0.0000000000000000     
 -0.10094599050829640       0.16722381765995420        0.0000000000000000     
 </DataArray>
 <DataArray  type="Float64" Name="stress" NumberOfComponents="3" format="ascii">
   13417271003.571825        4025181301.0715475        2893742114.3191915     
   11766738408.415146        1890849370.5597765        1715604428.3773072     
   10313406448.296564        413852890.17498541        810686891.11761463     
   9057275123.2160702       -405808140.08282900        178989502.54011247     
   7998344433.1736755       -568133720.21366310       -179487737.35519716     
   10539919568.597225        3161975870.5791678        2225664150.7799392     
   9667467462.2336845        1589825635.5332639        1446633243.8398910     
   8943585262.7897377        512908423.55269289        863171403.72024703     
   8368272970.2653961       -68775765.362545967        475278630.42100751     
   7941530584.6606531       -155226931.21245050        282954923.94217396     
   8337519096.8342705        2501255729.0502810        1712399323.0641391     
   8021287245.3730412        1424729119.3029978        1275739345.6543508     
   7804994572.7129202        681333105.55940223        956997353.20317936     
   7688641078.8539047        271067687.81949329        756173345.71062696     
   7672226763.7959957        193932866.08327246        673267323.17669165     
   6810069588.2829552        2043020876.4848866        1353947631.1717911     
   6828197757.8332243        1395559821.8689787        1202922733.8206861     
   6897634378.0661039        919126936.19511199        1092164739.5664124     
   7018379448.9815969        613722219.46328688        1021673648.4089695     
   7190432970.5797014        479345671.67350316        991449460.34835756     
   5957571042.9432821        1787271312.8829846        1150309075.1028950     
   6088198999.6142273        1502317743.2312062        1228183408.3388979     
   6221504678.8492908        1226289915.4598231        1268673562.8099451     
   6357488080.6484737        959187829.56883585        1271779538.5160367     
   6496149205.0117731        701011485.55824423        1237501335.4571722     
   7998344433.1736755       -568133720.21366310       -179487737.35519716     
   7916714520.9451723       -200880752.36317539       -77959890.765268102     
   7793744400.9118643        28571522.804623127       -9217797.8124649562     
   7629434073.0737495        120223105.28973818        26738541.503217403     
   7423783537.4308319        74073995.092163086        29909127.181771923     
   7941530584.6606531       -155226931.21245050        282954923.94217396     
   7739094530.2982159        15689990.344268799        281412618.12414539     
   7513413528.1594315        109123752.64649534        265036582.67723826     
   7264487578.2442989        125074355.69423151        233826817.60145319     
   6992316680.5528183        63541799.487468243        187783322.89678892     
   7672226763.7959957        193932866.08327246        673267323.17669165     
   7400276064.4660397        183901190.49614906        589766001.65057456     
   7123175677.3881950        156703889.08272696        509382974.50382507     
   6840925602.5624590        112340961.84300303        432118241.73644161     
   6553525839.9888325        50812408.776982069        357971803.34842336     
   7190432970.5797014        479345671.67350316        991449460.34835756     
   6900259123.4486418        303752848.09246159        847100259.81402135     
   6623030848.5981483        171311932.11331248        723821377.66729569     
   6358748146.0282249        82022923.736060143        621612813.90818024     
   6107411015.7388697        35885822.960702896        540474568.53667843     
   6496149205.0117731        701011485.55824423        1237501335.4571722     
   6239043707.2460232        375244963.13320732        1053415392.6144826     
   6012979041.7892981        152947881.73825932        908351792.16764998     
   5817955208.6415997        34120241.373399019        802310534.11667347     
   5653972207.8029280        18762042.038630009        735291618.46155345     
   7423783537.4308319        74073995.092163086        29909127.181771923     
   7219747465.7849312       -16286966.201427937        14535143.776033415     
   7027581586.3646317       -67080620.076337337        3512200.3380691702     
   6847285899.1699381       -78306966.532564640       -3159703.1321235332     
   6678860404.2008572       -49966005.570090771       -5480566.6345307641     
   6992316680.5528183        63541799.487468243        187783322.89678892     
   6808203332.4534731        4410039.1745839119        180800850.08120936     
   6631499897.6356878       -30022010.199772358        177585770.56889436     
   6462206376.0994606       -39754348.635598421        178138084.35983247     
   6300322767.8447895       -24786976.132896423        182457791.45403689     
   6553525839.9888325        50812408.776982069        357971803.34842336     
   6387667653.5374279        22409580.875218153        354177182.35495383     
   6224759101.4235334        3838867.4318294525        353566308.00022954     
   6064800183.6471519       -4899731.5531888008        356139180.28424597     
   5907790900.2082815       -3806216.0798325539        361895799.20700496     
   6107411015.7388697        35885822.960702896        540474568.53667843     
   5958140429.0367842        37711658.900475025        534664140.59726232     
   5807359197.7281666        34502012.818465710        531453812.63207483     
   5655067321.8130150        26256884.714674950        530843584.64111245     
   5501264801.2913237        12976274.589097500        532833456.62437618     
   5653972207.8029280        18762042.038630009        735291618.46155345     
   5519621658.9515505        50316273.250353575        722261724.80813503     
   5379300186.5495901        61967425.960139275        711248284.46442914     
   5233007790.5970478        53715500.167987585        702251297.43043470     
   5080744471.0939245        25560495.873896122        695270763.70615125     
   6678860404.2008572       -49966005.570090771       -5480566.6345307641     
   6490028817.5079889       -16836729.573761702        299687.94494158373     
   6296520539.1725979        703574.28082656860        14040270.785191912     
   6098335569.1946812        2654905.9936656952        35741181.886224061     
   5895473907.5742407       -10982734.435248852        65402421.248031631     
   6300322767.8447895       -24786976.132896423        182457791.45403689     
   6126743831.1321249       -6206070.8785607815        178613560.55162039     
   5950450891.8779316        3328159.2373549938        181899125.39058509     
   5771443950.0822115        3815714.2148416042        192314485.97092137     
   5589723005.7449560       -4743405.9461236000        209859642.29263878     
   5907790900.2082815       -3806216.0798325539        361895799.20700496     
   5747091663.4203911       -485566.58410382271        350716886.77386308     
   5585641113.1919613        330704.77650141716        345837237.56269556     
   5423439249.5229988       -1357401.9980020523        347256851.57350099     
   5260486072.4134970       -5549886.9076385498        354975728.80628330     
   5501264801.2913237        12976274.589097500        532833456.62437618     
   5351072314.3727713        324783.30957746506        516609666.61166650     
   5202091203.1146755       -8288789.1017475128        505854607.30152726     
   5054321467.5170412       -12864442.644877911        500568278.69396406     
   4907763107.5798635       -13402177.319810629        500750680.78897381     
   5080744471.0939245        25560495.873896122        695270763.70615125     
   4938685783.9892778       -3775021.1975016594        676291900.06503081     
   4799801161.6460810       -22530322.397387743        661951234.60708261     
   4664090604.0643377       -30705407.725767612        652248767.33230865     
   4531554111.2440472       -28300277.182638884        647184498.24070275     
   5895473907.5742407       -10982734.435248852        65402421.248031631     
   5727528527.7711515       -18320730.940699339        81505670.162874863     
   5561506933.7061577       -19246108.319175482        95383534.903472751     
   5397409125.3792429       -13758866.570722580        107036015.46981601     
   5235235102.7904110       -1859005.6953194141        116463111.86192226     
   5589723005.7449560       -4743405.9461236000        209859642.29263878     
   5418336987.8691120       -12243893.049814224        220583642.47762564     
   5248318701.1845856       -15185276.182446480        230923879.99587005     
   5079668145.6913748       -13567555.344025135        240880354.84737444     
   4912385321.3894825       -7390730.5345454216        250453067.03213546     
   5260486072.4134970       -5549886.9076385498        354975728.80628330     
   5090921192.2006273       -11634331.888856649        359671749.95685172     
   4922167988.6323042       -15013188.054931164        365825629.94818050     
   4754226461.7085323       -15686455.405826807        373437368.78027749     
   4587096611.4293118       -13654133.941547871        382506966.45314395     
   4907763107.5798635       -13402177.319810629        500750680.78897381     
   4745281140.7656965       -16492047.457849026        498769992.60055476     
   4583054796.0493164       -18729843.936609983        500088784.76041096     
   4421084073.4307127       -20115566.756107807        504707057.26853776     
   4259368972.9098935       -20649215.916329145        512624810.12493986     
   4531554111.2440472       -28300277.182638884        647184498.24070275     
   4381416833.5643234       -26817039.756763935        637878370.40874064     
   4230979123.4356108       -26335243.827522278        633713344.43255675     
   4080240980.8579121       -26854889.394894838        634689420.31215346     
   3929202405.8312292       -28375976.458887577        640806598.04752922     
   5235235102.7904110       -1859005.6953194141        116463111.86192226     
   5050498056.1753273        4821482.5097074509        120820372.67673275     
   4864858894.9457922        8494921.9998662472        130332168.37890238     
   4678317619.1017895        9161312.7751486301        144998498.96844137     
   4490874228.6433258        6820654.8355629444        164819364.44533697     
   4912385321.3894825       -7390730.5345454216        250453067.03213546     
   4740387069.1260653       -2058757.1648123264        252752370.37879142     
   4567396762.7803602       -33630.736026048660        260007407.14750066     
   4393414402.3523674       -1315351.2481997013        272218177.33827221     
   4218439987.8421001       -5903918.7012834549        289384680.95109445     
   4587096611.4293118       -13654133.941547871        382506966.45314395     
   4427269149.3309536       -9841076.6631114483        382643382.95251918     
   4266359693.6824913       -9634664.5516755581        387536731.40864378     
   4104368244.4839282       -13034897.607246876        397187011.82151598     
   3941294801.7352653       -20041775.829822540        411594224.19114166     
   4259368972.9098935       -20649215.916329145        512624810.12493986     
   4111144296.7900085       -18525475.985155344        510493410.39791262     
   3961747687.6522031       -20308179.447044611        512920141.16232991     
   3811179145.4964714       -25997326.302016020        519905002.41819161     
   3659438670.3228216       -35592916.550045729        531447994.16549546     
   3929202405.8312292       -28375976.458887577        640806598.04752922     
   3792012511.5032320       -28111955.130938292        636302452.71497822     
   3653560744.6894898       -32054175.422136068        636157636.40856111     
   3513847105.3900080       -40202637.332460642        640372149.12828290     
   3372871593.6047821       -52557340.861934423        648945990.87414253     
   4490874228.6433258        6820654.8355629444        164819364.44533697     
   4263893438.5624466       -6841792.7075002193        170476407.89825594     
   4038170431.4146543       -16311630.473603249        196366793.66238576     
   3813705207.1999450       -21588858.462757111        242490521.73772836     
   3590497765.9183331       -22673476.674932241        308847592.12429076     
   4218439987.8421001       -5903918.7012834549        289384680.95109445     
   4039842737.9962354       -11647088.112774849        292141189.02217400     
   3862192871.0077953       -14232314.666179657        310054936.93246388     
   3685490386.8767776       -13659598.361512423        343125924.68194830     
   3509735285.6031847       -9928939.1987631321        391354152.27064240     
   3941294801.7352653       -20041775.829822540        411594224.19114166     
   3796577942.2043948       -22216612.085720539        411088063.45877439     
   3652498065.4552808       -22268172.402433872        420663040.09360468     
   3509055171.4879241       -20196456.779953718        440319154.09563076     
   3366249260.3023214       -16001465.218288660        470056405.46484703     
   3659438670.3228216       -35592916.550045729        531447994.16549546     
   3534099051.1869226       -38550364.626364708        527317031.20806795     
   3409086014.7571049       -40419203.682389259        528191103.14583725     
   3284399561.0333796       -41199433.718112469        534070209.97877765     
   3160039690.0157413       -40891054.733552456        544954351.70690787     
   3372871593.6047821       -52557340.861934423        648945990.87414253     
   3252406064.9438143       -60648345.734694481        640828092.27005410     
   3131956718.9132667       -68685408.506052375        632639126.08913660     
   3011523555.5131516       -76668529.175973296        624379092.33138895     
   2891106574.7434454       -84597707.744514465        616047990.99682677     
   3590497765.9183331       -22673476.674932241        308847592.12429076     
   3116402231.3056040       -45794867.262978077        291549198.58599585     
   2676145389.9950523        43879386.489555001        327915835.36636752     
   2269727241.9866643        246349284.58265853        417947502.46538782     
   1897147787.2804642        561614827.01635396        561644199.88306439     
   3509735285.6031847       -9928939.1987631321        391354152.27064240     
   3161790731.4349494       -16535221.863295674        380130370.85449058     
   2840142680.5902534        64513506.550646305        408469596.09463882     
   2544791133.0690928        233217246.04301775        476371827.99107420     
   2275736088.8714705        489575996.61387426        583837066.54380965     
   3366249260.3023214       -16001465.218288660        470056405.46484703     
   3104164190.4003935       -18180088.812770367        456108014.52911139     
   2860833433.8433642        42155665.409083724        467620606.58729196     
   2636256990.6312332        165005797.44727075        504594181.63939828     
   2430434860.7640171        350370307.30182993        567028739.68544388     
   3160039690.0157413       -40891054.733552456        544954351.70690787     
   2943522608.2019305       -50729468.111423731        519482129.60982800     
   2738217649.7543802       -23194136.935087562        505368866.84431380     
   2544124814.6731062        41714938.795486689        502614563.41036016     
   2361244102.9580879        143997759.08026278        511219219.30796701     
   2891106574.7434454       -84597707.744514465        616047990.99682677     
   2679865984.8395629       -114183359.75924850        570252716.09667361     
   2472295328.3233066       -131535900.48189616        521714376.86571366     
   2268394605.1946921       -136655329.91242611        470432973.30394685     
   2068163815.4536941       -129541648.05085707        416408505.41138428     
   5957571042.9432821        1787271312.8829846        1150309075.1028950     
   6088198999.6142273        1502317743.2312062        1228183408.3388979     
   6221504678.8492908        1226289915.4598231        1268673562.8099451     
   6357488080.6484737        959187829.56883585        1271779538.5160367     
   6496149205.0117731        701011485.55824423        1237501335.4571722     
   5434492767.9151716        1630347830.3745515        1033787721.4758554     
   5489815384.3951693        1372527193.0443757        1114140831.7423480     
   5547307526.6187611        1121938308.1928561        1167689490.0911584     
   5606969194.5859518        878581175.81999278        1194433696.5222871     
   5668800388.2967396        642455795.92578554        1194373451.0357330     
   4895304070.2985430        1468591221.0895629        936687636.90907681     
   4905549137.5798006        1246971853.3786526        1018926627.9154507     
   4917455533.7841349        1030890248.7446594        1084940893.8514154     
   4931023258.9115438        820346407.18758368        1134730434.7169724     
   4946252312.9620266        615340328.70742428        1168295250.5121198     
   4340004950.0933971        1302001485.0280192        859008821.40255928     
   4335400259.1681271        1125651724.2340376        942540796.85820508     
   4331948700.3454113        953145737.11523414        1020427774.0907164     
   4329650273.6252460        784483523.67160773        1092669753.1000922     
   4328504979.0076370        619665083.90315950        1159266733.8863330     
   3768595407.2997346        1130578622.1899204        800751274.95630276     
   3779368749.1601462        1008566805.6105309        884983338.57061243     
   3790787026.3025899        888704773.30457973        974150130.80906022     
   3802850238.7270651        770992525.27206683        1068251651.6716468     
   3815558386.4335709        655430061.51299202        1167287901.1583712     
   6496149205.0117731        701011485.55824423        1237501335.4571722     
   6239043707.2460232        375244963.13320732        1053415392.6144826     
   6012979041.7892981        152947881.73825932        908351792.16764998     
   5817955208.6415997        34120241.373399019        802310534.11667347     
   5653972207.8029280        18762042.038630009        735291618.46155345     
   5668800388.2967396        642455795.92578554        1194373451.0357330     
   5518717436.2612171        382783625.75717473        1073718441.3547969     
   5392856686.0312099        203852128.27361751        981113581.62669909     
   5291218137.6067228        105661303.47511625        916558871.85143745     
   5213801790.9877501        88211151.361669540        880054312.02901435     
   4946252312.9620266        615340328.70742428        1168295250.5121198     
   4871842785.3909655        412357774.41550875        1103116105.0721753     
   4814836829.1219101        267387124.46361232        1055014917.1420493     
   4775234444.1548634        180428378.85173893        1023991686.7217419     
   4753035630.4898186        151481537.57988358        1010046413.8112520     
   4328504979.0076370        619665083.90315950        1159266733.8863330     
   4298419754.6352673        463967409.10820830        1141608383.7666178     
   4278919471.0613947        343552870.30824316        1130055798.7137024     
   4270004128.2860169        258421467.50326490        1124608978.7275856     
   4271673726.3091354        208573200.69327116        1125267923.8082685     
   3815558386.4335709        655430061.51299202        1167287901.1583712     
   3798448343.9941249        537612529.83527458        1189195277.4381249     
   3785104611.8496628        432349365.80750751        1206236226.3416574     
   3775527190.0001893        339640569.42969739        1218410747.8689704     
   3769716078.4456992        259486140.70183563        1225718842.0200636     
   5653972207.8029280        18762042.038630009        735291618.46155345     
   5519621658.9515505        50316273.250353575        722261724.80813503     
   5379300186.5495901        61967425.960139275        711248284.46442914     
   5233007790.5970478        53715500.167987585        702251297.43043470     
   5080744471.0939245        25560495.873896122        695270763.70615125     
   5213801790.9877501        88211151.361669540        880054312.02901435     
   5077267041.6208429        85964974.380623817        855915805.20346022     
   4938228439.4309111        75372621.322831631        835880785.02381516     
   4796685984.4179573        56434092.188297272        819949251.49007618     
   4652639676.5819807        29149386.977018356        808121204.60224080     
   4753035630.4898186        151481537.57988358        1010046413.8112520     
   4620279632.9965124        117223838.12280464        978844209.66238153     
   4488486853.4077406        86176865.014174461        953832525.49561405     
   4357657291.7235041        58340618.253998280        935011361.31094670     
   4227790947.9438052        33715097.842269897        922380717.10838223     
   4271673726.3091354        208573200.69327116        1125267923.8082685     
   4148659433.0785589        144092864.47689819        1091046938.1848998     
   4030075428.4800749        94380157.034170151        1065103505.8798295     
   3915921712.5136857        59435078.365087748        1047437626.8930520     
   3806198285.1793885        39257628.469648123        1038049301.2245736     
   3769716078.4456992        259486140.70183563        1225718842.0200636     
   3662406441.8669820        166572053.44290781        1192523990.7710142     
   3562994164.6479158        99982497.382817268        1169693726.1764565     
   3471479246.7885041        59717472.521571875        1157228048.2363896     
   3387861688.2887406        45776978.859161139        1155126956.9508162     
   5080744471.0939245        25560495.873896122        695270763.70615125     
   4938685783.9892778       -3775021.1975016594        676291900.06503081     
   4799801161.6460810       -22530322.397387743        661951234.60708261     
   4664090604.0643377       -30705407.725767612        652248767.33230865     
   4531554111.2440472       -28300277.182638884        647184498.24070275     
   4652639676.5819807        29149386.977018356        808121204.60224080     
   4524268979.8937988        6361313.4370834827        793385771.22626197     
   4398266277.7827072       -8533444.8458859921        783030414.55713248     
   4274631570.2487130       -15534887.871865511        777055134.59485245     
   4153364857.2918062       -14643015.640883923        775459931.33942449     
   4227790947.9438052        33715097.842269897        922380717.10838223     
   4112370751.7397380        17253220.854086399        910948298.78245854     
   3998512479.9284048        5997758.5083439350        903637835.68706083     
   3886216132.5098023       -51289.194957733154        900449327.82219219     
   3775481709.4839344       -893922.25581574440        901382775.18785059     
   3806198285.1793885        39257628.469648123        1038049301.2245736     
   3702991099.5270915        28900701.053516626        1028979482.7336186     
   3600539768.0831676        21063287.665295124        1023773497.9968659     
   3498844290.8476148        15745388.304974794        1022431347.0143203     
   3397904667.8204327        12947002.972563744        1024953029.7859800     
   3387861688.2887406        45776978.859161139        1155126956.9508162     
   3296130023.2558646        41303754.035376072        1147479323.0797400     
   3204348142.2469978        36663142.624960423        1143437401.4865484     
   3112516045.2621422        31855144.627914906        1143001192.1712391     
   3020633732.3013015        26879760.044251084        1146170695.1338124     
   4531554111.2440472       -28300277.182638884        647184498.24070275     
   4381416833.5643234       -26817039.756763935        637878370.40874064     
   4230979123.4356108       -26335243.827522278        633713344.43255675     
   4080240980.8579121       -26854889.394894838        634689420.31215346     
   3929202405.8312292       -28375976.458887577        640806598.04752922     
   4153364857.2918062       -14643015.640883923        775459931.33942449     
   4015969450.7976141       -15143382.630675793        766018379.96673012     
   3878478380.8298945       -15962627.865558624        761694920.97690034     
   3740891647.3886433       -17100751.345545769        762489554.36992967     
   3603209250.4738712       -18557753.070608854        768402280.14581990     
   3775481709.4839344       -893922.25581574440        901382775.18785059     
   3650762432.8240776       -3397616.0666317940        892044697.41246259     
   3526152261.6661496       -5537624.8710134029        887801702.54701674     
   3401651196.0101552       -7313948.6689574718        888653790.59151161     
   3277259235.8560867       -8726587.4604661465        894600961.54594946     
   3397904667.8204327        12947002.972563744        1024953029.7859800     
   3285795779.6437144        8420259.9353606701        1015957322.7459339     
   3174000765.9443841        4939765.1561269760        1012033689.1429088     
   3062519626.7224436        2505518.6348578930        1013182128.9769093     
   2951352361.9778957        1117520.3715605736        1019402642.2479266     
   3020633732.3013015        26879760.044251084        1146170695.1338124     
   2921069491.2565241        20310245.375310779        1137756255.9671423     
   2822023893.6645927        15469542.215860844        1134390880.7645755     
   2723496939.5255103        12357650.565907836        1136074569.5261126     
   2625488628.8392787        10974570.425452828        1142807322.2517505     
   3929202405.8312292       -28375976.458887577        640806598.04752922     
   3792012511.5032320       -28111955.130938292        636302452.71497822     
   3653560744.6894898       -32054175.422136068        636157636.40856111     
   3513847105.3900080       -40202637.332460642        640372149.12828290     
   3372871593.6047821       -52557340.861934423        648945990.87414253     
   3603209250.4738712       -18557753.070608854        768402280.14581990     
   3477375962.4466376       -18099656.386965036        762588520.08494949     
   3350557260.3604889       -20926273.233043671        761106495.37799048     
   3222753144.2154183       -27037603.608852506        763956206.02494097     
   3093963614.0114346       -36433647.514375567        771137652.02579248     
   3277259235.8560867       -8726587.4604661465        894600961.54594946     
   3162703715.0661087       -8098067.1401653290        887800121.58806217     
   3047439238.6440344       -9832732.2601772547        885303423.31185472     
   2931465806.5898666       -13930582.820509076        887110866.71731818     
   2814783418.9036002       -20391618.821162462        893222451.80445969     
   2951352361.9778957        1117520.3715605736        1019402642.2479266     
   2847995769.3616495        1892812.6094571352        1011937257.2243152     
   2744206679.5401297        1226447.4964455366        1008748420.2101498     
   2639985092.5133362       -881574.96746790409        1009836131.2054249     
   2535331008.2812743       -4431254.7822970152        1015200390.2101438     
   2625488628.8392787        10974570.425452828        1142807322.2517505     
   2533252125.3332462        11872982.861886382        1134999926.9937046     
   2440859583.0487704        12251266.036841154        1131441486.0728714     
   2348311001.9858384        12109419.950278759        1132131999.4892497     
   2255606382.1444602        11447444.602225184        1137071467.2428489     
   3372871593.6047821       -52557340.861934423        648945990.87414253     
   3252406064.9438143       -60648345.734694481        640828092.27005410     
   3131956718.9132667       -68685408.506052375        632639126.08913660     
   3011523555.5131516       -76668529.175973296        624379092.33138895     
   2891106574.7434454       -84597707.744514465        616047990.99682677     
   3093963614.0114346       -36433647.514375567        771137652.02579248     
   2974976689.0128279       -44105829.008814096        763632132.41864884     
   2856172813.7980566       -51167844.557134271        757238416.27207232     
   2737551988.3671379       -57619694.159278750        751956503.58606577     
   2619114212.7200565       -63461377.815291405        747786394.36062264     
   2814783418.9036002       -20391618.821162462        893222451.80445969     
   2700654729.1027541       -26631087.476679444        886523989.53992164     
   2586875956.2391744       -31704166.341318250        882120201.77334464     
   2473447100.3128610       -35610855.415063381        880011088.50472867     
   2360368161.3238082       -38351154.697941184        880196649.73407114     
   2535331008.2812743       -4431254.7822970152        1015200390.2101438     
   2429440185.2136035       -8224121.1382629871        1009503663.6338707     
   2324066146.2366176       -10294373.858607650        1007284482.5929493     
   2219208891.3503170       -10642012.943334579        1008542847.0873802     
   2114868420.5547071       -9267038.3924328089        1013278757.1171626     
   2255606382.1444602        11447444.602225184        1137071467.2428489     
   2161333057.3453732        11115070.006439209        1132571154.7004914     
   2067743383.7903900        13061532.891004920        1132731258.7308838     
   1974837361.4795139        17286833.255928993        1137551779.3340266     
   1882614990.4127424        23790971.101199865        1147032716.5099099     
   2891106574.7434454       -84597707.744514465        616047990.99682677     
   2679865984.8395629       -114183359.75924850        570252716.09667361     
   2472295328.3233066       -131535900.48189616        521714376.86571366     
   2268394605.1946921       -136655329.91242611        470432973.30394685     
   2068163815.4536941       -129541648.05085707        416408505.41138428     
   2619114212.7200565       -63461377.815291405        747786394.36062264     
   2403686153.3417153       -97701557.393535018        710599591.78929043     
   2188535652.4413743       -131016542.04509640        674008844.92921007     
   1973662710.0190499       -163406331.76994026        638014153.78040576     
   1759067326.0747337       -194870926.56808352        602615518.34284163     
   2360368161.3238082       -38351154.697941184        880196649.73407114     
   2150292975.4483294       -74383758.946492910        847660548.76366770     
   1937102973.1412385       -120799084.63375068        819059623.54658973     
   1720798154.4025352       -177597131.75970745        794393874.08283114     
   1501378519.2322197       -244777900.32437605        773663300.37239838     
   2114868420.5547071       -9267038.3924328089        1013278757.1171626     
   1919686451.1594112       -44229964.418115616        981435587.01980233     
   1717997290.4228876       -100883528.24787939        956866712.71783113     
   1509800938.3451326       -179227729.88175207        939572134.21123755     
   1295097394.9261460       -279262569.31973320        929551851.50003719     
   1882614990.4127424        23790971.101199865        1147032716.5099099     
   1711866580.4749613       -7240173.8083876371        1111924706.5576982     
   1531218604.2863321       -71269872.887462139        1087430112.4429405     
   1340671061.8468518       -168298126.13605165        1073548934.1656275     
   1140223953.1565094       -298324933.55416590        1070281171.7257638     
   3768595407.2997346        1130578622.1899204        800751274.95630276     
   3779368749.1601462        1008566805.6105309        884983338.57061243     
   3790787026.3025899        888704773.30457973        974150130.80906022     
   3802850238.7270651        770992525.27206683        1068251651.6716468     
   3815558386.4335709        655430061.51299202        1167287901.1583712     
   3208228199.3671327        962468459.81013978        756791808.53558803     
   3236222338.2150016        868118982.79866278        853118880.71965539     
   3263965621.5067930        772933320.60026491        951374374.36964798     
   3291458049.2425089        676911473.21494591        1051558289.4855660     
   3318699621.4221492        580053440.64270651        1153670626.0674098     
   2686056083.7451692        805816825.12355077        722007233.10569620     
   2722681570.5570292        736552852.97294676        829384224.54839540     
   2758160410.9747043        663466726.17506242        935683330.29880655     
   2792492604.9981956        586558444.72989774        1040904550.3569304     
   2825678152.6275024        505828008.63745284        1145047884.7227666     
   2202079060.4338455        660623718.13015366        696397548.66662705     
   2238746446.1862302        613868416.13338268        813779370.05683208     
   2273371394.7063227        560304990.02897215        927076998.59653699     
   2305953905.9941239        499933439.81692243        1036290434.2857409     
   2336493980.0496330        432753765.49723226        1141419677.1244445     
   1756297129.4331601        526889138.82994801        679962755.21838069     
   1784416965.1026039        500065672.27997065        806304317.24496615     
   1809598572.7016482        463448112.16199446        925555379.26283836     
   1831841952.2302930        417036458.47601902        1037715941.2719964     
   1851147103.6885383        360830711.22204506        1142786003.2724411     
   3815558386.4335709        655430061.51299202        1167287901.1583712     
   3798448343.9941249        537612529.83527458        1189195277.4381249     
   3785104611.8496628        432349365.80750751        1206236226.3416574     
   3775527190.0001893        339640569.42969739        1218410747.8689704     
   3769716078.4456992        259486140.70183563        1225718842.0200636     
   3318699621.4221492        580053440.64270651        1153670626.0674098     
   3294459455.3340092        472951547.37569928        1182152309.2278838     
   3273899151.9133062        378115863.00015354        1207542869.6323421     
   3257018711.1600447        295546387.51607382        1229842307.2807841     
   3243818133.0742202        225243120.92345583        1249050622.1732099     
   2825678152.6275024        505828008.63745284        1145047884.7227666     
   2799380161.8055367        410963443.45561647        1180003019.1984913     
   2776675586.0234632        328076928.40675378        1213642335.5384033     
   2757564425.2812829        257168463.49086607        1245965833.7425034     
   2742046679.5789928        198238048.70795131        1276973513.8107910     
   2336493980.0496330        432753765.49723226        1141419677.1244445     
   2313210463.4087095        351648218.07502782        1182747407.3499472     
   2293433914.1801314        282232562.02730709        1224534624.0598419     
   2277164332.3638997        224506797.35407197        1266781327.2541277     
   2264401717.9600124        178470924.05532098        1309487516.9328074     
   1851147103.6885383        360830711.22204506        1142786003.2724411     
   1835950360.1435261        295005871.23393166        1190385473.6822512     
   1824174136.3833134        240582763.86181366        1240219735.1966579     
   1815818432.4078989        197561389.10569227        1292288787.8156593     
   1810883248.2172830        165941746.96556622        1346592631.5392566     
   3769716078.4456992        259486140.70183563        1225718842.0200636     
   3662406441.8669820        166572053.44290781        1192523990.7710142     
   3562994164.6479158        99982497.382817268        1169693726.1764565     
   3471479246.7885041        59717472.521571875        1157228048.2363896     
   3387861688.2887406        45776978.859161139        1155126956.9508162     
   3243818133.0742202        225243120.92345583        1249050622.1732099     
   3165853740.1297474        150554665.98072481        1231365474.3866332     
   3094128576.4568338        96663641.943194151        1221683089.1297052     
   3028642642.0554795        63570048.810861349        1220003466.4024272     
   2969395936.9256868        51273886.583730340        1226326606.2047992     
   2742046679.5789928        198238048.70795131        1276973513.8107910     
   2686679461.3406405        139750805.40298176        1272863584.3839130     
   2635893342.2857571        96533892.709570408        1274394593.3618426     
   2589688322.4143410        68587310.627720118        1281566540.7445781     
   2548064401.7263937        55911059.157429099        1294379426.5321217     
   2264401717.9600124        178470924.05532098        1309487516.9328074     
   2224883605.4996614        134160471.70967495        1317018320.7628539     
   2188288462.1346869        99593249.681950569        1327828238.8728650     
   2154616287.8650870        74769257.972141862        1341917271.2628410     
   2123867082.6908631        59688496.580255389        1359285417.9327805     
   1810883248.2172830        165941746.96556622        1346592631.5392566     
   1780466172.6068108        133783664.90080899        1363829683.5234554     
   1751313936.0036218        105841712.86033165        1381984025.6627753     
   1723426538.4077160        82115890.844130754        1401055657.9572170     
   1696803979.8190951        62606198.852213740        1421044580.4067810     
   3387861688.2887406        45776978.859161139        1155126956.9508162     
   3296130023.2558646        41303754.035376072        1147479323.0797400     
   3204348142.2469978        36663142.624960423        1143437401.4865484     
   3112516045.2621422        31855144.627914906        1143001192.1712391     
   3020633732.3013015        26879760.044251084        1146170695.1338124     
   2969395936.9256868        51273886.583730340        1226326606.2047992     
   2886199670.1656661        42199212.354380131        1218217619.4141564     
   2803625508.0814624        35198220.377748489        1214130484.2644966     
   2721673450.6730728        30270910.653832316        1214065200.7558205     
   2640343497.9404979        27417283.182633877        1218021768.8881276     
   2548064401.7263937        55911059.157429099        1294379426.5321217     
   2474592502.8480921        42591626.405178666        1286593460.9156811     
   2402415029.2974067        33586944.744987011        1283245486.3033226     
   2331531981.0743389        28897014.176851988        1284335502.6950488     
   2261943358.1788902        28521834.700778842        1289863510.0908599     
   2123867082.6908631        59688496.580255389        1359285417.9327805     
   2061308521.3031361        42480996.187760592        1352606847.5843134     
   2000716705.8948288        31829315.726668119        1350782407.6030281     
   1942091636.4659410        27733455.196971655        1353812097.9889276     
   1885433313.0164742        30193414.598681331        1361695918.7420106     
   1696803979.8190951        62606198.852213740        1421044580.4067810     
   1646347725.5307984        41867321.702124834        1416257779.4200547     
   1598530537.8737259        29925333.322784007        1416741248.1636124     
   1553352416.8478775        26780233.714189172        1422494986.6374547     
   1510813362.4532518        32432022.876338422        1433518994.8415816     
   3020633732.3013015        26879760.044251084        1146170695.1338124     
   2921069491.2565241        20310245.375310779        1137756255.9671423     
   2822023893.6645927        15469542.215860844        1134390880.7645755     
   2723496939.5255103        12357650.565907836        1136074569.5261126     
   2625488628.8392787        10974570.425452828        1142807322.2517505     
   2640343497.9404979        27417283.182633877        1218021768.8881276     
   2554775571.3595715        24576623.512798667        1210606376.4562337     
   2469432370.8429613        22485050.724020600        1208047810.8018653     
   2384313896.3906713        21142564.816304684        1210346071.9250262     
   2299420148.0026965        20549165.789644241        1217501159.8257134     
   2261943358.1788902        28521834.700778842        1289863510.0908599     
   2189822496.9573102        29245255.298695922        1283104260.7737911     
   2117632444.4115171        29738038.149237633        1281009601.0476708     
   2045373200.5415125        30000183.252404094        1283579530.9125011     
   1973044765.3472936        30031690.608194709        1290814050.3682849     
   1885433313.0164742        30193414.598681331        1361695918.7420106     
   1826210268.0497377        34316140.733000398        1355249908.9198132     
   1766624114.3702590        37228504.491511703        1353276251.5019882     
   1706674851.9780345        38930505.874206841        1355774946.4885395     
   1646362480.8730702        39422144.881098032        1362745993.8794658     
   1510813362.4532518        32432022.876338422        1433518994.8415816     
   1463938884.6368544        39789279.815708458        1427043320.8943036     
   1416407380.7191851        44956449.750841022        1424847762.1648202     
   1368218850.7002397        47933532.681717932        1426932318.6531394     
   1319373294.5800207        48720528.608350217        1433296990.3592532     
   2625488628.8392787        10974570.425452828        1142807322.2517505     
   2533252125.3332462        11872982.861886382        1134999926.9937046     
   2440859583.0487704        12251266.036841154        1131441486.0728714     
   2348311001.9858384        12109419.950278759        1132131999.4892497     
   2255606382.1444602        11447444.602225184        1137071467.2428489     
   2299420148.0026965        20549165.789644241        1217501159.8257134     
   2218358687.2961979        21369606.978875399        1209523969.4939718     
   2137246667.9395175        22021519.334168434        1205912004.9586279     
   2056084089.9326522        22504902.855515718        1206665266.2196796     
   1974870953.2756126        22819757.542942286        1211783753.2771320     
   1973044765.3472936        30031690.608194709        1290814050.3682849     
   1903490551.6094220        30873821.800930977        1282790125.1124952     
   1833991259.3496389        31899024.587301731        1279247697.1122844     
   1764546888.5679424        33107298.967292309        1280186766.3676591     
   1695157439.2643371        34498644.940925837        1285607332.8786151     
   1646362480.8730702        39422144.881098032        1362745993.8794658     
   1588647718.2729247        40385627.328077793        1354798393.8492725     
   1531093357.2791395        41883781.796255410        1351448562.5338476     
   1473699397.8917105        43916608.285620570        1352696499.9331882     
   1416465840.1106429        46484106.796191216        1358542206.0472980     
   1319373294.5800207        48720528.608350217        1433296990.3592532     
   1273830187.2867053        49905023.560306191        1425548775.7043068     
   1228552961.7280142        51975790.961012721        1422514601.2233107     
   1183541617.9039509        54932830.810478568        1424194466.9162700     
   1138796155.8145196        58776143.108717978        1430588372.7831819     
   2255606382.1444602        11447444.602225184        1137071467.2428489     
   2161333057.3453732        11115070.006439209        1132571154.7004914     
   2067743383.7903900        13061532.891004920        1132731258.7308838     
   1974837361.4795139        17286833.255928993        1137551779.3340266     
   1882614990.4127424        23790971.101199865        1147032716.5099099     
   1974870953.2756126        22819757.542942286        1211783753.2771320     
   1893078469.7262852        23984661.033251047        1208430333.7343006     
   1812011612.6538873        27568319.446661592        1209671619.0217545     
   1731670382.0584266        33570732.783194900        1215507609.1394844     
   1652054777.9398971        41991901.042831600        1225938304.0874889     
   1695157439.2643371        34498644.940925837        1285607332.8786151     
   1625658049.1291516        37104502.166649044        1283449777.4402764     
   1556926260.7037239        42269031.758230090        1285821215.0897450     
   1488962073.9880545        49992233.715672016        1292721645.8270314     
   1421765488.9821427        60274108.038972378        1304151069.6521275     
   1416465840.1106429        46484106.796191216        1358542206.0472980     
   1359071795.5539765        50474593.406627893        1357629485.8184118     
   1302487327.9398973        57163669.825699568        1361180046.9348679     
   1246712437.2683973        66551336.053358614        1369193889.3966653     
   1191747123.5394845        78637592.089651167        1381671013.2038088     
   1138796155.8145196        58776143.108717978        1430588372.7831819     
   1093319709.0007567        64094934.753205061        1430969458.8687057     
   1048694814.3624057        72252233.649064511        1435748114.5571091     
   1004921471.8994595        83248039.796275496        1444924339.8483922     
   961999681.61192310        97082353.194852293        1458498134.7425499     
   1882614990.4127424        23790971.101199865        1147032716.5099099     
   1711866580.4749613       -7240173.8083876371        1111924706.5576982     
   1531218604.2863321       -71269872.887462139        1087430112.4429405     
   1340671061.8468518       -168298126.13605165        1073548934.1656275     
   1140223953.1565094       -298324933.55416590        1070281171.7257638     
   1652054777.9398971        41991901.042831600        1225938304.0874889     
   1510623549.1516712        23422200.165232003        1180703120.9767711     
   1362897782.8515766       -16129292.418601394        1144530481.9824111     
   1208877479.0396044       -76662576.708680809        1117420387.1044199     
   1048562637.7157714       -158177652.70498461        1099372836.3427944     
   1421765488.9821427        60274108.038972378        1304151069.6521275     
   1305220379.2832341        52836532.575289428        1252994580.2450316     
   1185985760.8114405        36433927.868651450        1209349763.2332253     
   1064061633.5667473        11066293.919027030        1173216618.6166983     
   939447997.54916883       -23266369.273562670        1144595146.3954444     
   1191747123.5394845        78637592.089651167        1381671013.2038088     
   1095657070.8696547        81002823.421813309        1328799084.3624935     
   1000482538.1659186        86419787.974285424        1281887956.1953733     
   906223525.42826223        94888485.747033209        1240937628.7024469     
   812880032.65670824        106408916.74010509        1205948101.8837259     
   961999681.61192310        97082353.194852293        1458498134.7425499     
   881933623.91093349        107921072.70479465        1408116633.3291481     
   806388114.91501439        133828287.89830637        1362145060.8688622     
   735363154.62416124        174803998.77536830        1320583417.3616874     
   668858743.03838086        230848205.33600616        1283431702.8076315     
   1756297129.4331601        526889138.82994801        679962755.21838069     
   1784416965.1026039        500065672.27997065        806304317.24496615     
   1809598572.7016482        463448112.16199446        925555379.26283836     
   1831841952.2302930        417036458.47601902        1037715941.2719964     
   1851147103.6885383        360830711.22204506        1142786003.2724411     
   1326515270.2098076        397954581.06294227        669596325.75961006     
   1339863184.5052211        375514392.41327494        791673443.51969612     
   1351007427.7478504        345728633.58766103        908466519.17763162     
   1359947999.9376957        308597304.58610046        1019975552.7334163     
   1366684901.0747573        264120405.40859365        1126200544.1870503     
   890538462.23048258        267161538.66914478        662191733.28896844     
   894275763.45633090        250653020.41112709        780861389.96977329     
   896543950.64701092        229247455.36921519        896053462.45499086     
   897343023.80252266        202944843.54340908        1007767950.7446206     
   896672982.92286646        171745184.93370888        1116004854.8386624     
   448366705.49518448        134510011.64855534        657748977.80645597     
   447654701.95593351        125481556.27352701        773868156.59519815     
   446208141.39912987        114004577.50665683        888316209.09491563     
   444027023.82477379        100079075.34794515        1001093135.3056083     
   441111349.23286515        83705049.797391102        1112198935.2272766     
   3.9138792939198037E-003   1.1741637881759412E-003   656268059.31207252     
   4.0291144962525489E-003   4.7494631853757529E-004   770693743.39597011     
   4.2074202409637888E-003  -1.3732433230843801E-005   885254759.09740615     
   4.4489352106171264E-003  -2.9203902917735326E-004   999951106.41638041     
   4.7536665537983120E-003  -3.5945090768343371E-004   1114782785.3528929     
   1851147103.6885383        360830711.22204506        1142786003.2724411     
   1835950360.1435261        295005871.23393166        1190385473.6822512     
   1824174136.3833134        240582763.86181366        1240219735.1966579     
   1815818432.4078989        197561389.10569227        1292288787.8156593     
   1810883248.2172830        165941746.96556622        1346592631.5392566     
   1366684901.0747573        264120405.40859365        1126200544.1870503     
   1361013827.4694188        216469720.63353565        1181681304.9659495     
   1357908143.7026908        177370335.32051298        1238060677.2369890     
   1357367849.7745731        146822249.46952420        1295338661.0001698     
   1359392945.6850662        124825463.08057165        1353515256.2554893     
   896672982.92286646        171745184.93370888        1116004854.8386624     
   896709923.22161376        141123358.56103086        1178369254.3827641     
   898457123.41278350        116202398.49642637        1240296085.8065505     
   901914583.49637485        96982304.739894658        1301785349.1100216     
   907082303.47238815        83463077.291435868        1362837044.2931767     
   441111349.23286515        83705049.797391102        1112198935.2272766     
   443038647.40011114        68966785.016416594        1180449321.9326944     
   445821075.51359093        57078953.389554426        1246925960.9053407     
   449458633.57330418        48041554.916803345        1311628852.1452167     
   453951321.57925081        41854589.598164484        1374557995.6523211     
   4.7536665537983120E-003  -3.5945090768343371E-004   1114782785.3528929     
   4.9108267818532090E-003  -3.0699458543047590E-004   1187921507.6157403     
   5.1131317586532513E-003  -1.0409913544726416E-004   1257950302.5333607     
   5.3608852990929276E-003   2.5013973836391116E-004   1324869170.1057556     
   5.6532388660433973E-003   7.5339231190626132E-004   1388678110.3329222     
   1810883248.2172830        165941746.96556622        1346592631.5392566     
   1780466172.6068108        133783664.90080899        1363829683.5234554     
   1751313936.0036218        105841712.86033165        1381984025.6627753     
   1723426538.4077160        82115890.844130754        1401055657.9572170     
   1696803979.8190951        62606198.852213740        1421044580.4067810     
   1359392945.6850662        124825463.08057165        1353515256.2554893     
   1334266299.6823812        100012749.74370337        1372026327.0892060     
   1310088282.9351790        78362133.925109923        1391994583.9135094     
   1286858895.4434593        59873615.624792814        1413420026.7283983     
   1264578137.2072215        44547194.842748523        1436302655.5338762     
   907082303.47238815        83463077.291435868        1362837044.2931767     
   888788646.60739219        66458500.541429818        1382253222.5993104     
   871127409.24607658        51561988.803693652        1403666482.7314944     
   854098591.38844144        38773542.078224003        1427076824.6897314     
   837702193.03448749        28093160.365024388        1452484248.4740198     
   453951321.57925081        41854589.598164484        1374557995.6523211     
   444033213.38184309        33120917.293989152        1394510370.0537686     
   434431314.93631434        25441277.496077791        1416999722.1167338     
   425145626.24266487        18815670.204429999        1442026051.8412149     
   416176147.30089378        13244095.419044375        1469589359.2272129     
   5.6532388660433973E-003   7.5339231190626132E-004   1388678110.3329222     
   5.7337033472752447E-003   1.3791337577445722E-003   1408797769.4525828     
   5.8919787547075551E-003   2.2640714852368285E-003   1431994302.0692246     
   6.1270757240721608E-003   3.4052545581843363E-003   1458267708.1828480     
   6.4394002950398134E-003   4.8036894974610679E-003   1487617987.7934544     
   1696803979.8190951        62606198.852213740        1421044580.4067810     
   1646347725.5307984        41867321.702124834        1416257779.4200547     
   1598530537.8737259        29925333.322784007        1416741248.1636124     
   1553352416.8478775        26780233.714189172        1422494986.6374547     
   1510813362.4532518        32432022.876338422        1433518994.8415816     
   1264578137.2072215        44547194.842748523        1436302655.5338762     
   1228915111.4742541        29646786.475559294        1435828130.2721817     
   1195231385.7147305        21344044.686517715        1440115402.9113259     
   1163526959.9286523        19638969.475626349        1449164473.4513104     
   1133801834.1160195        24531560.842887402        1462975341.8921309     
   837702193.03448749        28093160.365024388        1452484248.4740198     
   815379619.20128775        18595387.784062207        1455552271.1699507     
   794376578.68375468        13496059.588653624        1462873619.9372742     
   774693071.48188829        12795175.778801054        1474448294.7759902     
   756329097.59568739        16492736.354501516        1490276295.6861000     
   416176147.30089378        13244095.419044375        1469589359.2272129     
   405741248.71190202        8713125.6276376098        1475430202.1133599     
   395966116.78080094        6381378.0291996598        1485015899.2414544     
   386850751.50758308        6248852.6237078905        1498346450.6114931     
   378395152.89225769        8315549.4111887962        1515421856.2234805     
   6.4394002950398134E-003   4.8036894974610679E-003   1487617987.7934544     
   6.0980524659163954E-003   6.2929286324022822E-003   1495461923.1024089     
   5.8653402647588738E-003   8.1442865272298194E-003   1506542240.8238654     
   5.7427906294840163E-003   1.0363373392042361E-002   1520858940.9578228     
   5.7292540675027946E-003   1.2944796333748109E-002   1538412023.5042801     
   1510813362.4532518        32432022.876338422        1433518994.8415816     
   1463938884.6368544        39789279.815708458        1427043320.8943036     
   1416407380.7191851        44956449.750841022        1424847762.1648202     
   1368218850.7002397        47933532.681717932        1426932318.6531394     
   1319373294.5800207        48720528.608350217        1433296990.3592532     
   1133801834.1160195        24531560.842887402        1462975341.8921309     
   1097704672.8761725        29767112.684858024        1455777349.6047621     
   1061114742.0603827        33360099.273691297        1453079109.8732607     
   1024032041.6686485        35310520.609375000        1454880622.6976364     
   986456571.70097399        35618376.691922188        1461181888.0778749     
   756329097.59568739        16492736.354501516        1490276295.6861000     
   731636788.18402672        19794843.674563468        1482547617.6715245     
   706615965.72175717        22001907.492593020        1479538329.5508938     
   681266630.20887506        23113927.808580756        1481248431.3242080     
   655588781.64538097        23130904.622530192        1487677922.9914670     
   378395152.89225769        8315549.4111887962        1515421856.2234805     
   365735230.56042355        9872472.7848366648        1507354125.0945888     
   352911051.70330751        10881874.407545045        1504225421.1977124     
   339922616.32091433        11343754.279330343        1506035744.5328557     
   326769924.41324002        11258112.400177240        1512785095.1000161     
   5.7292540675027946E-003   1.2944796333748109E-002   1538412023.5042801     
   5.3576191102625405E-003   1.5666039893907122E-002   1530196871.8739576     
   5.0369735854788019E-003   1.8556207394835593E-002   1527140384.8137236     
   4.7684383913975921E-003   2.1619902525758232E-002   1529242562.3235824     
   4.5502978674382757E-003   2.4852967669201292E-002   1536503404.4035304     
   1319373294.5800207        48720528.608350217        1433296990.3592532     
   1273830187.2867053        49905023.560306191        1425548775.7043068     
   1228552961.7280142        51975790.961012721        1422514601.2233107     
   1183541617.9039509        54932830.810478568        1424194466.9162700     
   1138796155.8145196        58776143.108717978        1430588372.7831819     
   986456571.70097399        35618376.691922188        1461181888.0778749     
   952943656.48464990        36700072.482868433        1454347039.0689745     
   919630152.56931818        38446472.610462338        1452075866.6748095     
   886516059.95497799        40857577.074689716        1454368370.8953779     
   853601378.64162672        43933385.875550091        1461224551.7306831     
   655588781.64538097        23130904.622530192        1487677922.9914670     
   633676448.33685243        23980918.201705605        1481678890.7893708     
   611897055.89568150        25274068.005403042        1480093171.6427901     
   590250604.32187128        27010354.033637434        1482920765.5517271     
   568737093.61541843        29189776.286394238        1490161672.5161853     
   326769924.41324002        11258112.400177240        1512785095.1000161     
   316028562.84331572        11747560.716820523        1507544330.8654845     
   305353671.70711303        12458577.145870909        1506566516.1272533     
   294745251.00463861        13391161.687347353        1509851650.8853195     
   284203300.73588878        14545314.341240302        1517399735.1396875     
   4.5502978674382757E-003   2.4852967669201292E-002   1536503404.4035304     
   4.0405407957195870E-003   2.8220557758772059E-002   1531943359.2973201     
   3.6163837492374524E-003   3.1872787376407606E-002   1531495900.1281979     
   3.2853756345466688E-003   3.5835860378042858E-002   1535161026.8961554     
   3.0409740659664113E-003   4.0087621866713198E-002   1542938739.6011949     
   1138796155.8145196        58776143.108717978        1430588372.7831819     
   1093319709.0007567        64094934.753205061        1430969458.8687057     
   1048694814.3624057        72252233.649064511        1435748114.5571091     
   1004921471.8994595        83248039.796275496        1444924339.8483922     
   961999681.61192310        97082353.194852293        1458498134.7425499     
   853601378.64162672        43933385.875550091        1461224551.7306831     
   819218488.49639750        47839813.099606961        1462622751.0006707     
   785474262.48274827        53875120.762268096        1468482816.0482893     
   752368700.60068989        62039308.863565922        1478804746.8735390     
   719901802.85021329        72332377.403466910        1493588543.4764249     
   568737093.61541843        29189776.286394238        1490161672.5161853     
   545631463.49515641        31738950.096938461        1492328615.5861709     
   522951609.46265888        35707377.533362880        1499021720.6085465     
   500697531.51791936        41095058.595646322        1510240987.5833075     
   478869229.66094398        47901993.283810318        1525986416.5104527     
   284203300.73588878        14545314.341240302        1517399735.1396875     
   272558633.99704176        15792345.745222434        1520087052.6252148     
   261126855.30212685        17749003.962311164        1527364828.2378840     
   249907964.65115511        20415288.992543481        1539233061.9776912     
   238901962.04411635        23791200.835887887        1555691753.8446379     
   3.0409740659664113E-003   4.0087621866713198E-002   1542938739.6011949     
   2.0426426118312930E-003   4.4421083112233438E-002   1545898062.1178010     
   1.1593290430220379E-003   4.9137937308839898E-002   1553512138.9362998     
   3.8700727604275634E-004   5.4225111122908121E-002   1565780970.0566928     
  -2.7047960940593252E-004   5.9694373986021274E-002   1582704555.4789784     
   961999681.61192310        97082353.194852293        1458498134.7425499     
   881933623.91093349        107921072.70479465        1408116633.3291481     
   806388114.91501439        133828287.89830637        1362145060.8688622     
   735363154.62416124        174803998.77536830        1320583417.3616874     
   668858743.03838086        230848205.33600616        1283431702.8076315     
   719901802.85021329        72332377.403466910        1493588543.4764249     
   652135004.26397765        78146240.444224432        1449094972.2693152     
   587758617.20653808        95261475.247639149        1410812022.9210229     
   526772641.67789161        123678081.81369632        1378739695.4315412     
   469177077.67804623        163396060.14241964        1352877989.8008833     
   478869229.66094398        47901993.283810318        1525986416.5104527     
   428546527.06289208        50234450.917412013        1486062282.1373231     
   380484098.81736350        60101156.392761581        1454149462.5287020     
   334681944.92435527        77502109.709842429        1430247957.6846020     
   291140065.38387591        102437310.86868905        1414357767.6050174     
   238901962.04411635        23791200.835887887        1555691753.8446379     
   211168192.30767873        24185704.124362931        1519018562.9331632     
   184564559.74749172        28347331.333671920        1492157379.6919034     
   159091064.36355418        36276082.463813409        1475108204.1208630     
   134747706.15587172        47971957.514804967        1467871036.2200346     
  -2.7047960940593252E-004   5.9694373986021274E-002   1582704555.4789784     
  -1.6602561816190520E-003   6.5079466541048403E-002   1547963814.6568415     
  -3.0740520019610813E-003   7.0386576603817003E-002   1524835774.4106205     
  -4.5158931539279155E-003   7.5598467504360292E-002   1513320434.7403159     
  -5.9699498092288805E-003   8.0769640060456477E-002   1513417795.6459327     
   3.9138792939198037E-003   1.1741637881759412E-003   656268059.31207252     
   4.0291144962525489E-003   4.7494631853757529E-004   770693743.39597011     
   4.2074202409637888E-003  -1.3732433230843801E-005   885254759.09740615     
   4.4489352106171264E-003  -2.9203902917735326E-004   999951106.41638041     
   4.7536665537983120E-003  -3.5945090768343371E-004   1114782785.3528929     
  -448366705.48748219       -134510011.64624467        657748977.80584085     
  -447654701.94797230       -125481556.27250493        773868156.59463382     
  -446208141.39079565       -114004577.50654286        888316209.09439874     
  -444027023.81595236       -100079075.34835878        1001093135.3051354     
  -441111349.22344238       -83705049.797952265        1112198935.2268436     
  -890538462.22315645       -267161538.66694695        662191733.28778458     
  -894275763.44872689       -250653020.41011065        780861389.96867681     
  -896543950.63902760       -229247455.36904082        896053462.45397437     
  -897343023.79405808       -202944843.54373723        1007767950.7436777     
  -896672982.91381824       -171745184.93419972        1116004854.8377857     
  -1326515270.2031088       -397954581.06093264        669596325.75790322     
  -1339863184.4982352       -375514392.41234249        791673443.51809895     
  -1351007427.7404885       -345728633.58750731        908466519.17613339     
  -1359947999.9298680       -308597304.58642679        1019975552.7320070     
  -1366684901.0663738       -264120405.40910062        1126200544.1857195     
  -1756297129.4273391       -526889138.82820171        679962755.21619713     
  -1784416965.0964971       -500065672.27920049        806304317.24290001     
  -1809598572.6951785       -463448112.16194266        925555379.26087570     
  -1831841952.2233825       -417036458.47642785        1037715941.2701236     
  -1851147103.6811094       -360830711.22265589        1142786003.2706444     
   4.7536665537983120E-003  -3.5945090768343371E-004   1114782785.3528929     
   4.9108267818532090E-003  -3.0699458543047590E-004   1187921507.6157403     
   5.1131317586532513E-003  -1.0409913544726416E-004   1257950302.5333607     
   5.3608852990929276E-003   2.5013973836391116E-004   1324869170.1057556     
   5.6532388660433973E-003   7.5339231190626132E-004   1388678110.3329222     
  -441111349.22344238       -83705049.797952265        1112198935.2268436     
  -443038647.39038289       -68966785.016903386        1180449321.9322658     
  -445821075.50346547       -57078953.389661357        1246925960.9049175     
  -449458633.56269073       -48041554.916227713        1311628852.1447983     
  -453951321.56805813       -41854589.596602216        1374557995.6519077     
  -896672982.91381824       -171745184.93419972        1116004854.8377857     
  -896709923.21226776       -141123358.56147608        1178369254.3818982     
  -898457123.40304792       -116202398.49652025        1240296085.8056948     
  -901914583.48615742       -96982304.739330262        1301785349.1091766     
  -907082303.46159685       -83463077.289905995        1362837044.2923441     
  -1366684901.0663738       -264120405.40910062        1126200544.1857195     
  -1361013827.4607449       -216469720.63402808        1181681304.9646351     
  -1357908143.6936328       -177370335.32067904        1238060677.2356918     
  -1357367849.7650390       -146822249.46905619        1295338660.9988894     
  -1359392945.6749625       -124825463.07915837        1353515256.2542284     
  -1851147103.6811094       -360830711.22265589        1142786003.2706444     
  -1835950360.1358125       -295005871.23455518        1190385473.6804788     
  -1824174136.3752222       -240582763.86214131        1240219735.1949096     
  -1815818432.3993359       -197561389.10540813        1292288787.8139381     
  -1810883248.2081549       -165941746.96435857        1346592631.5375626     
   5.6532388660433973E-003   7.5339231190626132E-004   1388678110.3329222     
   5.7337033472752447E-003   1.3791337577445722E-003   1408797769.4525828     
   5.8919787547075551E-003   2.2640714852368285E-003   1431994302.0692246     
   6.1270757240721608E-003   3.4052545581843363E-003   1458267708.1828480     
   6.4394002950398134E-003   4.8036894974610679E-003   1487617987.7934544     
  -453951321.56805813       -41854589.596602216        1374557995.6519077     
  -444033213.37049425       -33120917.291203693        1394510370.0534337     
  -434431314.92465961       -25441277.491570041        1416999722.1164794     
  -425145626.23055625       -18815670.197707102        1442026051.8410442     
  -416176147.28818184       -13244095.409607366        1469589359.2271295     
  -907082303.46159685       -83463077.289905995        1362837044.2923441     
  -888788646.59644127       -66458500.538703263        1382253222.5986266     
  -871127409.23482275       -51561988.799290240        1403666482.7309670     
  -854098591.37674105       -38773542.071668297        1427076824.6893644     
  -837702193.02219701       -28093160.355837017        1452484248.4738200     
  -1359392945.6749625       -124825463.07915837        1353515256.2542284     
  -1334266299.6721063       -100012749.74111772        1372026327.0881593     
  -1310088282.9245949       -78362133.920890987        1391994583.9126861     
  -1286858895.4324288       -59873615.618481159        1413420026.7278087     
  -1264578137.1956062       -44547194.833885550        1436302655.5335267     
  -1810883248.2081549       -165941746.96435857        1346592631.5375626     
  -1780466172.5974913       -133783664.89844787        1363829683.5220339     
  -1751313935.9939790       -105841712.85637766        1381984025.6616380     
  -1723426538.3976188       -82115890.838144660        1401055657.9563761     
  -1696803979.8084097       -62606198.843752325        1421044580.4062467     
   6.4394002950398134E-003   4.8036894974610679E-003   1487617987.7934544     
   6.0980524659163954E-003   6.2929286324022822E-003   1495461923.1024089     
   5.8653402647588738E-003   8.1442865272298194E-003   1506542240.8238654     
   5.7427906294840163E-003   1.0363373392042361E-002   1520858940.9578228     
   5.7292540675027946E-003   1.2944796333748109E-002   1538412023.5042801     
  -416176147.28818184       -13244095.409607366        1469589359.2271295     
  -405741248.69988692       -8713125.6153158695        1475430202.1134503     
  -395966116.76926154       -6381378.0132546276        1485015899.2417271     
  -386850751.49630082       -6248852.6034097075        1498346450.6119621     
  -378395152.88100755       -8315549.3857905418        1515421856.2241528     
  -837702193.02219701       -28093160.355837017        1452484248.4738200     
  -815379619.18967783       -18595387.772069186        1455552271.1701000     
  -794376578.67260075       -13496059.573110461        1462873619.9377930     
  -774693071.47096884       -12795175.758967578        1474448294.7768986     
  -756329097.58477998       -16492736.329635739        1490276295.6874201     
  -1264578137.1956062       -44547194.833885550        1436302655.5335267     
  -1228915111.4632726       -29646786.463963926        1435828130.2723579     
  -1195231385.7041569       -21344044.671436429        1440115402.9120605     
  -1163526959.9182632       -19638969.456316233        1449164473.4526329     
  -1133801834.1055882       -24531560.818590462        1462975341.8940737     
  -1696803979.8084097       -62606198.843752325        1421044580.4062467     
  -1646347725.5206707       -41867321.690995574        1416257779.4202256     
  -1598530537.8639266       -29925333.308223546        1416741248.1645315     
  -1553352416.8381815       -26780233.695447206        1422494986.6391630     
  -1510813362.4434328       -32432022.852659345        1433518994.8441205     
   5.7292540675027946E-003   1.2944796333748109E-002   1538412023.5042801     
   5.3576191102625405E-003   1.5666039893907122E-002   1530196871.8739576     
   5.0369735854788019E-003   1.8556207394835593E-002   1527140384.8137236     
   4.7684383913975921E-003   2.1619902525758232E-002   1529242562.3235824     
   4.5502978674382757E-003   2.4852967669201292E-002   1536503404.4035304     
  -378395152.88100755       -8315549.3857905418        1515421856.2241528     
  -365735230.54992819       -9872472.7540701479        1507354125.0953372     
  -352911051.69346720       -10881874.371078923        1504225421.1985466     
  -339922616.31162667       -11343754.236820817        1506035744.5337813     
  -326769924.40440851       -11258112.351306438        1512785095.1010423     
  -756329097.58477998       -16492736.329635739        1490276295.6874201     
  -731636788.17386341       -19794843.644399524        1482547617.6729922     
  -706615965.71223652       -22001907.456795484        1479538329.5525265     
  -681266630.19990218       -23113927.766834080        1481248431.3260217     
  -655588781.63685763       -23130904.574502915        1487677922.9934781     
  -1133801834.1055882       -24531560.818590462        1462975341.8940737     
  -1097704672.8664484       -29767112.655320406        1455777349.6069221     
  -1061114742.0512719       -33360099.238594234        1453079109.8756657     
  -1024032041.6600561       -35310520.568403363        1454880622.7003045     
  -986456571.69280362       -35618376.644758463        1461181888.0808413     
  -1510813362.4434328       -32432022.852659345        1433518994.8441205     
  -1463938884.6276865       -39789279.786845684        1427043320.8971269     
  -1416407380.7105694       -44956449.716464996        1424847762.1679626     
  -1368218850.6920886       -47933532.641539454        1426932318.6566298     
  -1319373294.5722399       -48720528.562051117        1433296990.3631258     
   4.5502978674382757E-003   2.4852967669201292E-002   1536503404.4035304     
   4.0405407957195870E-003   2.8220557758772059E-002   1531943359.2973201     
   3.6163837492374524E-003   3.1872787376407606E-002   1531495900.1281979     
   3.2853756345466688E-003   3.5835860378042858E-002   1535161026.8961554     
   3.0409740659664113E-003   4.0087621866713198E-002   1542938739.6011949     
  -326769924.40440851       -11258112.351306438        1512785095.1010423     
  -316028562.83551288       -11747560.661316767        1507544330.8667135     
  -305353671.70016146       -12458577.083141863        1506566516.1287022     
  -294745250.99835330       -13391161.616776168        1509851650.8870087     
  -284203300.73008782       -14545314.262220159        1517399735.1416297     
  -655588781.63685763       -23130904.574502915        1487677922.9934781     
  -633676448.32932043       -23980918.147130370        1481678890.7917945     
  -611897055.88895738       -25274067.943671495        1480093171.6456592     
  -590250604.31576562       -27010353.964116842        1482920765.5550773     
  -568737093.60974789       -29189776.208477408        1490161672.5200448     
  -986456571.69280362       -35618376.644758463        1461181888.0808413     
  -952943656.47737980       -36700072.429212749        1454347039.0725644     
  -919630152.56276548       -38446472.549699992        1452075866.6790705     
  -886516059.94895279       -40857577.006191701        1454368370.9003615     
  -853601378.63594651       -43933385.798706114        1461224551.7364383     
  -1319373294.5722399       -48720528.562051117        1433296990.3631258     
  -1273830187.2796974       -49905023.507586002        1425548775.7090204     
  -1228552961.7215889       -51975790.901233912        1422514601.2289333     
  -1183541617.8979168       -54932830.743004799        1424194466.9228625     
  -1138796155.8086779       -58776143.032884717        1430588372.7908092     
   3.0409740659664113E-003   4.0087621866713198E-002   1542938739.6011949     
   2.0426426118312930E-003   4.4421083112233438E-002   1545898062.1178010     
   1.1593290430220379E-003   4.9137937308839898E-002   1553512138.9362998     
   3.8700727604275634E-004   5.4225111122908121E-002   1565780970.0566928     
  -2.7047960940593252E-004   5.9694373986021274E-002   1582704555.4789784     
  -284203300.73008782       -14545314.262220159        1517399735.1416297     
  -272558633.99323785       -15792345.657569200        1520087052.6274793     
  -261126855.30009976       -17749003.865288913        1527364828.2404737     
  -249907964.65065992       -20415288.885336079        1539233061.9806166     
  -238901962.04493326       -23791200.717762649        1555691753.8479064     
  -568737093.60974789       -29189776.208477408        1490161672.5200448     
  -545631463.49147832       -31738950.010459155        1492328615.5906813     
  -522951609.46072859       -35707377.437509581        1499021720.6137171     
  -500697531.51750797       -41095058.489657491        1510240987.5891538     
  -478869229.66180921       -47901993.166875303        1525986416.5169902     
  -853601378.63594651       -43933385.798706114        1461224551.7364383     
  -819218488.49266946       -47839813.014225125        1462622751.0074069     
  -785474262.48073733       -53875120.667559505        1468482816.0560298     
  -752368700.60014701       -62039308.758699566        1478804746.8823030     
  -719901802.85090208       -72332377.287660539        1493588543.4862325     
  -1138796155.8086779       -58776143.032884717        1430588372.7908092     
  -1093319708.9968202       -64094934.668887258        1430969458.8776577     
  -1048694814.3601176       -72252233.555408269        1435748114.5674086     
  -1004921471.8985844       -83248039.692494690        1444924339.8600655     
  -961999681.61220729       -97082353.080099463        1458498134.7556305     
  -2.7047960940593252E-004   5.9694373986021274E-002   1582704555.4789784     
  -1.6602561816190520E-003   6.5079466541048403E-002   1547963814.6568415     
  -3.0740520019610813E-003   7.0386576603817003E-002   1524835774.4106205     
  -4.5158931539279155E-003   7.5598467504360292E-002   1513320434.7403159     
  -5.9699498092288805E-003   8.0769640060456477E-002   1513417795.6459327     
  -238901962.04493326       -23791200.717762649        1555691753.8479064     
  -211168192.31124005       -24185703.995360374        1519018562.9364939     
  -184564559.75378132       -28347331.193737675        1492157379.6953011     
  -159091064.37255219       -36276082.312883712        1475108204.1243227     
  -134747706.16755703       -47971957.352806270        1467871036.2235796     
  -478869229.66180921       -47901993.166875303        1525986416.5169902     
  -428546527.06645602       -50234450.789482728        1486062282.1440616     
  -380484098.82354742       -60101156.253572494        1454149462.5356548     
  -334681944.93307889       -77502109.559124574        1430247957.6917725     
  -291140065.39505196       -102437310.70615456        1414357767.6124051     
  -719901802.85090208       -72332377.287660539        1493588543.4862325     
  -652135004.26730895       -78146240.317293689        1449094972.2795393     
  -587758617.21237445       -95261475.109122485        1410812022.9316721     
  -526772641.68608904       -123678081.66311137        1378739695.4426293     
  -469177077.68845439       -163396059.97927842        1352877989.8124056     
  -961999681.61220729       -97082353.080099463        1458498134.7556305     
  -881933623.91380084       -107921072.57879966        1408116633.3429332     
  -806388114.92026436       -133828287.76039717        1362145060.8833613     
  -735363154.63158250       -174803998.62484291        1320583417.3769128     
  -668858743.04776335       -230848205.17216754        1283431702.8235931     
  -1756297129.4273391       -526889138.82820171        679962755.21619713     
  -1784416965.0964971       -500065672.27920049        806304317.24290001     
  -1809598572.6951785       -463448112.16194266        925555379.26087570     
  -1831841952.2233825       -417036458.47642785        1037715941.2701236     
  -1851147103.6811094       -360830711.22265589        1142786003.2706444     
  -2202079060.4290957       -660623718.12872863        696397548.66402411     
  -2238746446.1811972       -613868416.13277400        813779370.05437720     
  -2273371394.7009392       -560304990.02895856        927076998.59420455     
  -2305953905.9883246       -499933439.81728339        1036290434.2835060     
  -2336493980.0433507       -432753765.49774700        1141419677.1222823     
  -2686056083.7416272       -805816825.12248814        722007233.10274231     
  -2722681570.5532384       -736552852.97254980        829384224.54560673     
  -2758160410.9706092       -663466726.17514741        935683330.29614699     
  -2792492604.9937415       -586558444.73028135        1040904550.3543632     
  -2825678152.6226354       -505828008.63795173        1145047884.7202556     
  -3208228199.3649330       -962468459.80947995        756791808.53235161     
  -3236222338.2126212       -868118982.79852819        853118880.71658850     
  -3263965621.5041866       -772933320.60050857        951374374.36670339     
  -3291458049.2396340       -676911473.21542192        1051558289.4826955     
  -3318699621.4189601       -580053440.64326835        1153670626.0645652     
  -3768595407.2990141       -1130578622.1897042        800751274.95285201     
  -3779368749.1593447       -1008566805.6107088        884983338.56732273     
  -3790787026.3016734       -888704773.30504251        974150130.80587292     
  -3802850238.7260013       -770992525.27270508        1068251651.6685023     
  -3815558386.4323282       -655430061.51369786        1167287901.1552105     
  -1851147103.6811094       -360830711.22265589        1142786003.2706444     
  -1835950360.1358125       -295005871.23455518        1190385473.6804788     
  -1824174136.3752222       -240582763.86214131        1240219735.1949096     
  -1815818432.3993359       -197561389.10540813        1292288787.8139381     
  -1810883248.2081549       -165941746.96435857        1346592631.5375626     
  -2336493980.0433507       -432753765.49774700        1141419677.1222823     
  -2313210463.4021368       -351648218.07553065        1182747407.3478165     
  -2293433914.1731873       -282232562.02752966        1224534624.0577409     
  -2277164332.3565011       -224506797.35374385        1266781327.2520561     
  -2264401717.9520798       -178470924.05417335        1309487516.9307616     
  -2825678152.6226354       -505828008.63795173        1145047884.7202556     
  -2799380161.8003769       -410963443.45608050        1180003019.1960034     
  -2776675586.0179434       -328076928.40695655        1213642335.5359356     
  -2757564425.2753344       -257168463.49058056        1245965833.7400515     
  -2742046679.5725474       -198238048.70695043        1276973513.8083522     
  -3318699621.4189601       -580053440.64326835        1153670626.0645652     
  -3294459455.3305345       -472951547.37620580        1182152309.2250407     
  -3273899151.9094920       -378115863.00042057        1207542869.6294942     
  -3257018711.1558332       -295546387.51591563        1229842307.2779250     
  -3243818133.0695586       -225243120.92269158        1249050622.1703336     
  -3815558386.4323282       -655430061.51369786        1167287901.1552105     
  -3798448343.9926100       -537612529.83590651        1189195277.4349275     
  -3785104611.8478332       -432349365.80792344        1206236226.3384161     
  -3775527189.9980021       -339640569.42975426        1218410747.8656750     
  -3769716078.4431119       -259486140.70139325        1225718842.0167069     
  -1810883248.2081549       -165941746.96435857        1346592631.5375626     
  -1780466172.5974913       -133783664.89844787        1363829683.5220339     
  -1751313935.9939790       -105841712.85637766        1381984025.6616380     
  -1723426538.3976188       -82115890.838144660        1401055657.9563761     
  -1696803979.8084097       -62606198.843752325        1421044580.4062467     
  -2264401717.9520798       -178470924.05417335        1309487516.9307616     
  -2224883605.4915419       -134160471.70749390        1317018320.7611320     
  -2188288462.1262517       -99593249.678303003        1327828238.8714790     
  -2154616287.8562059       -74769257.966599703        1341917271.2618036     
  -2123867082.6814094       -59688496.572389722        1359285417.9321043     
  -2742046679.5725474       -198238048.70695043        1276973513.8083522     
  -2686679461.3340116       -139750805.40106416        1272863584.3818445     
  -2635893342.2788177       -96533892.706317186        1274394593.3601573     
  -2589688322.4069633       -68587310.622706890        1281566540.7432902     
  -2548064401.7184525       -55911059.150236130        1294379426.5312443     
  -3243818133.0695586       -225243120.92269158        1249050622.1703336     
  -3165853740.1249003       -150554665.97916174        1231365474.3841710     
  -3094128576.4516773       -96663641.940419793        1221683089.1276715     
  -3028642642.0498905       -63570048.806462526        1220003466.4008367     
  -2969395936.9195423       -51273886.577299476        1226326606.2036657     
  -3769716078.4431119       -259486140.70139325        1225718842.0167069     
  -3662406441.8642063       -166572053.44178355        1192523990.7681108     
  -3562994164.6448317       -99982497.380610824        1169693726.1740222     
  -3471479246.7849860       -59717472.517870665        1157228048.2344420     
  -3387861688.2846746       -45776978.853572011        1155126956.9493690     
  -1696803979.8084097       -62606198.843752325        1421044580.4062467     
  -1646347725.5206707       -41867321.690995574        1416257779.4202256     
  -1598530537.8639266       -29925333.308223546        1416741248.1645315     
  -1553352416.8381815       -26780233.695447206        1422494986.6391630     
  -1510813362.4434328       -32432022.852659345        1433518994.8441205     
  -2123867082.6814094       -59688496.572389722        1359285417.9321043     
  -2061308521.2941692       -42480996.177358389        1352606847.5845008     
  -2000716705.8861313       -31829315.713001609        1350782407.6041238     
  -1942091636.4572997       -27733455.179324865        1353812097.9909728     
  -1885433313.0076654       -30193414.576317787        1361695918.7450480     
  -2548064401.7184525       -55911059.150236130        1294379426.5312443     
  -2474592502.8405714       -42591626.395593762        1286593460.9158187     
  -2402415029.2900982       -33586944.732308030        1283245486.3045192     
  -2331531981.0670333       -28897014.160383821        1284335502.6973450     
  -2261943358.1713772       -28521834.679821491        1289863510.0942981     
  -2969395936.9195423       -51273886.577299476        1226326606.2036657     
  -2886199670.1598763       -42199212.345698476        1218217619.4141777     
  -2803625508.0758243       -35198220.366139770        1214130484.2657166     
  -2721673450.6673884       -30270910.638634324        1214065200.7582810     
  -2640343497.9345627       -27417283.163164973        1218021768.8918707     
  -3387861688.2846746       -45776978.853572011        1155126956.9493690     
  -3296130023.2520847       -41303754.027676225        1147479323.0795803     
  -3204348142.2433119       -36663142.614503741        1143437401.4877164     
  -3112516045.2583580       -31855144.614061952        1143001192.1737797     
  -3020633732.2972250       -26879760.026354790        1146170695.1377671     
  -1510813362.4434328       -32432022.852659345        1433518994.8441205     
  -1463938884.6276865       -39789279.786845684        1427043320.8971269     
  -1416407380.7105694       -44956449.716464996        1424847762.1679626     
  -1368218850.6920886       -47933532.641539454        1426932318.6566298     
  -1319373294.5722399       -48720528.562051117        1433296990.3631258     
  -1885433313.0076654       -30193414.576317787        1361695918.7450480     
  -1826210268.0415618       -34316140.705707908        1355249908.9231431     
  -1766624114.3626258       -37228504.458987474        1353276251.5056539     
  -1706674851.9708629       -38930505.836178064        1355774946.4925804     
  -1646362480.8662698       -39422144.837268829        1362745993.8839183     
  -2261943358.1713772       -28521834.679821491        1289863510.0942981     
  -2189822496.9503889       -29245255.273048878        1283104260.7775240     
  -2117632444.4051082       -29738038.118640780        1281009601.0517480     
  -2045373200.5355344       -30000183.216582417        1283579530.9169703     
  -1973044765.3416679       -30031690.566886902        1290814050.3731894     
  -2640343497.9345627       -27417283.163164973        1218021768.8918707     
  -2554775571.3541670       -24576623.488881826        1210606376.4602668     
  -2469432370.8380160       -22485050.695415378        1208047810.8062451     
  -2384313896.3861074       -21142564.782757163        1210346071.9298055     
  -2299420147.9984474       -20549165.750926137        1217501159.8309484     
  -3020633732.2972250       -26879760.026354790        1146170695.1377671     
  -2921069491.2528939       -20310245.353193521        1137756255.9713724     
  -2822023893.6613503       -15469542.189324975        1134390880.7691455     
  -2723496939.5225806       -12357650.534704804        1136074569.5310807     
  -2625488628.8365974       -10974570.389369845        1142807322.2571859     
  -1319373294.5722399       -48720528.562051117        1433296990.3631258     
  -1273830187.2796974       -49905023.507586002        1425548775.7090204     
  -1228552961.7215889       -51975790.901233912        1422514601.2289333     
  -1183541617.8979168       -54932830.743004799        1424194466.9228625     
  -1138796155.8086779       -58776143.032884717        1430588372.7908092     
  -1646362480.8662698       -39422144.837268829        1362745993.8839183     
  -1588647718.2667930       -40385627.278113365        1354798393.8547270     
  -1531093357.2734861       -41883781.739520192        1351448562.5403855     
  -1473699397.8863451       -43916608.221479475        1352696499.9408927     
  -1416465840.1053686       -46484106.723994613        1358542206.0562460     
  -1973044765.3416679       -30031690.566886902        1290814050.3731894     
  -1903490551.6043203       -30873821.753780365        1282790125.1185644     
  -1833991259.3448694       -31899024.533658504        1279247697.1196187     
  -1764546888.5633121       -33107298.906518817        1280186766.3763525     
  -1695157439.2596550       -34498644.872379839        1285607332.8887639     
  -2299420147.9984474       -20549165.750926137        1217501159.8309484     
  -2218358687.2922802       -21369606.934573531        1209523969.5005314     
  -2137246667.9357388       -22021519.283638000        1205912004.9666295     
  -2056084089.9288244       -22504902.798130155        1206665266.2292364     
  -1974870953.2715368       -22819757.478040338        1211783753.2883513     
  -2625488628.8365974       -10974570.389369845        1142807322.2571859     
  -2533252125.3306684       -11872982.820492148        1134999927.0006311     
  -2440859583.0460939       -12251265.989467144        1131441486.0814197     
  -2348311001.9828739       -12109419.896294713        1132131999.4995499     
  -2255606382.1410146       -11447444.540986538        1137071467.2550173     
  -1138796155.8086779       -58776143.032884717        1430588372.7908092     
  -1093319708.9968202       -64094934.668887258        1430969458.8776577     
  -1048694814.3601176       -72252233.555408269        1435748114.5674086     
  -1004921471.8985844       -83248039.692494690        1444924339.8600655     
  -961999681.61220729       -97082353.080099463        1458498134.7556305     
  -1416465840.1053686       -46484106.723994613        1358542206.0562460     
  -1359071795.5505536       -50474593.326174557        1357629485.8290081     
  -1302487327.9380271       -57163669.735978127        1361180046.9471819     
  -1246712437.2677817       -66551335.953392386        1369193889.4107637     
  -1191747123.5398262       -78637591.978436887        1381671013.2197545     
  -1695157439.2596550       -34498644.872379839        1285607332.8887639     
  -1625658049.1261611       -37104502.090033293        1283449777.4524610     
  -1556926260.7020776       -42269031.672376573        1285821215.1040754     
  -1488962073.9874055       -49992233.619427979        1292721645.8436000     
  -1421765488.9821396       -60274107.931171060        1304151069.6710393     
  -1974870953.2715368       -22819757.478040338        1211783753.2883513     
  -1893078469.7236419       -23984660.960449457        1208430333.7480123     
  -1812011612.6522784       -27568319.364628553        1209671619.0380902     
  -1731670382.0574484       -33570732.690587580        1215507609.1585834     
  -1652054777.9391484       -41991900.938313067        1225938304.1094975     
  -2255606382.1410146       -11447444.540986538        1137071467.2550173     
  -2161333057.3429923       -11115069.937428117        1132571154.7156613     
  -2067743383.7886231       -13061532.812718868        1132731258.7492237     
  -1974837361.4779115       -17286833.166871309        1137551779.3557079     
  -1882614990.4108579       -23790970.999875069        1147032716.5351129     
  -961999681.61220729       -97082353.080099463        1458498134.7556305     
  -881933623.91380084       -107921072.57879966        1408116633.3429332     
  -806388114.92026436       -133828287.76039717        1362145060.8833613     
  -735363154.63158250       -174803998.62484291        1320583417.3769128     
  -668858743.04776335       -230848205.17216754        1283431702.8235931     
  -1191747123.5398262       -78637591.978436887        1381671013.2197545     
  -1095657070.8725317       -81002823.299134433        1328799084.3794727     
  -1000482538.1711689       -86419787.839603513        1281887956.2133663     
  -906223525.43573892       -94888485.599841744        1240937628.7214315     
  -812880032.66623664       -106408916.57985741        1205948101.9036713     
  -1421765488.9821396       -60274107.931171060        1304151069.6710393     
  -1305220379.2858188       -52836532.455814362        1252994580.2652602     
  -1185985760.8165011       -36433927.737135291        1209349763.2547028     
  -1064061633.5741807       -11066293.775122881        1173216618.6393654     
  -939447997.55886972        23266369.430211484        1144595146.4192498     
  -1652054777.9391484       -41991900.938313067        1225938304.1094975     
  -1510623549.1536689       -23422200.048874080        1180703121.0003035     
  -1362897782.8562565        16129292.547001302        1144530482.0073824     
  -1208877479.0469146        76662576.849303365        1117420387.1307268     
  -1048562637.7256484        158177652.85803002        1099372836.3703406     
  -1882614990.4108579       -23790970.999875069        1147032716.5351129     
  -1711866580.4760792        7240173.9217014313        1111924706.5845935     
  -1531218604.2904394        71269873.012805343        1087430112.4713933     
  -1340671061.8539388        168298126.27345133        1073548934.1955017     
  -1140223953.1665862        298324933.70360750        1070281171.7569337     
  -3768595407.2990141       -1130578622.1897042        800751274.95285201     
  -3779368749.1593447       -1008566805.6107088        884983338.56732273     
  -3790787026.3016734       -888704773.30504251        974150130.80587292     
  -3802850238.7260013       -770992525.27270508        1068251651.6685023     
  -3815558386.4323282       -655430061.51369786        1167287901.1552105     
  -4340004950.0942688       -1302001485.0282807        859008821.39899707     
  -4335400259.1689787       -1125651724.2343962        942540796.85479665     
  -4331948700.3462343       -953145737.11567140        1020427774.0874056     
  -4329650273.6260386       -784483523.67210662        1092669753.0968242     
  -4328504979.0083904       -619665083.90370178        1159266733.8830521     
  -4895304070.3010988       -1468591221.0903296        936687636.90554047     
  -4905549137.5823832       -1246971853.3792150        1018926627.9120280     
  -4917455533.7867651       -1030890248.7450914        1084940893.8480551     
  -4931023258.9142466       -820346407.18795919        1134730434.7136219     
  -4946252312.9648237       -615340328.70781779        1168295250.5087287     
  -5434492767.9195004       -1630347830.3758502        1033787721.4724823     
  -5489815384.3995628       -1372527193.0451660        1114140831.7390168     
  -5547307526.6232700       -1121938308.1933036        1167689490.0878212     
  -5606969194.5906258       -878581175.82026303        1194433696.5188961     
  -5668800388.3016272       -642455795.92604399        1194373451.0322404     
  -5957571042.9494772       -1787271312.8848431        1150309075.0998225     
  -6088198999.6205139       -1502317743.2322490        1228183408.3357635     
  -6221504678.8557472       -1226289915.4603076        1268673562.8067045     
  -6357488080.6551781       -959187829.56901920        1271779538.5126460     
  -6496149205.0188017       -701011485.55838299        1237501335.4535878     
  -3815558386.4323282       -655430061.51369786        1167287901.1552105     
  -3798448343.9926100       -537612529.83590651        1189195277.4349275     
  -3785104611.8478332       -432349365.80792344        1206236226.3384161     
  -3775527189.9980021       -339640569.42975426        1218410747.8656750     
  -3769716078.4431119       -259486140.70139325        1225718842.0167069     
  -4328504979.0083904       -619665083.90370178        1159266733.8830521     
  -4298419754.6357965       -463967409.10867929        1141608383.7633188     
  -4278919471.0616684       -343552870.30853438        1130055798.7103562     
  -4270004128.2860012       -258421467.50326538        1124608978.7241642     
  -4271673726.3087969       -208573200.69287014        1125267923.8047433     
  -4946252312.9648237       -615340328.70781779        1168295250.5087287     
  -4871842785.3936443       -412357774.41585279        1103116105.0687723     
  -4814836829.1244488       -267387124.46382833        1055014917.1385863     
  -4775234444.1572342       -180428378.85174584        1023991686.7181705     
  -4753035630.4920025       -151481537.57960391        1010046413.8075249     
  -5668800388.3016272       -642455795.92604399        1194373451.0322404     
  -5518717436.2661495       -382783625.75742292        1073718441.3512888     
  -5392856686.0361738       -203852128.27380872        981113581.62310660     
  -5291218137.6116991       -105661303.47519755        916558871.84769380     
  -5213801790.9927263       -88211151.361591816        880054312.02505124     
  -6496149205.0188017       -701011485.55838299        1237501335.4535878     
  -6239043707.2533131       -375244963.13338995        1053415392.6108676     
  -6012979041.7968454       -152947881.73846984        908351792.16391659     
  -5817955208.6493988       -34120241.373618126        802310534.11273456     
  -5653972207.8109732       -18762042.038838387        735291618.45732093     
  -3769716078.4431119       -259486140.70139325        1225718842.0167069     
  -3662406441.8642063       -166572053.44178355        1192523990.7681108     
  -3562994164.6448317       -99982497.380610824        1169693726.1740222     
  -3471479246.7849860       -59717472.517870665        1157228048.2344420     
  -3387861688.2846746       -45776978.853572011        1155126956.9493690     
  -4271673726.3087969       -208573200.69287014        1125267923.8047433     
  -4148659433.0780439       -144092864.47593212        1091046938.1818578     
  -4030075428.4792814       -94380157.032289028        1065103505.8772699     
  -3915921712.5125089       -59435078.361943245        1047437626.8909802     
  -3806198285.1777215       -39257628.464894295        1038049301.2229886     
  -4753035630.4920025       -151481537.57960391        1010046413.8075249     
  -4620279632.9985733       -117223838.12208724        978844209.65914702     
  -4488486853.4095917       -86176865.012725353        953832525.49285936     
  -4357657291.7250586       -58340618.251522064        935011361.30865920     
  -4227790947.9449677       -33715097.838473797        922380717.10654891     
  -5213801790.9927263       -88211151.361591816        880054312.02505124     
  -5077267041.6257915       -85964974.380247831        855915805.19998145     
  -4938228439.4357605       -75372621.321921587        835880785.02079248     
  -4796685984.4226341       -56434092.186606169        819949251.48748064     
  -4652639676.5864134       -29149386.974313259        808121204.60005200     
  -5653972207.8109732       -18762042.038838387        735291618.45732093     
  -5519621658.9597006       -50316273.250419855        722261724.80435812     
  -5379300186.5577879       -61967425.959872246        711248284.46106827     
  -5233007790.6052399       -53715500.167204857        702251297.42744398     
  -5080744471.1020555       -25560495.872411966        695270763.70349443     
  -3387861688.2846746       -45776978.853572011        1155126956.9493690     
  -3296130023.2520847       -41303754.027676225        1147479323.0795803     
  -3204348142.2433119       -36663142.614503741        1143437401.4877164     
  -3112516045.2583580       -31855144.614061952        1143001192.1737797     
  -3020633732.2972250       -26879760.026354790        1146170695.1377671     
  -3806198285.1777215       -39257628.464894295        1038049301.2229886     
  -3702991099.5256839       -28900701.046924591        1028979482.7333934     
  -3600539768.0818233       -21063287.656224489        1023773497.9980479     
  -3498844290.8461413       -15745388.292784214        1022431347.0169533     
  -3397904667.8186436       -12947002.956618786        1024953029.7901075     
  -4227790947.9449677       -33715097.838473797        922380717.10654891     
  -4112370751.7411256       -17253220.848731518        910948298.78206027     
  -3998512479.9298186       -5997758.5007879734        903637835.68814588     
  -3886216132.5110564        51289.205351114273        900449327.82480752     
  -3775481709.4848328        893922.26968932152        901382775.19204104     
  -4652639676.5864134       -29149386.974313259        808121204.60005200     
  -4524268979.8984089       -6361313.4330897331        793385771.22558117     
  -4398266277.7873030        8533444.8517971039        783030414.55800903     
  -4274631570.2530990        15534887.880348444        777055134.59733760     
  -4153364857.2957983        14643015.652562618        775459931.34356475     
  -5080744471.1020555       -25560495.872411966        695270763.70349443     
  -4938685783.9975319        3775021.2000021935        676291900.06395411     
  -4799801161.6542692        22530322.401546717        661951234.60763955     
  -4664090604.0722713        30705407.732210398        652248767.33454740     
  -4531554111.2515335        28300277.192005157        647184498.24468100     
  -3020633732.2972250       -26879760.026354790        1146170695.1377671     
  -2921069491.2528939       -20310245.353193521        1137756255.9713724     
  -2822023893.6613503       -15469542.189324975        1134390880.7691455     
  -2723496939.5225806       -12357650.534704804        1136074569.5310807     
  -2625488628.8365974       -10974570.389369845        1142807322.2571859     
  -3397904667.8186436       -12947002.956618786        1024953029.7901075     
  -3285795779.6423216       -8420259.9155135155        1015957322.7502551     
  -3174000765.9433470       -4939765.1322258711        1012033689.1474720     
  -3062519626.7217155       -2505518.6067475080        1013182128.9817579     
  -2951352361.9774265       -1117520.3390847445        1019402642.2531135     
  -3775481709.4848328        893922.26968932152        901382775.19204104     
  -3650762432.8253679        3397616.0840849876        892044697.41673923     
  -3526152261.6678157        5537624.8921256065        887801702.55141068     
  -3401651196.0121641        7313948.6938192844        888653790.59605551     
  -3277259235.8584218        8726587.4891486168        894600961.55067170     
  -4153364857.2957983        14643015.652562618        775459931.34356475     
  -4015969450.8020391        15143382.645597458        766018379.97082698     
  -3878478380.8347483        15962627.883740664        761694920.98096359     
  -3740891647.3939252        17100751.366991997        762489554.37397707     
  -3603209250.4795704        18557753.095340490        768402280.14986885     
  -4531554111.2515335        28300277.192005157        647184498.24468100     
  -4381416833.5723286        26817039.769023657        637878370.41251457     
  -4230979123.4441504        26335243.842608452        633713344.43612695     
  -4080240980.8670030        26854889.412765980        634689420.31552207     
  -3929202405.8408890        28375976.479474545        640806598.05069590     
  -2625488628.8365974       -10974570.389369845        1142807322.2571859     
  -2533252125.3306684       -11872982.820492148        1134999927.0006311     
  -2440859583.0460939       -12251265.989467144        1131441486.0814197     
  -2348311001.9828739       -12109419.896294713        1132131999.4995499     
  -2255606382.1410146       -11447444.540986538        1137071467.2550173     
  -2951352361.9774265       -1117520.3390847445        1019402642.2531135     
  -2847995769.3611369       -1892812.5722186565        1011937257.2309906     
  -2744206679.5394077       -1226447.4539107084        1008748420.2184262     
  -2639985092.5122418        881575.01586711407        1009836131.2154183     
  -2535331008.2796454        4431254.8370757103        1015200390.2219676     
  -3277259235.8584218        8726587.4891486168        894600961.55067170     
  -3162703715.0682850        8098067.1730506420        887800121.59423590     
  -3047439238.6459250        9832732.2977017164        885303423.31957591     
  -2931465806.5913405        13930582.863099694        887110866.72669160     
  -2814783418.9045286        20391618.869256973        893222451.81557870     
  -3603209250.4795704        18557753.095340490        768402280.14986885     
  -3477375962.4521213        18099656.415314913        762588520.09037268     
  -3350557260.3656511        20926273.265346289        761106495.38487184     
  -3222753144.2201648        27037603.645429611        763956206.03335965     
  -3093963614.0156665        36433647.555566192        771137652.03584409     
  -3929202405.8408890        28375976.479474545        640806598.05069590     
  -3792012511.5126410        28111955.154569387        636302452.71939909     
  -3653560744.6985865        32054175.449023247        636157636.41431618     
  -3513847105.3987260        40202637.362827301        640372149.13543713     
  -3372871593.6130571        52557340.895995855        648945990.88276887     
  -2255606382.1410146       -11447444.540986538        1137071467.2550173     
  -2161333057.3429923       -11115069.937428117        1132571154.7156613     
  -2067743383.7886231       -13061532.812718868        1132731258.7492237     
  -1974837361.4779115       -17286833.166871309        1137551779.3557079     
  -1882614990.4108579       -23790970.999875069        1147032716.5351129     
  -2535331008.2796454        4431254.8370757103        1015200390.2219676     
  -2429440185.2127628        8224121.2000123262        1009503663.6490029     
  -2324066146.2360735        10294373.928974032        1007284482.6116121     
  -2219208891.3495841        10642013.023934126        1008542847.1097962     
  -2114868420.5532932        9267038.4849008322        1013278757.1435572     
  -2814783418.9045286        20391618.869256973        893222451.81557870     
  -2700654729.1040564        26631087.531000018        886523989.55470431     
  -2586875956.2403250        31704166.403612614        882120201.79206324     
  -2473447100.3133287        35610855.487110853        880011088.52765214     
  -2360368161.3230705        38351154.781472683        880196649.76146901     
  -3093963614.0156665        36433647.555566192        771137652.03584409     
  -2974976689.0168796        44105829.055523276        763632132.43276703     
  -2856172813.8013768        51167844.611211419        757238416.29057765     
  -2737551988.3691397        57619694.222668052        751956503.60927248     
  -2619114212.7201953        63461377.889827728        747786394.38885427     
  -3372871593.6130571        52557340.895995855        648945990.88276887     
  -3252406064.9512277        60648345.773592472        640828092.28319228     
  -3131956718.9192190        68685408.551787972        632639126.10715485     
  -3011523555.5170231        76668529.230603814        624379092.35465646     
  -2891106574.7446542        84597707.810002565        616047991.02569985     
  -1882614990.4108579       -23790970.999875069        1147032716.5351129     
  -1711866580.4760792        7240173.9217014313        1111924706.5845935     
  -1531218604.2904394        71269873.012805343        1087430112.4713933     
  -1340671061.8539388        168298126.27345133        1073548934.1955017     
  -1140223953.1665862        298324933.70360750        1070281171.7569337     
  -2114868420.5532932        9267038.4849008322        1013278757.1435572     
  -1919686451.1610274        44229964.522916436        981435587.04823387     
  -1717997290.4269691        100883528.36690605        956866712.74832726     
  -1509800938.3511326        179227730.01683772        939572134.24384391     
  -1295097394.9334919        279262569.47275519        929551851.53477025     
  -2360368161.3230705        38351154.781472683        880196649.76146901     
  -2150292975.4501677        74383759.042872310        847660548.79408884     
  -1937102973.1445479        120799084.74667573        819059623.58023238     
  -1720798154.4062119        177597131.89287019        794393874.11989224     
  -1501378519.2351460        244777900.48147172        773663300.41308510     
  -2619114212.7201953        63461377.889827728        747786394.38885427     
  -2403686153.3435044        97701557.481569886        710599591.82217216     
  -2188535652.4431624        131016542.15213299        674008844.96711493     
  -1973662710.0191734        163406331.90154219        638014153.82368362     
  -1759067326.0715315        194870926.72976565        602615518.39187193     
  -2891106574.7446542        84597707.810002565        616047991.02569985     
  -2679865984.8410282        114183359.83900821        570252716.13247180     
  -2472295328.3228159        131535900.58329499        521714376.90896690     
  -2268394605.1900277        136655330.04283381        470432973.35518503     
  -2068163815.4426584        129541648.21765041        416408505.47113645     
  -5957571042.9494772       -1787271312.8848431        1150309075.0998225     
  -6088198999.6205139       -1502317743.2322490        1228183408.3357635     
  -6221504678.8557472       -1226289915.4603076        1268673562.8067045     
  -6357488080.6551781       -959187829.56901920        1271779538.5126460     
  -6496149205.0188017       -701011485.55838299        1237501335.4535878     
  -6810069588.2906990       -2043020876.4872098        1353947631.1691587     
  -6828197757.8411493       -1395559821.8701921        1202922733.8181126     
  -6897634378.0743198       -919126936.19557714        1092164739.5638051     
  -7018379448.9902115       -613722219.46336484        1021673648.4062365     
  -7190432970.5888214       -479345671.67355466        991449460.34540677     
  -8337519096.8428411       -2501255729.0528522        1712399323.0620887     
  -8021287245.3820219       -1424729119.3042066        1275739345.6524429     
  -7804994572.7224474       -681333105.55971313        956997353.20127428     
  -7688641078.8641186       -271067687.81937265        756173345.70858324     
  -7672226763.8070364       -193932866.08318567        673267323.17436945     
  -10539919568.605904       -3161975870.5817714        2225664150.7786126     
  -9667467462.2431297       -1589825635.5342913        1446633243.8387544     
  -8943585262.8001328       -512908423.55271578        863171403.71911204     
  -8368272970.2769012        68775765.362955570        475278630.41968554     
  -7941530584.6734438        155226931.21272755        282954923.94047552     
  -13417271003.579884       -4025181301.0739646        2893742114.3187299     
  -11766738408.424479       -1890849370.5604489        1715604428.3770471     
  -10313406448.307371       -413852890.17458677        810686891.11731839     
  -9057275123.2285576        405808140.08362436        178989502.53954548     
  -7998344433.1880426        568133720.21417952       -179487737.35627499     
  -6496149205.0188017       -701011485.55838299        1237501335.4535878     
  -6239043707.2533131       -375244963.13338995        1053415392.6108676     
  -6012979041.7968454       -152947881.73846984        908351792.16391659     
  -5817955208.6493988       -34120241.373618126        802310534.11273456     
  -5653972207.8109732       -18762042.038838387        735291618.45732093     
  -7190432970.5888214       -479345671.67355466        991449460.34540677     
  -6900259123.4582958       -303752848.09263039        847100259.81110609     
  -6623030848.6083174       -171311932.11353493        723821377.66431129     
  -6358748146.0388870       -82022923.736272573        621612813.90502310     
  -6107411015.7500086       -35885822.960840225        540474568.53324294     
  -7672226763.8070364       -193932866.08318567        673267323.17436945     
  -7400276064.4779348       -183901190.49626732        589766001.64836991     
  -7123175677.4009085       -156703889.08293867        509382974.50161678     
  -6840925602.5759592       -112340961.84319973        432118241.73410785     
  -6553525840.0030890       -50812408.777053356        357971803.34584397     
  -7941530584.6734438        155226931.21272755        282954923.94047552     
  -7739094530.3122282       -15689990.344297409        281412618.12266290     
  -7513413528.1746187       -109123752.64667368        265036582.67583516     
  -7264487578.2606134       -125074355.69440413        233826817.59998751     
  -6992316680.5702152       -63541799.487482071        187783322.89512357     
  -7998344433.1880426        568133720.21417952       -179487737.35627499     
  -7916714520.9611788        200880752.36326933       -77959890.766016543     
  -7793744400.9294453       -28571522.804745674       -9217797.8130370546     
  -7629434073.0928507       -120223105.28988075        26738541.502661645     
  -7423783537.4513874       -74073995.092124939        29909127.181082089     
  -5653972207.8109732       -18762042.038838387        735291618.45732093     
  -5519621658.9597006       -50316273.250419855        722261724.80435812     
  -5379300186.5577879       -61967425.959872246        711248284.46106827     
  -5233007790.6052399       -53715500.167204857        702251297.42744398     
  -5080744471.1020555       -25560495.872411966        695270763.70349443     
  -6107411015.7500086       -35885822.960840225        540474568.53324294     
  -5958140429.0482216       -37711658.900412083        534664140.59428406     
  -5807359197.7398710       -34502012.818106174        531453812.62943244     
  -5655067321.8249578       -26256884.713921309        530843584.63869023     
  -5501264801.3034754       -12976274.587850571        532833456.62205380     
  -6553525840.0030890       -50812408.777053356        357971803.34584397     
  -6387667653.5523987       -22409580.875104427        354177182.35280293     
  -6224759101.4392128       -3838867.4315166473        353566307.99830580     
  -6064800183.6635380        4899731.5537078381        356139180.28235692     
  -5907790900.2253714        3806216.0805666447        361895799.20495033     
  -6992316680.5702152       -63541799.487482071        187783322.89512357     
  -6808203332.4722252       -4410039.1744904518        180800850.07991382     
  -6631499897.6558161        30022010.199896812        177585770.56768903     
  -6462206376.1209888        39754348.635671377        178138084.35844544     
  -6300322767.8677492        24786976.132833719        182457791.45218265     
  -7423783537.4513874       -74073995.092124939        29909127.181082089     
  -7219747465.8077068        16286966.201427460        14535143.775616761     
  -7027581586.3896809        67080620.076125145        3512200.3375759753     
  -6847285899.1973114        78306966.531971455       -3159703.1330466727     
  -6678860404.2305956        49966005.568973064       -5480566.6362499017     
  -5080744471.1020555       -25560495.872411966        695270763.70349443     
  -4938685783.9975319        3775021.2000021935        676291900.06395411     
  -4799801161.6542692        22530322.401546717        661951234.60763955     
  -4664090604.0722713        30705407.732210398        652248767.33454740     
  -4531554111.2515335        28300277.192005157        647184498.24468100     
  -5501264801.3034754       -12976274.587850571        532833456.62205380     
  -5351072314.3849659       -324783.30754637718        516609666.61079651     
  -5202091203.1267776        8288789.1050250530        505854607.30217624     
  -5054321467.5289125        12864442.649854183        500568278.69619137     
  -4907763107.5913620        13402177.326946259        500750680.79284340     
  -5907790900.2253714        3806216.0805666447        361895799.20495033     
  -5747091663.4374113        485566.58540892601        350716886.77307093     
  -5585641113.2088318       -330704.77435708046        345837237.56324351     
  -5423439249.5396318        1357402.0012807846        347256851.57546365     
  -5260486072.4298143        5549886.9123005867        354975728.80973113     
  -6300322767.8677492        24786976.132833719        182457791.45218265     
  -6126743831.1548700        6206070.8788528442        178613560.55077720     
  -5950450891.9004316       -3328159.2365975380        181899125.39083651     
  -5771443950.1044407       -3815714.2135324478        192314485.97235754     
  -5589723005.7668858        4743405.9480693340        209859642.29534271     
  -6678860404.2305956        49966005.568973064       -5480566.6362499017     
  -6490028817.5373421        16836729.572796345        299687.94391996501     
  -6296520539.2015839       -703574.28171467781        14040270.784963569     
  -6098335569.2233229       -2654905.9945456982        35741181.886882752     
  -5895473907.6025753        10982734.434255362        65402421.249671347     
  -4531554111.2515335        28300277.192005157        647184498.24468100     
  -4381416833.5723286        26817039.769023657        637878370.41251457     
  -4230979123.4441504        26335243.842608452        633713344.43612695     
  -4080240980.8670030        26854889.412765980        634689420.31552207     
  -3929202405.8408890        28375976.479474545        640806598.05069590     
  -4907763107.5913620        13402177.326946259        500750680.79284340     
  -4745281140.7778997        16492047.467021704        498769992.60396290     
  -4583054796.0622158        18729843.947829247        500088784.76340967     
  -4421084073.4443083        20115566.769377232        504707057.27118415     
  -4259368972.9241829        20649215.931656599        512624810.12728703     
  -5260486072.4298143        5549886.9123005867        354975728.80973113     
  -5090921192.2176714        11634331.894753456        359671749.95959359     
  -4922167988.6500511        15013188.062120676        365825629.95033324     
  -4754226461.7269659        15686455.414374828        373437368.78194547     
  -4587096611.4484053        13654133.951546907        382506966.45444137     
  -5589723005.7668858        4743405.9480693340        209859642.29534271     
  -5418336987.8916302        12243893.052238703        220583642.47940603     
  -5248318701.2076569        15185276.185477972        230923879.99689752     
  -5079668145.7149563        13567555.347800255        240880354.84780848     
  -4912385321.4135399        7390730.5391652584        250453067.03215322     
  -5895473907.6025753        10982734.434255362        65402421.249671347     
  -5727528527.7997913        18320730.939458370        81505670.163396239     
  -5561506933.7350349        19246108.317898273        95383534.903103173     
  -5397409125.4083052        13758866.569584131        107036015.46878062     
  -5235235102.8196020        1859005.6945157051        116463111.86042476     
  -3929202405.8408890        28375976.479474545        640806598.05069590     
  -3792012511.5126410        28111955.154569387        636302452.71939909     
  -3653560744.6985865        32054175.449023247        636157636.41431618     
  -3513847105.3987260        40202637.362827301        640372149.13543713     
  -3372871593.6130571        52557340.895995855        648945990.88276887     
  -4259368972.9241829        20649215.931656599        512624810.12728703     
  -4111144296.8043251        18525476.002803087        510493410.40143567     
  -3961747687.6664872        20308179.467221975        512920141.16691422     
  -3811179145.5106745        25997326.324878931        519905002.42371035     
  -3659438670.3368878        35592916.575796843        531447994.17183763     
  -4587096611.4484053        13654133.951546907        382506966.45444137     
  -4427269149.3508739        9841076.6745924950        382643382.95489407     
  -4266359693.7032065        9634664.5647747517        387536731.41179287     
  -4104368244.5053949        13034897.622095346        397187011.82513851     
  -3941294801.7574368        20041775.846572161        411594224.19492424     
  -4912385321.4135399        7390730.5391652584        250453067.03215322     
  -4740387069.1522913        2058757.1699168682        252752370.37977704     
  -4567396762.8087454        33630.741668462753        260007407.14896706     
  -4393414402.3828735        1315351.2545030117        272218177.33971083     
  -4218439987.8746958        5903918.7083528042        289384680.95202029     
  -5235235102.8196020        1859005.6945157051        116463111.86042476     
  -5050498056.2085886       -4821482.5112287998        120820372.67608455     
  -4864858894.9830952       -8494922.0020506382        130332168.37841590     
  -4678317619.1431255       -9161312.7779471874        144998498.96743488     
  -4490874228.6886730       -6820654.8389017582        164819364.44313359     
  -3372871593.6130571        52557340.895995855        648945990.88276887     
  -3252406064.9512277        60648345.773592472        640828092.28319228     
  -3131956718.9192190        68685408.551787972        632639126.10715485     
  -3011523555.5170231        76668529.230603814        624379092.35465646     
  -2891106574.7446542        84597707.810002565        616047991.02569985     
  -3659438670.3368878        35592916.575796843        531447994.17183763     
  -3534099051.1998162        38550364.656047106        527317031.21858519     
  -3409086014.7683935        40419203.717468977        528191103.16059381     
  -3284399561.0426202        41199433.760071278        534070209.99786699     
  -3160039690.0224938        40891054.783824921        544954351.73040771     
  -3941294801.7574368        20041775.846572161        411594224.19492424     
  -3796577942.2259011        22216612.105264425        411088063.46618992     
  -3652498065.4758558        22268172.425672770        420663040.10444343     
  -3509055171.5072851        20196456.807821512        440319154.10968459     
  -3366249260.3201971        16001465.251698494        470056405.48192060     
  -4218439987.8746958        5903918.7083528042        289384680.95202029     
  -4039842738.0294909        11647088.121222973        292141189.02599996     
  -3862192871.0416093        14232314.676381588        310054936.93870193     
  -3685490386.9110308        13659598.373849154        343125924.69010609     
  -3509735285.6377602        9928939.2136154175        391354152.28023058     
  -4490874228.6886730       -6820654.8389017582        164819364.44313359     
  -4263893438.6105871        6841792.7039294243        170476407.89802793     
  -4038170431.4656444        16311630.469613791        196366793.66335744     
  -3813705207.2538447        21588858.458157063        242490521.73913285     
  -3590497765.9751854        22673476.669567347        308847592.12534118     
  -2891106574.7446542        84597707.810002565        616047991.02569985     
  -2679865984.8410282        114183359.83900821        570252716.13247180     
  -2472295328.3228159        131535900.58329499        521714376.90896690     
  -2268394605.1900277        136655330.04283381        470432973.35518503     
  -2068163815.4426584        129541648.21765041        416408505.47113645     
  -3160039690.0224938        40891054.783824921        544954351.73040771     
  -2943522608.2082105        50729468.172641039        519482129.64070410     
  -2738217649.7585211        23194137.012802958        505368866.88336301     
  -2544124814.6734290       -41714938.695673347        502614563.45838374     
  -2361244102.9529190       -143997758.95277953        511219219.36576694     
  -3366249260.3201971        16001465.251698494        470056405.48192060     
  -3104164190.4162979        18180088.853993893        456108014.55337435     
  -2860833433.8561726       -42155665.356276512        467620606.61982459     
  -2636256990.6398020       -165005797.37905991        504594181.68126976     
  -2430434860.7671967       -350370307.21443450        567028739.73771739     
  -3509735285.6377602        9928939.2136154175        391354152.28023058     
  -3161790731.4652925        16535221.883082151        380130370.87047070     
  -2840142680.6157665       -64513506.523920178        408469596.11834645     
  -2544791133.0891738       -233217246.00736904        476371828.02385151     
  -2275736088.8855267       -489575996.56730181        583837066.58699310     
  -3590497765.9751854        22673476.669567347        308847592.12534118     
  -3116402231.3551788        45794867.259909630        291549198.59200388     
  -2676145390.0373025       -43879386.490158200        327915835.37893373     
  -2269727242.0215249       -246349284.58055639        417947502.48613387     
  -1897147787.3078618       -561614827.01135731        561644199.91359377     
 </DataArray>
 <DataArray  type="Float64" Name="VM" NumberOfComponents="1" format="ascii">
   12935978030.568544     
   11340732333.722044     
   10209849823.703789     
   9272030015.1701202     
   8302834836.2276850     
   10130240239.060223     
   9321809283.0282192     
   8826026671.2884827     
   8443099331.3280964     
   8035230756.8613281     
   7982053108.6965160     
   7734679906.5991859     
   7668890773.2358704     
   7669415333.4781818     
   7666331796.3341255     
   6491331937.5687189     
   6586636675.9153833     
   6757279351.9632826     
   6961208283.8861790     
   7171771869.8185787     
   5657634537.7594080     
   5890842022.3805790     
   6116382656.9273548     
   6331819673.5344276     
   6536950746.1676054     
   8302834836.2276850     
   8020178968.4352102     
   7779514372.7719851     
   7570180213.4005442     
   7387206733.9236794     
   8035230756.8613281     
   7746611077.8296766     
   7473562211.5303755     
   7214142167.1262665     
   6968358017.9282694     
   7666331796.3341255     
   7381087840.5576601     
   7101152832.6508579     
   6826605741.7971811     
   6557645449.2716045     
   7171771869.8185787     
   6911049482.7245979     
   6658155401.3669748     
   6409216028.6295271     
   6161081553.9727869     
   6536950746.1676054     
   6328851191.6115084     
   6142877708.3016949     
   5965095434.6159935     
   5786504555.3529778     
   7387206733.9236794     
   7227948556.0667791     
   7061363487.2951479     
   6886775464.9687729     
   6703989781.2052736     
   6968358017.9282694     
   6813200016.3830290     
   6653675171.5672770     
   6489514002.7635946     
   6320658182.5212011     
   6557645449.2716045     
   6405933165.1196671     
   6252901085.5067568     
   6098528225.3146963     
   5942844423.7617664     
   6161081553.9727869     
   6011136781.9673281     
   5862898184.6633253     
   5716412871.8606091     
   5571752987.3887110     
   5786504555.3529778     
   5635247482.6806822     
   5488623820.1689482     
   5346553367.8044386     
   5209122351.7983036     
   6703989781.2052736     
   6498463561.2667532     
   6296215745.4252043     
   6097322818.3871555     
   5902060154.7050076     
   6320658182.5212011     
   6137651008.8258419     
   5957124702.4589071     
   5779144593.4876747     
   5603897154.1764240     
   5942844423.7617664     
   5779347750.6725321     
   5617503871.0449514     
   5457363730.4081478     
   5299053021.6451721     
   5571752987.3887110     
   5425209094.8704243     
   5279451418.2444267     
   5134496842.3809299     
   4990425511.1986332     
   5209122351.7983036     
   5077537530.0992012     
   4945834427.6143293     
   4813957016.0224857     
   4681940957.6079655     
   5902060154.7050076     
   5738447587.7656279     
   5573603969.3723402     
   5407480645.4524727     
   5240048982.4559088     
   5603897154.1764240     
   5437907556.7354898     
   5271124592.1382484     
   5103547909.4116287     
   4935186977.3343277     
   5299053021.6451721     
   5134679611.5042181     
   4970246041.4313898     
   4805815090.1463356     
   4641466290.6942244     
   4990425511.1986332     
   4831411699.5829029     
   4673419342.3720179     
   4516581591.5526304     
   4361072764.2360268     
   4681940957.6079655     
   4531632785.0769987     
   4383843013.1102943     
   4238767987.0418406     
   4096685365.6710968     
   5240048982.4559088     
   5052424730.9032145     
   4865856251.1569433     
   4680486495.8665590     
   4496539049.5902691     
   4935186977.3343277     
   4761584231.2887325     
   4589561890.8581123     
   4419296203.2753839     
   4251047705.5336905     
   4641466290.6942244     
   4481475866.0586748     
   4323606938.8552999     
   4168066839.8877807     
   4015149604.9365311     
   4361072764.2360268     
   4214240393.4054661     
   4070082832.0028996     
   3928835252.6545777     
   3790820391.9841671     
   4096685365.6710968     
   3962498263.5946937     
   3831544737.7534952     
   3704083303.7424335     
   3580459037.6469927     
   4496539049.5902691     
   4277521871.0751824     
   4060620075.7109408     
   3847538432.2406096     
   3641395043.9960413     
   4251047705.5336905     
   4077199630.8377504     
   3906418624.2176394     
   3739862897.9422517     
   3579477968.1672306     
   4015149604.9365311     
   3873735269.2505379     
   3735430982.6551752     
   3600887313.8314829     
   3471111367.0963473     
   3790820391.9841671     
   3669028862.7194457     
   3549401531.8596034     
   3432198455.7181230     
   3317780284.0286946     
   3580459037.6469927     
   3465697391.8891740     
   3351072528.7176208     
   3236601461.9007821     
   3122303695.8922610     
   3641395043.9960413     
   3179902210.6447358     
   2714560427.8285475     
   2275355881.0042791     
   1948190759.6836240     
   3579477968.1672306     
   3237741844.3596654     
   2896184922.9650326     
   2572480003.9068475     
   2308053465.5255537     
   3471111367.0963473     
   3211962543.3708496     
   2953227352.3061304     
   2702947652.3346157     
   2478464349.2494717     
   3317780284.0286946     
   3102548502.3075280     
   2885840871.4389572     
   2669465751.0218353     
   2457688035.4260941     
   3122303695.8922610     
   2911405179.4359431     
   2696534655.6123028     
   2477538803.7988586     
   2254369997.4408731     
   5657634537.7594080     
   5890842022.3805790     
   6116382656.9273548     
   6331819673.5344276     
   6536950746.1676054     
   5151483607.5052528     
   5311394574.8154516     
   5467917864.8402996     
   5618171091.1949768     
   5760701124.7140169     
   4643674484.7753172     
   4755723274.5005283     
   4868884564.5322943     
   4980527168.0741396     
   5088729558.2095518     
   4134470511.3886161     
   4224663997.9665995     
   4320776137.2091866     
   4421145570.5411425     
   4524313743.4750328     
   3625387396.5039582     
   3720037070.4585466     
   3825947903.4728270     
   3943046420.8936009     
   4071231488.1942120     
   6536950746.1676054     
   6328851191.6115084     
   6142877708.3016949     
   5965095434.6159935     
   5786504555.3529778     
   5760701124.7140169     
   5652336211.6540899     
   5559933919.8868399     
   5474423913.2632446     
   5390276582.9166536     
   5088729558.2095518     
   5054358934.1487875     
   5030496358.9166803     
   5011936503.0462971     
   4995485811.1712875     
   4524313743.4750328     
   4539511049.9473743     
   4559410452.3549728     
   4581538196.1164103     
   4604174871.1065350     
   4071231488.1942120     
   4113113158.4491715     
   4152405666.5417886     
   4188223170.4736261     
   4219841623.9972606     
   5786504555.3529778     
   5635247482.6806822     
   5488623820.1689482     
   5346553367.8044386     
   5209122351.7983036     
   5390276582.9166536     
   5248555901.8061590     
   5110348715.1264496     
   4975704467.2977953     
   4844735668.3777943     
   4995485811.1712875     
   4867599651.1519794     
   4743050328.6043463     
   4621806034.0793982     
   4503906213.9160519     
   4604174871.1065350     
   4495052378.7583847     
   4390147247.6664915     
   4289126836.5386009     
   4191885409.2940893     
   4219841623.9972606     
   4134882469.7379146     
   4056259003.2597513     
   3983083810.0337982     
   3915044206.3799114     
   5209122351.7983036     
   5077537530.0992012     
   4945834427.6143293     
   4813957016.0224857     
   4681940957.6079655     
   4844735668.3777943     
   4725320404.1245728     
   4606708295.8469391     
   4488938222.2131538     
   4372126045.4840622     
   4503906213.9160519     
   4396637310.6892290     
   4291135039.5039663     
   4187517418.2363958     
   4085965081.4816465     
   4191885409.2940893     
   4096627347.2927961     
   4004101347.9122133     
   3914481601.0481300     
   3827991276.6945376     
   3915044206.3799114     
   3831470080.4317341     
   3751540617.2857342     
   3675455945.7827325     
   3603453696.5890484     
   4681940957.6079655     
   4531632785.0769987     
   4383843013.1102943     
   4238767987.0418406     
   4096685365.6710968     
   4372126045.4840622     
   4236674142.4310980     
   4104302318.4284410     
   3975261723.7914138     
   3849890252.0502353     
   4085965081.4816465     
   3965818074.5410914     
   3849400282.5559516     
   3737014922.9027376     
   3629054447.4948096     
   3827991276.6945376     
   3723622617.3802805     
   3623708460.8156352     
   3528593717.2085962     
   3438710377.1737285     
   3603453696.5890484     
   3515280889.8675804     
   3432336049.4681334     
   3354985625.9316792     
   3283675242.6021986     
   4096685365.6710968     
   3962498263.5946937     
   3831544737.7534952     
   3704083303.7424335     
   3580459037.6469927     
   3849890252.0502353     
   3728274969.0316086     
   3610351206.2538695     
   3496411251.0935864     
   3386830741.3197742     
   3629054447.4948096     
   3520360680.7667823     
   3415879638.3869910     
   3315934247.4016790     
   3220925107.6698308     
   3438710377.1737285     
   3343313296.7781391     
   3252695236.9725161     
   3167200095.7159209     
   3087240378.0844679     
   3283675242.6021986     
   3201890776.0861664     
   3125463403.5276089     
   3054741087.0325718     
   2990127895.4098487     
   3580459037.6469927     
   3465697391.8891740     
   3351072528.7176208     
   3236601461.9007821     
   3122303695.8922610     
   3386830741.3197742     
   3276133015.9900174     
   3166498942.7434158     
   3058032631.6667814     
   2950856261.6830096     
   3220925107.6698308     
   3118323412.5198817     
   3018170847.3647814     
   2920710325.5559897     
   2826228925.4704890     
   3087240378.0844679     
   2996584756.1434312     
   2910185615.8354220     
   2828443782.1648250     
   2751827465.5186973     
   2990127895.4098487     
   2914723489.9204993     
   2845692485.1696496     
   2783561550.7335095     
   2728931683.2477546     
   3122303695.8922610     
   2911405179.4359431     
   2696534655.6123028     
   2477538803.7988586     
   2254369997.4408731     
   2950856261.6830096     
   2745350968.1466765     
   2540954895.0640879     
   2337892488.3428583     
   2136473731.2346895     
   2826228925.4704890     
   2635303571.8866415     
   2452251335.8484688     
   2278482110.4201636     
   2115944863.8984575     
   2751827465.5186973     
   2581028372.2487192     
   2425240508.0883350     
   2287052039.9628263     
   2170054608.7311625     
   2728931683.2477546     
   2579159452.2641463     
   2450786060.1299701     
   2347099811.4593663     
   2272833259.1825256     
   3625387396.5039582     
   3720037070.4585466     
   3825947903.4728270     
   3943046420.8936009     
   4071231488.1942120     
   3138384422.9123898     
   3255883139.8280735     
   3382810859.4684601     
   3518693510.9373794     
   3663068901.5790706     
   2695116359.1095901     
   2830855124.7162161     
   2973919833.3297000     
   3123227895.5605168     
   3277867571.8352056     
   2299073479.9487414     
   2449741810.2696629     
   2605147429.1213446     
   2763372393.4913683     
   2922989909.3929024     
   1955470770.6504052     
   2119496135.5663288     
   2284892641.8866749     
   2448710393.1892943     
   2608998509.6739912     
   4071231488.1942120     
   4113113158.4491715     
   4152405666.5417886     
   4188223170.4736261     
   4219841623.9972606     
   3663068901.5790706     
   3702901405.4490376     
   3741383889.0909848     
   3777625542.6124487     
   3810882469.2237062     
   3277867571.8352056     
   3321475381.1044593     
   3365320451.2141609     
   3408581985.0086403     
   3450583196.8875484     
   2922989909.3929024     
   2976211865.5411215     
   3031611410.6040797     
   3088502326.4650059     
   3146348648.0371470     
   2608998509.6739912     
   2677158714.2525554     
   2749738435.8034253     
   2826220515.7081466     
   2906246517.1157742     
   4219841623.9972606     
   4134882469.7379146     
   4056259003.2597513     
   3983083810.0337982     
   3915044206.3799114     
   3810882469.2237062     
   3757318904.9490156     
   3709638052.5970702     
   3667343973.2179885     
   3630333263.8259811     
   3450583196.8875484     
   3423865696.8944330     
   3402211662.7305312     
   3385381583.2337141     
   3373358498.8655443     
   3146348648.0371470     
   3142169064.1740780     
   3141650831.2594409     
   3144692133.9859958     
   3151281360.1253982     
   2906246517.1157742     
   2920591513.3697224     
   2936423069.8998713     
   2953691286.7449694     
   2972362012.4744754     
   3915044206.3799114     
   3831470080.4317341     
   3751540617.2857342     
   3675455945.7827325     
   3603453696.5890484     
   3630333263.8259811     
   3558412070.2305613     
   3490732125.8231339     
   3427520693.0571642     
   3369051133.1244898     
   3373358498.8655443     
   3314512540.8449483     
   3260704403.8614378     
   3212172964.5115175     
   3169216007.1682606     
   3151281360.1253982     
   3106745381.9060664     
   3068230489.5402226     
   3035959444.3212385     
   3010230900.7375627     
   2972362012.4744754     
   2942897182.9528899     
   2920586608.8273077     
   2905597654.8908696     
   2898196032.7860923     
   3603453696.5890484     
   3515280889.8675804     
   3432336049.4681334     
   3354985625.9316792     
   3283675242.6021986     
   3369051133.1244898     
   3295663494.5351129     
   3228190675.7663412     
   3166986279.5637183     
   3112463869.9822540     
   3169216007.1682606     
   3109856197.1903238     
   3056997559.7059655     
   3010949884.3696280     
   2972062653.5187049     
   3010230900.7375627     
   2963724008.5676236     
   2924149070.7353392     
   2891745154.0358086     
   2866773502.5964947     
   2898196032.7860923     
   2862832354.4967251     
   2834630088.6236019     
   2813742065.2969460     
   2800332088.1163034     
   3283675242.6021986     
   3201890776.0861664     
   3125463403.5276089     
   3054741087.0325718     
   2990127895.4098487     
   3112463869.9822540     
   3043519536.7634182     
   2980589562.3554835     
   2924010854.4468579     
   2874165886.1681828     
   2972062653.5187049     
   2915838294.5745096     
   2866262892.0890794     
   2823638947.2038989     
   2788301796.5840130     
   2866773502.5964947     
   2822713251.6237612     
   2785877382.6786237     
   2756512682.2556486     
   2734886446.6071906     
   2800332088.1163034     
   2767332879.8045254     
   2742048909.6246867     
   2724658276.6546769     
   2715350170.9168468     
   2990127895.4098487     
   2914723489.9204993     
   2845692485.1696496     
   2783561550.7335095     
   2728931683.2477546     
   2874165886.1681828     
   2814218919.2683539     
   2761178780.7476521     
   2715520595.7902951     
   2677769512.9718261     
   2788301796.5840130     
   2743273883.1199074     
   2705550753.2257376     
   2675529574.1178708     
   2653636083.6587782     
   2734886446.6071906     
   2703793390.0447288     
   2680246132.2696218     
   2664549928.8771353     
   2657023394.5831752     
   2715350170.9168468     
   2696738895.0327964     
   2685764062.8966064     
   2682640248.2980490     
   2687587320.4422956     
   2728931683.2477546     
   2579159452.2641463     
   2450786060.1299701     
   2347099811.4593663     
   2272833259.1825256     
   2677769512.9718261     
   2535612265.1585536     
   2410307691.9788923     
   2303437113.7530127     
   2217256153.8175836     
   2653636083.6587782     
   2519407643.2672005     
   2398386975.8196969     
   2291262993.7874932     
   2198921452.7851219     
   2657023394.5831752     
   2532863118.6691208     
   2419025092.2271185     
   2316038281.1343431     
   2224529522.0900073     
   2687587320.4422956     
   2577334283.9736900     
   2475191257.7143755     
   2382140355.6084394     
   2299532317.4304638     
   1955470770.6504052     
   2119496135.5663288     
   2284892641.8866749     
   2448710393.1892943     
   2608998509.6739912     
   1653842646.8292413     
   1820260153.3787940     
   1988366579.7207453     
   2155473255.7598176     
   2319827759.6457191     
   1393560220.9991117     
   1570871314.7780144     
   1749157069.7496705     
   1926418620.1242909     
   2101409071.9431448     
   1206945312.9564867     
   1398779366.3940144     
   1590140258.1298871     
   1780252903.9165590     
   1968659931.2456059     
   1136689622.1131351     
   1334880720.6372712     
   1533306220.3988543     
   1731966121.3978841     
   1930860423.6343606     
   2608998509.6739912     
   2677158714.2525554     
   2749738435.8034253     
   2826220515.7081466     
   2906246517.1157742     
   2319827759.6457191     
   2407013006.8243341     
   2496578631.1198640     
   2588130443.2977414     
   2681390379.9721308     
   2101409071.9431448     
   2205248301.6067362     
   2308966970.0413384     
   2412326887.8496966     
   2515160221.1454854     
   1968659931.2456059     
   2085873082.0283594     
   2200236463.1652532     
   2311674522.9387503     
   2420134854.3019075     
   1930860423.6343606     
   2057540406.5942812     
   2178833837.3844209     
   2294740716.0047822     
   2405261042.4553604     
   2906246517.1157742     
   2920591513.3697224     
   2936423069.8998713     
   2953691286.7449694     
   2972362012.4744754     
   2681390379.9721308     
   2702627276.1399250     
   2726308380.3139167     
   2752418988.3866768     
   2780953948.5363269     
   2515160221.1454854     
   2543062394.8379989     
   2574382124.7706118     
   2609121720.8870187     
   2647287661.7440820     
   2420134854.3019075     
   2453066085.3256469     
   2490379484.2951846     
   2532078362.8538351     
   2578166939.7657809     
   2405261042.4553604     
   2440109314.2815790     
   2480286887.3330312     
   2525793761.6097178     
   2576629937.1116409     
   2972362012.4744754     
   2942897182.9528899     
   2920586608.8273077     
   2905597654.8908696     
   2898196032.7860923     
   2780953948.5363269     
   2767577489.1219158     
   2761398139.1029186     
   2762528410.4408789     
   2771134248.0648670     
   2647287661.7440820     
   2646870728.6094294     
   2653392738.0749979     
   2666907208.6228456     
   2687489923.7522984     
   2578166939.7657809     
   2586860925.7006774     
   2601945376.2801790     
   2623433139.4086895     
   2651342241.8584499     
   2576629937.1116409     
   2590216031.5980334     
   2609407704.8556023     
   2634204956.8843446     
   2664607787.6842589     
   2898196032.7860923     
   2862832354.4967251     
   2834630088.6236019     
   2813742065.2969460     
   2800332088.1163034     
   2771134248.0648670     
   2744272072.1580019     
   2725067925.3104343     
   2713625292.7810335     
   2710052911.8431635     
   2687489923.7522984     
   2667403963.7449393     
   2655436746.3124318     
   2651641467.7114878     
   2656073066.6637745     
   2651342241.8584499     
   2635640033.9956951     
   2628479911.5069513     
   2629876624.2251697     
   2639845212.8729258     
   2664607787.6842589     
   2650378727.6686583     
   2645084736.7876558     
   2648725815.0412602     
   2661301962.4294639     
   2800332088.1163034     
   2767332879.8045254     
   2742048909.6246867     
   2724658276.6546769     
   2715350170.9168468     
   2710052911.8431635     
   2686978104.9788227     
   2671593940.1481919     
   2664004737.7393265     
   2664318942.8075647     
   2656073066.6637745     
   2640651773.4781222     
   2632796810.9892516     
   2632554737.9018760     
   2639973114.8013721     
   2639845212.8729258     
   2629518819.3963051     
   2626560452.6150174     
   2630981400.1493278     
   2642793053.6798410     
   2661301962.4294639     
   2653403732.6207023     
   2652628710.6054697     
   2658976896.3837528     
   2672448289.9555554     
   2715350170.9168468     
   2696738895.0327964     
   2685764062.8966064     
   2682640248.2980490     
   2687587320.4422956     
   2664318942.8075647     
   2655562512.0619221     
   2654596046.1057715     
   2661544953.8602815     
   2676534808.5318661     
   2639973114.8013721     
   2638662042.7424846     
   2645236951.3273764     
   2659754528.0048881     
   2682270526.9187193     
   2642793053.6798410     
   2646172180.6494341     
   2657517163.7689629     
   2676842186.0013518     
   2704161034.9768891     
   2672448289.9555554     
   2677573986.9102993     
   2690761954.8126721     
   2712012193.6626749     
   2741324703.4603057     
   2687587320.4422956     
   2577334283.9736900     
   2475191257.7143755     
   2382140355.6084394     
   2299532317.4304638     
   2676534808.5318661     
   2584579988.2776427     
   2503940071.1394467     
   2435242266.6631632     
   2379285666.4448442     
   2682270526.9187193     
   2605722768.3716927     
   2543455276.2417831     
   2495777972.0634847     
   2463058265.5105062     
   2704161034.9768891     
   2638621209.2518034     
   2590219425.5483322     
   2559040320.4996939     
   2545177848.1489615     
   2741324703.4603057     
   2681151975.2637825     
   2641093034.4778295     
   2621147881.1024489     
   2621316515.1376476     
   1136689622.1131351     
   1334880720.6372712     
   1533306220.3988543     
   1731966121.3978841     
   1930860423.6343606     
   1206945312.9532206     
   1398779366.3909588     
   1590140258.1269889     
   1780252903.9137807     
   1968659931.2429221     
   1393560220.9937255     
   1570871314.7727842     
   1749157069.7445612     
   1926418620.1192722     
   2101409071.9381921     
   1653842646.8229234     
   1820260153.3724391     
   1988366579.7143555     
   2155473255.7533822     
   2319827759.6392274     
   1955470770.6439972     
   2119496135.5596921     
   2284892641.8798323     
   2448710393.1822491     
   2608998509.6667404     
   1930860423.6343606     
   2057540406.5942812     
   2178833837.3844209     
   2294740716.0047822     
   2405261042.4553604     
   1968659931.2429221     
   2085873082.0256906     
   2200236463.1626053     
   2311674522.9361291     
   2420134854.2993197     
   2101409071.9381921     
   2205248301.6017847     
   2308966970.0364032     
   2412326887.8447971     
   2515160221.1406441     
   2319827759.6392274     
   2407013006.8177886     
   2496578631.1132956     
   2588130443.2911854     
   2681390379.9656267     
   2608998509.6667404     
   2677158714.2451811     
   2749738435.7959657     
   2826220515.7006550     
   2906246517.1082997     
   2405261042.4553604     
   2440109314.2815790     
   2480286887.3330312     
   2525793761.6097178     
   2576629937.1116409     
   2420134854.2993197     
   2453066085.3233118     
   2490379484.2931242     
   2532078362.8520699     
   2578166939.7643318     
   2515160221.1406441     
   2543062394.8336048     
   2574382124.7667108     
   2609121720.8836493     
   2647287661.7412853     
   2681390379.9656267     
   2702627276.1339908     
   2726308380.3086138     
   2752418988.3820696     
   2780953948.5324697     
   2906246517.1082997     
   2920591513.3628750     
   2936423069.8937249     
   2953691286.7396011     
   2972362012.4699588     
   2576629937.1116409     
   2590216031.5980334     
   2609407704.8556023     
   2634204956.8843446     
   2664607787.6842589     
   2578166939.7643318     
   2586860925.6998925     
   2601945376.2800784     
   2623433139.4092908     
   2651342241.8597479     
   2647287661.7412853     
   2646870728.6079030     
   2653392738.0747929     
   2666907208.6239924     
   2687489923.7548046     
   2780953948.5324697     
   2767577489.1198230     
   2761398139.1026793     
   2762528410.4425507     
   2771134248.0684776     
   2972362012.4699588     
   2942897182.9504976     
   2920586608.8271675     
   2905597654.8930769     
   2898196032.7907033     
   2664607787.6842589     
   2650378727.6686583     
   2645084736.7876558     
   2648725815.0412602     
   2661301962.4294639     
   2651342241.8597479     
   2635640033.9975619     
   2628479911.5093799     
   2629876624.2281432     
   2639845212.8764315     
   2687489923.7548046     
   2667403963.7485499     
   2655436746.3171329     
   2651641467.7172604     
   2656073066.6705956     
   2771134248.0684776     
   2744272072.1631899     
   2725067925.3171930     
   2713625292.7893362     
   2710052911.8530049     
   2898196032.7907033     
   2862832354.5033016     
   2834630088.6321468     
   2813742065.3074470     
   2800332088.1287527     
   2661301962.4294639     
   2653403732.6207023     
   2652628710.6054697     
   2658976896.3837528     
   2672448289.9555554     
   2639845212.8764315     
   2629518819.4005866     
   2626560452.6200676     
   2630981400.1551414     
   2642793053.6863923     
   2656073066.6705956     
   2640651773.4864812     
   2632796810.9991407     
   2632554737.9132805     
   2639973114.8142490     
   2710052911.8530049     
   2686978104.9909048     
   2671593940.1625147     
   2664004737.7558765     
   2664318942.8263035     
   2800332088.1287527     
   2767332879.8198304     
   2742048909.6428781     
   2724658276.6757483     
   2715350170.9407759     
   2672448289.9555554     
   2677573986.9102993     
   2690761954.8126721     
   2712012193.6626749     
   2741324703.4603057     
   2642793053.6863923     
   2646172180.6569471     
   2657517163.7773542     
   2676842186.0105410     
   2704161034.9867773     
   2639973114.8142490     
   2638662042.7572999     
   2645236951.3439794     
   2659754528.0231113     
   2682270526.9383736     
   2664318942.8263035     
   2655562512.0835681     
   2654596046.1301327     
   2661544953.8871202     
   2676534808.5609050     
   2715350170.9407759     
   2696738895.0605865     
   2685764062.9280262     
   2682640248.3328147     
   2687587320.4800801     
   2741324703.4603057     
   2681151975.2637825     
   2641093034.4778295     
   2621147881.1024489     
   2621316515.1376476     
   2704161034.9867773     
   2638621209.2618041     
   2590219425.5580721     
   2559040320.5087237     
   2545177848.1568389     
   2682270526.9383736     
   2605722768.3918271     
   2543455276.2616825     
   2495777972.0822716     
   2463058265.5271678     
   2676534808.5609050     
   2584579988.3078055     
   2503940071.1696935     
   2435242266.6922002     
   2379285666.4710755     
   2687587320.4800801     
   2577334284.0134869     
   2475191257.7548895     
   2382140355.6479673     
   2299532317.4668283     
   1955470770.6439972     
   2119496135.5596921     
   2284892641.8798323     
   2448710393.1822491     
   2608998509.6667404     
   2299073479.9427819     
   2449741810.2633734     
   2605147429.1147385     
   2763372393.4844542     
   2922989909.3856831     
   2695116359.1044273     
   2830855124.7107000     
   2973919833.3238277     
   3123227895.5542865     
   3277867571.8286161     
   3138384422.9082723     
   3255883139.8236446     
   3382810859.4636965     
   3518693510.9322619     
   3663068901.5735807     
   3625387396.5010800     
   3720037070.4554505     
   3825947903.4694686     
   3943046420.8899398     
   4071231488.1902118     
   2608998509.6667404     
   2677158714.2451811     
   2749738435.7959657     
   2826220515.7006550     
   2906246517.1082997     
   2922989909.3856831     
   2976211865.5337253     
   3031611410.5965400     
   3088502326.4573674     
   3146348648.0294566     
   3277867571.8286161     
   3321475381.0976400     
   3365320451.2071419     
   3408581985.0014572     
   3450583196.8802443     
   3663068901.5735807     
   3702901405.4432840     
   3741383889.0849924     
   3777625542.6062455     
   3810882469.2173276     
   4071231488.1902118     
   4113113158.4448891     
   4152405666.5372448     
   4188223170.4688463     
   4219841623.9922743     
   2906246517.1082997     
   2920591513.3628750     
   2936423069.8937249     
   2953691286.7396011     
   2972362012.4699588     
   3146348648.0294566     
   3142169064.1670165     
   3141650831.2530966     
   3144692133.9804554     
   3151281360.1207428     
   3450583196.8802443     
   3423865696.8877335     
   3402211662.7245274     
   3385381583.2284985     
   3373358498.8611994     
   3810882469.2173276     
   3757318904.9432039     
   3709638052.5919123     
   3667343973.2135739     
   3630333263.8223896     
   4219841623.9922743     
   4134882469.7334523     
   4056259003.2558889     
   3983083810.0306182     
   3915044206.3774886     
   2972362012.4699588     
   2942897182.9504976     
   2920586608.8271675     
   2905597654.8930769     
   2898196032.7907033     
   3151281360.1207428     
   3106745381.9037318     
   3068230489.5403581     
   3035959444.3239694     
   3010230900.7429910     
   3373358498.8611994     
   3314512540.8429966     
   3260704403.8620439     
   3212172964.5148306     
   3169216007.1744204     
   3630333263.8223896     
   3558412070.2293391     
   3490732125.8244514     
   3427520693.0611906     
   3369051133.1313930     
   3915044206.3774886     
   3831470080.4315882     
   3751540617.2880354     
   3675455945.7876601     
   3603453696.5967875     
   2898196032.7907033     
   2862832354.5033016     
   2834630088.6321468     
   2813742065.3074470     
   2800332088.1287527     
   3010230900.7429910     
   2963724008.5752935     
   2924149070.7452765     
   2891745154.0480180     
   2866773502.6109681     
   3169216007.1744204     
   3109856197.1988916     
   3056997559.7169824     
   3010949884.3831224     
   2972062653.5346832     
   3369051133.1313930     
   3295663494.5444798     
   3228190675.7782340     
   3166986279.5781817     
   3112463869.9993186     
   3603453696.5967875     
   3515280889.8777428     
   3432336049.4807949     
   3354985625.9469032     
   3283675242.6200385     
   2800332088.1287527     
   2767332879.8198304     
   2742048909.6428781     
   2724658276.6757483     
   2715350170.9407759     
   2866773502.6109681     
   2822713251.6415529     
   2785877382.6998110     
   2756512682.2802892     
   2734886446.6353078     
   2972062653.5346832     
   2915838294.5941076     
   2866262892.1124392     
   2823638947.2311335     
   2788301796.6152215     
   3112463869.9993186     
   3043519536.7842312     
   2980589562.3802433     
   2924010854.4757471     
   2874165886.2013712     
   3283675242.6200385     
   3201890776.1077189     
   3125463403.5531201     
   3054741087.0622869     
   2990127895.4440017     
   2715350170.9407759     
   2696738895.0605865     
   2685764062.9280262     
   2682640248.3328147     
   2687587320.4800801     
   2734886446.6353078     
   2703793390.0777202     
   2680246132.3073812     
   2664549928.9194784     
   2657023394.6298485     
   2788301796.6152215     
   2743273883.1569223     
   2705550753.2685957     
   2675529574.1665139     
   2653636083.7130899     
   2874165886.2013712     
   2814218919.3081164     
   2761178780.7941723     
   2715520595.8437071     
   2677769513.0322003     
   2990127895.4440017     
   2914723489.9617453     
   2845692485.2183533     
   2783561550.7899981     
   2728931683.3123102     
   2687587320.4800801     
   2577334284.0134869     
   2475191257.7548895     
   2382140355.6479673     
   2299532317.4668283     
   2657023394.6298485     
   2532863118.7196531     
   2419025092.2808409     
   2316038281.1903977     
   2224529522.1473122     
   2653636083.7130899     
   2519407643.3271360     
   2398386975.8851690     
   2291262993.8584661     
   2198921452.8616118     
   2677769513.0322003     
   2535612265.2261944     
   2410307692.0542879     
   2303437113.8368363     
   2217256153.9106879     
   2728931683.3123102     
   2579159452.3375983     
   2450786060.2132716     
   2347099811.5537548     
   2272833259.2893767     
   3625387396.5010800     
   3720037070.4554505     
   3825947903.4694686     
   3943046420.8899398     
   4071231488.1902118     
   4134470511.3871183     
   4224663997.9649901     
   4320776137.2074518     
   4421145570.5392694     
   4524313743.4729948     
   4643674484.7753048     
   4755723274.5005121     
   4868884564.5323000     
   4980527168.0741787     
   5088729558.2096214     
   5151483607.5068302     
   5311394574.8171244     
   5467917864.8421383     
   5618171091.1970215     
   5760701124.7162828     
   5657634537.7626886     
   5890842022.3840408     
   6116382656.9311094     
   6331819673.5385437     
   6536950746.1721230     
   4071231488.1902118     
   4113113158.4448891     
   4152405666.5372448     
   4188223170.4688463     
   4219841623.9922743     
   4524313743.4729948     
   4539511049.9451847     
   4559410452.3526163     
   4581538196.1138754     
   4604174871.1038113     
   5088729558.2096214     
   5054358934.1488934     
   5030496358.9167728     
   5011936503.0463209     
   4995485811.1711969     
   5760701124.7162828     
   5652336211.6566353     
   5559933919.8895760     
   5474423913.2660875     
   5390276582.9195223     
   6536950746.1721230     
   6328851191.6165943     
   6142877708.3072348     
   5965095434.6218834     
   5786504555.3591108     
   4219841623.9922743     
   4134882469.7334523     
   4056259003.2558889     
   3983083810.0306182     
   3915044206.3774886     
   4604174871.1038113     
   4495052378.7561169     
   4390147247.6647310     
   4289126836.5374088     
   4191885409.2935195     
   4995485811.1711969     
   4867599651.1522827     
   4743050328.6050787     
   4621806034.0806026     
   4503906213.9177656     
   5390276582.9195223     
   5248555901.8093796     
   5110348715.1300430     
   4975704467.3017902     
   4844735668.3822250     
   5786504555.3591108     
   5635247482.6871443     
   5488623820.1757584     
   5346553367.8116121     
   5209122351.8058672     
   3915044206.3774886     
   3831470080.4315882     
   3751540617.2880354     
   3675455945.7876601     
   3603453696.5967875     
   4191885409.2935195     
   4096627347.2942920     
   4004101347.9159460     
   3914481601.0542784     
   3827991276.7032909     
   4503906213.9177656     
   4396637310.6927595     
   4291135039.5094771     
   4187517418.2440701     
   4085965081.4916630     
   4844735668.3822250     
   4725320404.1305466     
   4606708295.8546114     
   4488938222.2226973     
   4372126045.4956503     
   5209122351.8058672     
   5077537530.1080208     
   4945834427.6245556     
   4813957016.0342693     
   4681940957.6214724     
   3603453696.5967875     
   3515280889.8777428     
   3432336049.4807949     
   3354985625.9469032     
   3283675242.6200385     
   3827991276.7032909     
   3723622617.3913021     
   3623708460.8289857     
   3528593717.2243204     
   3438710377.1918645     
   4085965081.4916630     
   3965818074.5532136     
   3849400282.5702195     
   3737014922.9191737     
   3629054447.5134330     
   4372126045.4956503     
   4236674142.4446487     
   4104302318.4439607     
   3975261723.8089080     
   3849890252.0696998     
   4681940957.6214724     
   4531632785.0923557     
   4383843013.1274815     
   4238767987.0608482     
   4096685365.6918964     
   3283675242.6200385     
   3201890776.1077189     
   3125463403.5531201     
   3054741087.0622869     
   2990127895.4440017     
   3438710377.1918645     
   3343313296.7996039     
   3252695236.9975343     
   3167200095.7447529     
   3087240378.1173644     
   3629054447.5134330     
   3520360680.7882590     
   3415879638.4115314     
   3315934247.4295135     
   3220925107.7012148     
   3849890252.0696998     
   3728274969.0534225     
   3610351206.2782040     
   3496411251.1206379     
   3386830741.3497863     
   4096685365.6918964     
   3962498263.6173353     
   3831544737.7781181     
   3704083303.7691951     
   3580459037.6760831     
   2990127895.4440017     
   2914723489.9617453     
   2845692485.2183533     
   2783561550.7899981     
   2728931683.3123102     
   3087240378.1173644     
   2996584756.1832423     
   2910185615.8827114     
   2828443782.2201495     
   2751827465.5826092     
   3220925107.7012148     
   3118323412.5576096     
   3018170847.4095368     
   2920710325.6084948     
   2826228925.5314813     
   3386830741.3497863     
   3276133016.0254331     
   3166498942.7849765     
   3058032631.7152796     
   2950856261.7392783     
   3580459037.6760831     
   3465697391.9224167     
   3351072528.7557597     
   3236601461.9446058     
   3122303695.9425812     
   2728931683.3123102     
   2579159452.3375983     
   2450786060.2132716     
   2347099811.5537548     
   2272833259.2893767     
   2751827465.5826092     
   2581028372.3231382     
   2425240508.1745172     
   2287052040.0623832     
   2170054608.8460078     
   2826228925.5314813     
   2635303571.9595637     
   2452251335.9350390     
   2278482110.5225120     
   2115944864.0192399     
   2950856261.7392783     
   2745350968.2154803     
   2540954895.1474519     
   2337892488.4431467     
   2136473731.3547034     
   3122303695.9425812     
   2911405179.4981928     
   2696534655.6883759     
   2477538803.8905392     
   2254369997.5496354     
   5657634537.7626886     
   5890842022.3840408     
   6116382656.9311094     
   6331819673.5385437     
   6536950746.1721230     
   6491331937.5734892     
   6586636675.9209776     
   6757279351.9696712     
   6961208283.8932476     
   7171771869.8261709     
   7982053108.7022696     
   7734679906.6063242     
   7668890773.2442989     
   7669415333.4876928     
   7666331796.3444643     
   10130240239.066483     
   9321809283.0363235     
   8826026671.2983704     
   8443099331.3395290     
   8035230756.8740559     
   12935978030.574839     
   11340732333.730595     
   10209849823.714602     
   9272030015.1829815     
   8302834836.2423706     
   6536950746.1721230     
   6328851191.6165943     
   6142877708.3072348     
   5965095434.6218834     
   5786504555.3591108     
   7171771869.8261709     
   6911049482.7328758     
   6658155401.3758821     
   6409216028.6390162     
   6161081553.9828253     
   7666331796.3444643     
   7381087840.5688524     
   7101152832.6628942     
   6826605741.8100605     
   6557645449.2853403     
   8035230756.8740559     
   7746611077.8434849     
   7473562211.5452957     
   7214142167.1423273     
   6968358017.9455051     
   8302834836.2423706     
   8020178968.4512815     
   7779514372.7895069     
   7570180213.4195681     
   7387206733.9442434     
   5786504555.3591108     
   5635247482.6871443     
   5488623820.1757584     
   5346553367.8116121     
   5209122351.8058672     
   6161081553.9828253     
   6011136781.9778652     
   5862898184.6743412     
   5716412871.8720903     
   5571752987.4006414     
   6557645449.2853403     
   6405933165.1342688     
   6252901085.5221891     
   6098528225.3309269     
   5942844423.7787504     
   6968358017.9455051     
   6813200016.4017048     
   6653675171.5873489     
   6489514002.7850208     
   6320658182.5439386     
   7387206733.9442434     
   7227948556.0895519     
   7061363487.3200874     
   6886775464.9958439     
   6703989781.2344513     
   5209122351.8058672     
   5077537530.1080208     
   4945834427.6245556     
   4813957016.0342693     
   4681940957.6214724     
   5571752987.4006414     
   5425209094.8832054     
   5279451418.2581673     
   5134496842.3957443     
   4990425511.2146492     
   5942844423.7787504     
   5779347750.6899633     
   5617503871.0628929     
   5457363730.4266844     
   5299053021.6643915     
   6320658182.5439386     
   6137651008.8486300     
   5957124702.4817772     
   5779144593.5106630     
   5603897154.1995821     
   6703989781.2344513     
   6498463561.2956219     
   6296215745.4537439     
   6097322818.4153681     
   5902060154.7328939     
   4681940957.6214724     
   4531632785.0923557     
   4383843013.1274815     
   4238767987.0608482     
   4096685365.6918964     
   4990425511.2146492     
   4831411699.6005011     
   4673419342.3912020     
   4516581591.5734091     
   4361072764.2584019     
   5299053021.6643915     
   5134679611.5246487     
   4970246041.4530497     
   4805815090.1692467     
   4641466290.7184134     
   5603897154.1995821     
   5437907556.7593832     
   5271124592.1629066     
   5103547909.4370813     
   4935186977.3606014     
   5902060154.7328939     
   5738447587.7936573     
   5573603969.4005442     
   5407480645.4808855     
   5240048982.4845772     
   4096685365.6918964     
   3962498263.6173353     
   3831544737.7781181     
   3704083303.7691951     
   3580459037.6760831     
   4361072764.2584019     
   4214240393.4294295     
   4070082832.0284929     
   3928835252.6818333     
   3790820392.0131502     
   4641466290.7184134     
   4481475866.0846815     
   4323606938.8831024     
   4168066839.9173460     
   4015149604.9678178     
   4935186977.3606014     
   4761584231.3175478     
   4589561890.8894176     
   4419296203.3091173     
   4251047705.5697651     
   5240048982.4845772     
   5052424730.9356422     
   4865856251.1930780     
   4680486495.9063492     
   4496539049.6336212     
   3580459037.6760831     
   3465697391.9224167     
   3351072528.7557597     
   3236601461.9446058     
   3122303695.9425812     
   3790820392.0131502     
   3669028862.7510753     
   3549401531.8943439     
   3432198455.7565122     
   3317780284.0713081     
   4015149604.9678178     
   3873735269.2837281     
   3735430982.6905165     
   3600887313.8692951     
   3471111367.1370149     
   4251047705.5697651     
   4077199630.8757811     
   3906418624.2576981     
   3739862897.9844384     
   3579477968.2116480     
   4496539049.6336212     
   4277521871.1213956     
   4060620075.7598925     
   3847538432.2921467     
   3641395044.0498648     
   3122303695.9425812     
   2911405179.4981928     
   2696534655.6883759     
   2477538803.8905392     
   2254369997.5496354     
   3317780284.0713081     
   3102548502.3590879     
   2885840871.5009122     
   2669465751.0952702     
   2457688035.5111189     
   3471111367.1370149     
   3211962543.4167547     
   2953227352.3587241     
   2702947652.3952613     
   2478464349.3187385     
   3579477968.2116480     
   3237741844.4047647     
   2896184923.0123081     
   2572480003.9584122     
   2308053465.5837741     
   3641395044.0498648     
   3179902210.6937828     
   2714560427.8741241     
   2275355881.0494189     
   1948190759.7337515     
 </DataArray>
 <DataArray  type="Float64" Name="strain" NumberOfComponents="3" format="ascii">
  0.20349527688750602        0.0000000000000000       0.12539549162049829     
  0.18665805995412024       -2.7319535866079461E-002   7.4342858563016645E-002
  0.16982084302073447       -4.4669484071899732E-002   3.5129765281763300E-002
  0.15298362608734867       -5.2049844617460844E-002   7.7562117767382074E-003
  0.13614640915396289       -4.9460617502762760E-002  -7.7778019520585440E-003
  0.15985544679039126        0.0000000000000000        9.6445446533797358E-002
  0.15317532952622842       -2.1840243385614019E-002   6.2687440566395275E-002
  0.14649521226206552       -3.6169452588070486E-002   3.7404094161210703E-002
  0.13981509499790268       -4.2987627607369419E-002   2.0595407318243660E-002
  0.13313497773373981       -4.2294768443510773E-002   1.2261380037494204E-002
  0.12645237296865311        0.0000000000000000        7.4203970666112701E-002
  0.12656447515970237       -1.6360950905148580E-002   5.5282038311688535E-002
  0.12667657735075166       -2.7669421104241233E-002   4.1469885305471105E-002
  0.12678867954180095       -3.3925410597277973E-002   3.2767511647460501E-002
  0.12690078173285024       -3.5128919384258772E-002   2.9174917337656640E-002
  0.10328605542229150        0.0000000000000000        5.8671064017444277E-002
  0.10682549685454218       -1.0881658424683142E-002   5.2126651798896396E-002
  0.11036493828679284       -1.9169389620411984E-002   4.7327138714544539E-002
  0.11390437971904352       -2.4863193587186538E-002   4.4272524764388678E-002
  0.11744382115129418       -2.7963070325006788E-002   4.2962809948428826E-002
   9.0356494151306449E-002   0.0000000000000000        4.9846726587792115E-002
   9.3958394610747759E-002  -5.4023659442177015E-003   5.3221281028018909E-002
   9.7560295070189068E-002  -1.0669358136582735E-002   5.4975854388430952E-002
  0.10116219552963038       -1.5800976577095102E-002   5.5110446669028257E-002
  0.10476409598907167       -2.0797221265754798E-002   5.3625057869810797E-002
  0.13614640915396289       -4.9460617502762760E-002  -7.7778019520585440E-003
  0.13294964577756876       -4.2931585144112119E-002  -3.3782619331616179E-003
  0.12975288240117464       -3.8492529957815609E-002  -3.9943790520681477E-004
  0.12655611902478048       -3.6143451943873112E-002   1.1586701318060874E-003
  0.12335935564838638       -3.5884351102284773E-002   1.2960621778767834E-003
  0.13313497773373981       -4.2294768443510773E-002   1.2261380037494204E-002
  0.12890645888658225       -3.8433972812419934E-002   1.2194546785379633E-002
  0.12467794003942471       -3.5748338430022238E-002   1.1484918582680324E-002
  0.12044942119226718       -3.4237865296317643E-002   1.0132495429396305E-002
  0.11622090234510962       -3.3902553411306283E-002   8.1372773255275199E-003
  0.12690078173285024       -3.5128919384258772E-002   2.9174917337656640E-002
  0.12241842845528658       -3.3936360480727713E-002   2.5556526738191566E-002
  0.11793607517772295       -3.3004146902228859E-002   2.2073262228499087E-002
  0.11345372190015930       -3.2332278648762244E-002   1.8725123808579137E-002
  0.10897136862259563       -3.1920755720327793E-002   1.5512111478431678E-002
  0.11744382115129418       -2.7963070325006788E-002   4.2962809948428826E-002
  0.11348555448368172       -2.9438748149035517E-002   3.6707677925274261E-002
  0.10952728781606925       -3.0259955374435536E-002   3.1365593032249478E-002
  0.10556902114845679       -3.0426692001206790E-002   2.6936555269354477E-002
  0.10161075448084432       -2.9938958029349302E-002   2.3420564636589401E-002
  0.10476409598907167       -2.0797221265754798E-002   5.3625057869810797E-002
  0.10210783697176767       -2.4941135817343325E-002   4.5648000346627582E-002
   9.9451577954463674E-002  -2.7515763846642168E-002   3.9361910993931500E-002
   9.6795318937159661E-002  -2.8521105353651346E-002   3.4766789811722515E-002
   9.4139059919855661E-002  -2.7957160338370812E-002   3.1862636800000649E-002
  0.12335935564838638       -3.5884351102284773E-002   1.2960621778767834E-003
  0.12041055926075600       -3.6370186765615126E-002   6.2985623029478133E-004
  0.11746176287312556       -3.6255918266428780E-002   1.5219534798299739E-004
  0.11451296648549514       -3.5541545604725777E-002  -1.3692046905868643E-004
  0.11156417009786473       -3.4227068780505798E-002  -2.3749122082966645E-004
  0.11622090234510962       -3.3902553411306283E-002   8.1372773255275199E-003
  0.11344800534501831       -3.3967516009357643E-002   7.8347035035190721E-003
  0.11067510834492700       -3.3657866324841315E-002   7.6953833913187553E-003
  0.10790221134483566       -3.2973604357757272E-002   7.7193169889260733E-003
  0.10512931434474432       -3.1914730108105555E-002   7.9065042963415988E-003
  0.10897136862259563       -3.1920755720327793E-002   1.5512111478431678E-002
  0.10634907965458106       -3.1564845253100174E-002   1.5347677902047999E-002
  0.10372679068656641       -3.1059814383253843E-002   1.5321206680009948E-002
  0.10110450171855181       -3.0405663110788905E-002   1.5432697812317327E-002
   9.8482212750537187E-002  -2.9602391435705283E-002   1.5682151298970215E-002
  0.10161075448084432       -2.9938958029349302E-002   2.3420564636589401E-002
   9.9113782189444027E-002  -2.9162174496842670E-002   2.3168779425881369E-002
   9.6616809898043776E-002  -2.8461762441666403E-002   2.3029665214056576E-002
   9.4119837606643553E-002  -2.7837721863820497E-002   2.3003222001114872E-002
   9.1622865315243246E-002  -2.7290052763304998E-002   2.3089449787056300E-002
   9.4139059919855661E-002  -2.7957160338370812E-002   3.1862636800000649E-002
   9.1742112949607407E-002  -2.6759503740585194E-002   3.1298008075019187E-002
   8.9345165979359140E-002  -2.5863710500078962E-002   3.0820758993458597E-002
   8.6948219009110872E-002  -2.5269780616852117E-002   3.0430889555318835E-002
   8.4551272038862590E-002  -2.4977714090904685E-002   3.0128399760599889E-002
  0.11156417009786473       -3.4227068780505798E-002  -2.3749122082966645E-004
  0.10825133060633529       -3.2730756247102644E-002   1.2986477614135294E-005
  0.10493849111480583       -3.1470876457849212E-002   6.0841173402498283E-004
  0.10162565162327637       -3.0447429412745648E-002   1.5487845484030427E-003
   9.8312812131746918E-002  -2.9660415111792016E-002   2.8341049207480373E-003
  0.10512931434474432       -3.1914730108105555E-002   7.9065042963415988E-003
  0.10214342753992822       -3.0737153670303302E-002   7.7399209572368843E-003
   9.9157540735112099E-002  -2.9696785138767078E-002   7.8822954335920209E-003
   9.6171653930295989E-002  -2.8793624513497033E-002   8.3336277254065921E-003
   9.3185767125479879E-002  -2.8027671794493503E-002   9.0939178326810144E-003
   9.8482212750537187E-002  -2.9602391435705283E-002   1.5682151298970215E-002
   9.5787288889927033E-002  -2.8743551093503683E-002   1.5197731760200735E-002
   9.3092365029316837E-002  -2.7922693819684777E-002   1.4986280294383474E-002
   9.0397441168706655E-002  -2.7139819614248360E-002   1.5047796901518376E-002
   8.7702517308096473E-002  -2.6394928477194796E-002   1.5382281581605609E-002
   9.1622865315243246E-002  -2.7290052763304998E-002   2.3089449787056300E-002
   8.9182914656331630E-002  -2.6749948516704231E-002   2.2386418886505548E-002
   8.6742963997420000E-002  -2.6148602500602504E-002   2.1920366316399514E-002
   8.4303013338508412E-002  -2.5486014714999838E-002   2.1691292076738443E-002
   8.1863062679596768E-002  -2.4762185159896158E-002   2.1699196167522198E-002
   8.4551272038862590E-002  -2.4977714090904685E-002   3.0128399760599889E-002
   8.2330304839142138E-002  -2.4756345939904750E-002   2.9305982336151337E-002
   8.0109337639421629E-002  -2.4374511181520203E-002   2.8684553499640247E-002
   7.7888370439701135E-002  -2.3832209815751147E-002   2.8264113251066710E-002
   7.5667403239980641E-002  -2.3129441842597548E-002   2.8044661590430453E-002
   9.8312812131746918E-002  -2.9660415111792016E-002   2.8341049207480373E-003
   9.5550412450889355E-002  -2.8942988154534083E-002   3.5319123737245772E-003
   9.2788012770031847E-002  -2.8128303140517050E-002   4.1332865124838192E-003
   9.0025613089174339E-002  -2.7216360069741593E-002   4.6382273370253607E-003
   8.7263213408316775E-002  -2.6207158942207376E-002   5.0467348473499651E-003
   9.3185767125479879E-002  -2.8027671794493503E-002   9.0939178326810144E-003
   9.0366835929734268E-002  -2.7295749823509130E-002   9.5586245073637777E-003
   8.7547904733988657E-002  -2.6494681442297038E-002   1.0006701466487702E-002
   8.4728973538243046E-002  -2.5624466650857294E-002   1.0438148710052893E-002
   8.1910042342497436E-002  -2.4685105449189837E-002   1.0852966238059203E-002
   8.7702517308096473E-002  -2.6394928477194796E-002   1.5382281581605609E-002
   8.4906858196121399E-002  -2.5648511492484080E-002   1.5585775831463575E-002
   8.2111199084146380E-002  -2.4861059744077034E-002   1.5852443964421155E-002
   7.9315539972171334E-002  -2.4032573231973109E-002   1.6182285980478692E-002
   7.6519880860196260E-002  -2.3163051956172354E-002   1.6575301879636239E-002
   8.1863062679596768E-002  -2.4762185159896158E-002   2.1699196167522198E-002
   7.9170479250050857E-002  -2.4001273161459301E-002   2.1613366346024041E-002
   7.6477895820504987E-002  -2.3227438045856749E-002   2.1670514006284475E-002
   7.3785312390959090E-002  -2.2440679813088699E-002   2.1870639148303304E-002
   7.1092728961413207E-002  -2.1640998463154953E-002   2.2213741772080728E-002
   7.5667403239980641E-002  -2.3129441842597548E-002   2.8044661590430453E-002
   7.3157699091522560E-002  -2.2354034830434355E-002   2.7641396051045430E-002
   7.0647994943064465E-002  -2.1593816347636761E-002   2.7460911592077461E-002
   6.8138290794606343E-002  -2.0848786394204476E-002   2.7503208213526649E-002
   6.5628586646148263E-002  -2.0118944970137609E-002   2.7768285915392932E-002
   8.7263213408316775E-002  -2.6207158942207376E-002   5.0467348473499651E-003
   8.4150860190373600E-002  -2.5172132239048184E-002   5.2355494826584192E-003
   8.1038506972430535E-002  -2.4182712441397858E-002   5.6477272964191028E-003
   7.7926153754487415E-002  -2.3238899549256467E-002   6.2832682886324598E-003
   7.4813800536544295E-002  -2.2340693562623914E-002   7.1421724592979352E-003
   8.1910042342497436E-002  -2.4685105449189837E-002   1.0852966238059203E-002
   7.9016744937925154E-002  -2.3736247965043866E-002   1.0952602716414295E-002
   7.6123447533352789E-002  -2.2837544326168899E-002   1.1266987643058363E-002
   7.3230150128780452E-002  -2.1988994532565167E-002   1.1796121017991795E-002
   7.0336852724208088E-002  -2.1190598584231890E-002   1.2540002841214093E-002
   7.6519880860196260E-002  -2.3163051956172354E-002   1.6575301879636239E-002
   7.3837024538831467E-002  -2.2300363691039965E-002   1.6581213261275832E-002
   7.1154168217466562E-002  -2.1492376210940384E-002   1.6793258361041230E-002
   6.8471311896101700E-002  -2.0739089515873756E-002   1.7211437178932358E-002
   6.5788455574736865E-002  -2.0040503605840032E-002   1.7835749714949473E-002
   7.1092728961413207E-002  -2.1640998463154953E-002   2.2213741772080728E-002
   6.8611698993092593E-002  -2.0864479417035967E-002   2.2121381117242881E-002
   6.6130669024771938E-002  -2.0147208095711758E-002   2.2226539450367629E-002
   6.3649639056451268E-002  -1.9489184499182622E-002   2.2529216771454971E-002
   6.1168609088130592E-002  -1.8890408627448202E-002   2.3029413080504803E-002
   6.5628586646148263E-002  -2.0118944970137609E-002   2.7768285915392932E-002
   6.3340768300708561E-002  -1.9428595143031802E-002   2.7573106284315724E-002
   6.1052949955268845E-002  -1.8802039980483048E-002   2.7566830911037649E-002
   5.8765131609829109E-002  -1.8239279482491051E-002   2.7749459795558928E-002
   5.6477313264389373E-002  -1.7740313649056150E-002   2.8120992937879508E-002
   7.4813800536544295E-002  -2.2340693562623914E-002   7.1421724592979352E-003
   7.1099099606244942E-002  -2.1433497071270569E-002   7.3873110089244243E-003
   6.7384398675945589E-002  -2.0462712664966659E-002   8.5092277253700499E-003
   6.3669697745646209E-002  -1.9428340343712346E-002   1.0507922608634895E-002
   5.9954996815346884E-002  -1.8330380107507205E-002   1.3383395658719266E-002
   7.0336852724208088E-002  -2.1190598584231890E-002   1.2540002841214093E-002
   6.7388947740501137E-002  -2.0393331825194094E-002   1.2659451524294207E-002
   6.4441042756794159E-002  -1.9548169599475307E-002   1.3435713933740101E-002
   6.1493137773087195E-002  -1.8655111907075764E-002   1.4868790069551094E-002
   5.8545232789380230E-002  -1.7714158747995312E-002   1.6958679931727838E-002
   6.5788455574736865E-002  -2.0040503605840032E-002   1.7835749714949473E-002
   6.3387382097168515E-002  -1.9353166579117315E-002   1.7813816083213557E-002
   6.0986308619600180E-002  -1.8633626533983635E-002   1.8228731737389536E-002
   5.8585235142031837E-002  -1.7881883470438852E-002   1.9080496677477334E-002
   5.6184161664463467E-002  -1.7097937388483087E-002   2.0369110903476706E-002
   6.1168609088130592E-002  -1.8890408627448202E-002   2.3029413080504803E-002
   5.9094402676247194E-002  -1.8313001333040688E-002   2.2850404685682946E-002
   5.7020196264363693E-002  -1.7719083468492013E-002   2.2888281136319615E-002
   5.4945989852480226E-002  -1.7108655033802107E-002   2.3143042432413698E-002
   5.2871783440596787E-002  -1.6481716028971249E-002   2.3614688573966008E-002
   5.6477313264389373E-002  -1.7740313649056150E-002   2.8120992937879508E-002
   5.4510009477737043E-002  -1.7272836086963977E-002   2.7769217331702345E-002
   5.2542705691084712E-002  -1.6804540403000542E-002   2.7414362130529252E-002
   5.0575401904432396E-002  -1.6335426597165314E-002   2.7056427334360186E-002
   4.8608098117779996E-002  -1.5865494669459135E-002   2.6695412943195829E-002
   5.9954996815346884E-002  -1.8330380107507205E-002   1.3383395658719266E-002
   5.2169011524741626E-002  -1.6345258944244323E-002   1.2633798605393154E-002
   4.4383026234136425E-002  -1.2649403841816009E-002   1.4209686199209259E-002
   3.6597040943531112E-002  -7.2428148002223469E-003   1.8111058440166805E-002
   2.8811055652925965E-002  -1.2549181946308607E-004   2.4337915328266124E-002
   5.8545232789380230E-002  -1.7714158747995312E-002   1.6958679931727838E-002
   5.2779188299898971E-002  -1.6084540688229676E-002   1.6472316070361259E-002
   4.7013143810417657E-002  -1.3125488293773829E-002   1.7700349164101015E-002
   4.1247099320936453E-002  -8.8370015646285008E-003   2.0642779212946549E-002
   3.5481054831455139E-002  -3.2190805007927814E-003   2.5299606216898418E-002
   5.6184161664463467E-002  -1.7097937388483087E-002   2.0369110903476706E-002
   5.1826970284070406E-002  -1.5823822432214807E-002   1.9764680629594827E-002
   4.7469778903677318E-002  -1.3601572745732093E-002   2.0263559618782651E-002
   4.3112587523284202E-002  -1.0431188329034988E-002   2.1865747871040592E-002
   3.8755396142891141E-002  -6.3126691821229208E-003   2.4571245386369234E-002
   5.2871783440596787E-002  -1.6481716028971249E-002   2.3614688573966008E-002
   4.9312357477255958E-002  -1.5563104176200049E-002   2.2510892283092547E-002
   4.5752931513915102E-002  -1.4077657197690024E-002   2.1899317563253598E-002
   4.2193505550574335E-002  -1.2025375093440753E-002   2.1779964414448939E-002
   3.8634079587233486E-002  -9.4062578634527272E-003   2.2152832836678571E-002
   4.8608098117779996E-002  -1.5865494669459135E-002   2.6695412943195829E-002
   4.5235349879455627E-002  -1.5302385920185291E-002   2.4710951030855854E-002
   4.1862601641131258E-002  -1.4553741649648136E-002   2.2607622997514260E-002
   3.8489853402807001E-002  -1.3619561857847230E-002   2.0385428843171030E-002
   3.5117105164482521E-002  -1.2499846544782756E-002   1.8044368567826652E-002
   9.0356494151306449E-002   0.0000000000000000        4.9846726587792115E-002
   9.3958394610747759E-002  -5.4023659442177015E-003   5.3221281028018909E-002
   9.7560295070189068E-002  -1.0669358136582735E-002   5.4975854388430952E-002
  0.10116219552963038       -1.5800976577095102E-002   5.5110446669028257E-002
  0.10476409598907167       -2.0797221265754798E-002   5.3625057869810797E-002
   8.2423140313380105E-002   0.0000000000000000        4.4797467930620401E-002
   8.4634287108030934E-002  -4.5736237045695821E-003   4.8279436042168417E-002
   8.6845433902681748E-002  -9.0375658298795427E-003   5.0599877903950201E-002
   8.9056580697332577E-002  -1.3391826375929883E-002   5.1758793515965774E-002
   9.1267727491983391E-002  -1.7636405342720603E-002   5.1756182878215096E-002
   7.4245445066194571E-002   0.0000000000000000        4.0589797599393330E-002
   7.5524293026103417E-002  -3.7448814649214610E-003   4.4153487209669530E-002
   7.6803140986012278E-002  -7.4057735231763469E-003   4.7014105400228004E-002
   7.8081988945921152E-002  -1.0982676174764658E-002   4.9171652171068801E-002
   7.9360836905829985E-002  -1.4475589419686394E-002   5.0626127522191859E-002
   6.5823408409749859E-002   0.0000000000000000        3.7223715594110904E-002
   6.6628412364965264E-002  -2.9161392252733407E-003   4.0843434530522221E-002
   6.7433416320180684E-002  -5.7739812164731546E-003   4.4218536877264375E-002
   6.8238420275396075E-002  -8.5735259735994374E-003   4.7349022634337330E-002
   6.9043424230611494E-002  -1.1314773496652195E-002   5.0234891801741094E-002
   5.7157030344045977E-002   0.0000000000000000        3.4699221914773121E-002
   5.7946645124616454E-002  -2.0873969856252204E-003   3.8349278004726539E-002
   5.8736259905186938E-002  -4.1421889097699571E-003   4.2213172335059279E-002
   5.9525874685757416E-002  -6.1643757724342135E-003   4.6290904905771361E-002
   6.0315489466327886E-002  -8.1539575736179880E-003   5.0582475716862751E-002
  0.10476409598907167       -2.0797221265754798E-002   5.3625057869810797E-002
  0.10210783697176767       -2.4941135817343325E-002   4.5648000346627582E-002
   9.9451577954463674E-002  -2.7515763846642168E-002   3.9361910993931500E-002
   9.6795318937159661E-002  -2.8521105353651346E-002   3.4766789811722515E-002
   9.4139059919855661E-002  -2.7957160338370812E-002   3.1862636800000649E-002
   9.1267727491983391E-002  -1.7636405342720603E-002   5.1756182878215096E-002
   9.0064705808901066E-002  -2.1213860085353170E-002   4.6527799125374532E-002
   8.8861684125818755E-002  -2.3566747958929095E-002   4.2514921870490295E-002
   8.7658662442736457E-002  -2.4695068963448339E-002   3.9717551113562288E-002
   8.6455640759654159E-002  -2.4598823098910927E-002   3.8135686854590622E-002
   7.9360836905829985E-002  -1.4475589419686394E-002   5.0626127522191859E-002
   7.9135590884438542E-002  -1.7486584353363012E-002   4.7801697886460930E-002
   7.8910344863047113E-002  -1.9617732071216011E-002   4.5717313076155473E-002
   7.8685098841655685E-002  -2.0869032573245332E-002   4.4372973091275483E-002
   7.8459852820264214E-002  -2.1240485859451028E-002   4.3768677931820918E-002
   6.9043424230611494E-002  -1.1314773496652195E-002   5.0234891801741094E-002
   6.9320492198380088E-002  -1.3759308621372868E-002   4.9469696629886768E-002
   6.9597560166148695E-002  -1.5668716183502920E-002   4.8969084610927111E-002
   6.9874628133917288E-002  -1.7042996183042336E-002   4.8733055744862037E-002
   7.0151696101685895E-002  -1.7882148619991156E-002   4.8761610031691639E-002
   6.0315489466327886E-002  -8.1539575736179880E-003   5.0582475716862751E-002
   6.0619409750725710E-002  -1.0032032889382713E-002   5.1531795355652082E-002
   6.0923330035123513E-002  -1.1719700295789856E-002   5.2270236474805158E-002
   6.1227250319521337E-002  -1.3216959792839324E-002   5.2797799074322048E-002
   6.1531170603919147E-002  -1.4523811380531236E-002   5.3114483154202759E-002
   9.4139059919855661E-002  -2.7957160338370812E-002   3.1862636800000649E-002
   9.1742112949607407E-002  -2.6759503740585194E-002   3.1298008075019187E-002
   8.9345165979359140E-002  -2.5863710500078962E-002   3.0820758993458597E-002
   8.6948219009110872E-002  -2.5269780616852117E-002   3.0430889555318835E-002
   8.4551272038862590E-002  -2.4977714090904685E-002   3.0128399760599889E-002
   8.6455640759654159E-002  -2.4598823098910927E-002   3.8135686854590622E-002
   8.4191292488444258E-002  -2.3953585635093817E-002   3.7089684892149942E-002
   8.1926944217234371E-002  -2.3434931841774032E-002   3.6221500684365325E-002
   7.9662595946024470E-002  -2.3042861718951500E-002   3.5531134231236633E-002
   7.7398247674814596E-002  -2.2777375266626265E-002   3.5018585532763769E-002
   7.8459852820264214E-002  -2.1240485859451028E-002   4.3768677931820918E-002
   7.6418541359327852E-002  -2.1147667529602482E-002   4.2416582418703198E-002
   7.4377229898391475E-002  -2.1006153183469128E-002   4.1332742771476610E-002
   7.2335918437455085E-002  -2.0815942821050884E-002   4.0517158990141022E-002
   7.0294606976518736E-002  -2.0577036442347860E-002   3.9969831074696566E-002
   7.0151696101685895E-002  -1.7882148619991156E-002   4.8761610031691639E-002
   6.8423859562258160E-002  -1.8341749424111160E-002   4.7278700654678991E-002
   6.6696023022830397E-002  -1.8577374525164204E-002   4.6154485254792613E-002
   6.4968186483402662E-002  -1.8589023923150302E-002   4.5388963832032253E-002
   6.3240349943974900E-002  -1.8376697618069475E-002   4.4982136386398190E-002
   6.1531170603919147E-002  -1.4523811380531236E-002   5.3114483154202759E-002
   6.0207247097235156E-002  -1.5535831318619780E-002   5.1676039600077280E-002
   5.8883323590551186E-002  -1.6148595866859294E-002   5.0686728134313117E-002
   5.7559400083867215E-002  -1.6362105025249658E-002   5.0146548756910214E-002
   5.6235476577183210E-002  -1.6176358793791021E-002   5.0055501467868704E-002
   8.4551272038862590E-002  -2.4977714090904685E-002   3.0128399760599889E-002
   8.2330304839142138E-002  -2.4756345939904750E-002   2.9305982336151337E-002
   8.0109337639421629E-002  -2.4374511181520203E-002   2.8684553499640247E-002
   7.7888370439701135E-002  -2.3832209815751147E-002   2.8264113251066710E-002
   7.5667403239980641E-002  -2.3129441842597548E-002   2.8044661590430453E-002
   7.7398247674814596E-002  -2.2777375266626265E-002   3.5018585532763769E-002
   7.5372676431044575E-002  -2.2515323008850938E-002   3.4380050086471353E-002
   7.3347105187274553E-002  -2.2133555469678302E-002   3.3931317964142407E-002
   7.1321533943504545E-002  -2.1632072649107992E-002   3.3672389165776938E-002
   6.9295962699734523E-002  -2.1010874547140429E-002   3.3603263691375063E-002
   7.0294606976518736E-002  -2.0577036442347860E-002   3.9969831074696566E-002
   6.8453246424725195E-002  -2.0274300077797250E-002   3.9474426280573204E-002
   6.6611885872931695E-002  -1.9892599757836291E-002   3.9157639546439305E-002
   6.4770525321138167E-002  -1.9431935482464979E-002   3.9019470872294994E-002
   6.2929164769344653E-002  -1.8892307251683269E-002   3.9059920258140195E-002
   6.3240349943974900E-002  -1.8376697618069475E-002   4.4982136386398190E-002
   6.1572014820183943E-002  -1.8033277146743514E-002   4.4589110918456805E-002
   5.9903679696392986E-002  -1.7651644045994251E-002   4.4363518246530856E-002
   5.8235344572602037E-002  -1.7231798315821827E-002   4.4305358370620544E-002
   5.6567009448811066E-002  -1.6773739956226101E-002   4.4414631290725801E-002
   5.6235476577183210E-002  -1.6176358793791021E-002   5.0055501467868704E-002
   5.4728981617420860E-002  -1.5792254215689722E-002   4.9724104000122074E-002
   5.3222486657658503E-002  -1.5410688334152319E-002   4.9548954064417096E-002
   5.1715991697896133E-002  -1.5031661149178796E-002   4.9530051660753693E-002
   5.0209496738133769E-002  -1.4655172660768989E-002   4.9667396789131874E-002
   7.5667403239980641E-002  -2.3129441842597548E-002   2.8044661590430453E-002
   7.3157699091522560E-002  -2.2354034830434355E-002   2.7641396051045430E-002
   7.0647994943064465E-002  -2.1593816347636761E-002   2.7460911592077461E-002
   6.8138290794606343E-002  -2.0848786394204476E-002   2.7503208213526649E-002
   6.5628586646148263E-002  -2.0118944970137609E-002   2.7768285915392932E-002
   6.9295962699734523E-002  -2.1010874547140429E-002   3.3603263691375063E-002
   6.7008541093113605E-002  -2.0332236964499331E-002   3.3194129798558306E-002
   6.4721119486492701E-002  -1.9658435701908783E-002   3.3006779908999015E-002
   6.2433697879871783E-002  -1.8989470759368979E-002   3.3041214022696955E-002
   6.0146276273250893E-002  -1.8325342136879502E-002   3.3297432139652194E-002
   6.2929164769344653E-002  -1.8892307251683269E-002   3.9059920258140195E-002
   6.0863028627401117E-002  -1.8310439098564252E-002   3.8655270221206711E-002
   5.8796892485457566E-002  -1.7723055056180975E-002   3.8471407110370726E-002
   5.6730756343514037E-002  -1.7130155124533402E-002   3.8508330925632168E-002
   5.4664620201570445E-002  -1.6531739303621534E-002   3.8766041666991144E-002
   5.6567009448811066E-002  -1.6773739956226101E-002   4.4414631290725801E-002
   5.4721161694385109E-002  -1.6288641232629228E-002   4.4024817318990467E-002
   5.2875313939959104E-002  -1.5787674410453138E-002   4.3854793196192718E-002
   5.1029466185533105E-002  -1.5270839489697921E-002   4.3904558922332734E-002
   4.9183618431107128E-002  -1.4738136470363469E-002   4.4174114497410155E-002
   5.0209496738133769E-002  -1.4655172660768989E-002   4.9667396789131874E-002
   4.8582940294065513E-002  -1.4266843366694107E-002   4.9302771091909503E-002
   4.6956383849997244E-002  -1.3852293764725285E-002   4.9156938166464936E-002
   4.5329827405928967E-002  -1.3411523854862422E-002   4.9229898012798215E-002
   4.3703270961860718E-002  -1.2944533637105515E-002   4.9521650630909186E-002
   6.5628586646148263E-002  -2.0118944970137609E-002   2.7768285915392932E-002
   6.3340768300708561E-002  -1.9428595143031802E-002   2.7573106284315724E-002
   6.1052949955268845E-002  -1.8802039980483048E-002   2.7566830911037649E-002
   5.8765131609829109E-002  -1.8239279482491051E-002   2.7749459795558928E-002
   5.6477313264389373E-002  -1.7740313649056150E-002   2.8120992937879508E-002
   6.0146276273250893E-002  -1.8325342136879502E-002   3.3297432139652194E-002
   5.8046764322712122E-002  -1.7688540752015938E-002   3.3045502537014479E-002
   5.5947252372173364E-002  -1.7101557522353171E-002   3.2981281466379589E-002
   5.3847740421634566E-002  -1.6564392447891298E-002   3.3104768927747441E-002
   5.1748228471095781E-002  -1.6077045528630096E-002   3.3415964921117675E-002
   5.4664620201570445E-002  -1.6531739303621534E-002   3.8766041666991144E-002
   5.2752218920135971E-002  -1.5948486360999964E-002   3.8471338602149359E-002
   5.0839817638701462E-002  -1.5401075064223127E-002   3.8363148343513703E-002
   4.8927416357266988E-002  -1.4889505413291152E-002   3.8441470891083789E-002
   4.7015015075832486E-002  -1.4413777408204043E-002   3.8706306244859920E-002
   4.9183618431107128E-002  -1.4738136470363469E-002   4.4174114497410155E-002
   4.7457132092980206E-002  -1.4208431969983962E-002   4.3850614479720322E-002
   4.5730645754853264E-002  -1.3700592606093222E-002   4.3712431542439825E-002
   4.4004159416726280E-002  -1.3214618378691147E-002   4.3759565685568415E-002
   4.2277673078599393E-002  -1.2750509287777989E-002   4.3992016909106230E-002
   4.3703270961860718E-002  -1.2944533637105515E-002   4.9521650630909186E-002
   4.2161503841244674E-002  -1.2468377578968126E-002   4.9183330169727202E-002
   4.0619736720628630E-002  -1.2000110147963164E-002   4.9029131063157760E-002
   3.9077969600012585E-002  -1.1539731344091215E-002   4.9059053311200820E-002
   3.7536202479396541E-002  -1.1087241167351880E-002   4.9273096913856784E-002
   5.6477313264389373E-002  -1.7740313649056150E-002   2.8120992937879508E-002
   5.4510009477737043E-002  -1.7272836086963977E-002   2.7769217331702345E-002
   5.2542705691084712E-002  -1.6804540403000542E-002   2.7414362130529252E-002
   5.0575401904432396E-002  -1.6335426597165314E-002   2.7056427334360186E-002
   4.8608098117779996E-002  -1.5865494669459135E-002   2.6695412943195829E-002
   5.1748228471095781E-002  -1.6077045528630096E-002   3.3415964921117675E-002
   4.9803473961924541E-002  -1.5609980595211043E-002   3.3090725738141452E-002
   4.7858719452753287E-002  -1.5133661478275856E-002   3.2813664705123133E-002
   4.5913964943582027E-002  -1.4648088177823669E-002   3.2584781822062849E-002
   4.3969210434410738E-002  -1.4153260693855141E-002   3.2404077088960315E-002
   4.7015015075832486E-002  -1.4413777408204043E-002   3.8706306244859920E-002
   4.5144067589095963E-002  -1.3947125103458427E-002   3.8416039546729938E-002
   4.3273120102359501E-002  -1.3462782553551177E-002   3.8225208743511603E-002
   4.1402172615622998E-002  -1.2960749758482026E-002   3.8133813835204908E-002
   3.9531225128886516E-002  -1.2441026718251397E-002   3.8141854821809748E-002
   4.2277673078599393E-002  -1.2750509287777989E-002   4.3992016909106230E-002
   4.0531790359251377E-002  -1.2284269611705735E-002   4.3745158757467734E-002
   3.8785907639903333E-002  -1.1791903628826549E-002   4.3648994245694468E-002
   3.7040024920555290E-002  -1.1273411339140494E-002   4.3703523373786475E-002
   3.5294142201207288E-002  -1.0728792742647417E-002   4.3908746141743712E-002
   3.7536202479396541E-002  -1.1087241167351880E-002   4.9273096913856784E-002
   3.5966642272390686E-002  -1.0621414119952877E-002   4.9078083370354630E-002
   3.4397082065384804E-002  -1.0121024704101866E-002   4.9085021211671631E-002
   3.2827521858378922E-002  -9.5860729197987521E-003   4.9293910437807814E-002
   3.1257961651373040E-002  -9.0165587670437142E-003   4.9704751048762763E-002
   4.8608098117779996E-002  -1.5865494669459135E-002   2.6695412943195829E-002
   4.5235349879455627E-002  -1.5302385920185291E-002   2.4710951030855854E-002
   4.1862601641131258E-002  -1.4553741649648136E-002   2.2607622997514260E-002
   3.8489853402807001E-002  -1.3619561857847230E-002   2.0385428843171030E-002
   3.5117105164482521E-002  -1.2499846544782756E-002   1.8044368567826652E-002
   4.3969210434410738E-002  -1.4153260693855141E-002   3.2404077088960315E-002
   4.0549943675996264E-002  -1.3646790056600827E-002   3.0792648977535919E-002
   3.7130676917581720E-002  -1.3126287296291811E-002   2.9207049946932434E-002
   3.3711410159167197E-002  -1.2591752412927586E-002   2.7647279997150914E-002
   3.0292143400752647E-002  -1.2043185406508394E-002   2.6113339128189805E-002
   3.9531225128886516E-002  -1.2441026718251397E-002   3.8141854821809748E-002
   3.6210135052204627E-002  -1.1991194193016530E-002   3.6731957113092267E-002
   3.2889044975522724E-002  -1.1698832942935368E-002   3.5492583687018887E-002
   2.9567954898840794E-002  -1.1563942968007801E-002   3.4423734543589352E-002
   2.6246864822158877E-002  -1.1586524268234033E-002   3.3525409682803931E-002
   3.5294142201207288E-002  -1.0728792742647417E-002   4.3908746141743712E-002
   3.2215924008080765E-002  -1.0335598329432316E-002   4.2528875437524767E-002
   2.9137705814954191E-002  -1.0271378589579095E-002   4.1464224217772683E-002
   2.6059487621827637E-002  -1.0536133523088197E-002   4.0714792482486960E-002
   2.2981269428701101E-002  -1.1129863129959616E-002   4.0280580231668278E-002
   3.1257961651373040E-002  -9.0165587670437142E-003   4.9704751048762763E-002
   2.8567310543624630E-002  -8.6800024658479358E-003   4.8183403950833592E-002
   2.5876659435876179E-002  -8.8439242362226972E-003   4.7121971539194091E-002
   2.3186008328127790E-002  -9.5083240781684529E-003   4.6520453813843857E-002
   2.0495357220379318E-002  -1.0673201991685310E-002   4.6378850774783098E-002
   5.7157030344045977E-002   0.0000000000000000        3.4699221914773121E-002
   5.7946645124616454E-002  -2.0873969856252204E-003   3.8349278004726539E-002
   5.8736259905186938E-002  -4.1421889097699571E-003   4.2213172335059279E-002
   5.9525874685757416E-002  -6.1643757724342135E-003   4.6290904905771361E-002
   6.0315489466327886E-002  -8.1539575736179880E-003   5.0582475716862751E-002
   4.8658127690401509E-002   0.0000000000000000        3.2794311703208817E-002
   4.9596444056256711E-002  -1.7124619777639594E-003   3.6968484831185068E-002
   5.0534760422111899E-002  -3.4376060975295514E-003   4.1226222889351412E-002
   5.1473076787967087E-002  -5.1754323592967787E-003   4.5567525877707862E-002
   5.2411393153822289E-002  -6.9259407630656369E-003   4.9992393796254420E-002
   4.0738517270135069E-002   0.0000000000000000        3.1286980101246836E-002
   4.1695261911085753E-002  -1.3375269699026984E-003   3.5939983063763802E-002
   4.2652006552036423E-002  -2.7330232852891467E-003   4.0546277646281617E-002
   4.3608751192987107E-002  -4.1864889461593474E-003   4.5105863848800318E-002
   4.4565495833937777E-002  -5.6979239525132971E-003   4.9618741671319889E-002
   3.3398199083246656E-002   0.0000000000000000        3.0177227108887171E-002
   3.4243098689103586E-002  -9.6259196204143702E-004   3.5263772702462726E-002
   3.5087998294960517E-002  -2.0284404730487450E-003   4.0173336605849937E-002
   3.5932897900817454E-002  -3.1975455330219126E-003   4.4905918819048769E-002
   3.6777797506674384E-002  -4.4699071419609590E-003   4.9461519342059258E-002
   2.6637173129736260E-002   0.0000000000000000        2.9465052726129828E-002
   2.7239954390310215E-002  -5.8765695418017648E-004   3.4939853747281868E-002
   2.7842735650884166E-002  -1.3238576608083346E-003   4.0107399768056329E-002
   2.8445516911458121E-002  -2.2086021198844813E-003   4.4967690788453175E-002
   2.9048298172032080E-002  -3.2418903314086070E-003   4.9520726808472450E-002
   6.0315489466327886E-002  -8.1539575736179880E-003   5.0582475716862751E-002
   6.0619409750725710E-002  -1.0032032889382713E-002   5.1531795355652082E-002
   6.0923330035123513E-002  -1.1719700295789856E-002   5.2270236474805158E-002
   6.1227250319521337E-002  -1.3216959792839324E-002   5.2797799074322048E-002
   6.1531170603919147E-002  -1.4523811380531236E-002   5.3114483154202759E-002
   5.2411393153822289E-002  -6.9259407630656369E-003   4.9992393796254420E-002
   5.2542899852021652E-002  -8.5897714870750569E-003   5.1226600066541630E-002
   5.2674406550221008E-002  -1.0067564709563975E-002   5.2326857684068161E-002
   5.2805913248420371E-002  -1.1359320430532324E-002   5.3293166648833976E-002
   5.2937419946619726E-002  -1.2465038649980172E-002   5.4125526960839096E-002
   4.4565495833937777E-002  -5.6979239525132971E-003   4.9618741671319889E-002
   4.4601518812814198E-002  -7.1475100847674094E-003   5.1133464165267956E-002
   4.4637541791690619E-002  -8.4154291233380866E-003   5.2591167873330805E-002
   4.4673564770567047E-002  -9.5016810682253122E-003   5.3991852795508485E-002
   4.4709587749443461E-002  -1.0406265919429111E-002   5.5335518931800942E-002
   3.6777797506674384E-002  -4.4699071419609590E-003   4.9461519342059258E-002
   3.6795266633103355E-002  -5.7052486824597506E-003   5.1252387651831051E-002
   3.6812735759532325E-002  -6.7632935371122064E-003   5.3063167042593146E-002
   3.6830204885961303E-002  -7.6440417059183002E-003   5.4893857514345536E-002
   3.6847674012390273E-002  -8.3474931888780479E-003   5.6744459067088325E-002
   2.9048298172032080E-002  -3.2418903314086070E-003   4.9520726808472450E-002
   2.9124143312889112E-002  -4.2629872801521040E-003   5.1583370526230882E-002
   2.9199988453746155E-002  -5.1111579508863383E-003   5.3742855191855177E-002
   2.9275833594603187E-002  -5.7864023436112900E-003   5.5999180805345238E-002
   2.9351678735460220E-002  -6.2887204583269782E-003   5.8352347366701120E-002
   6.1531170603919147E-002  -1.4523811380531236E-002   5.3114483154202759E-002
   6.0207247097235156E-002  -1.5535831318619780E-002   5.1676039600077280E-002
   5.8883323590551186E-002  -1.6148595866859294E-002   5.0686728134313117E-002
   5.7559400083867215E-002  -1.6362105025249658E-002   5.0146548756910214E-002
   5.6235476577183210E-002  -1.6176358793791021E-002   5.0055501467868704E-002
   5.2937419946619726E-002  -1.2465038649980172E-002   5.4125526960839096E-002
   5.2011455672258830E-002  -1.3320024267636656E-002   5.3359170556754106E-002
   5.1085491397897927E-002  -1.3859582183230934E-002   5.2939600528953891E-002
   5.0159527123537023E-002  -1.4083712396763043E-002   5.2866816877438508E-002
   4.9233562849176127E-002  -1.3992414908232928E-002   5.3140819602207970E-002
   4.4709587749443461E-002  -1.0406265919429111E-002   5.5335518931800942E-002
   4.4079236995329098E-002  -1.1104217216653505E-002   5.5157421989969570E-002
   4.3448886241214769E-002  -1.1570568499602613E-002   5.5223765712346516E-002
   4.2818535487100420E-002  -1.1805319768276371E-002   5.5534550098931719E-002
   4.2188184732986078E-002  -1.1808471022674814E-002   5.6089775149725268E-002
   3.6847674012390273E-002  -8.3474931888780479E-003   5.6744459067088325E-002
   3.6410591066445980E-002  -8.8884101656703900E-003   5.7070793899723672E-002
   3.5973508120501693E-002  -9.2815548159742578E-003   5.7539223684490812E-002
   3.5536425174557407E-002  -9.5269271397897381E-003   5.8149748421389778E-002
   3.5099342228613106E-002  -9.6245271371167250E-003   5.8902368110420489E-002
   2.9351678735460220E-002  -6.2887204583269782E-003   5.8352347366701120E-002
   2.9005517885609469E-002  -6.6726031146872380E-003   5.9099286286016399E-002
   2.8659357035758708E-002  -6.9925411323459152E-003   5.9885974445386930E-002
   2.8313196185907948E-002  -7.2485345113030668E-003   6.0712411844812741E-002
   2.7967035336057183E-002  -7.4405832515585801E-003   6.1578598484293839E-002
   5.6235476577183210E-002  -1.6176358793791021E-002   5.0055501467868704E-002
   5.4728981617420860E-002  -1.5792254215689722E-002   4.9724104000122074E-002
   5.3222486657658503E-002  -1.5410688334152319E-002   4.9548954064417096E-002
   5.1715991697896133E-002  -1.5031661149178796E-002   4.9530051660753693E-002
   5.0209496738133769E-002  -1.4655172660768989E-002   4.9667396789131874E-002
   4.9233562849176127E-002  -1.3992414908232928E-002   5.3140819602207970E-002
   4.7892331774322540E-002  -1.3727678144921998E-002   5.2789430174613447E-002
   4.6551100699468967E-002  -1.3431490534111506E-002   5.2612320984794847E-002
   4.5209869624615387E-002  -1.3103852075801493E-002   5.2609492032752218E-002
   4.3868638549761793E-002  -1.2744762769991924E-002   5.2780943318485526E-002
   4.2188184732986078E-002  -1.1808471022674814E-002   5.6089775149725268E-002
   4.1030250248775643E-002  -1.1663102074154150E-002   5.5752383306346187E-002
   3.9872315764565174E-002  -1.1452292734070583E-002   5.5607304406477306E-002
   3.8714381280354725E-002  -1.1176043002424162E-002   5.5654538450118779E-002
   3.7556446796144276E-002  -1.0834352879214804E-002   5.5894085437270591E-002
   3.5099342228613106E-002  -9.6245271371167250E-003   5.8902368110420489E-002
   3.4142737040780129E-002  -9.5985260033863359E-003   5.8612963395320253E-002
   3.3186131852947137E-002  -9.4730949340296744E-003   5.8533904329464551E-002
   3.2229526665114160E-002  -9.2482339290468445E-003   5.8665190912853528E-002
   3.1272921477281168E-002  -8.9239429884376831E-003   5.9006823145487122E-002
   2.7967035336057183E-002  -7.4405832515585801E-003   6.1578598484293839E-002
   2.7229792150336017E-002  -7.5339499326185777E-003   6.1371170441535700E-002
   2.6492548964614844E-002  -7.4938971339888957E-003   6.1392120753756538E-002
   2.5755305778893678E-002  -7.3204248556695672E-003   6.1641449420956375E-002
   2.5018062593172505E-002  -7.0135330976606181E-003   6.2119156443135204E-002
   5.0209496738133769E-002  -1.4655172660768989E-002   4.9667396789131874E-002
   4.8582940294065513E-002  -1.4266843366694107E-002   4.9302771091909503E-002
   4.6956383849997244E-002  -1.3852293764725285E-002   4.9156938166464936E-002
   4.5329827405928967E-002  -1.3411523854862422E-002   4.9229898012798215E-002
   4.3703270961860718E-002  -1.2944533637105515E-002   4.9521650630909186E-002
   4.3868638549761793E-002  -1.2744762769991924E-002   5.2780943318485526E-002
   4.2456709738428869E-002  -1.2364267464917880E-002   5.2459609646436797E-002
   4.1044780927095924E-002  -1.1972411008814465E-002   5.2348738468080837E-002
   3.9632852115762993E-002  -1.1569193401681610E-002   5.2448329783417805E-002
   3.8220923304430054E-002  -1.1154614643519412E-002   5.2758383592447583E-002
   3.7556446796144276E-002  -1.0834352879214804E-002   5.5894085437270591E-002
   3.6350815339461690E-002  -1.0461691563141619E-002   5.5601184633530948E-002
   3.5145183882779096E-002  -1.0092528252903625E-002   5.5510416045399073E-002
   3.3939552426096524E-002  -9.7268629485008275E-003   5.5621779672875044E-002
   3.2733920969413924E-002  -9.3646956499332246E-003   5.5935275515959018E-002
   3.1272921477281168E-002  -8.9239429884376831E-003   5.9006823145487122E-002
   3.0265257097163958E-002  -8.5591156613653470E-003   5.8727496053191899E-002
   2.9257592717046758E-002  -8.2126454969927674E-003   5.8641970898419486E-002
   2.8249928336929544E-002  -7.8845324953200589E-003   5.8750247681170042E-002
   2.7242263956812347E-002  -7.5747766563470514E-003   5.9052326401443520E-002
   2.5018062593172505E-002  -7.0135330976606181E-003   6.2119156443135204E-002
   2.4200035011535698E-002  -6.6565397595891307E-003   6.1838543905419818E-002
   2.3382007429898884E-002  -6.3327627410819098E-003   6.1743403027142207E-002
   2.2563979848262073E-002  -6.0422020421392331E-003   6.1833733808302704E-002
   2.1745952266625262E-002  -5.7848576627609338E-003   6.2109536248900976E-002
   4.3703270961860718E-002  -1.2944533637105515E-002   4.9521650630909186E-002
   4.2161503841244674E-002  -1.2468377578968126E-002   4.9183330169727202E-002
   4.0619736720628630E-002  -1.2000110147963164E-002   4.9029131063157760E-002
   3.9077969600012585E-002  -1.1539731344091215E-002   4.9059053311200820E-002
   3.7536202479396541E-002  -1.1087241167351880E-002   4.9273096913856784E-002
   3.8220923304430054E-002  -1.1154614643519412E-002   5.2758383592447583E-002
   3.6865796753375590E-002  -1.0735633320166402E-002   5.2412705344738783E-002
   3.5510670202321112E-002  -1.0319208017461445E-002   5.2256186881540545E-002
   3.4155543651266627E-002  -9.9053387354046674E-003   5.2288828202852786E-002
   3.2800417100212170E-002  -9.4940254739956931E-003   5.2510629308675727E-002
   3.2733920969413924E-002  -9.3646956499332246E-003   5.5935275515959018E-002
   3.1570473417819045E-002  -9.0028890613649271E-003   5.5587572088208123E-002
   3.0407025866224138E-002  -8.6383058869598309E-003   5.5434066874865663E-002
   2.9243578314629246E-002  -8.2709461267181737E-003   5.5474759875931895E-002
   2.8080130763034325E-002  -7.9008097806395894E-003   5.5709651091406659E-002
   2.7242263956812347E-002  -7.5747766563470514E-003   5.9052326401443520E-002
   2.6275533834575024E-002  -7.2701448025633275E-003   5.8707930400135139E-002
   2.5308803712337718E-002  -6.9574037564581089E-003   5.8562771043133392E-002
   2.4342073590100405E-002  -6.6365535180315420E-003   5.8616848330438155E-002
   2.3375343467863092E-002  -6.3075940872833608E-003   5.8870162262049580E-002
   2.1745952266625262E-002  -5.7848576627609338E-003   6.2109536248900976E-002
   2.0980978003643555E-002  -5.5374005437617557E-003   6.1773780280519969E-002
   2.0216003740661841E-002  -5.2765016259565256E-003   6.1642299386343469E-002
   1.9451029477680123E-002  -5.0021609093451117E-003   6.1715093566371698E-002
   1.8686055214698405E-002  -4.7143783939272987E-003   6.1992162820604546E-002
   3.7536202479396541E-002  -1.1087241167351880E-002   4.9273096913856784E-002
   3.5966642272390686E-002  -1.0621414119952877E-002   4.9078083370354630E-002
   3.4397082065384804E-002  -1.0121024704101866E-002   4.9085021211671631E-002
   3.2827521858378922E-002  -9.5860729197987521E-003   4.9293910437807814E-002
   3.1257961651373040E-002  -9.0165587670437142E-003   4.9704751048762763E-002
   3.2800417100212170E-002  -9.4940254739956931E-003   5.2510629308675727E-002
   3.1431384523605166E-002  -9.0656479980772420E-003   5.2365314461819690E-002
   3.0062351946998148E-002  -8.6005860724917421E-003   5.2419103490942698E-002
   2.8693319370391136E-002  -8.0988396972388847E-003   5.2671996396044321E-002
   2.7324286793784125E-002  -7.5604088723189578E-003   5.3123993177124518E-002
   2.8080130763034325E-002  -7.9008097806395894E-003   5.5709651091406659E-002
   2.6908778307985950E-002  -7.5098818762016073E-003   5.5616157022411974E-002
   2.5737425852937583E-002  -7.0801474408814513E-003   5.5718919320555615E-002
   2.4566073397889219E-002  -6.6116064746790729E-003   5.6017937985838026E-002
   2.3394720942840848E-002  -6.1042589775945066E-003   5.6513213018258859E-002
   2.3375343467863092E-002  -6.3075940872833608E-003   5.8870162262049580E-002
   2.2398823625533134E-002  -5.9541157543260836E-003   5.8830611052131179E-002
   2.1422303783203124E-002  -5.5597088092711605E-003   5.8984468700510946E-002
   2.0445783940873166E-002  -5.1243732521193443E-003   5.9331735207188832E-002
   1.9469264098543153E-002  -4.6481090828699029E-003   5.9872410572165052E-002
   1.8686055214698405E-002  -4.7143783939272987E-003   6.1992162820604546E-002
   1.7901520476246588E-002  -4.3983496324503657E-003   6.2008676550977249E-002
   1.7116985737794771E-002  -4.0392701776609530E-003   6.2215751630808058E-002
   1.6332450999342947E-002  -3.6371400295593728E-003   6.2613388060097003E-002
   1.5547916260891123E-002  -3.1919591881454101E-003   6.3201585838843832E-002
   3.1257961651373040E-002  -9.0165587670437142E-003   4.9704751048762763E-002
   2.8567310543624630E-002  -8.6800024658479358E-003   4.8183403950833592E-002
   2.5876659435876179E-002  -8.8439242362226972E-003   4.7121971539194091E-002
   2.3186008328127790E-002  -9.5083240781684529E-003   4.6520453813843857E-002
   2.0495357220379318E-002  -1.0673201991685310E-002   4.6378850774783098E-002
   2.7324286793784125E-002  -7.5604088723189578E-003   5.3123993177124518E-002
   2.5059948151701691E-002  -7.1627477430044884E-003   5.1163801908993417E-002
   2.2795609509619286E-002  -7.0833104545679065E-003   4.9596320885904488E-002
   2.0531270867536811E-002  -7.3220970070093684E-003   4.8421550107858202E-002
   1.8266932225454446E-002  -7.8791074003285999E-003   4.7639489574854421E-002
   2.3394720942840848E-002  -6.1042589775945066E-003   5.6513213018258859E-002
   2.1489490325177454E-002  -5.6454930201613462E-003   5.4296431810618037E-002
   1.9584259707514085E-002  -5.3226966729130118E-003   5.2405156406773103E-002
   1.7679029089850654E-002  -5.1358699358499526E-003   5.0839386806723591E-002
   1.5773798472187295E-002  -5.0850128089718893E-003   4.9599123010469259E-002
   1.9469264098543153E-002  -4.6481090828699029E-003   5.9872410572165052E-002
   1.7855937064051842E-002  -4.1282382973180515E-003   5.7581293655708049E-002
   1.6242610029560550E-002  -3.5620828912581691E-003   5.5548478101799512E-002
   1.4629282995069205E-002  -2.9496428646907579E-003   5.3773963910439364E-002
   1.3015955960577946E-002  -2.2909182176151233E-003   5.2257751081628126E-002
   1.5547916260891123E-002  -3.1919591881454101E-003   6.3201585838843832E-002
   1.4159288368324918E-002  -2.6109835744747567E-003   6.1018387444263078E-002
   1.2770660475758706E-002  -1.8014691096032986E-003   5.9026285970984027E-002
   1.1382032583192512E-002  -7.6341579353133432E-004   5.7225281419006457E-002
   9.9934046906263174E-003   5.0317637374153179E-004   5.5615373788330702E-002
   2.6637173129736260E-002   0.0000000000000000        2.9465052726129828E-002
   2.7239954390310215E-002  -5.8765695418017648E-004   3.4939853747281868E-002
   2.7842735650884166E-002  -1.3238576608083346E-003   4.0107399768056329E-002
   2.8445516911458121E-002  -2.2086021198844813E-003   4.4967690788453175E-002
   2.9048298172032080E-002  -3.2418903314086070E-003   4.9520726808472450E-002
   2.0118814931515416E-002   0.0000000000000000        2.9015840782916438E-002
   2.0453481113020644E-002  -4.4074271563818938E-004   3.4305849219186835E-002
   2.0788147294525869E-002  -9.9289324561156831E-004   3.9366882497697368E-002
   2.1122813476031094E-002  -1.6564515899201377E-003   4.4198940618448042E-002
   2.1457479657536319E-002  -2.4314177485638922E-003   4.8802023581438848E-002
   1.3506500010495652E-002   0.0000000000000000        2.8694975109188635E-002
   1.3651330955549879E-002  -2.9382847709620314E-004   3.3837326898690179E-002
   1.3796161900604106E-002  -6.6192883041480115E-004   3.8828983373049603E-002
   1.3940992845658333E-002  -1.1043010599557958E-003   4.3669944532266892E-002
   1.4085823790712562E-002  -1.6209451657191840E-003   4.8360210376342035E-002
   6.8002283666769650E-003   0.0000000000000000        2.8502455704946427E-002
   6.8335039178979238E-003  -1.4691423855421734E-004   3.3534286785791921E-002
   6.8667794691188800E-003  -3.3096441521803530E-004   3.8493702394113011E-002
   6.9000550203398370E-003  -5.5215052999144955E-004   4.3380702529909693E-002
   6.9333305715607967E-003  -8.1047258287447418E-004   4.8195287193181988E-002
   5.9360502624450362E-014   0.0000000000000000        2.8438282570189807E-002
   6.4777176678187942E-014  -1.2229800505636490E-014   3.3396728880492041E-002
   7.0192332848884043E-014  -2.1265975091999678E-014   3.8361039560887600E-002
   7.5609115322838871E-014  -2.7111993206041518E-014   4.3331214611376484E-002
   8.1025030435055712E-014  -2.9759181230382126E-014   4.8307254031958693E-002
   2.9048298172032080E-002  -3.2418903314086070E-003   4.9520726808472450E-002
   2.9124143312889112E-002  -4.2629872801521040E-003   5.1583370526230882E-002
   2.9199988453746155E-002  -5.1111579508863383E-003   5.3742855191855177E-002
   2.9275833594603187E-002  -5.7864023436112900E-003   5.5999180805345238E-002
   2.9351678735460220E-002  -6.2887204583269782E-003   5.8352347366701120E-002
   2.1457479657536319E-002  -2.4314177485638922E-003   4.8802023581438848E-002
   2.1601215187989301E-002  -3.1972404601214991E-003   5.1206189881857815E-002
   2.1744950718442284E-002  -3.8333684631715716E-003   5.3649296013602861E-002
   2.1888686248895266E-002  -4.3398017577141292E-003   5.6131341976674021E-002
   2.2032421779348249E-002  -4.7165403437491385E-003   5.8652327771071204E-002
   1.4085823790712562E-002  -1.6209451657191840E-003   4.8360210376342035E-002
   1.4239548594221742E-002  -2.1314936400908873E-003   5.1062667689919780E-002
   1.4393273397730926E-002  -2.5555789754568110E-003   5.3746163718283856E-002
   1.4546998201240106E-002  -2.8932011718169623E-003   5.6410698461434268E-002
   1.4700723004749292E-002  -3.1443602291713439E-003   5.9056271919370990E-002
   6.9333305715607967E-003  -8.1047258287447418E-004   4.8195287193181988E-002
   7.0391435315864358E-003  -1.0657468200602790E-003   5.1152803950416756E-002
   7.1449564916120766E-003  -1.2777894877420474E-003   5.4033458305898098E-002
   7.2507694516377192E-003  -1.4466005859197985E-003   5.6837250259626056E-002
   7.3565824116633583E-003  -1.5721801145935129E-003   5.9564179811600580E-002
   8.1025030435055712E-014  -2.9759181230382126E-014   4.8307254031958693E-002
   8.3382085958039198E-014  -2.9670710333107309E-014   5.1476598663348742E-002
   8.5739358321457182E-014  -2.7300644384053996E-014   5.4511179776445637E-002
   8.8097389626395906E-014  -2.2635430856066119E-014   5.7410997371249405E-002
   9.0453686207858652E-014  -1.5709655798445965E-014   6.0176051447759962E-002
   2.9351678735460220E-002  -6.2887204583269782E-003   5.8352347366701120E-002
   2.9005517885609469E-002  -6.6726031146872380E-003   5.9099286286016399E-002
   2.8659357035758708E-002  -6.9925411323459152E-003   5.9885974445386930E-002
   2.8313196185907948E-002  -7.2485345113030668E-003   6.0712411844812741E-002
   2.7967035336057183E-002  -7.4405832515585801E-003   6.1578598484293839E-002
   2.2032421779348249E-002  -4.7165403437491385E-003   5.8652327771071204E-002
   2.1737707912654503E-002  -5.0044523360168493E-003   5.9454474173865596E-002
   2.1442994045960766E-002  -5.2444058492573959E-003   6.0319765302918743E-002
   2.1148280179267023E-002  -5.4364008834707489E-003   6.1248201158230597E-002
   2.0853566312573284E-002  -5.5804374386569655E-003   6.2239781739801298E-002
   1.4700723004749292E-002  -3.1443602291713439E-003   5.9056271919370990E-002
   1.4480851607416054E-002  -3.3363015573464640E-003   5.9897639645970113E-002
   1.4260980210082808E-002  -3.4962705661688220E-003   6.0825547585031427E-002
   1.4041108812749571E-002  -3.6242672556384744E-003   6.1839995736555027E-002
   1.3821237415416337E-002  -3.7202916257553648E-003   6.2940984100540859E-002
   7.3565824116633583E-003  -1.5721801145935129E-003   5.9564179811600580E-002
   7.2349489698941057E-003  -1.6681507786760631E-003   6.0428782702329972E-002
   7.1133155281248505E-003  -1.7481352830802754E-003   6.1403321291725134E-002
   6.9916820863555971E-003  -1.8121336278061574E-003   6.2487795579785975E-002
   6.8700486445863410E-003  -1.8601458128537293E-003   6.3682205566512565E-002
   9.0453686207858652E-014  -1.5709655798445965E-014   6.0176051447759962E-002
   8.8666053665864553E-014  -5.6829541073000200E-015   6.1047903342945256E-002
   8.6879288485608441E-014   8.2746309804093698E-015   6.2053086422999733E-002
   8.5091655943614342E-014   2.6118864016044796E-014   6.3191600687923413E-002
   8.3304890763358230E-014   4.7864490149152061E-014   6.4463446137716360E-002
   2.7967035336057183E-002  -7.4405832515585801E-003   6.1578598484293839E-002
   2.7229792150336017E-002  -7.5339499326185777E-003   6.1371170441535700E-002
   2.6492548964614844E-002  -7.4938971339888957E-003   6.1392120753756538E-002
   2.5755305778893678E-002  -7.3204248556695672E-003   6.1641449420956375E-002
   2.5018062593172505E-002  -7.0135330976606181E-003   6.2119156443135204E-002
   2.0853566312573284E-002  -5.5804374386569655E-003   6.2239781739801298E-002
   2.0333684592193105E-002  -5.6504624494452815E-003   6.2219218978461208E-002
   1.9813802871812922E-002  -5.6204228504650247E-003   6.2405000792824128E-002
   1.9293921151432740E-002  -5.4903186417161551E-003   6.2797127182890114E-002
   1.8774039431052554E-002  -5.2601498231986399E-003   6.3395598148658999E-002
   1.3821237415416337E-002  -3.7202916257553648E-003   6.2940984100540859E-002
   1.3496683381101151E-002  -3.7669749662720686E-003   6.3073931750697865E-002
   1.3172129346785976E-002  -3.7469485669412127E-003   6.3391190197281885E-002
   1.2847575312470801E-002  -3.6602124277627579E-003   6.3892759440292907E-002
   1.2523021278155615E-002  -3.5067665487367450E-003   6.4578639479730998E-002
   6.8700486445863410E-003  -1.8601458128537293E-003   6.3682205566512565E-002
   6.7187885170601792E-003  -1.8834874830988835E-003   6.3935308758245601E-002
   6.5675283895340166E-003  -1.8734742834173434E-003   6.4350688967129685E-002
   6.4162682620078453E-003  -1.8301062138094504E-003   6.4928346193164704E-002
   6.2650081344816843E-003  -1.7533832742748084E-003   6.5668280436350826E-002
   8.3304890763358230E-014   4.7864490149152061E-014   6.4463446137716360E-002
   7.0169564603261847E-014   7.4391881543789395E-014   6.4803350001104390E-002
   5.7034238443165464E-014   1.0641140746336930E-013   6.5283497102367499E-002
   4.3896310197855115E-014   1.4400893671995263E-013   6.5903887441505660E-002
   3.0763586122972697E-014   1.8710033522495451E-013   6.6664521018518802E-002
   2.5018062593172505E-002  -7.0135330976606181E-003   6.2119156443135204E-002
   2.4200035011535698E-002  -6.6565397595891307E-003   6.1838543905419818E-002
   2.3382007429898884E-002  -6.3327627410819098E-003   6.1743403027142207E-002
   2.2563979848262073E-002  -6.0422020421392331E-003   6.1833733808302704E-002
   2.1745952266625262E-002  -5.7848576627609338E-003   6.2109536248900976E-002
   1.8774039431052554E-002  -5.2601498231986399E-003   6.3395598148658999E-002
   1.8146242317845250E-002  -4.9924048196332282E-003   6.3083685149539687E-002
   1.7518445204637922E-002  -4.7495720557403920E-003   6.2966761427841300E-002
   1.6890648091430600E-002  -4.5316515315203254E-003   6.3044826983564242E-002
   1.6262850978223289E-002  -4.3386432469728342E-003   6.3317881816707916E-002
   1.2523021278155615E-002  -3.5067665487367450E-003   6.4578639479730998E-002
   1.2094972251360962E-002  -3.3282698796774091E-003   6.4243730099099394E-002
   1.1666923224566321E-002  -3.1663813703989019E-003   6.4113327613872062E-002
   1.1238874197771680E-002  -3.0211010209013622E-003   6.4187432024049015E-002
   1.0810825170977031E-002  -2.8924288311847346E-003   6.4466043329630240E-002
   6.2650081344816843E-003  -1.7533832742748084E-003   6.5668280436350826E-002
   6.0462248120828760E-003  -1.6641349397215066E-003   6.5318678754098844E-002
   5.8274414896840668E-003  -1.5831906850574534E-003   6.5183101585234202E-002
   5.6086581672852532E-003  -1.5105505102823991E-003   6.5261548929757079E-002
   5.3898748448864475E-003  -1.4462144153965795E-003   6.5554020787667366E-002
   3.0763586122972697E-014   1.8710033522495451E-013   6.6664521018518802E-002
   1.0963452368173421E-014   2.3431256934713929E-013   6.6308531114538161E-002
  -8.8314772161979249E-015   2.8408525531986584E-013   6.6176083341928024E-002
  -2.8625539438831282E-014   3.3648951680564920E-013   6.6267177700688573E-002
  -4.8426540555368547E-014   3.9146463848283020E-013   6.6581814190819655E-002
   2.1745952266625262E-002  -5.7848576627609338E-003   6.2109536248900976E-002
   2.0980978003643555E-002  -5.5374005437617557E-003   6.1773780280519969E-002
   2.0216003740661841E-002  -5.2765016259565256E-003   6.1642299386343469E-002
   1.9451029477680123E-002  -5.0021609093451117E-003   6.1715093566371698E-002
   1.8686055214698405E-002  -4.7143783939272987E-003   6.1992162820604546E-002
   1.6262850978223289E-002  -4.3386432469728342E-003   6.3317881816707916E-002
   1.5698893912329821E-002  -4.1530504077087749E-003   6.3021705026322233E-002
   1.5134936846436325E-002  -3.9573762193388859E-003   6.2923287555908411E-002
   1.4570979780542850E-002  -3.7516206818633945E-003   6.3022629405466379E-002
   1.4007022714649361E-002  -3.5357837952822990E-003   6.3319730574996264E-002
   1.0810825170977031E-002  -2.8924288311847346E-003   6.4466043329630240E-002
   1.0441369547939013E-002  -2.7687002716558357E-003   6.4206085267539403E-002
   1.0071913924901010E-002  -2.6382508127216903E-003   6.4137370771187571E-002
   9.7024583018630005E-003  -2.5010804543820660E-003   6.4259899840574841E-002
   9.3330026788250031E-003  -2.3571891966371883E-003   6.4573672475701366E-002
   5.3898748448864475E-003  -1.4462144153965795E-003   6.5554020787667366E-002
   5.2084049104711601E-003  -1.3843501356029034E-003   6.5326921004170993E-002
   5.0269349760558631E-003  -1.3191254061043836E-003   6.5284549032180977E-002
   4.8454650416405740E-003  -1.2505402269007374E-003   6.5426904871697181E-002
   4.6639951072252779E-003  -1.1785945979921053E-003   6.5753988522719797E-002
  -4.8426540555368547E-014   3.9146463848283020E-013   6.6581814190819655E-002
  -7.3760442198533838E-014   4.5013992533426972E-013   6.6384212236217210E-002
  -9.9090874394747175E-014   5.1313120419393954E-013   6.6364822338888574E-002
  -1.2442304131443649E-013   5.8083746146131432E-013   6.6523644498833398E-002
  -1.4975520823412580E-013   6.5292216078205456E-013   6.6860678716051780E-002
   1.8686055214698405E-002  -4.7143783939272987E-003   6.1992162820604546E-002
   1.7901520476246588E-002  -4.3983496324503657E-003   6.2008676550977249E-002
   1.7116985737794771E-002  -4.0392701776609530E-003   6.2215751630808058E-002
   1.6332450999342947E-002  -3.6371400295593728E-003   6.2613388060097003E-002
   1.5547916260891123E-002  -3.1919591881454101E-003   6.3201585838843832E-002
   1.4007022714649361E-002  -3.5357837952822990E-003   6.3319730574996264E-002
   1.3414442409441923E-002  -3.2987622241552050E-003   6.3380319210029068E-002
   1.2821862104234465E-002  -3.0294526330426064E-003   6.3634255362092537E-002
   1.2229281799027002E-002  -2.7278550219440173E-003   6.4081539031186685E-002
   1.1636701493819554E-002  -2.3939693908599513E-003   6.4722170217311747E-002
   9.3330026788250031E-003  -2.3571891966371883E-003   6.4573672475701366E-002
   8.9351629744345816E-003  -2.1991748158601415E-003   6.4667573342067408E-002
   8.5373232700441670E-003  -2.0196350884239128E-003   6.4957607893037020E-002
   8.1394835656537576E-003  -1.8185700143288248E-003   6.5443776128609993E-002
   7.7416438612633483E-003  -1.5959795935745480E-003   6.6126078048786285E-002
   4.6639951072252779E-003  -1.1785945979921053E-003   6.5753988522719797E-002
   4.4636821712245841E-003  -1.0995874075648351E-003   6.5870438947092644E-002
   4.2633692352238919E-003  -1.0098175438054482E-003   6.6185809223641645E-002
   4.0630562992232016E-003  -9.0928500671338432E-004   6.6700099352366621E-002
   3.8627433632224999E-003  -7.9798979628911693E-004   6.7413309333267640E-002
  -1.4975520823412580E-013   6.5292216078205456E-013   6.6860678716051780E-002
  -1.8806137203064566E-013   7.3013817214473420E-013   6.6988916025104706E-002
  -2.2636753582716551E-013   8.1316897659888809E-013   6.7318859353906330E-002
  -2.6467543434716134E-013   9.0181681566825489E-013   6.7850508702456694E-002
  -3.0297986342020522E-013   9.9625863114738422E-013   6.8583864070755729E-002
   1.5547916260891123E-002  -3.1919591881454101E-003   6.3201585838843832E-002
   1.4159288368324918E-002  -2.6109835744747567E-003   6.1018387444263078E-002
   1.2770660475758706E-002  -1.8014691096032986E-003   5.9026285970984027E-002
   1.1382032583192512E-002  -7.6341579353133432E-004   5.7225281419006457E-002
   9.9934046906263174E-003   5.0317637374153179E-004   5.5615373788330702E-002
   1.1636701493819554E-002  -2.3939693908599513E-003   6.4722170217311747E-002
   1.0478185535511837E-002  -1.9582376805828139E-003   6.2794115465003658E-002
   9.3196695772041066E-003  -1.3511018319053714E-003   6.1135187659910994E-002
   8.1611536188963794E-003  -5.7256184482785272E-004   5.9745386802033451E-002
   7.0026376605886731E-003   3.7738228065009594E-004   5.8624712891371611E-002
   7.7416438612633483E-003  -1.5959795935745480E-003   6.6126078048786285E-002
   6.8912698631278073E-003  -1.3054917866909266E-003   6.4396032225950667E-002
   6.0408958649922507E-003  -9.0073455420745796E-004   6.3013143376243752E-002
   5.1905218668567088E-003  -3.8170789612440234E-004   6.1977411499666089E-002
   4.3401478687211531E-003   2.5158818755877110E-004   6.1288836596217422E-002
   3.8627433632224999E-003  -7.9798979628911693E-004   6.7413309333267640E-002
   3.3985413511728310E-003  -6.5274589279901152E-004   6.5824137727103743E-002
   2.9343393391231686E-003  -4.5036727650959313E-004   6.4660153119982480E-002
   2.4701373270735027E-003  -1.9085394742088084E-004   6.3921355511904060E-002
   2.0059353150238372E-003   1.2579409446739076E-004   6.3607744902868163E-002
  -3.0297986342020522E-013   9.9625863114738422E-013   6.8583864070755729E-002
  -3.5306826906555955E-013   1.0929590565922354E-012   6.7078431968463137E-002
  -4.0316708305176974E-013   1.1884798700734223E-012   6.6076216891126888E-002
  -4.5325722342060004E-013   1.2825539241756445E-012   6.5577218838747023E-002
  -5.0334736378943035E-013   1.3760104167204190E-012   6.5581437811323751E-002
   5.9360502624450362E-014   0.0000000000000000        2.8438282570189807E-002
   6.4777176678187942E-014  -1.2229800505636490E-014   3.3396728880492041E-002
   7.0192332848884043E-014  -2.1265975091999678E-014   3.8361039560887600E-002
   7.5609115322838871E-014  -2.7111993206041518E-014   4.3331214611376484E-002
   8.1025030435055712E-014  -2.9759181230382126E-014   4.8307254031958693E-002
  -6.8002283665601470E-003   0.0000000000000000        2.8502455704919771E-002
  -6.8335039177703470E-003   1.4691423853144606E-004   3.3534286785767468E-002
  -6.8667794689805462E-003   3.3096441517826373E-004   3.8493702394090612E-002
  -6.9000550201907453E-003   5.5215052994044868E-004   4.3380702529889202E-002
  -6.9333305714009445E-003   8.1047258281800698E-004   4.8195287193163225E-002
  -1.3506500010384540E-002   0.0000000000000000        2.8694975109137332E-002
  -1.3651330955428229E-002   2.9382847707512365E-004   3.3837326898642661E-002
  -1.3796161900471922E-002   6.6192883037779083E-004   3.8828983373005554E-002
  -1.3940992845515615E-002   1.1043010599080033E-003   4.3669944532226036E-002
  -1.4085823790559305E-002   1.6209451656657619E-003   4.8360210376304051E-002
  -2.0118814931413816E-002   0.0000000000000000        2.9015840782842472E-002
  -2.0453481112908876E-002   4.4074271561880124E-004   3.4305849219117619E-002
  -2.0788147294403939E-002   9.9289324557732097E-004   3.9366882497632448E-002
  -2.1122813475899001E-002   1.6564515898755609E-003   4.4198940618386973E-002
  -2.1457479657394057E-002   2.4314177485135241E-003   4.8802023581381179E-002
  -2.6637173129647976E-002   0.0000000000000000        2.9465052726035210E-002
  -2.7239954390212283E-002   5.8765695416247710E-004   3.4939853747192336E-002
  -2.7842735650776593E-002   1.3238576607768476E-003   4.0107399767971279E-002
  -2.8445516911340903E-002   2.2086021198431151E-003   4.4967690788372025E-002
  -2.9048298171905212E-002   3.2418903313612820E-003   4.9520726808394595E-002
   8.1025030435055712E-014  -2.9759181230382126E-014   4.8307254031958693E-002
   8.3382085958039198E-014  -2.9670710333107309E-014   5.1476598663348742E-002
   8.5739358321457182E-014  -2.7300644384053996E-014   5.4511179776445637E-002
   8.8097389626395906E-014  -2.2635430856066119E-014   5.7410997371249405E-002
   9.0453686207858652E-014  -1.5709655798445965E-014   6.0176051447759962E-002
  -6.9333305714009445E-003   8.1047258281800698E-004   4.8195287193163225E-002
  -7.0391435314218643E-003   1.0657468200035245E-003   5.1152803950398187E-002
  -7.1449564914427841E-003   1.2777894876896379E-003   5.4033458305879759E-002
  -7.2507694514637074E-003   1.4466005858763255E-003   5.6837250259607924E-002
  -7.3565824114846254E-003   1.5721801145635872E-003   5.9564179811582664E-002
  -1.4085823790559305E-002   1.6209451656657619E-003   4.8360210376304051E-002
  -1.4239548594063749E-002   2.1314936400367371E-003   5.1062667689882255E-002
  -1.4393273397568199E-002   2.5555789754065691E-003   5.3746163718246781E-002
  -1.4546998201072638E-002   2.8932011717752826E-003   5.6410698461397651E-002
  -1.4700723004577084E-002   3.1443602291428840E-003   5.9056271919334907E-002
  -2.1457479657394057E-002   2.4314177485135241E-003   4.8802023581381179E-002
  -2.1601215187842276E-002   3.1972404600699236E-003   5.1206189881800861E-002
  -2.1744950718290489E-002   3.8333684631235146E-003   5.3649296013546649E-002
  -2.1888686248738704E-002   4.3398017576742592E-003   5.6131341976618544E-002
  -2.2032421779186920E-002   4.7165403437221740E-003   5.8652327771016560E-002
  -2.9048298171905212E-002   3.2418903313612820E-003   4.9520726808394595E-002
  -2.9124143312757436E-002   4.2629872801031440E-003   5.1583370526154082E-002
  -2.9199988453609667E-002   5.1111579508404236E-003   5.3742855191779418E-002
  -2.9275833594461891E-002   5.7864023435732102E-003   5.5999180805270651E-002
  -2.9351678735314121E-002   6.2887204583014639E-003   5.8352347366627713E-002
   9.0453686207858652E-014  -1.5709655798445965E-014   6.0176051447759962E-002
   8.8666053665864553E-014  -5.6829541073000200E-015   6.1047903342945256E-002
   8.6879288485608441E-014   8.2746309804093698E-015   6.2053086422999733E-002
   8.5091655943614342E-014   2.6118864016044796E-014   6.3191600687923413E-002
   8.3304890763358230E-014   4.7864490149152061E-014   6.4463446137716360E-002
  -7.3565824114846254E-003   1.5721801145635872E-003   5.9564179811582664E-002
  -7.2349489697188865E-003   1.6681507786657432E-003   6.0428782702315463E-002
  -7.1133155279531433E-003   1.7481352830971304E-003   6.1403321291714108E-002
  -6.9916820861874026E-003   1.8121336278576631E-003   6.2487795579778585E-002
  -6.8700486444216603E-003   1.8601458129474530E-003   6.3682205566508943E-002
  -1.4700723004577084E-002   3.1443602291428840E-003   5.9056271919334907E-002
  -1.4480851607247172E-002   3.3363015573371520E-003   5.9897639645940484E-002
  -1.4260980209917260E-002   3.4962705661859429E-003   6.0825547585008577E-002
  -1.4041108812587345E-002   3.6242672556892346E-003   6.1839995736539130E-002
  -1.3821237415257433E-002   3.7202916258470345E-003   6.2940984100532199E-002
  -2.2032421779186920E-002   4.7165403437221740E-003   5.8652327771016560E-002
  -2.1737707912496185E-002   5.0044523360085694E-003   5.9454474173820236E-002
  -2.1442994045805460E-002   5.2444058492747908E-003   6.0319765302883070E-002
  -2.1148280179114742E-002   5.4364008835207922E-003   6.1248201158205041E-002
  -2.0853566312424011E-002   5.5804374387466056E-003   6.2239781739786157E-002
  -2.9351678735314121E-002   6.2887204583014639E-003   5.8352347366627713E-002
  -2.9005517885465945E-002   6.6726031146799904E-003   5.9099286285954802E-002
  -2.8659357035617762E-002   6.9925411323636007E-003   5.9885974445337643E-002
  -2.8313196185769586E-002   7.2485345113523477E-003   6.0712411844776298E-002
  -2.7967035335921400E-002   7.4405832516461767E-003   6.1578598484270691E-002
   8.3304890763358230E-014   4.7864490149152061E-014   6.4463446137716360E-002
   7.0169564603261847E-014   7.4391881543789395E-014   6.4803350001104390E-002
   5.7034238443165464E-014   1.0641140746336930E-013   6.5283497102367499E-002
   4.3896310197855115E-014   1.4400893671995263E-013   6.5903887441505660E-002
   3.0763586122972697E-014   1.8710033522495451E-013   6.6664521018518802E-002
  -6.8700486444216603E-003   1.8601458129474530E-003   6.3682205566508943E-002
  -6.7187885169215358E-003   1.8834874832441700E-003   6.3935308758249515E-002
  -6.5675283894214200E-003   1.8734742836253974E-003   6.4350688967141509E-002
  -6.4162682619212990E-003   1.8301062140913425E-003   6.4928346193185021E-002
  -6.2650081344211728E-003   1.7533832746418621E-003   6.5668280436379955E-002
  -1.3821237415257433E-002   3.7202916258470345E-003   6.2940984100532199E-002
  -1.3496683380967619E-002   3.7669749664139031E-003   6.3073931750704332E-002
  -1.3172129346677794E-002   3.7469485671444962E-003   6.3391190197304367E-002
  -1.2847575312387977E-002   3.6602124280387181E-003   6.3892759440332278E-002
  -1.2523021278098154E-002   3.5067665490966377E-003   6.4578639479788202E-002
  -2.0853566312424011E-002   5.5804374387466056E-003   6.2239781739786157E-002
  -2.0333684592068055E-002   5.6504624495836309E-003   6.2219218978468840E-002
  -1.9813802871712100E-002   5.6204228506635109E-003   6.2405000792855957E-002
  -1.9293921151356138E-002   5.4903186419860452E-003   6.2797127182947429E-002
  -1.8774039431000186E-002   5.2601498235514341E-003   6.3395598148743196E-002
  -2.7967035335921400E-002   7.4405832516461767E-003   6.1578598484270691E-002
  -2.7229792150222868E-002   7.5339499327534282E-003   6.1371170441543110E-002
  -2.6492548964524326E-002   7.4938971341825741E-003   6.1392120753796367E-002
  -2.5755305778825788E-002   7.3204248559334533E-003   6.1641449421030399E-002
  -2.5018062593127249E-002   7.0135330980061750E-003   6.2119156443245227E-002
   3.0763586122972697E-014   1.8710033522495451E-013   6.6664521018518802E-002
   1.0963452368173421E-014   2.3431256934713929E-013   6.6308531114538161E-002
  -8.8314772161979249E-015   2.8408525531986584E-013   6.6176083341928024E-002
  -2.8625539438831282E-014   3.3648951680564920E-013   6.6267177700688573E-002
  -4.8426540555368547E-014   3.9146463848283020E-013   6.6581814190819655E-002
  -6.2650081344211728E-003   1.7533832746418621E-003   6.5668280436379955E-002
  -6.0462248120617852E-003   1.6641349401818051E-003   6.5318678754131276E-002
  -5.8274414897023915E-003   1.5831906856160205E-003   6.5183101585270353E-002
  -5.6086581673430065E-003   1.5105505109444528E-003   6.5261548929797186E-002
  -5.3898748449836102E-003   1.4462144161669355E-003   6.5554020787711831E-002
  -1.2523021278098154E-002   3.5067665490966377E-003   6.4578639479788202E-002
  -1.2094972251342394E-002   3.3282698801293253E-003   6.4243730099162996E-002
  -1.1666923224586631E-002   3.1663813709479245E-003   6.4113327613942811E-002
  -1.1238874197830866E-002   3.0211010215522765E-003   6.4187432024127605E-002
  -1.0810825171075112E-002   2.8924288319425728E-003   6.4466043329717379E-002
  -1.8774039431000186E-002   5.2601498235514341E-003   6.3395598148743196E-002
  -1.8146242317830869E-002   4.9924048200769011E-003   6.3083685149633292E-002
  -1.7518445204661559E-002   4.7495720562797886E-003   6.2966761427945508E-002
  -1.6890648091492252E-002   4.5316515321602250E-003   6.3044826983679858E-002
  -1.6262850978322935E-002   4.3386432477180437E-003   6.3317881816836452E-002
  -2.5018062593127249E-002   7.0135330980061750E-003   6.2119156443245227E-002
  -2.4200035011527215E-002   6.6565397600243381E-003   6.1838543905542165E-002
  -2.3382007429927167E-002   6.3327627416117638E-003   6.1743403027278376E-002
  -2.2563979848327111E-002   6.0422020427681189E-003   6.1833733808453958E-002
  -2.1745952266727077E-002   5.7848576634936810E-003   6.2109536249068786E-002
  -4.8426540555368547E-014   3.9146463848283020E-013   6.6581814190819655E-002
  -7.3760442198533838E-014   4.5013992533426972E-013   6.6384212236217210E-002
  -9.9090874394747175E-014   5.1313120419393954E-013   6.6364822338888574E-002
  -1.2442304131443649E-013   5.8083746146131432E-013   6.6523644498833398E-002
  -1.4975520823412580E-013   6.5292216078205456E-013   6.6860678716051780E-002
  -5.3898748449836102E-003   1.4462144161669355E-003   6.5554020787711831E-002
  -5.2084049106186307E-003   1.3843501364889516E-003   6.5326921004224256E-002
  -5.0269349762536494E-003   1.3191254071151098E-003   6.5284549032243760E-002
  -4.8454650418886741E-003   1.2505402280454971E-003   6.5426904871770372E-002
  -4.6639951075236954E-003   1.1785945992801028E-003   6.5753988522803952E-002
  -1.0810825171075112E-002   2.8924288319425728E-003   6.4466043329717379E-002
  -1.0441369548086357E-002   2.7687002725277632E-003   6.4206085267644430E-002
  -1.0071913925097599E-002   2.6382508137169289E-003   6.4137370771311902E-002
  -9.7024583021088420E-003   2.5010804555102139E-003   6.4259899840720017E-002
  -9.3330026791200796E-003   2.3571891979074500E-003   6.4573672475868607E-002
  -1.6262850978322935E-002   4.3386432477180437E-003   6.3317881816836452E-002
  -1.5698893912476933E-002   4.1530504085666858E-003   6.3021705026477789E-002
  -1.5134936846630925E-002   3.9573762203188277E-003   6.2923287556093055E-002
  -1.4570979780784922E-002   3.7516206829749021E-003   6.3022629405682332E-002
  -1.4007022714938913E-002   3.5357837965346306E-003   6.3319730575245661E-002
  -2.1745952266727077E-002   5.7848576634936810E-003   6.2109536249068786E-002
  -2.0980978003790358E-002   5.5374005446053864E-003   6.1773780280724222E-002
  -2.0216003740853646E-002   5.2765016269207127E-003   6.1642299386587107E-002
  -1.9451029477916923E-002   5.0021609104395036E-003   6.1715093566657372E-002
  -1.8686055214980207E-002   4.7143783951619778E-003   6.1992162820935059E-002
  -1.4975520823412580E-013   6.5292216078205456E-013   6.6860678716051780E-002
  -1.8806137203064566E-013   7.3013817214473420E-013   6.6988916025104706E-002
  -2.2636753582716551E-013   8.1316897659888809E-013   6.7318859353906330E-002
  -2.6467543434716134E-013   9.0181681566825489E-013   6.7850508702456694E-002
  -3.0297986342020522E-013   9.9625863114738422E-013   6.8583864070755729E-002
  -4.6639951075236954E-003   1.1785945992801028E-003   6.5753988522803952E-002
  -4.4636821715994517E-003   1.0995874090067026E-003   6.5870438947190774E-002
  -4.2633692356752184E-003   1.0098175454123504E-003   6.6185809223753861E-002
  -4.0630562997509851E-003   9.0928500849769833E-004   6.6700099352493381E-002
  -3.8627433638267414E-003   7.9798979826195549E-004   6.7413309333409277E-002
  -9.3330026791200796E-003   2.3571891979074500E-003   6.4573672475868607E-002
  -8.9351629748056771E-003   2.1991748172830727E-003   6.4667573342262863E-002
  -8.5373232704912608E-003   2.0196350900118162E-003   6.4957607893261077E-002
  -8.1394835661768462E-003   1.8185700160932485E-003   6.5443776128863332E-002
  -7.7416438618624437E-003   1.5959795955277911E-003   6.6126078049069573E-002
  -1.4007022714938913E-002   3.5357837965346306E-003   6.3319730575245661E-002
  -1.3414442409806699E-002   3.2987622255595955E-003   6.3380319210320973E-002
  -1.2821862104674493E-002   3.0294526346110288E-003   6.3634255362427963E-002
  -1.2229281799542286E-002   2.7278550236890754E-003   6.4081539031566465E-002
  -1.1636701494410066E-002   2.3939693927935018E-003   6.4722170217736741E-002
  -1.8686055214980207E-002   4.7143783951619778E-003   6.1992162820935059E-002
  -1.7901520476602567E-002   4.3983496338359795E-003   6.2008676551365161E-002
  -1.7116985738224916E-002   4.0392701792104496E-003   6.2215751631254368E-002
  -1.6332450999847266E-002   3.6371400312846767E-003   6.2613388060602834E-002
  -1.5547916261469626E-002   3.1919591900593791E-003   6.3201585839410657E-002
  -3.0297986342020522E-013   9.9625863114738422E-013   6.8583864070755729E-002
  -3.5306826906555955E-013   1.0929590565922354E-012   6.7078431968463137E-002
  -4.0316708305176974E-013   1.1884798700734223E-012   6.6076216891126888E-002
  -4.5325722342060004E-013   1.2825539241756445E-012   6.5577218838747023E-002
  -5.0334736378943035E-013   1.3760104167204190E-012   6.5581437811323751E-002
  -3.8627433638267414E-003   7.9798979826195549E-004   6.7413309333409277E-002
  -3.3985413518771990E-003   6.5274589496686075E-004   6.5824137727248072E-002
  -2.9343393399276670E-003   4.5036727887327876E-004   6.4660153120129710E-002
  -2.4701373279781176E-003   1.9085394998136565E-004   6.3921355512053982E-002
  -2.0059353160285856E-003  -1.2579409170898614E-004   6.3607744903021790E-002
  -7.7416438618624437E-003   1.5959795955277911E-003   6.6126078049069573E-002
  -6.8912698638268531E-003   1.3054917888409012E-003   6.4396032226242669E-002
  -6.0408958657912617E-003   9.0073455655819562E-004   6.3013143376545039E-002
  -5.1905218677556920E-003   3.8170789867998482E-004   6.1977411499976806E-002
  -4.3401478697200936E-003  -2.5158818479398271E-004   6.1288836596537555E-002
  -1.1636701494410066E-002   2.3939693927935018E-003   6.4722170217736741E-002
  -1.0478185536202014E-002   1.9582376827149833E-003   6.2794115465446707E-002
  -9.3196695779939626E-003   1.3511018342431645E-003   6.1135187660372459E-002
  -8.1611536197859283E-003   5.7256184737858925E-004   5.9745386802513935E-002
  -7.0026376615778480E-003  -3.7738227787903478E-004   5.8624712891870906E-002
  -1.5547916261469626E-002   3.1919591900593791E-003   6.3201585839410657E-002
  -1.4159288369002682E-002   2.6109835765890099E-003   6.1018387444860434E-002
  -1.2770660476535755E-002   1.8014691119280363E-003   5.9026285971612330E-002
  -1.1382032584068827E-002   7.6341579607719715E-004   5.7225281419666221E-002
  -9.9934046916018843E-003  -5.0317637096397583E-004   5.5615373789022371E-002
  -2.6637173129647976E-002   0.0000000000000000        2.9465052726035210E-002
  -2.7239954390212283E-002   5.8765695416247710E-004   3.4939853747192336E-002
  -2.7842735650776593E-002   1.3238576607768476E-003   4.0107399767971279E-002
  -2.8445516911340903E-002   2.2086021198431151E-003   4.4967690788372025E-002
  -2.9048298171905212E-002   3.2418903313612820E-003   4.9520726808394595E-002
  -3.3398199083174616E-002   0.0000000000000000        3.0177227108774379E-002
  -3.4243098689022748E-002   9.6259196202641908E-004   3.5263772702356345E-002
  -3.5087998294870866E-002   2.0284404730220550E-003   4.0173336605748865E-002
  -3.5932897900718991E-002   3.1975455329868990E-003   4.4905918818951930E-002
  -3.6777797506567116E-002   4.4699071419209710E-003   4.9461519341965569E-002
  -4.0738517270081348E-002   0.0000000000000000        3.1286980101118834E-002
  -4.1695261911024552E-002   1.3375269698903598E-003   3.5939983063642961E-002
  -4.2652006551967749E-002   2.7330232852672554E-003   4.0546277646166369E-002
  -4.3608751192910952E-002   4.1864889461306846E-003   4.5105863848689073E-002
  -4.4565495833854163E-002   5.6979239524806470E-003   4.9618741671211081E-002
  -4.8658127690368154E-002   0.0000000000000000        3.2794311703068568E-002
  -4.9596444056217708E-002   1.7124619777543024E-003   3.6968484831052167E-002
  -5.0534760422067240E-002   3.4376060975124592E-003   4.1226222889223813E-002
  -5.1473076787916787E-002   5.1754323592744711E-003   4.5567525877583469E-002
  -5.2411393153766327E-002   6.9259407630403291E-003   4.9992393796131157E-002
  -5.7157030344035048E-002   0.0000000000000000        3.4699221914623588E-002
  -5.7946645124602202E-002   2.0873969856182424E-003   3.8349278004583987E-002
  -5.8736259905169348E-002   4.1421889097576613E-003   4.2213172334921160E-002
  -5.9525874685736495E-002   6.1643757724182541E-003   4.6290904905635102E-002
  -6.0315489466303648E-002   8.1539575736000111E-003   5.0582475716725792E-002
  -2.9048298171905212E-002   3.2418903313612820E-003   4.9520726808394595E-002
  -2.9124143312757436E-002   4.2629872801031440E-003   5.1583370526154082E-002
  -2.9199988453609667E-002   5.1111579508404236E-003   5.3742855191779418E-002
  -2.9275833594461891E-002   5.7864023435732102E-003   5.5999180805270651E-002
  -2.9351678735314121E-002   6.2887204583014639E-003   5.8352347366627713E-002
  -3.6777797506567116E-002   4.4699071419209710E-003   4.9461519341965569E-002
  -3.6795266632991291E-002   5.7052486824185058E-003   5.1252387651738715E-002
  -3.6812735759415467E-002   6.7632935370737727E-003   5.3063167042502107E-002
  -3.6830204885839629E-002   7.6440417058867725E-003   5.4893857514255767E-002
  -3.6847674012263798E-002   8.3474931888575105E-003   5.6744459066999667E-002
  -4.4565495833854163E-002   5.6979239524806470E-003   4.9618741671211081E-002
  -4.4601518812725879E-002   7.1475100847338754E-003   5.1133464165160146E-002
  -4.4637541791597610E-002   8.4154291233071079E-003   5.2591167873223883E-002
  -4.4673564770469333E-002   9.5016810682003270E-003   5.3991852795402230E-002
  -4.4709587749341043E-002   1.0406265919413564E-002   5.5335518931695263E-002
  -5.2411393153766327E-002   6.9259407630403291E-003   4.9992393796131157E-002
  -5.2542899851961214E-002   8.5897714870492442E-003   5.1226600066418430E-002
  -5.2674406550156101E-002   1.0067564709540452E-002   5.2326857683944746E-002
  -5.2805913248350975E-002   1.1359320430513905E-002   5.3293166648710089E-002
  -5.2937419946545855E-002   1.2465038649969600E-002   5.4125526960714460E-002
  -6.0315489466303648E-002   8.1539575736000111E-003   5.0582475716725792E-002
  -6.0619409750697302E-002   1.0032032889364609E-002   5.1531795355513527E-002
  -6.0923330035090942E-002   1.1719700295773777E-002   5.2270236474664694E-002
  -6.1227250319484595E-002   1.3216959792827439E-002   5.2797799074179252E-002
  -6.1531170603878235E-002   1.4523811380525671E-002   5.3114483154057306E-002
  -2.9351678735314121E-002   6.2887204583014639E-003   5.8352347366627713E-002
  -2.9005517885465945E-002   6.6726031146799904E-003   5.9099286285954802E-002
  -2.8659357035617762E-002   6.9925411323636007E-003   5.9885974445337643E-002
  -2.8313196185769586E-002   7.2485345113523477E-003   6.0712411844776298E-002
  -2.7967035335921400E-002   7.4405832516461767E-003   6.1578598484270691E-002
  -3.6847674012263798E-002   8.3474931888575105E-003   5.6744459066999667E-002
  -3.6410591066321558E-002   8.8884101656661434E-003   5.7070793899649058E-002
  -3.5973508120379347E-002   9.2815548159928749E-003   5.7539223684430763E-002
  -3.5536425174437100E-002   9.5269271398376997E-003   5.8149748421344828E-002
  -3.5099342228494874E-002   9.6245271372005503E-003   5.8902368110391193E-002
  -4.4709587749341043E-002   1.0406265919413564E-002   5.5335518931695263E-002
  -4.4079236995228206E-002   1.1104217216652322E-002   5.5157421989879933E-002
  -4.3448886241115370E-002   1.1570568499622133E-002   5.5223765712273477E-002
  -4.2818535487002526E-002   1.1805319768323037E-002   5.5534550098875909E-002
  -4.2188184732889690E-002   1.1808471022754993E-002   5.6089775149687250E-002
  -5.2937419946545855E-002   1.2465038649969600E-002   5.4125526960714460E-002
  -5.2011455672185868E-002   1.3320024267638474E-002   5.3359170556647413E-002
  -5.1085491397825859E-002   1.3859582183251392E-002   5.2939600528865760E-002
  -5.0159527123465865E-002   1.4083712396808411E-002   5.2866816877369591E-002
  -4.9233562849105877E-002   1.3992414908309388E-002   5.3140819602158849E-002
  -6.1531170603878235E-002   1.4523811380525671E-002   5.3114483154057306E-002
  -6.0207247097194522E-002   1.5535831318624641E-002   5.1676039599951470E-002
  -5.8883323590510808E-002   1.6148595866880645E-002   5.0686728134207631E-002
  -5.7559400083827081E-002   1.6362105025293752E-002   5.0146548756825816E-002
  -5.6235476577143381E-002   1.6176358793863838E-002   5.0055501467805991E-002
  -2.7967035335921400E-002   7.4405832516461767E-003   6.1578598484270691E-002
  -2.7229792150222868E-002   7.5339499327534282E-003   6.1371170441543110E-002
  -2.6492548964524326E-002   7.4938971341825741E-003   6.1392120753796367E-002
  -2.5755305778825788E-002   7.3204248559334533E-003   6.1641449421030399E-002
  -2.5018062593127249E-002   7.0135330980061750E-003   6.2119156443245227E-002
  -3.5099342228494874E-002   9.6245271372005503E-003   5.8902368110391193E-002
  -3.4142737040682693E-002   9.5985260035148720E-003   5.8612963395328364E-002
  -3.3186131852870518E-002   9.4730949342139645E-003   5.8533904329512033E-002
  -3.2229526665058371E-002   9.2482339292977497E-003   5.8665190912942158E-002
  -3.1272921477246168E-002   8.9239429887663646E-003   5.9006823145618753E-002
  -4.2188184732889690E-002   1.1808471022754993E-002   5.6089775149687250E-002
  -4.1030250248698226E-002   1.1663102074276295E-002   5.5752383306352148E-002
  -3.9872315764506762E-002   1.1452292734245358E-002   5.5607304406529168E-002
  -3.8714381280315305E-002   1.1176043002662103E-002   5.5654538450218290E-002
  -3.7556446796123841E-002   1.0834352879526526E-002   5.5894085437419583E-002
  -4.9233562849105877E-002   1.3992414908309388E-002   5.3140819602158849E-002
  -4.7892331774269450E-002   1.3727678145037742E-002   5.2789430174614370E-002
  -4.6551100699433037E-002   1.3431490534276792E-002   5.2612320984847721E-002
  -4.5209869624596638E-002   1.3103852076026372E-002   5.2609492032858848E-002
  -4.3868638549760218E-002   1.2744762770286730E-002   5.2780943318647730E-002
  -5.6235476577143381E-002   1.6176358793863838E-002   5.0055501467805991E-002
  -5.4728981617396366E-002   1.5792254215799155E-002   4.9724104000115149E-002
  -5.3222486657649344E-002   1.5410688334308163E-002   4.9548954064467715E-002
  -5.1715991697902322E-002   1.5031661149390757E-002   4.9530051660863793E-002
  -5.0209496738155307E-002   1.4655172661046878E-002   4.9667396789303236E-002
  -2.5018062593127249E-002   7.0135330980061750E-003   6.2119156443245227E-002
  -2.4200035011527215E-002   6.6565397600243381E-003   6.1838543905542165E-002
  -2.3382007429927167E-002   6.3327627416117638E-003   6.1743403027278376E-002
  -2.2563979848327111E-002   6.0422020427681189E-003   6.1833733808453958E-002
  -2.1745952266727077E-002   5.7848576634936810E-003   6.2109536249068786E-002
  -3.1272921477246168E-002   8.9239429887663646E-003   5.9006823145618753E-002
  -3.0265257097164159E-002   8.5591156617793457E-003   5.8727496053336201E-002
  -2.9257592717082163E-002   8.2126454974966734E-003   5.8641970898578338E-002
  -2.8249928337000161E-002   7.8845324959180146E-003   5.8750247681345152E-002
  -2.7242263956918155E-002   7.5747766570435360E-003   5.9052326401636462E-002
  -3.7556446796123841E-002   1.0834352879526526E-002   5.5894085437419583E-002
  -3.6350815339474575E-002   1.0461691563534464E-002   5.5601184633692707E-002
  -3.5145183882825268E-002   1.0092528253381527E-002   5.5510416045575744E-002
  -3.3939552426175995E-002   9.7268629490679659E-003   5.5621779673068708E-002
  -3.2733920969526695E-002   9.3646956505935575E-003   5.5935275516171543E-002
  -4.3868638549760218E-002   1.2744762770286730E-002   5.2780943318647730E-002
  -4.2456709738458373E-002   1.2364267465289472E-002   5.2459609646611560E-002
  -4.1044780927156528E-002   1.1972411009266493E-002   5.2348738468270622E-002
  -3.9632852115854669E-002   1.1569193402217917E-002   5.2448329783624910E-002
  -3.8220923304552824E-002   1.1154614644143468E-002   5.2758383592674429E-002
  -5.0209496738155307E-002   1.4655172661046878E-002   4.9667396789303236E-002
  -4.8582940294115598E-002   1.4266843367044577E-002   4.9302771092092801E-002
  -4.6956383850075875E-002   1.3852293765151333E-002   4.9156938166662972E-002
  -4.5329827406036152E-002   1.3411523855367823E-002   4.9229898013013501E-002
  -4.3703270961996443E-002   1.2944533637693489E-002   4.9521650631144720E-002
  -2.1745952266727077E-002   5.7848576634936810E-003   6.2109536249068786E-002
  -2.0980978003790358E-002   5.5374005446053864E-003   6.1773780280724222E-002
  -2.0216003740853646E-002   5.2765016269207127E-003   6.1642299386587107E-002
  -1.9451029477916923E-002   5.0021609104395036E-003   6.1715093566657372E-002
  -1.8686055214980207E-002   4.7143783951619778E-003   6.1992162820935059E-002
  -2.7242263956918155E-002   7.5747766570435360E-003   5.9052326401636462E-002
  -2.6275533834722649E-002   7.2701448033654081E-003   5.8707930400371505E-002
  -2.5308803712527167E-002   6.9574037573754272E-003   5.8562771043416700E-002
  -2.4342073590331689E-002   6.6365535190737353E-003   5.8616848330772020E-002
  -2.3375343468136172E-002   6.3075940884602666E-003   5.8870162262437326E-002
  -3.2733920969526695E-002   9.3646956505935575E-003   5.5935275516171543E-002
  -3.1570473417969772E-002   9.0028890621252633E-003   5.5587572088471121E-002
  -3.0407025866412862E-002   8.6383058878300376E-003   5.5434066875183478E-002
  -2.9243578314855939E-002   8.2709461277079132E-003   5.5474759876308607E-002
  -2.8080130763299016E-002   7.9008097817586109E-003   5.5709651091846432E-002
  -3.8220923304552824E-002   1.1154614644143468E-002   5.2758383592674429E-002
  -3.6865796753531799E-002   1.0735633320885174E-002   5.2412705345023028E-002
  -3.5510670202510787E-002   1.0319208018284728E-002   5.2256186881887282E-002
  -3.4155543651489755E-002   9.9053387363419523E-003   5.2288828203266913E-002
  -3.2800417100468743E-002   9.4940254750570108E-003   5.2510629309161894E-002
  -4.3703270961996443E-002   1.2944533637693489E-002   4.9521650631144720E-002
  -4.2161503841408682E-002   1.2468377579645140E-002   4.9183330170027351E-002
  -4.0619736720820893E-002   1.2000110148739349E-002   4.9029131063528186E-002
  -3.9077969600233090E-002   1.1539731344976125E-002   4.9059053311647158E-002
  -3.7536202479645314E-002   1.1087241168355300E-002   4.9273096914384085E-002
  -1.8686055214980207E-002   4.7143783951619778E-003   6.1992162820935059E-002
  -1.7901520476602567E-002   4.3983496338359795E-003   6.2008676551365161E-002
  -1.7116985738224916E-002   4.0392701792104496E-003   6.2215751631254368E-002
  -1.6332450999847266E-002   3.6371400312846767E-003   6.2613388060602834E-002
  -1.5547916261469626E-002   3.1919591900593791E-003   6.3201585839410657E-002
  -2.3375343468136172E-002   6.3075940884602666E-003   5.8870162262437326E-002
  -2.2398823625878351E-002   5.9541157556498581E-003   5.8830611052590354E-002
  -2.1422303783620561E-002   5.5597088107571663E-003   5.8984468701044554E-002
  -2.0445783941362733E-002   5.1243732537823682E-003   5.9331735207799767E-002
  -1.9469264099104919E-002   4.6481090847251827E-003   5.9872410572856027E-002
  -2.8080130763299016E-002   7.9008097817586109E-003   5.5709651091846432E-002
  -2.6908778308319187E-002   7.5098818774635839E-003   5.5616157022939983E-002
  -2.5737425853339411E-002   7.0801474423041119E-003   5.5718919321176598E-002
  -2.4566073398359620E-002   6.6116064762798948E-003   5.6017937986556007E-002
  -2.3394720943379806E-002   6.1042589793911806E-003   5.6513213019078370E-002
  -3.2800417100468743E-002   9.4940254750570108E-003   5.2510629309161894E-002
  -3.1431384523925118E-002   9.0656479992773861E-003   5.2365314462413867E-002
  -3.0062351947381497E-002   8.6005860738509153E-003   5.2419103491650576E-002
  -2.8693319370837869E-002   8.0988396987774491E-003   5.2671996396871944E-002
  -2.7324286794294245E-002   7.5604088740571923E-003   5.3123993178078227E-002
  -3.7536202479645314E-002   1.1087241168355300E-002   4.9273096914384085E-002
  -3.5966642272696067E-002   1.0621414121091161E-002   4.9078083371011993E-002
  -3.4397082065746792E-002   1.0121024705397802E-002   4.9085021212466357E-002
  -3.2827521858797504E-002   9.5860729212750365E-003   4.9293910438747340E-002
  -3.1257961651848257E-002   9.0165587687230375E-003   4.9704751049854889E-002
  -1.5547916261469626E-002   3.1919591900593791E-003   6.3201585839410657E-002
  -1.4159288369002682E-002   2.6109835765890099E-003   6.1018387444860434E-002
  -1.2770660476535755E-002   1.8014691119280363E-003   5.9026285971612330E-002
  -1.1382032584068827E-002   7.6341579607719715E-004   5.7225281419666221E-002
  -9.9934046916018843E-003  -5.0317637096397583E-004   5.5615373789022371E-002
  -1.9469264099104919E-002   4.6481090847251827E-003   5.9872410572856027E-002
  -1.7855937064713192E-002   4.1282382993770850E-003   5.7581293656443822E-002
  -1.6242610030321465E-002   3.5620828935291199E-003   5.5548478102579207E-002
  -1.4629282995929773E-002   2.9496428671813325E-003   5.3773963911262032E-002
  -1.3015955961537991E-002   2.2909182203335599E-003   5.2257751082492421E-002
  -2.3394720943379806E-002   6.1042589793911806E-003   5.6513213019078370E-002
  -2.1489490325817907E-002   5.6454930221655208E-003   5.4296431811494614E-002
  -1.9584259708256013E-002   5.3226966751302521E-003   5.2405156407703789E-002
  -1.7679029090694062E-002   5.1358699382855217E-003   5.0839386807705833E-002
  -1.5773798473132219E-002   5.0850128116312066E-003   4.9599123011500823E-002
  -2.7324286794294245E-002   7.5604088740571923E-003   5.3123993178078227E-002
  -2.5059948152316779E-002   7.1627477449537763E-003   5.1163801910013157E-002
  -2.2795609510339283E-002   7.0833104567313045E-003   4.9596320886986567E-002
  -2.0531270868361758E-002   7.3220970093896285E-003   4.8421550108998165E-002
  -1.8266932226384289E-002   7.8791074029287422E-003   4.7639489576048091E-002
  -3.1257961651848257E-002   9.0165587687230375E-003   4.9704751049854889E-002
  -2.8567310544209829E-002   8.6800024677420873E-003   4.8183403951999049E-002
  -2.5876659436571352E-002   8.8439242383322875E-003   4.7121971540427049E-002
  -2.3186008328932906E-002   9.5083240804938844E-003   4.6520453815138404E-002
  -2.0495357221294475E-002   1.0673201994226389E-002   4.6378850776133795E-002
  -5.7157030344035048E-002   0.0000000000000000        3.4699221914623588E-002
  -5.7946645124602202E-002   2.0873969856182424E-003   3.8349278004583987E-002
  -5.8736259905169348E-002   4.1421889097576613E-003   4.2213172334921160E-002
  -5.9525874685736495E-002   6.1643757724182541E-003   4.6290904905635102E-002
  -6.0315489466303648E-002   8.1539575736000111E-003   5.0582475716725792E-002
  -6.5823408409763084E-002   0.0000000000000000        3.7223715593956541E-002
  -6.6628412364977657E-002   2.9161392252716216E-003   4.0843434530374520E-002
  -6.7433416320192216E-002   5.7739812164699826E-003   4.4218536877120906E-002
  -6.8238420275406775E-002   8.5735259735950815E-003   4.7349022634195714E-002
  -6.9043424230621334E-002   1.1314773496646922E-002   5.0234891801598923E-002
  -7.4245445066233332E-002   0.0000000000000000        4.0589797599240085E-002
  -7.5524293026143649E-002   3.7448814649250002E-003   4.4153487209521211E-002
  -7.6803140986053967E-002   7.4057735231823022E-003   4.7014105400082391E-002
  -7.8081988945964312E-002   1.0982676174771912E-002   4.9171652170923619E-002
  -7.9360836905874643E-002   1.4475589419693822E-002   5.0626127522044914E-002
  -8.2423140313445761E-002   0.0000000000000000        4.4797467930474233E-002
  -8.4634287108100226E-002   4.5736237045783806E-003   4.8279436042024060E-002
  -8.6845433902754662E-002   9.0375658298946261E-003   5.0599877903805587E-002
  -8.9056580697409113E-002   1.3391826375948745E-002   5.1758793515818829E-002
  -9.1267727492063563E-002   1.7636405342740736E-002   5.1756182878063751E-002
  -9.0356494151400402E-002   0.0000000000000000        4.9846726587658978E-002
  -9.3958394610847332E-002   5.4023659442317580E-003   5.3221281027883080E-002
  -9.7560295070294262E-002   1.0669358136606945E-002   5.4975854388290529E-002
 -0.10116219552974121        1.5800976577125571E-002   5.5110446668881326E-002
 -0.10476409598918812        2.0797221265787626E-002   5.3625057869655469E-002
  -6.0315489466303648E-002   8.1539575736000111E-003   5.0582475716725792E-002
  -6.0619409750697302E-002   1.0032032889364609E-002   5.1531795355513527E-002
  -6.0923330035090942E-002   1.1719700295773777E-002   5.2270236474664694E-002
  -6.1227250319484595E-002   1.3216959792827439E-002   5.2797799074179252E-002
  -6.1531170603878235E-002   1.4523811380525671E-002   5.3114483154057306E-002
  -6.9043424230621334E-002   1.1314773496646922E-002   5.0234891801598923E-002
  -6.9320492198386555E-002   1.3759308621367662E-002   4.9469696629743813E-002
  -6.9597560166151803E-002   1.5668716183499437E-002   4.8969084610782108E-002
  -6.9874628133917024E-002   1.7042996183042249E-002   4.8733055744713788E-002
  -7.0151696101682273E-002   1.7882148619996152E-002   4.8761610031538880E-002
  -7.9360836905874643E-002   1.4475589419693822E-002   5.0626127522044914E-002
  -7.9135590884481466E-002   1.7486584353370672E-002   4.7801697886313464E-002
  -7.8910344863088330E-002   1.9617732071225101E-002   4.5717313076005406E-002
  -7.8685098841695181E-002   2.0869032573257073E-002   4.4372973091120725E-002
  -7.8459852820302031E-002   2.1240485859466616E-002   4.3768677931659415E-002
  -9.1267727492063563E-002   1.7636405342740736E-002   5.1756182878063751E-002
  -9.0064705808982043E-002   2.1213860085373699E-002   4.6527799125222515E-002
  -8.8861684125900522E-002   2.3566747958950727E-002   4.2514921870334621E-002
  -8.7658662442818988E-002   2.4695068963471865E-002   3.9717551113400064E-002
  -8.6455640759737482E-002   2.4598823098937100E-002   3.8135686854418885E-002
 -0.10476409598918812        2.0797221265787626E-002   5.3625057869655469E-002
 -0.10210783697188827        2.4941135817376735E-002   4.5648000346470929E-002
  -9.9451577954588422E-002   2.7515763846676401E-002   3.9361910993769719E-002
  -9.6795318937288558E-002   2.8521105353686693E-002   3.4766789811551832E-002
  -9.4139059919988693E-002   2.7957160338407561E-002   3.1862636799817240E-002
  -6.1531170603878235E-002   1.4523811380525671E-002   5.3114483154057306E-002
  -6.0207247097194522E-002   1.5535831318624641E-002   5.1676039599951470E-002
  -5.8883323590510808E-002   1.6148595866880645E-002   5.0686728134207631E-002
  -5.7559400083827081E-002   1.6362105025293752E-002   5.0146548756825816E-002
  -5.6235476577143381E-002   1.6176358793863838E-002   5.0055501467805991E-002
  -7.0151696101682273E-002   1.7882148619996152E-002   4.8761610031538880E-002
  -6.8423859562254413E-002   1.8341749424124688E-002   4.7278700654547173E-002
  -6.6696023022826581E-002   1.8577374525191592E-002   4.6154485254681694E-002
  -6.4968186483398763E-002   1.8589023923196824E-002   4.5388963831942478E-002
  -6.3240349943970889E-002   1.8376697618140370E-002   4.4982136386329509E-002
  -7.8459852820302031E-002   2.1240485859466616E-002   4.3768677931659415E-002
  -7.6418541359365794E-002   2.1147667529624749E-002   4.2416582418563040E-002
  -7.4377229898429570E-002   2.1006153183502536E-002   4.1332742771357241E-002
  -7.2335918437493360E-002   2.0815942821099925E-002   4.0517158990041900E-002
  -7.0294606976557095E-002   2.0577036442416943E-002   3.9969831074617122E-002
  -8.6455640759737482E-002   2.4598823098937100E-002   3.8135686854418885E-002
  -8.4191292488528607E-002   2.3953585635124824E-002   3.7089684891999194E-002
  -8.1926944217319733E-002   2.3434931841813441E-002   3.6221500684234340E-002
  -7.9662595946110873E-002   2.3042861719003070E-002   3.5531134231124160E-002
  -7.7398247674901985E-002   2.2777375266693510E-002   3.5018585532668921E-002
  -9.4139059919988693E-002   2.7957160338407561E-002   3.1862636799817240E-002
  -9.1742112949742910E-002   2.6759503740624836E-002   3.1298008074855520E-002
  -8.9345165979497113E-002   2.5863710500124405E-002   3.0820758993312956E-002
  -8.6948219009251315E-002   2.5269780616906122E-002   3.0430889555189237E-002
  -8.4551272039005532E-002   2.4977714090970077E-002   3.0128399760484759E-002
  -5.6235476577143381E-002   1.6176358793863838E-002   5.0055501467805991E-002
  -5.4728981617396366E-002   1.5792254215799155E-002   4.9724104000115149E-002
  -5.3222486657649344E-002   1.5410688334308163E-002   4.9548954064467715E-002
  -5.1715991697902322E-002   1.5031661149390757E-002   4.9530051660863793E-002
  -5.0209496738155307E-002   1.4655172661046878E-002   4.9667396789303236E-002
  -6.3240349943970889E-002   1.8376697618140370E-002   4.4982136386329509E-002
  -6.1572014820193449E-002   1.8033277146846348E-002   4.4589110918447049E-002
  -5.9903679696415940E-002   1.7651644046138712E-002   4.4363518246582079E-002
  -5.8235344572638438E-002   1.7231798316017639E-002   4.4305358370734647E-002
  -5.6567009448860964E-002   1.6773739956482903E-002   4.4414631290904658E-002
  -7.0294606976557095E-002   2.0577036442416943E-002   3.9969831074617122E-002
  -6.8453246424775099E-002   2.0274300077893433E-002   3.9474426280555946E-002
  -6.6611885872993035E-002   1.9892599757969292E-002   3.9157639546486323E-002
  -6.4770525321211025E-002   1.9431935482644467E-002   3.9019470872408327E-002
  -6.2929164769428989E-002   1.8892307251918983E-002   3.9059920258321779E-002
  -7.7398247674901985E-002   2.2777375266693510E-002   3.5018585532668921E-002
  -7.5372676431141358E-002   2.2515323008940547E-002   3.4380050086441849E-002
  -7.3347105187380704E-002   2.2133555469799802E-002   3.3931317964180391E-002
  -7.1321533943620063E-002   2.1632072649271306E-002   3.3672389165884629E-002
  -6.9295962699859451E-002   2.1010874547355035E-002   3.3603263691554475E-002
  -8.4551272039005532E-002   2.4977714090970077E-002   3.0128399760484759E-002
  -8.2330304839292212E-002   2.4756345939987698E-002   2.9305982336104680E-002
  -8.0109337639578879E-002   2.4374511181630455E-002   2.8684553499664381E-002
  -7.7888370439865573E-002   2.3832209815898196E-002   2.8264113251163722E-002
  -7.5667403240152253E-002   2.3129441842791088E-002   2.8044661590602843E-002
  -5.0209496738155307E-002   1.4655172661046878E-002   4.9667396789303236E-002
  -4.8582940294115598E-002   1.4266843367044577E-002   4.9302771092092801E-002
  -4.6956383850075875E-002   1.3852293765151333E-002   4.9156938166662972E-002
  -4.5329827406036152E-002   1.3411523855367823E-002   4.9229898013013501E-002
  -4.3703270961996443E-002   1.2944533637693489E-002   4.9521650631144720E-002
  -5.6567009448860964E-002   1.6773739956482903E-002   4.4414631290904658E-002
  -5.4721161694461125E-002   1.6288641232953052E-002   4.4024817319177720E-002
  -5.2875313940061321E-002   1.5787674410846303E-002   4.3854793196390456E-002
  -5.1029466185661523E-002   1.5270839490162787E-002   4.3904558922542844E-002
  -4.9183618431261684E-002   1.4738136470902385E-002   4.4174114497634920E-002
  -6.2929164769428989E-002   1.8892307251918983E-002   3.9059920258321779E-002
  -6.0863028627509891E-002   1.8310439098861590E-002   3.8655270221392035E-002
  -5.8796892485590883E-002   1.7723055056541169E-002   3.8471407110561129E-002
  -5.6730756343671834E-002   1.7130155124957809E-002   3.8508330925829073E-002
  -5.4664620201752778E-002   1.6531739304111254E-002   3.8766041667195772E-002
  -6.9295962699859451E-002   2.1010874547355035E-002   3.3603263691554475E-002
  -6.7008541093261972E-002   2.0332236964770153E-002   3.3194129798735837E-002
  -6.4721119486664508E-002   1.9658435702236087E-002   3.3006779909175089E-002
  -6.2433697880067050E-002   1.8989470759752828E-002   3.3041214022872342E-002
  -6.0146276273469544E-002   1.8325342137320191E-002   3.3297432139827651E-002
  -7.5667403240152253E-002   2.3129441842791088E-002   2.8044661590602843E-002
  -7.3157699091717251E-002   2.2354034830678701E-002   2.7641396051208966E-002
  -7.0647994943282222E-002   2.1593816347930894E-002   2.7460911592232171E-002
  -6.8138290794847206E-002   2.0848786394547777E-002   2.7503208213672622E-002
  -6.5628586646412190E-002   2.0118944970529018E-002   2.7768285915530155E-002
  -4.3703270961996443E-002   1.2944533637693489E-002   4.9521650631144720E-002
  -4.2161503841408682E-002   1.2468377579645140E-002   4.9183330170027351E-002
  -4.0619736720820893E-002   1.2000110148739349E-002   4.9029131063528186E-002
  -3.9077969600233090E-002   1.1539731344976125E-002   4.9059053311647158E-002
  -3.7536202479645314E-002   1.1087241168355300E-002   4.9273096914384085E-002
  -4.9183618431261684E-002   1.4738136470902385E-002   4.4174114497634920E-002
  -4.7457132093157849E-002   1.4208431970602037E-002   4.3850614480009598E-002
  -4.5730645755053909E-002   1.3700592606798526E-002   4.3712431542798469E-002
  -4.4004159416950031E-002   1.3214618379492327E-002   4.3759565686001464E-002
  -4.2277673078846133E-002   1.2750509288682821E-002   4.3992016909618598E-002
  -5.4664620201752778E-002   1.6531739304111254E-002   3.8766041667195772E-002
  -5.2752218920336665E-002   1.5948486361558933E-002   3.8471338602416888E-002
  -5.0839817638920592E-002   1.5401075064857987E-002   3.8363148343848290E-002
  -4.8927416357504507E-002   1.4889505414008365E-002   3.8441470891489971E-002
  -4.7015015076088428E-002   1.4413777409010259E-002   3.8706306245341743E-002
  -6.0146276273469544E-002   1.8325342137320191E-002   3.3297432139827651E-002
  -5.8046764322945268E-002   1.7688540752515858E-002   3.3045502537249485E-002
  -5.5947252372420916E-002   1.7101557522917362E-002   3.2981281466677781E-002
  -5.3847740421896564E-002   1.6564392448524652E-002   3.3104768928112253E-002
  -5.1748228471372268E-002   1.6077045529337766E-002   3.3415964921553243E-002
  -6.5628586646412190E-002   2.0118944970529018E-002   2.7768285915530155E-002
  -6.3340768300983535E-002   1.9428595143472699E-002   2.7573106284507293E-002
  -6.1052949955554894E-002   1.8802039980976654E-002   2.7566830911287032E-002
  -5.8765131610126232E-002   1.8239279483040750E-002   2.7749459795868944E-002
  -5.6477313264697598E-002   1.7740313649665218E-002   2.8120992938253320E-002
  -3.7536202479645314E-002   1.1087241168355300E-002   4.9273096914384085E-002
  -3.5966642272696067E-002   1.0621414121091161E-002   4.9078083371011993E-002
  -3.4397082065746792E-002   1.0121024705397802E-002   4.9085021212466357E-002
  -3.2827521858797504E-002   9.5860729212750365E-003   4.9293910438747340E-002
  -3.1257961651848257E-002   9.0165587687230375E-003   4.9704751049854889E-002
  -4.2277673078846133E-002   1.2750509288682821E-002   4.3992016909618598E-002
  -4.0531790359546106E-002   1.2284269612730686E-002   4.3745158758123459E-002
  -3.8785907640246101E-002   1.1791903629996603E-002   4.3648994246503189E-002
  -3.7040024920946074E-002   1.1273411340480155E-002   4.3703523374757837E-002
  -3.5294142201646062E-002   1.0728792744181481E-002   4.3908746142887478E-002
  -4.7015015076088428E-002   1.4413777409010259E-002   3.8706306245341743E-002
  -4.5144067589389270E-002   1.3947125104370281E-002   3.8416039547370523E-002
  -4.3273120102690146E-002   1.3462782554595168E-002   3.8225208744322739E-002
  -4.1402172615991037E-002   1.2960749759685159E-002   3.8133813836198259E-002
  -3.9531225129291872E-002   1.2441026719639897E-002   3.8141854822996993E-002
  -5.1748228471372268E-002   1.6077045529337766E-002   3.3415964921553243E-002
  -4.9803473962225606E-002   1.5609980596009786E-002   3.3090725738753241E-002
  -4.7858719453078999E-002   1.5133661479193740E-002   3.2813664705925033E-002
  -4.5913964943932337E-002   1.4648088178890165E-002   3.2584781823068475E-002
  -4.3969210434785723E-002   1.4153260695098105E-002   3.2404077090183683E-002
  -5.6477313264697598E-002   1.7740313649665218E-002   2.8120992938253320E-002
  -5.4510009478055094E-002   1.7272836087649346E-002   2.7769217332271667E-002
  -5.2542705691412589E-002   1.6804540403792562E-002   2.7414362131310044E-002
  -5.0575401904770070E-002   1.6335426598095178E-002   2.7056427335368449E-002
  -4.8608098118127580E-002   1.5865494670556646E-002   2.6695412944446995E-002
  -3.1257961651848257E-002   9.0165587687230375E-003   4.9704751049854889E-002
  -2.8567310544209829E-002   8.6800024677420873E-003   4.8183403951999049E-002
  -2.5876659436571352E-002   8.8439242383322875E-003   4.7121971540427049E-002
  -2.3186008328932906E-002   9.5083240804938844E-003   4.6520453815138404E-002
  -2.0495357221294475E-002   1.0673201994226389E-002   4.6378850776133795E-002
  -3.5294142201646062E-002   1.0728792744181481E-002   4.3908746142887478E-002
  -3.2215924008631706E-002   1.0335598331187079E-002   4.2528875438756802E-002
  -2.9137705815617351E-002   1.0271378591583280E-002   4.1464224219094181E-002
  -2.6059487622603066E-002   1.0536133525369626E-002   4.0714792483899906E-002
  -2.2981269429588641E-002   1.1129863132546713E-002   4.0280580233173380E-002
  -3.9531225129291872E-002   1.2441026719639897E-002   3.8141854822996993E-002
  -3.6210135052717154E-002   1.1991194194632043E-002   3.6731957114410518E-002
  -3.2889044976142513E-002   1.1698832944834002E-002   3.5492583688476735E-002
  -2.9567954899567882E-002   1.1563942970245563E-002   3.4423734545195331E-002
  -2.6246864822993127E-002   1.1586524270866927E-002   3.3525409684567020E-002
  -4.3969210434785723E-002   1.4153260695098105E-002   3.2404077090183683E-002
  -4.0549943676466263E-002   1.3646790058077021E-002   3.0792648978960793E-002
  -3.7130676918146699E-002   1.3126287298084693E-002   2.9207049948574981E-002
  -3.3711410159827267E-002   1.2591752415121570E-002   2.7647279999026293E-002
  -3.0292143401507685E-002   1.2043185409187085E-002   2.6113339130314453E-002
  -4.8608098118127580E-002   1.5865494670556646E-002   2.6695412944446995E-002
  -4.5235349879878844E-002   1.5302385921521944E-002   2.4710951032407114E-002
  -4.1862601641630068E-002   1.4553741651335661E-002   2.2607622999388566E-002
  -3.8489853403381298E-002   1.3619561859997367E-002   2.0385428845391351E-002
  -3.5117105165132556E-002   1.2499846547507465E-002   1.8044368570415914E-002
  -9.0356494151400402E-002   0.0000000000000000        4.9846726587658978E-002
  -9.3958394610847332E-002   5.4023659442317580E-003   5.3221281027883080E-002
  -9.7560295070294262E-002   1.0669358136606945E-002   5.4975854388290529E-002
 -0.10116219552974121        1.5800976577125571E-002   5.5110446668881326E-002
 -0.10476409598918812        2.0797221265787626E-002   5.3625057869655469E-002
 -0.10328605542240894        0.0000000000000000        5.8671064017330209E-002
 -0.10682549685466820        1.0881658424702546E-002   5.2126651798784882E-002
 -0.11036493828692745        1.9169389620445312E-002   4.7327138714431553E-002
 -0.11390437971918670        2.4863193587228306E-002   4.4272524764270252E-002
 -0.11744382115144592        2.7963070325051530E-002   4.2962809948300963E-002
 -0.12645237296878309        0.0000000000000000        7.4203970666023841E-002
 -0.12656447515984601        1.6360950905173335E-002   5.5282038311605858E-002
 -0.12667657735090890        2.7669421104283685E-002   4.1469885305388553E-002
 -0.12678867954197179        3.3925410597331056E-002   3.2767511647371940E-002
 -0.12690078173303468        3.5128919384315421E-002   2.9174917337556013E-002
 -0.15985544679052288        0.0000000000000000        9.6445446533739876E-002
 -0.15317532952638072        2.1840243385644130E-002   6.2687440566346023E-002
 -0.14649521226223861        3.6169452588122056E-002   3.7404094161161520E-002
 -0.13981509499809647        4.2987627607433770E-002   2.0595407318186373E-002
 -0.13313497773395436        4.2294768443579336E-002   1.2261380037420605E-002
 -0.20349527688762822        0.0000000000000000       0.12539549162047831     
 -0.18665805995427240        2.7319535866114911E-002   7.4342858563005376E-002
 -0.16982084302091657        4.4669484071960412E-002   3.5129765281750464E-002
 -0.15298362608756078        5.2049844617536534E-002   7.7562117767136368E-003
 -0.13614640915420495        4.9460617502843210E-002  -7.7778019521052497E-003
 -0.10476409598918812        2.0797221265787626E-002   5.3625057869655469E-002
 -0.10210783697188827        2.4941135817376735E-002   4.5648000346470929E-002
  -9.9451577954588422E-002   2.7515763846676401E-002   3.9361910993769719E-002
  -9.6795318937288558E-002   2.8521105353686693E-002   3.4766789811551832E-002
  -9.4139059919988693E-002   2.7957160338407561E-002   3.1862636799817240E-002
 -0.11744382115144592        2.7963070325051530E-002   4.2962809948300963E-002
 -0.11348555448384179        2.9438748149080977E-002   3.6707677925147932E-002
 -0.10952728781623761        3.0259955374482665E-002   3.1365593032120158E-002
 -0.10556902114863342        3.0426692001256563E-002   2.6936555269217666E-002
 -0.10161075448102928        2.9938958029402711E-002   2.3420564636440530E-002
 -0.12690078173303468        3.5128919384315421E-002   2.9174917337556013E-002
 -0.12241842845548424        3.3936360480785223E-002   2.5556526738096028E-002
 -0.11793607517793378        3.3004146902288894E-002   2.2073262228403393E-002
 -0.11345372190038333        3.2332278648826471E-002   1.8725123808478007E-002
 -0.10897136862283288        3.1920755720397889E-002   1.5512111478319907E-002
 -0.13313497773395436        4.2294768443579336E-002   1.2261380037420605E-002
 -0.12890645888681565        3.8433972812489524E-002   1.2194546785315391E-002
 -0.12467794003967694        3.5748338430095200E-002   1.1484918582619524E-002
 -0.12044942119253819        3.4237865296396323E-002   1.0132495429332792E-002
 -0.11622090234539952        3.3902553411393047E-002   8.1372773254553554E-003
 -0.13614640915420495        4.9460617502843210E-002  -7.7778019521052497E-003
 -0.13294964577783600        4.2931585144193721E-002  -3.3782619331940503E-003
 -0.12975288240146704        3.8492529957901471E-002  -3.9943790523160570E-004
 -0.12655611902509811        3.6143451943966239E-002   1.1586701317820047E-003
 -0.12335935564872916        3.5884351102388190E-002   1.2960621778468906E-003
  -9.4139059919988693E-002   2.7957160338407561E-002   3.1862636799817240E-002
  -9.1742112949742910E-002   2.6759503740624836E-002   3.1298008074855520E-002
  -8.9345165979497113E-002   2.5863710500124405E-002   3.0820758993312956E-002
  -8.6948219009251315E-002   2.5269780616906122E-002   3.0430889555189237E-002
  -8.4551272039005532E-002   2.4977714090970077E-002   3.0128399760484759E-002
 -0.10161075448102928        2.9938958029402711E-002   2.3420564636440530E-002
  -9.9113782189634972E-002   2.9162174496900908E-002   2.3168779425752309E-002
  -9.6616809898240646E-002   2.8461762441730917E-002   2.3029665213942074E-002
  -9.4119837606846349E-002   2.7837721863892762E-002   2.3003222001009911E-002
  -9.1622865315451996E-002   2.7290052763386530E-002   2.3089449786955665E-002
 -0.10897136862283288        3.1920755720397889E-002   1.5512111478319907E-002
 -0.10634907965483112        3.1564845253176918E-002   1.5347677901954794E-002
 -0.10372679068682930        3.1059814383337454E-002   1.5321206679926584E-002
 -0.10110450171882750        3.0405663110879482E-002   1.5432697812235467E-002
  -9.8482212750825693E-002   2.9602391435802969E-002   1.5682151298881182E-002
 -0.11622090234539952        3.3902553411393047E-002   8.1372773254553554E-003
 -0.11344800534533130        3.3967516009452949E-002   7.8347035034629330E-003
 -0.11067510834526309        3.3657866324944032E-002   7.6953833912665253E-003
 -0.10790221134519484        3.2973604357866136E-002   7.7193169888659686E-003
 -0.10512931434512665        3.1914730108219304E-002   7.9065042962612481E-003
 -0.12335935564872916        3.5884351102388190E-002   1.2960621778468906E-003
 -0.12041055926113559        3.6370186765728993E-002   6.2985623027672633E-004
 -0.11746176287354197        3.6255918266550488E-002   1.5219534796162559E-004
 -0.11451296648594839        3.5541545604852745E-002  -1.3692046909868916E-004
 -0.11156417009835479        3.4227068780635861E-002  -2.3749122090416241E-004
  -8.4551272039005532E-002   2.4977714090970077E-002   3.0128399760484759E-002
  -8.2330304839292212E-002   2.4756345939987698E-002   2.9305982336104680E-002
  -8.0109337639578879E-002   2.4374511181630455E-002   2.8684553499664381E-002
  -7.7888370439865573E-002   2.3832209815898196E-002   2.8264113251163722E-002
  -7.5667403240152253E-002   2.3129441842791088E-002   2.8044661590602843E-002
  -9.1622865315451996E-002   2.7290052763386530E-002   2.3089449786955665E-002
  -8.9182914656545043E-002   2.6749948516799057E-002   2.2386418886467849E-002
  -8.6742963997638090E-002   2.6148602500717641E-002   2.1920366316427638E-002
  -8.4303013338731136E-002   2.5486014715142131E-002   2.1691292076834959E-002
  -8.1863062679824114E-002   2.4762185160072586E-002   2.1699196167689880E-002
  -9.8482212750825693E-002   2.9602391435802969E-002   1.5682151298881182E-002
  -9.5787288890217231E-002   2.8743551093610535E-002   1.5197731760166408E-002
  -9.3092365029608756E-002   2.7922693819804879E-002   1.4986280294407218E-002
  -9.0397441169000267E-002   2.7139819614386173E-002   1.5047796901603424E-002
  -8.7702517308391750E-002   2.6394928477354085E-002   1.5382281581755017E-002
 -0.10512931434512665        3.1914730108219304E-002   7.9065042962612481E-003
 -0.10214342754030876        3.0737153670421898E-002   7.7399209572003459E-003
  -9.9157540735490879E-002   2.9696785138892200E-002   7.8822954336029150E-003
  -9.6171653930673021E-002   2.8793624513629996E-002   8.3336277254688271E-003
  -9.3185767125855107E-002   2.8027671794635584E-002   9.0939178327981846E-003
 -0.11156417009835479        3.4227068780635861E-002  -2.3749122090416241E-004
 -0.10825133060681968        3.2730756247233317E-002   1.2986477569865151E-005
 -0.10493849111528450        3.1470876457979344E-002   6.0841173401508797E-004
 -0.10162565162374933        3.0447429412874188E-002   1.5487845484315858E-003
  -9.8312812132214211E-002   2.9660415111917138E-002   2.8341049208190916E-003
  -7.5667403240152253E-002   2.3129441842791088E-002   2.8044661590602843E-002
  -7.3157699091717251E-002   2.2354034830678701E-002   2.7641396051208966E-002
  -7.0647994943282222E-002   2.1593816347930894E-002   2.7460911592232171E-002
  -6.8138290794847206E-002   2.0848786394547777E-002   2.7503208213672622E-002
  -6.5628586646412190E-002   2.0118944970529018E-002   2.7768285915530155E-002
  -8.1863062679824114E-002   2.4762185160072586E-002   2.1699196167689880E-002
  -7.9170479250300102E-002   2.4001273161673192E-002   2.1613366346171725E-002
  -7.6477895820776076E-002   2.3227438046108231E-002   2.1670514006414419E-002
  -7.3785312391252036E-002   2.2440679813377832E-002   2.1870639148417980E-002
  -7.1092728961727997E-002   2.1640998463481859E-002   2.2213741772182438E-002
  -8.7702517308391750E-002   2.6394928477354085E-002   1.5382281581755017E-002
  -8.4906858196434953E-002   2.5648511492667579E-002   1.5585775831582389E-002
  -8.2111199084478115E-002   2.4861059744285596E-002   1.5852443964514441E-002
  -7.9315539972521318E-002   2.4032573232207748E-002   1.6182285980550971E-002
  -7.6519880860564493E-002   2.3163051956434477E-002   1.6575301879692458E-002
  -9.3185767125855107E-002   2.8027671794635584E-002   9.0939178327981846E-003
  -9.0366835930121694E-002   2.7295749823662129E-002   9.5586245074409278E-003
  -8.7547904734388338E-002   2.6494681442462920E-002   1.0006701466532226E-002
  -8.4728973538654939E-002   2.5624466651038121E-002   1.0438148710071701E-002
  -8.1910042342921499E-002   2.4685105449387124E-002   1.0852966238059973E-002
  -9.8312812132214211E-002   2.9660415111917138E-002   2.8341049208190916E-003
  -9.5550412451360478E-002   2.8942988154656596E-002   3.5319123737471703E-003
  -9.2788012770506745E-002   2.8128303140640146E-002   4.1332865124678042E-003
  -9.0025613089653012E-002   2.7216360069867929E-002   4.6382273369804938E-003
  -8.7263213408799278E-002   2.6207158942339936E-002   5.0467348472850726E-003
  -6.5628586646412190E-002   2.0118944970529018E-002   2.7768285915530155E-002
  -6.3340768300983535E-002   1.9428595143472699E-002   2.7573106284507293E-002
  -6.1052949955554894E-002   1.8802039980976654E-002   2.7566830911287032E-002
  -5.8765131610126232E-002   1.8239279483040750E-002   2.7749459795868944E-002
  -5.6477313264697598E-002   1.7740313649665218E-002   2.8120992938253320E-002
  -7.1092728961727997E-002   2.1640998463481859E-002   2.2213741772182438E-002
  -6.8611698993419429E-002   2.0864479417401674E-002   2.2121381117395547E-002
  -6.6130669025110889E-002   2.0147208096119466E-002   2.2226539450566282E-002
  -6.3649639056802307E-002   1.9489184499634687E-002   2.2529216771694116E-002
  -6.1168609088493781E-002   1.8890408627947719E-002   2.3029413080779632E-002
  -7.6519880860564493E-002   2.3163051956434477E-002   1.6575301879692458E-002
  -7.3837024539220864E-002   2.2300363691330913E-002   1.6581213261378742E-002
  -7.1154168217877317E-002   2.1492376211262279E-002   1.6793258361177690E-002
  -6.8471311896533729E-002   2.0739089516228566E-002   1.7211437179089337E-002
  -6.5788455575190141E-002   2.0040503606230053E-002   1.7835749715113383E-002
  -8.1910042342921499E-002   2.4685105449387124E-002   1.0852966238059973E-002
  -7.9016744938387784E-002   2.3736247965260075E-002   1.0952602716457005E-002
  -7.6123447533854111E-002   2.2837544326404870E-002   1.1266987643121906E-002
  -7.3230150129320395E-002   2.1988994532822749E-002   1.1796121018054136E-002
  -7.0336852724786694E-002   2.1190598584512693E-002   1.2540002841254214E-002
  -8.7263213408799278E-002   2.6207158942339936E-002   5.0467348472850726E-003
  -8.4150860190920329E-002   2.5172132239189127E-002   5.2355494826303306E-003
  -8.1038506973041324E-002   2.4182712441547960E-002   5.6477272963980224E-003
  -7.7926153755162347E-002   2.3238899549416506E-002   6.2832682885888454E-003
  -7.4813800537283370E-002   2.2340693562795000E-002   7.1421724592024560E-003
  -5.6477313264697598E-002   1.7740313649665218E-002   2.8120992938253320E-002
  -5.4510009478055094E-002   1.7272836087649346E-002   2.7769217332271667E-002
  -5.2542705691412589E-002   1.6804540403792562E-002   2.7414362131310044E-002
  -5.0575401904770070E-002   1.6335426598095178E-002   2.7056427335368449E-002
  -4.8608098118127580E-002   1.5865494670556646E-002   2.6695412944446995E-002
  -6.1168609088493781E-002   1.8890408627947719E-002   2.3029413080779632E-002
  -5.9094402676610508E-002   1.8313001333599865E-002   2.2850404686138692E-002
  -5.7020196264727235E-002   1.7719083469133118E-002   2.2888281136959066E-002
  -5.4945989852844025E-002   1.7108655034547622E-002   2.3143042433240904E-002
  -5.2871783440960690E-002   1.6481716029842886E-002   2.3614688574984333E-002
  -6.5788455575190141E-002   2.0040503606230053E-002   1.7835749715113383E-002
  -6.3387382097624678E-002   1.9353166579550579E-002   1.7813816083534897E-002
  -6.0986308620059299E-002   1.8633626534473827E-002   1.8228731737859216E-002
  -5.8585235142493863E-002   1.7881883471000119E-002   1.9080496678086332E-002
  -5.6184161664928449E-002   1.7097937389129292E-002   2.0369110904216559E-002
  -7.0336852724786694E-002   2.1190598584512693E-002   1.2540002841254214E-002
  -6.7388947741097632E-002   2.0393331825501168E-002   1.2659451524459998E-002
  -6.4441042757408723E-002   1.9548169599814404E-002   1.3435713934010416E-002
  -6.1493137773719765E-002   1.8655111907452643E-002   1.4868790069904598E-002
  -5.8545232790030752E-002   1.7714158748415726E-002   1.6958679932143325E-002
  -7.4813800537283370E-002   2.2340693562795000E-002   7.1421724592024560E-003
  -7.1099099607029426E-002   2.1433497071451757E-002   7.3873110089145433E-003
  -6.7384398676775481E-002   2.0462712665155119E-002   8.5092277254121551E-003
  -6.3669697746521536E-002   1.9428340343905177E-002   1.0507922608695756E-002
  -5.9954996816267592E-002   1.8330380107702049E-002   1.3383395658764785E-002
  -4.8608098118127580E-002   1.5865494670556646E-002   2.6695412944446995E-002
  -4.5235349879878844E-002   1.5302385921521944E-002   2.4710951032407114E-002
  -4.1862601641630068E-002   1.4553741651335661E-002   2.2607622999388566E-002
  -3.8489853403381298E-002   1.3619561859997367E-002   2.0385428845391351E-002
  -3.5117105165132556E-002   1.2499846547507465E-002   1.8044368570415914E-002
  -5.2871783440960690E-002   1.6481716029842886E-002   2.3614688574984333E-002
  -4.9312357477666713E-002   1.5563104177251735E-002   2.2510892284430511E-002
  -4.5752931514372694E-002   1.4077657199005986E-002   2.1899317564945731E-002
  -4.2193505551078786E-002   1.2025375095105924E-002   2.1779964416529962E-002
  -3.8634079587784753E-002   9.4062578655516038E-003   2.2152832839183234E-002
  -5.6184161664928449E-002   1.7097937389129292E-002   2.0369110904216559E-002
  -5.1826970284541606E-002   1.5823822432981388E-002   1.9764680630646222E-002
  -4.7469778904154825E-002   1.3601572746676255E-002   2.0263559620192398E-002
  -4.3112587523768064E-002   1.0431188330214676E-002   2.1865747872855022E-002
  -3.8755396143381110E-002   6.3126691835954096E-003   2.4571245388634422E-002
  -5.8545232790030752E-002   1.7714158748415726E-002   1.6958679932143325E-002
  -5.2779188300503620E-002   1.6084540688711166E-002   1.6472316071053730E-002
  -4.7013143810976508E-002   1.3125488294346829E-002   1.7700349165128346E-002
  -4.1247099321449390E-002   8.8370015653230528E-003   2.0642779214366899E-002
  -3.5481054831922272E-002   3.2190805016392710E-003   2.5299606218769699E-002
  -5.9954996816267592E-002   1.8330380107702049E-002   1.3383395658764785E-002
  -5.2169011525552533E-002   1.6345258944441055E-002   1.2633798605653501E-002
  -4.4383026234837586E-002   1.2649403842017209E-002   1.4209686199753796E-002
  -3.6597040944122639E-002   7.2428148004316864E-003   1.8111058441065801E-002
  -2.8811055653407580E-002   1.2549181968335432E-004   2.4337915329589066E-002
 </DataArray>
 </PointData>
 </Piece>
 <Piece  NumberOfPoints="          1600 "  NumberOfCells="         1024 ">
 <Points>
 <DataArray  type="Float64" NumberOfComponents="3"  format="ascii" >
  0.50000000000000000        0.0000000000000000        0.0000000000000000     
  0.53125000000000000        0.0000000000000000        0.0000000000000000     
  0.56250000000000000        0.0000000000000000        0.0000000000000000     
  0.59375000000000000        0.0000000000000000        0.0000000000000000     
  0.62500000000000000        0.0000000000000000        0.0000000000000000     
  0.50000000000000000        3.1250000000000000E-002   0.0000000000000000     
  0.53125000000000000        3.1250000000000000E-002   0.0000000000000000     
  0.56250000000000000        3.1250000000000000E-002   0.0000000000000000     
  0.59375000000000000        3.1250000000000000E-002   0.0000000000000000     
  0.62500000000000000        3.1250000000000000E-002   0.0000000000000000     
  0.50000000000000000        6.2500000000000000E-002   0.0000000000000000     
  0.53125000000000000        6.2500000000000000E-002   0.0000000000000000     
  0.56250000000000000        6.2500000000000000E-002   0.0000000000000000     
  0.59375000000000000        6.2500000000000000E-002   0.0000000000000000     
  0.62500000000000000        6.2500000000000000E-002   0.0000000000000000     
  0.50000000000000000        9.3750000000000000E-002   0.0000000000000000     
  0.53125000000000000        9.3750000000000000E-002   0.0000000000000000     
  0.56250000000000000        9.3750000000000000E-002   0.0000000000000000     
  0.59375000000000000        9.3750000000000000E-002   0.0000000000000000     
  0.62500000000000000        9.3750000000000000E-002   0.0000000000000000     
  0.50000000000000000       0.12500000000000000        0.0000000000000000     
  0.53125000000000000       0.12500000000000000        0.0000000000000000     
  0.56250000000000000       0.12500000000000000        0.0000000000000000     
  0.59375000000000000       0.12500000000000000        0.0000000000000000     
  0.62500000000000000       0.12500000000000000        0.0000000000000000     
  0.62500000000000000        0.0000000000000000        0.0000000000000000     
  0.65625000000000000        0.0000000000000000        0.0000000000000000     
  0.68750000000000000        0.0000000000000000        0.0000000000000000     
  0.71875000000000000        0.0000000000000000        0.0000000000000000     
  0.75000000000000000        0.0000000000000000        0.0000000000000000     
  0.62500000000000000        3.1250000000000000E-002   0.0000000000000000     
  0.65625000000000000        3.1250000000000000E-002   0.0000000000000000     
  0.68750000000000000        3.1250000000000000E-002   0.0000000000000000     
  0.71875000000000000        3.1250000000000000E-002   0.0000000000000000     
  0.75000000000000000        3.1250000000000000E-002   0.0000000000000000     
  0.62500000000000000        6.2500000000000000E-002   0.0000000000000000     
  0.65625000000000000        6.2500000000000000E-002   0.0000000000000000     
  0.68750000000000000        6.2500000000000000E-002   0.0000000000000000     
  0.71875000000000000        6.2500000000000000E-002   0.0000000000000000     
  0.75000000000000000        6.2500000000000000E-002   0.0000000000000000     
  0.62500000000000000        9.3750000000000000E-002   0.0000000000000000     
  0.65625000000000000        9.3750000000000000E-002   0.0000000000000000     
  0.68750000000000000        9.3750000000000000E-002   0.0000000000000000     
  0.71875000000000000        9.3750000000000000E-002   0.0000000000000000     
  0.75000000000000000        9.3750000000000000E-002   0.0000000000000000     
  0.62500000000000000       0.12500000000000000        0.0000000000000000     
  0.65625000000000000       0.12500000000000000        0.0000000000000000     
  0.68750000000000000       0.12500000000000000        0.0000000000000000     
  0.71875000000000000       0.12500000000000000        0.0000000000000000     
  0.75000000000000000       0.12500000000000000        0.0000000000000000     
  0.75000000000000000        0.0000000000000000        0.0000000000000000     
  0.78125000000000000        0.0000000000000000        0.0000000000000000     
  0.81250000000000000        0.0000000000000000        0.0000000000000000     
  0.84375000000000000        0.0000000000000000        0.0000000000000000     
  0.87500000000000000        0.0000000000000000        0.0000000000000000     
  0.75000000000000000        3.1250000000000000E-002   0.0000000000000000     
  0.78125000000000000        3.1250000000000000E-002   0.0000000000000000     
  0.81250000000000000        3.1250000000000000E-002   0.0000000000000000     
  0.84375000000000000        3.1250000000000000E-002   0.0000000000000000     
  0.87500000000000000        3.1250000000000000E-002   0.0000000000000000     
  0.75000000000000000        6.2500000000000000E-002   0.0000000000000000     
  0.78125000000000000        6.2500000000000000E-002   0.0000000000000000     
  0.81250000000000000        6.2500000000000000E-002   0.0000000000000000     
  0.84375000000000000        6.2500000000000000E-002   0.0000000000000000     
  0.87500000000000000        6.2500000000000000E-002   0.0000000000000000     
  0.75000000000000000        9.3750000000000000E-002   0.0000000000000000     
  0.78125000000000000        9.3750000000000000E-002   0.0000000000000000     
  0.81250000000000000        9.3750000000000000E-002   0.0000000000000000     
  0.84375000000000000        9.3750000000000000E-002   0.0000000000000000     
  0.87500000000000000        9.3750000000000000E-002   0.0000000000000000     
  0.75000000000000000       0.12500000000000000        0.0000000000000000     
  0.78125000000000000       0.12500000000000000        0.0000000000000000     
  0.81250000000000000       0.12500000000000000        0.0000000000000000     
  0.84375000000000000       0.12500000000000000        0.0000000000000000     
  0.87500000000000000       0.12500000000000000        0.0000000000000000     
  0.87500000000000000        0.0000000000000000        0.0000000000000000     
  0.90625000000000000        0.0000000000000000        0.0000000000000000     
  0.93750000000000000        0.0000000000000000        0.0000000000000000     
  0.96875000000000000        0.0000000000000000        0.0000000000000000     
   1.0000000000000000        0.0000000000000000        0.0000000000000000     
  0.87500000000000000        3.1250000000000000E-002   0.0000000000000000     
  0.90625000000000000        3.1250000000000000E-002   0.0000000000000000     
  0.93750000000000000        3.1250000000000000E-002   0.0000000000000000     
  0.96875000000000000        3.1250000000000000E-002   0.0000000000000000     
   1.0000000000000000        3.1250000000000000E-002   0.0000000000000000     
  0.87500000000000000        6.2500000000000000E-002   0.0000000000000000     
  0.90625000000000000        6.2500000000000000E-002   0.0000000000000000     
  0.93750000000000000        6.2500000000000000E-002   0.0000000000000000     
  0.96875000000000000        6.2500000000000000E-002   0.0000000000000000     
   1.0000000000000000        6.2500000000000000E-002   0.0000000000000000     
  0.87500000000000000        9.3750000000000000E-002   0.0000000000000000     
  0.90625000000000000        9.3750000000000000E-002   0.0000000000000000     
  0.93750000000000000        9.3750000000000000E-002   0.0000000000000000     
  0.96875000000000000        9.3750000000000000E-002   0.0000000000000000     
   1.0000000000000000        9.3750000000000000E-002   0.0000000000000000     
  0.87500000000000000       0.12500000000000000        0.0000000000000000     
  0.90625000000000000       0.12500000000000000        0.0000000000000000     
  0.93750000000000000       0.12500000000000000        0.0000000000000000     
  0.96875000000000000       0.12500000000000000        0.0000000000000000     
   1.0000000000000000       0.12500000000000000        0.0000000000000000     
   1.0000000000000000        0.0000000000000000        0.0000000000000000     
   1.0312500000000000        0.0000000000000000        0.0000000000000000     
   1.0625000000000000        0.0000000000000000        0.0000000000000000     
   1.0937500000000000        0.0000000000000000        0.0000000000000000     
   1.1250000000000000        0.0000000000000000        0.0000000000000000     
   1.0000000000000000        3.1250000000000000E-002   0.0000000000000000     
   1.0312500000000000        3.1250000000000000E-002   0.0000000000000000     
   1.0625000000000000        3.1250000000000000E-002   0.0000000000000000     
   1.0937500000000000        3.1250000000000000E-002   0.0000000000000000     
   1.1250000000000000        3.1250000000000000E-002   0.0000000000000000     
   1.0000000000000000        6.2500000000000000E-002   0.0000000000000000     
   1.0312500000000000        6.2500000000000000E-002   0.0000000000000000     
   1.0625000000000000        6.2500000000000000E-002   0.0000000000000000     
   1.0937500000000000        6.2500000000000000E-002   0.0000000000000000     
   1.1250000000000000        6.2500000000000000E-002   0.0000000000000000     
   1.0000000000000000        9.3750000000000000E-002   0.0000000000000000     
   1.0312500000000000        9.3750000000000000E-002   0.0000000000000000     
   1.0625000000000000        9.3750000000000000E-002   0.0000000000000000     
   1.0937500000000000        9.3750000000000000E-002   0.0000000000000000     
   1.1250000000000000        9.3750000000000000E-002   0.0000000000000000     
   1.0000000000000000       0.12500000000000000        0.0000000000000000     
   1.0312500000000000       0.12500000000000000        0.0000000000000000     
   1.0625000000000000       0.12500000000000000        0.0000000000000000     
   1.0937500000000000       0.12500000000000000        0.0000000000000000     
   1.1250000000000000       0.12500000000000000        0.0000000000000000     
   1.1250000000000000        0.0000000000000000        0.0000000000000000     
   1.1562500000000000        0.0000000000000000        0.0000000000000000     
   1.1875000000000000        0.0000000000000000        0.0000000000000000     
   1.2187500000000000        0.0000000000000000        0.0000000000000000     
   1.2500000000000000        0.0000000000000000        0.0000000000000000     
   1.1250000000000000        3.1250000000000000E-002   0.0000000000000000     
   1.1562500000000000        3.1250000000000000E-002   0.0000000000000000     
   1.1875000000000000        3.1250000000000000E-002   0.0000000000000000     
   1.2187500000000000        3.1250000000000000E-002   0.0000000000000000     
   1.2500000000000000        3.1250000000000000E-002   0.0000000000000000     
   1.1250000000000000        6.2500000000000000E-002   0.0000000000000000     
   1.1562500000000000        6.2500000000000000E-002   0.0000000000000000     
   1.1875000000000000        6.2500000000000000E-002   0.0000000000000000     
   1.2187500000000000        6.2500000000000000E-002   0.0000000000000000     
   1.2500000000000000        6.2500000000000000E-002   0.0000000000000000     
   1.1250000000000000        9.3750000000000000E-002   0.0000000000000000     
   1.1562500000000000        9.3750000000000000E-002   0.0000000000000000     
   1.1875000000000000        9.3750000000000000E-002   0.0000000000000000     
   1.2187500000000000        9.3750000000000000E-002   0.0000000000000000     
   1.2500000000000000        9.3750000000000000E-002   0.0000000000000000     
   1.1250000000000000       0.12500000000000000        0.0000000000000000     
   1.1562500000000000       0.12500000000000000        0.0000000000000000     
   1.1875000000000000       0.12500000000000000        0.0000000000000000     
   1.2187500000000000       0.12500000000000000        0.0000000000000000     
   1.2500000000000000       0.12500000000000000        0.0000000000000000     
   1.2500000000000000        0.0000000000000000        0.0000000000000000     
   1.2812500000000000        0.0000000000000000        0.0000000000000000     
   1.3125000000000000        0.0000000000000000        0.0000000000000000     
   1.3437500000000000        0.0000000000000000        0.0000000000000000     
   1.3750000000000000        0.0000000000000000        0.0000000000000000     
   1.2500000000000000        3.1250000000000000E-002   0.0000000000000000     
   1.2812500000000000        3.1250000000000000E-002   0.0000000000000000     
   1.3125000000000000        3.1250000000000000E-002   0.0000000000000000     
   1.3437500000000000        3.1250000000000000E-002   0.0000000000000000     
   1.3750000000000000        3.1250000000000000E-002   0.0000000000000000     
   1.2500000000000000        6.2500000000000000E-002   0.0000000000000000     
   1.2812500000000000        6.2500000000000000E-002   0.0000000000000000     
   1.3125000000000000        6.2500000000000000E-002   0.0000000000000000     
   1.3437500000000000        6.2500000000000000E-002   0.0000000000000000     
   1.3750000000000000        6.2500000000000000E-002   0.0000000000000000     
   1.2500000000000000        9.3750000000000000E-002   0.0000000000000000     
   1.2812500000000000        9.3750000000000000E-002   0.0000000000000000     
   1.3125000000000000        9.3750000000000000E-002   0.0000000000000000     
   1.3437500000000000        9.3750000000000000E-002   0.0000000000000000     
   1.3750000000000000        9.3750000000000000E-002   0.0000000000000000     
   1.2500000000000000       0.12500000000000000        0.0000000000000000     
   1.2812500000000000       0.12500000000000000        0.0000000000000000     
   1.3125000000000000       0.12500000000000000        0.0000000000000000     
   1.3437500000000000       0.12500000000000000        0.0000000000000000     
   1.3750000000000000       0.12500000000000000        0.0000000000000000     
   1.3750000000000000        0.0000000000000000        0.0000000000000000     
   1.4062500000000000        0.0000000000000000        0.0000000000000000     
   1.4375000000000000        0.0000000000000000        0.0000000000000000     
   1.4687500000000000        0.0000000000000000        0.0000000000000000     
   1.5000000000000000        0.0000000000000000        0.0000000000000000     
   1.3750000000000000        3.1250000000000000E-002   0.0000000000000000     
   1.4062500000000000        3.1250000000000000E-002   0.0000000000000000     
   1.4375000000000000        3.1250000000000000E-002   0.0000000000000000     
   1.4687500000000000        3.1250000000000000E-002   0.0000000000000000     
   1.5000000000000000        3.1250000000000000E-002   0.0000000000000000     
   1.3750000000000000        6.2500000000000000E-002   0.0000000000000000     
   1.4062500000000000        6.2500000000000000E-002   0.0000000000000000     
   1.4375000000000000        6.2500000000000000E-002   0.0000000000000000     
   1.4687500000000000        6.2500000000000000E-002   0.0000000000000000     
   1.5000000000000000        6.2500000000000000E-002   0.0000000000000000     
   1.3750000000000000        9.3750000000000000E-002   0.0000000000000000     
   1.4062500000000000        9.3750000000000000E-002   0.0000000000000000     
   1.4375000000000000        9.3750000000000000E-002   0.0000000000000000     
   1.4687500000000000        9.3750000000000000E-002   0.0000000000000000     
   1.5000000000000000        9.3750000000000000E-002   0.0000000000000000     
   1.3750000000000000       0.12500000000000000        0.0000000000000000     
   1.4062500000000000       0.12500000000000000        0.0000000000000000     
   1.4375000000000000       0.12500000000000000        0.0000000000000000     
   1.4687500000000000       0.12500000000000000        0.0000000000000000     
   1.5000000000000000       0.12500000000000000        0.0000000000000000     
  0.50000000000000000       0.12500000000000000        0.0000000000000000     
  0.53125000000000000       0.12500000000000000        0.0000000000000000     
  0.56250000000000000       0.12500000000000000        0.0000000000000000     
  0.59375000000000000       0.12500000000000000        0.0000000000000000     
  0.62500000000000000       0.12500000000000000        0.0000000000000000     
  0.50000000000000000       0.15625000000000000        0.0000000000000000     
  0.53125000000000000       0.15625000000000000        0.0000000000000000     
  0.56250000000000000       0.15625000000000000        0.0000000000000000     
  0.59375000000000000       0.15625000000000000        0.0000000000000000     
  0.62500000000000000       0.15625000000000000        0.0000000000000000     
  0.50000000000000000       0.18750000000000000        0.0000000000000000     
  0.53125000000000000       0.18750000000000000        0.0000000000000000     
  0.56250000000000000       0.18750000000000000        0.0000000000000000     
  0.59375000000000000       0.18750000000000000        0.0000000000000000     
  0.62500000000000000       0.18750000000000000        0.0000000000000000     
  0.50000000000000000       0.21875000000000000        0.0000000000000000     
  0.53125000000000000       0.21875000000000000        0.0000000000000000     
  0.56250000000000000       0.21875000000000000        0.0000000000000000     
  0.59375000000000000       0.21875000000000000        0.0000000000000000     
  0.62500000000000000       0.21875000000000000        0.0000000000000000     
  0.50000000000000000       0.25000000000000000        0.0000000000000000     
  0.53125000000000000       0.25000000000000000        0.0000000000000000     
  0.56250000000000000       0.25000000000000000        0.0000000000000000     
  0.59375000000000000       0.25000000000000000        0.0000000000000000     
  0.62500000000000000       0.25000000000000000        0.0000000000000000     
  0.62500000000000000       0.12500000000000000        0.0000000000000000     
  0.65625000000000000       0.12500000000000000        0.0000000000000000     
  0.68750000000000000       0.12500000000000000        0.0000000000000000     
  0.71875000000000000       0.12500000000000000        0.0000000000000000     
  0.75000000000000000       0.12500000000000000        0.0000000000000000     
  0.62500000000000000       0.15625000000000000        0.0000000000000000     
  0.65625000000000000       0.15625000000000000        0.0000000000000000     
  0.68750000000000000       0.15625000000000000        0.0000000000000000     
  0.71875000000000000       0.15625000000000000        0.0000000000000000     
  0.75000000000000000       0.15625000000000000        0.0000000000000000     
  0.62500000000000000       0.18750000000000000        0.0000000000000000     
  0.65625000000000000       0.18750000000000000        0.0000000000000000     
  0.68750000000000000       0.18750000000000000        0.0000000000000000     
  0.71875000000000000       0.18750000000000000        0.0000000000000000     
  0.75000000000000000       0.18750000000000000        0.0000000000000000     
  0.62500000000000000       0.21875000000000000        0.0000000000000000     
  0.65625000000000000       0.21875000000000000        0.0000000000000000     
  0.68750000000000000       0.21875000000000000        0.0000000000000000     
  0.71875000000000000       0.21875000000000000        0.0000000000000000     
  0.75000000000000000       0.21875000000000000        0.0000000000000000     
  0.62500000000000000       0.25000000000000000        0.0000000000000000     
  0.65625000000000000       0.25000000000000000        0.0000000000000000     
  0.68750000000000000       0.25000000000000000        0.0000000000000000     
  0.71875000000000000       0.25000000000000000        0.0000000000000000     
  0.75000000000000000       0.25000000000000000        0.0000000000000000     
  0.75000000000000000       0.12500000000000000        0.0000000000000000     
  0.78125000000000000       0.12500000000000000        0.0000000000000000     
  0.81250000000000000       0.12500000000000000        0.0000000000000000     
  0.84375000000000000       0.12500000000000000        0.0000000000000000     
  0.87500000000000000       0.12500000000000000        0.0000000000000000     
  0.75000000000000000       0.15625000000000000        0.0000000000000000     
  0.78125000000000000       0.15625000000000000        0.0000000000000000     
  0.81250000000000000       0.15625000000000000        0.0000000000000000     
  0.84375000000000000       0.15625000000000000        0.0000000000000000     
  0.87500000000000000       0.15625000000000000        0.0000000000000000     
  0.75000000000000000       0.18750000000000000        0.0000000000000000     
  0.78125000000000000       0.18750000000000000        0.0000000000000000     
  0.81250000000000000       0.18750000000000000        0.0000000000000000     
  0.84375000000000000       0.18750000000000000        0.0000000000000000     
  0.87500000000000000       0.18750000000000000        0.0000000000000000     
  0.75000000000000000       0.21875000000000000        0.0000000000000000     
  0.78125000000000000       0.21875000000000000        0.0000000000000000     
  0.81250000000000000       0.21875000000000000        0.0000000000000000     
  0.84375000000000000       0.21875000000000000        0.0000000000000000     
  0.87500000000000000       0.21875000000000000        0.0000000000000000     
  0.75000000000000000       0.25000000000000000        0.0000000000000000     
  0.78125000000000000       0.25000000000000000        0.0000000000000000     
  0.81250000000000000       0.25000000000000000        0.0000000000000000     
  0.84375000000000000       0.25000000000000000        0.0000000000000000     
  0.87500000000000000       0.25000000000000000        0.0000000000000000     
  0.87500000000000000       0.12500000000000000        0.0000000000000000     
  0.90625000000000000       0.12500000000000000        0.0000000000000000     
  0.93750000000000000       0.12500000000000000        0.0000000000000000     
  0.96875000000000000       0.12500000000000000        0.0000000000000000     
   1.0000000000000000       0.12500000000000000        0.0000000000000000     
  0.87500000000000000       0.15625000000000000        0.0000000000000000     
  0.90625000000000000       0.15625000000000000        0.0000000000000000     
  0.93750000000000000       0.15625000000000000        0.0000000000000000     
  0.96875000000000000       0.15625000000000000        0.0000000000000000     
   1.0000000000000000       0.15625000000000000        0.0000000000000000     
  0.87500000000000000       0.18750000000000000        0.0000000000000000     
  0.90625000000000000       0.18750000000000000        0.0000000000000000     
  0.93750000000000000       0.18750000000000000        0.0000000000000000     
  0.96875000000000000       0.18750000000000000        0.0000000000000000     
   1.0000000000000000       0.18750000000000000        0.0000000000000000     
  0.87500000000000000       0.21875000000000000        0.0000000000000000     
  0.90625000000000000       0.21875000000000000        0.0000000000000000     
  0.93750000000000000       0.21875000000000000        0.0000000000000000     
  0.96875000000000000       0.21875000000000000        0.0000000000000000     
   1.0000000000000000       0.21875000000000000        0.0000000000000000     
  0.87500000000000000       0.25000000000000000        0.0000000000000000     
  0.90625000000000000       0.25000000000000000        0.0000000000000000     
  0.93750000000000000       0.25000000000000000        0.0000000000000000     
  0.96875000000000000       0.25000000000000000        0.0000000000000000     
   1.0000000000000000       0.25000000000000000        0.0000000000000000     
   1.0000000000000000       0.12500000000000000        0.0000000000000000     
   1.0312500000000000       0.12500000000000000        0.0000000000000000     
   1.0625000000000000       0.12500000000000000        0.0000000000000000     
   1.0937500000000000       0.12500000000000000        0.0000000000000000     
   1.1250000000000000       0.12500000000000000        0.0000000000000000     
   1.0000000000000000       0.15625000000000000        0.0000000000000000     
   1.0312500000000000       0.15625000000000000        0.0000000000000000     
   1.0625000000000000       0.15625000000000000        0.0000000000000000     
   1.0937500000000000       0.15625000000000000        0.0000000000000000     
   1.1250000000000000       0.15625000000000000        0.0000000000000000     
   1.0000000000000000       0.18750000000000000        0.0000000000000000     
   1.0312500000000000       0.18750000000000000        0.0000000000000000     
   1.0625000000000000       0.18750000000000000        0.0000000000000000     
   1.0937500000000000       0.18750000000000000        0.0000000000000000     
   1.1250000000000000       0.18750000000000000        0.0000000000000000     
   1.0000000000000000       0.21875000000000000        0.0000000000000000     
   1.0312500000000000       0.21875000000000000        0.0000000000000000     
   1.0625000000000000       0.21875000000000000        0.0000000000000000     
   1.0937500000000000       0.21875000000000000        0.0000000000000000     
   1.1250000000000000       0.21875000000000000        0.0000000000000000     
   1.0000000000000000       0.25000000000000000        0.0000000000000000     
   1.0312500000000000       0.25000000000000000        0.0000000000000000     
   1.0625000000000000       0.25000000000000000        0.0000000000000000     
   1.0937500000000000       0.25000000000000000        0.0000000000000000     
   1.1250000000000000       0.25000000000000000        0.0000000000000000     
   1.1250000000000000       0.12500000000000000        0.0000000000000000     
   1.1562500000000000       0.12500000000000000        0.0000000000000000     
   1.1875000000000000       0.12500000000000000        0.0000000000000000     
   1.2187500000000000       0.12500000000000000        0.0000000000000000     
   1.2500000000000000       0.12500000000000000        0.0000000000000000     
   1.1250000000000000       0.15625000000000000        0.0000000000000000     
   1.1562500000000000       0.15625000000000000        0.0000000000000000     
   1.1875000000000000       0.15625000000000000        0.0000000000000000     
   1.2187500000000000       0.15625000000000000        0.0000000000000000     
   1.2500000000000000       0.15625000000000000        0.0000000000000000     
   1.1250000000000000       0.18750000000000000        0.0000000000000000     
   1.1562500000000000       0.18750000000000000        0.0000000000000000     
   1.1875000000000000       0.18750000000000000        0.0000000000000000     
   1.2187500000000000       0.18750000000000000        0.0000000000000000     
   1.2500000000000000       0.18750000000000000        0.0000000000000000     
   1.1250000000000000       0.21875000000000000        0.0000000000000000     
   1.1562500000000000       0.21875000000000000        0.0000000000000000     
   1.1875000000000000       0.21875000000000000        0.0000000000000000     
   1.2187500000000000       0.21875000000000000        0.0000000000000000     
   1.2500000000000000       0.21875000000000000        0.0000000000000000     
   1.1250000000000000       0.25000000000000000        0.0000000000000000     
   1.1562500000000000       0.25000000000000000        0.0000000000000000     
   1.1875000000000000       0.25000000000000000        0.0000000000000000     
   1.2187500000000000       0.25000000000000000        0.0000000000000000     
   1.2500000000000000       0.25000000000000000        0.0000000000000000     
   1.2500000000000000       0.12500000000000000        0.0000000000000000     
   1.2812500000000000       0.12500000000000000        0.0000000000000000     
   1.3125000000000000       0.12500000000000000        0.0000000000000000     
   1.3437500000000000       0.12500000000000000        0.0000000000000000     
   1.3750000000000000       0.12500000000000000        0.0000000000000000     
   1.2500000000000000       0.15625000000000000        0.0000000000000000     
   1.2812500000000000       0.15625000000000000        0.0000000000000000     
   1.3125000000000000       0.15625000000000000        0.0000000000000000     
   1.3437500000000000       0.15625000000000000        0.0000000000000000     
   1.3750000000000000       0.15625000000000000        0.0000000000000000     
   1.2500000000000000       0.18750000000000000        0.0000000000000000     
   1.2812500000000000       0.18750000000000000        0.0000000000000000     
   1.3125000000000000       0.18750000000000000        0.0000000000000000     
   1.3437500000000000       0.18750000000000000        0.0000000000000000     
   1.3750000000000000       0.18750000000000000        0.0000000000000000     
   1.2500000000000000       0.21875000000000000        0.0000000000000000     
   1.2812500000000000       0.21875000000000000        0.0000000000000000     
   1.3125000000000000       0.21875000000000000        0.0000000000000000     
   1.3437500000000000       0.21875000000000000        0.0000000000000000     
   1.3750000000000000       0.21875000000000000        0.0000000000000000     
   1.2500000000000000       0.25000000000000000        0.0000000000000000     
   1.2812500000000000       0.25000000000000000        0.0000000000000000     
   1.3125000000000000       0.25000000000000000        0.0000000000000000     
   1.3437500000000000       0.25000000000000000        0.0000000000000000     
   1.3750000000000000       0.25000000000000000        0.0000000000000000     
   1.3750000000000000       0.12500000000000000        0.0000000000000000     
   1.4062500000000000       0.12500000000000000        0.0000000000000000     
   1.4375000000000000       0.12500000000000000        0.0000000000000000     
   1.4687500000000000       0.12500000000000000        0.0000000000000000     
   1.5000000000000000       0.12500000000000000        0.0000000000000000     
   1.3750000000000000       0.15625000000000000        0.0000000000000000     
   1.4062500000000000       0.15625000000000000        0.0000000000000000     
   1.4375000000000000       0.15625000000000000        0.0000000000000000     
   1.4687500000000000       0.15625000000000000        0.0000000000000000     
   1.5000000000000000       0.15625000000000000        0.0000000000000000     
   1.3750000000000000       0.18750000000000000        0.0000000000000000     
   1.4062500000000000       0.18750000000000000        0.0000000000000000     
   1.4375000000000000       0.18750000000000000        0.0000000000000000     
   1.4687500000000000       0.18750000000000000        0.0000000000000000     
   1.5000000000000000       0.18750000000000000        0.0000000000000000     
   1.3750000000000000       0.21875000000000000        0.0000000000000000     
   1.4062500000000000       0.21875000000000000        0.0000000000000000     
   1.4375000000000000       0.21875000000000000        0.0000000000000000     
   1.4687500000000000       0.21875000000000000        0.0000000000000000     
   1.5000000000000000       0.21875000000000000        0.0000000000000000     
   1.3750000000000000       0.25000000000000000        0.0000000000000000     
   1.4062500000000000       0.25000000000000000        0.0000000000000000     
   1.4375000000000000       0.25000000000000000        0.0000000000000000     
   1.4687500000000000       0.25000000000000000        0.0000000000000000     
   1.5000000000000000       0.25000000000000000        0.0000000000000000     
  0.50000000000000000       0.25000000000000000        0.0000000000000000     
  0.53125000000000000       0.25000000000000000        0.0000000000000000     
  0.56250000000000000       0.25000000000000000        0.0000000000000000     
  0.59375000000000000       0.25000000000000000        0.0000000000000000     
  0.62500000000000000       0.25000000000000000        0.0000000000000000     
  0.50000000000000000       0.28125000000000000        0.0000000000000000     
  0.53125000000000000       0.28125000000000000        0.0000000000000000     
  0.56250000000000000       0.28125000000000000        0.0000000000000000     
  0.59375000000000000       0.28125000000000000        0.0000000000000000     
  0.62500000000000000       0.28125000000000000        0.0000000000000000     
  0.50000000000000000       0.31250000000000000        0.0000000000000000     
  0.53125000000000000       0.31250000000000000        0.0000000000000000     
  0.56250000000000000       0.31250000000000000        0.0000000000000000     
  0.59375000000000000       0.31250000000000000        0.0000000000000000     
  0.62500000000000000       0.31250000000000000        0.0000000000000000     
  0.50000000000000000       0.34375000000000000        0.0000000000000000     
  0.53125000000000000       0.34375000000000000        0.0000000000000000     
  0.56250000000000000       0.34375000000000000        0.0000000000000000     
  0.59375000000000000       0.34375000000000000        0.0000000000000000     
  0.62500000000000000       0.34375000000000000        0.0000000000000000     
  0.50000000000000000       0.37500000000000000        0.0000000000000000     
  0.53125000000000000       0.37500000000000000        0.0000000000000000     
  0.56250000000000000       0.37500000000000000        0.0000000000000000     
  0.59375000000000000       0.37500000000000000        0.0000000000000000     
  0.62500000000000000       0.37500000000000000        0.0000000000000000     
  0.62500000000000000       0.25000000000000000        0.0000000000000000     
  0.65625000000000000       0.25000000000000000        0.0000000000000000     
  0.68750000000000000       0.25000000000000000        0.0000000000000000     
  0.71875000000000000       0.25000000000000000        0.0000000000000000     
  0.75000000000000000       0.25000000000000000        0.0000000000000000     
  0.62500000000000000       0.28125000000000000        0.0000000000000000     
  0.65625000000000000       0.28125000000000000        0.0000000000000000     
  0.68750000000000000       0.28125000000000000        0.0000000000000000     
  0.71875000000000000       0.28125000000000000        0.0000000000000000     
  0.75000000000000000       0.28125000000000000        0.0000000000000000     
  0.62500000000000000       0.31250000000000000        0.0000000000000000     
  0.65625000000000000       0.31250000000000000        0.0000000000000000     
  0.68750000000000000       0.31250000000000000        0.0000000000000000     
  0.71875000000000000       0.31250000000000000        0.0000000000000000     
  0.75000000000000000       0.31250000000000000        0.0000000000000000     
  0.62500000000000000       0.34375000000000000        0.0000000000000000     
  0.65625000000000000       0.34375000000000000        0.0000000000000000     
  0.68750000000000000       0.34375000000000000        0.0000000000000000     
  0.71875000000000000       0.34375000000000000        0.0000000000000000     
  0.75000000000000000       0.34375000000000000        0.0000000000000000     
  0.62500000000000000       0.37500000000000000        0.0000000000000000     
  0.65625000000000000       0.37500000000000000        0.0000000000000000     
  0.68750000000000000       0.37500000000000000        0.0000000000000000     
  0.71875000000000000       0.37500000000000000        0.0000000000000000     
  0.75000000000000000       0.37500000000000000        0.0000000000000000     
  0.75000000000000000       0.25000000000000000        0.0000000000000000     
  0.78125000000000000       0.25000000000000000        0.0000000000000000     
  0.81250000000000000       0.25000000000000000        0.0000000000000000     
  0.84375000000000000       0.25000000000000000        0.0000000000000000     
  0.87500000000000000       0.25000000000000000        0.0000000000000000     
  0.75000000000000000       0.28125000000000000        0.0000000000000000     
  0.78125000000000000       0.28125000000000000        0.0000000000000000     
  0.81250000000000000       0.28125000000000000        0.0000000000000000     
  0.84375000000000000       0.28125000000000000        0.0000000000000000     
  0.87500000000000000       0.28125000000000000        0.0000000000000000     
  0.75000000000000000       0.31250000000000000        0.0000000000000000     
  0.78125000000000000       0.31250000000000000        0.0000000000000000     
  0.81250000000000000       0.31250000000000000        0.0000000000000000     
  0.84375000000000000       0.31250000000000000        0.0000000000000000     
  0.87500000000000000       0.31250000000000000        0.0000000000000000     
  0.75000000000000000       0.34375000000000000        0.0000000000000000     
  0.78125000000000000       0.34375000000000000        0.0000000000000000     
  0.81250000000000000       0.34375000000000000        0.0000000000000000     
  0.84375000000000000       0.34375000000000000        0.0000000000000000     
  0.87500000000000000       0.34375000000000000        0.0000000000000000     
  0.75000000000000000       0.37500000000000000        0.0000000000000000     
  0.78125000000000000       0.37500000000000000        0.0000000000000000     
  0.81250000000000000       0.37500000000000000        0.0000000000000000     
  0.84375000000000000       0.37500000000000000        0.0000000000000000     
  0.87500000000000000       0.37500000000000000        0.0000000000000000     
  0.87500000000000000       0.25000000000000000        0.0000000000000000     
  0.90625000000000000       0.25000000000000000        0.0000000000000000     
  0.93750000000000000       0.25000000000000000        0.0000000000000000     
  0.96875000000000000       0.25000000000000000        0.0000000000000000     
   1.0000000000000000       0.25000000000000000        0.0000000000000000     
  0.87500000000000000       0.28125000000000000        0.0000000000000000     
  0.90625000000000000       0.28125000000000000        0.0000000000000000     
  0.93750000000000000       0.28125000000000000        0.0000000000000000     
  0.96875000000000000       0.28125000000000000        0.0000000000000000     
   1.0000000000000000       0.28125000000000000        0.0000000000000000     
  0.87500000000000000       0.31250000000000000        0.0000000000000000     
  0.90625000000000000       0.31250000000000000        0.0000000000000000     
  0.93750000000000000       0.31250000000000000        0.0000000000000000     
  0.96875000000000000       0.31250000000000000        0.0000000000000000     
   1.0000000000000000       0.31250000000000000        0.0000000000000000     
  0.87500000000000000       0.34375000000000000        0.0000000000000000     
  0.90625000000000000       0.34375000000000000        0.0000000000000000     
  0.93750000000000000       0.34375000000000000        0.0000000000000000     
  0.96875000000000000       0.34375000000000000        0.0000000000000000     
   1.0000000000000000       0.34375000000000000        0.0000000000000000     
  0.87500000000000000       0.37500000000000000        0.0000000000000000     
  0.90625000000000000       0.37500000000000000        0.0000000000000000     
  0.93750000000000000       0.37500000000000000        0.0000000000000000     
  0.96875000000000000       0.37500000000000000        0.0000000000000000     
   1.0000000000000000       0.37500000000000000        0.0000000000000000     
   1.0000000000000000       0.25000000000000000        0.0000000000000000     
   1.0312500000000000       0.25000000000000000        0.0000000000000000     
   1.0625000000000000       0.25000000000000000        0.0000000000000000     
   1.0937500000000000       0.25000000000000000        0.0000000000000000     
   1.1250000000000000       0.25000000000000000        0.0000000000000000     
   1.0000000000000000       0.28125000000000000        0.0000000000000000     
   1.0312500000000000       0.28125000000000000        0.0000000000000000     
   1.0625000000000000       0.28125000000000000        0.0000000000000000     
   1.0937500000000000       0.28125000000000000        0.0000000000000000     
   1.1250000000000000       0.28125000000000000        0.0000000000000000     
   1.0000000000000000       0.31250000000000000        0.0000000000000000     
   1.0312500000000000       0.31250000000000000        0.0000000000000000     
   1.0625000000000000       0.31250000000000000        0.0000000000000000     
   1.0937500000000000       0.31250000000000000        0.0000000000000000     
   1.1250000000000000       0.31250000000000000        0.0000000000000000     
   1.0000000000000000       0.34375000000000000        0.0000000000000000     
   1.0312500000000000       0.34375000000000000        0.0000000000000000     
   1.0625000000000000       0.34375000000000000        0.0000000000000000     
   1.0937500000000000       0.34375000000000000        0.0000000000000000     
   1.1250000000000000       0.34375000000000000        0.0000000000000000     
   1.0000000000000000       0.37500000000000000        0.0000000000000000     
   1.0312500000000000       0.37500000000000000        0.0000000000000000     
   1.0625000000000000       0.37500000000000000        0.0000000000000000     
   1.0937500000000000       0.37500000000000000        0.0000000000000000     
   1.1250000000000000       0.37500000000000000        0.0000000000000000     
   1.1250000000000000       0.25000000000000000        0.0000000000000000     
   1.1562500000000000       0.25000000000000000        0.0000000000000000     
   1.1875000000000000       0.25000000000000000        0.0000000000000000     
   1.2187500000000000       0.25000000000000000        0.0000000000000000     
   1.2500000000000000       0.25000000000000000        0.0000000000000000     
   1.1250000000000000       0.28125000000000000        0.0000000000000000     
   1.1562500000000000       0.28125000000000000        0.0000000000000000     
   1.1875000000000000       0.28125000000000000        0.0000000000000000     
   1.2187500000000000       0.28125000000000000        0.0000000000000000     
   1.2500000000000000       0.28125000000000000        0.0000000000000000     
   1.1250000000000000       0.31250000000000000        0.0000000000000000     
   1.1562500000000000       0.31250000000000000        0.0000000000000000     
   1.1875000000000000       0.31250000000000000        0.0000000000000000     
   1.2187500000000000       0.31250000000000000        0.0000000000000000     
   1.2500000000000000       0.31250000000000000        0.0000000000000000     
   1.1250000000000000       0.34375000000000000        0.0000000000000000     
   1.1562500000000000       0.34375000000000000        0.0000000000000000     
   1.1875000000000000       0.34375000000000000        0.0000000000000000     
   1.2187500000000000       0.34375000000000000        0.0000000000000000     
   1.2500000000000000       0.34375000000000000        0.0000000000000000     
   1.1250000000000000       0.37500000000000000        0.0000000000000000     
   1.1562500000000000       0.37500000000000000        0.0000000000000000     
   1.1875000000000000       0.37500000000000000        0.0000000000000000     
   1.2187500000000000       0.37500000000000000        0.0000000000000000     
   1.2500000000000000       0.37500000000000000        0.0000000000000000     
   1.2500000000000000       0.25000000000000000        0.0000000000000000     
   1.2812500000000000       0.25000000000000000        0.0000000000000000     
   1.3125000000000000       0.25000000000000000        0.0000000000000000     
   1.3437500000000000       0.25000000000000000        0.0000000000000000     
   1.3750000000000000       0.25000000000000000        0.0000000000000000     
   1.2500000000000000       0.28125000000000000        0.0000000000000000     
   1.2812500000000000       0.28125000000000000        0.0000000000000000     
   1.3125000000000000       0.28125000000000000        0.0000000000000000     
   1.3437500000000000       0.28125000000000000        0.0000000000000000     
   1.3750000000000000       0.28125000000000000        0.0000000000000000     
   1.2500000000000000       0.31250000000000000        0.0000000000000000     
   1.2812500000000000       0.31250000000000000        0.0000000000000000     
   1.3125000000000000       0.31250000000000000        0.0000000000000000     
   1.3437500000000000       0.31250000000000000        0.0000000000000000     
   1.3750000000000000       0.31250000000000000        0.0000000000000000     
   1.2500000000000000       0.34375000000000000        0.0000000000000000     
   1.2812500000000000       0.34375000000000000        0.0000000000000000     
   1.3125000000000000       0.34375000000000000        0.0000000000000000     
   1.3437500000000000       0.34375000000000000        0.0000000000000000     
   1.3750000000000000       0.34375000000000000        0.0000000000000000     
   1.2500000000000000       0.37500000000000000        0.0000000000000000     
   1.2812500000000000       0.37500000000000000        0.0000000000000000     
   1.3125000000000000       0.37500000000000000        0.0000000000000000     
   1.3437500000000000       0.37500000000000000        0.0000000000000000     
   1.3750000000000000       0.37500000000000000        0.0000000000000000     
   1.3750000000000000       0.25000000000000000        0.0000000000000000     
   1.4062500000000000       0.25000000000000000        0.0000000000000000     
   1.4375000000000000       0.25000000000000000        0.0000000000000000     
   1.4687500000000000       0.25000000000000000        0.0000000000000000     
   1.5000000000000000       0.25000000000000000        0.0000000000000000     
   1.3750000000000000       0.28125000000000000        0.0000000000000000     
   1.4062500000000000       0.28125000000000000        0.0000000000000000     
   1.4375000000000000       0.28125000000000000        0.0000000000000000     
   1.4687500000000000       0.28125000000000000        0.0000000000000000     
   1.5000000000000000       0.28125000000000000        0.0000000000000000     
   1.3750000000000000       0.31250000000000000        0.0000000000000000     
   1.4062500000000000       0.31250000000000000        0.0000000000000000     
   1.4375000000000000       0.31250000000000000        0.0000000000000000     
   1.4687500000000000       0.31250000000000000        0.0000000000000000     
   1.5000000000000000       0.31250000000000000        0.0000000000000000     
   1.3750000000000000       0.34375000000000000        0.0000000000000000     
   1.4062500000000000       0.34375000000000000        0.0000000000000000     
   1.4375000000000000       0.34375000000000000        0.0000000000000000     
   1.4687500000000000       0.34375000000000000        0.0000000000000000     
   1.5000000000000000       0.34375000000000000        0.0000000000000000     
   1.3750000000000000       0.37500000000000000        0.0000000000000000     
   1.4062500000000000       0.37500000000000000        0.0000000000000000     
   1.4375000000000000       0.37500000000000000        0.0000000000000000     
   1.4687500000000000       0.37500000000000000        0.0000000000000000     
   1.5000000000000000       0.37500000000000000        0.0000000000000000     
  0.50000000000000000       0.37500000000000000        0.0000000000000000     
  0.53125000000000000       0.37500000000000000        0.0000000000000000     
  0.56250000000000000       0.37500000000000000        0.0000000000000000     
  0.59375000000000000       0.37500000000000000        0.0000000000000000     
  0.62500000000000000       0.37500000000000000        0.0000000000000000     
  0.50000000000000000       0.40625000000000000        0.0000000000000000     
  0.53125000000000000       0.40625000000000000        0.0000000000000000     
  0.56250000000000000       0.40625000000000000        0.0000000000000000     
  0.59375000000000000       0.40625000000000000        0.0000000000000000     
  0.62500000000000000       0.40625000000000000        0.0000000000000000     
  0.50000000000000000       0.43750000000000000        0.0000000000000000     
  0.53125000000000000       0.43750000000000000        0.0000000000000000     
  0.56250000000000000       0.43750000000000000        0.0000000000000000     
  0.59375000000000000       0.43750000000000000        0.0000000000000000     
  0.62500000000000000       0.43750000000000000        0.0000000000000000     
  0.50000000000000000       0.46875000000000000        0.0000000000000000     
  0.53125000000000000       0.46875000000000000        0.0000000000000000     
  0.56250000000000000       0.46875000000000000        0.0000000000000000     
  0.59375000000000000       0.46875000000000000        0.0000000000000000     
  0.62500000000000000       0.46875000000000000        0.0000000000000000     
  0.50000000000000000       0.50000000000000000        0.0000000000000000     
  0.53125000000000000       0.50000000000000000        0.0000000000000000     
  0.56250000000000000       0.50000000000000000        0.0000000000000000     
  0.59375000000000000       0.50000000000000000        0.0000000000000000     
  0.62500000000000000       0.50000000000000000        0.0000000000000000     
  0.62500000000000000       0.37500000000000000        0.0000000000000000     
  0.65625000000000000       0.37500000000000000        0.0000000000000000     
  0.68750000000000000       0.37500000000000000        0.0000000000000000     
  0.71875000000000000       0.37500000000000000        0.0000000000000000     
  0.75000000000000000       0.37500000000000000        0.0000000000000000     
  0.62500000000000000       0.40625000000000000        0.0000000000000000     
  0.65625000000000000       0.40625000000000000        0.0000000000000000     
  0.68750000000000000       0.40625000000000000        0.0000000000000000     
  0.71875000000000000       0.40625000000000000        0.0000000000000000     
  0.75000000000000000       0.40625000000000000        0.0000000000000000     
  0.62500000000000000       0.43750000000000000        0.0000000000000000     
  0.65625000000000000       0.43750000000000000        0.0000000000000000     
  0.68750000000000000       0.43750000000000000        0.0000000000000000     
  0.71875000000000000       0.43750000000000000        0.0000000000000000     
  0.75000000000000000       0.43750000000000000        0.0000000000000000     
  0.62500000000000000       0.46875000000000000        0.0000000000000000     
  0.65625000000000000       0.46875000000000000        0.0000000000000000     
  0.68750000000000000       0.46875000000000000        0.0000000000000000     
  0.71875000000000000       0.46875000000000000        0.0000000000000000     
  0.75000000000000000       0.46875000000000000        0.0000000000000000     
  0.62500000000000000       0.50000000000000000        0.0000000000000000     
  0.65625000000000000       0.50000000000000000        0.0000000000000000     
  0.68750000000000000       0.50000000000000000        0.0000000000000000     
  0.71875000000000000       0.50000000000000000        0.0000000000000000     
  0.75000000000000000       0.50000000000000000        0.0000000000000000     
  0.75000000000000000       0.37500000000000000        0.0000000000000000     
  0.78125000000000000       0.37500000000000000        0.0000000000000000     
  0.81250000000000000       0.37500000000000000        0.0000000000000000     
  0.84375000000000000       0.37500000000000000        0.0000000000000000     
  0.87500000000000000       0.37500000000000000        0.0000000000000000     
  0.75000000000000000       0.40625000000000000        0.0000000000000000     
  0.78125000000000000       0.40625000000000000        0.0000000000000000     
  0.81250000000000000       0.40625000000000000        0.0000000000000000     
  0.84375000000000000       0.40625000000000000        0.0000000000000000     
  0.87500000000000000       0.40625000000000000        0.0000000000000000     
  0.75000000000000000       0.43750000000000000        0.0000000000000000     
  0.78125000000000000       0.43750000000000000        0.0000000000000000     
  0.81250000000000000       0.43750000000000000        0.0000000000000000     
  0.84375000000000000       0.43750000000000000        0.0000000000000000     
  0.87500000000000000       0.43750000000000000        0.0000000000000000     
  0.75000000000000000       0.46875000000000000        0.0000000000000000     
  0.78125000000000000       0.46875000000000000        0.0000000000000000     
  0.81250000000000000       0.46875000000000000        0.0000000000000000     
  0.84375000000000000       0.46875000000000000        0.0000000000000000     
  0.87500000000000000       0.46875000000000000        0.0000000000000000     
  0.75000000000000000       0.50000000000000000        0.0000000000000000     
  0.78125000000000000       0.50000000000000000        0.0000000000000000     
  0.81250000000000000       0.50000000000000000        0.0000000000000000     
  0.84375000000000000       0.50000000000000000        0.0000000000000000     
  0.87500000000000000       0.50000000000000000        0.0000000000000000     
  0.87500000000000000       0.37500000000000000        0.0000000000000000     
  0.90625000000000000       0.37500000000000000        0.0000000000000000     
  0.93750000000000000       0.37500000000000000        0.0000000000000000     
  0.96875000000000000       0.37500000000000000        0.0000000000000000     
   1.0000000000000000       0.37500000000000000        0.0000000000000000     
  0.87500000000000000       0.40625000000000000        0.0000000000000000     
  0.90625000000000000       0.40625000000000000        0.0000000000000000     
  0.93750000000000000       0.40625000000000000        0.0000000000000000     
  0.96875000000000000       0.40625000000000000        0.0000000000000000     
   1.0000000000000000       0.40625000000000000        0.0000000000000000     
  0.87500000000000000       0.43750000000000000        0.0000000000000000     
  0.90625000000000000       0.43750000000000000        0.0000000000000000     
  0.93750000000000000       0.43750000000000000        0.0000000000000000     
  0.96875000000000000       0.43750000000000000        0.0000000000000000     
   1.0000000000000000       0.43750000000000000        0.0000000000000000     
  0.87500000000000000       0.46875000000000000        0.0000000000000000     
  0.90625000000000000       0.46875000000000000        0.0000000000000000     
  0.93750000000000000       0.46875000000000000        0.0000000000000000     
  0.96875000000000000       0.46875000000000000        0.0000000000000000     
   1.0000000000000000       0.46875000000000000        0.0000000000000000     
  0.87500000000000000       0.50000000000000000        0.0000000000000000     
  0.90625000000000000       0.50000000000000000        0.0000000000000000     
  0.93750000000000000       0.50000000000000000        0.0000000000000000     
  0.96875000000000000       0.50000000000000000        0.0000000000000000     
   1.0000000000000000       0.50000000000000000        0.0000000000000000     
   1.0000000000000000       0.37500000000000000        0.0000000000000000     
   1.0312500000000000       0.37500000000000000        0.0000000000000000     
   1.0625000000000000       0.37500000000000000        0.0000000000000000     
   1.0937500000000000       0.37500000000000000        0.0000000000000000     
   1.1250000000000000       0.37500000000000000        0.0000000000000000     
   1.0000000000000000       0.40625000000000000        0.0000000000000000     
   1.0312500000000000       0.40625000000000000        0.0000000000000000     
   1.0625000000000000       0.40625000000000000        0.0000000000000000     
   1.0937500000000000       0.40625000000000000        0.0000000000000000     
   1.1250000000000000       0.40625000000000000        0.0000000000000000     
   1.0000000000000000       0.43750000000000000        0.0000000000000000     
   1.0312500000000000       0.43750000000000000        0.0000000000000000     
   1.0625000000000000       0.43750000000000000        0.0000000000000000     
   1.0937500000000000       0.43750000000000000        0.0000000000000000     
   1.1250000000000000       0.43750000000000000        0.0000000000000000     
   1.0000000000000000       0.46875000000000000        0.0000000000000000     
   1.0312500000000000       0.46875000000000000        0.0000000000000000     
   1.0625000000000000       0.46875000000000000        0.0000000000000000     
   1.0937500000000000       0.46875000000000000        0.0000000000000000     
   1.1250000000000000       0.46875000000000000        0.0000000000000000     
   1.0000000000000000       0.50000000000000000        0.0000000000000000     
   1.0312500000000000       0.50000000000000000        0.0000000000000000     
   1.0625000000000000       0.50000000000000000        0.0000000000000000     
   1.0937500000000000       0.50000000000000000        0.0000000000000000     
   1.1250000000000000       0.50000000000000000        0.0000000000000000     
   1.1250000000000000       0.37500000000000000        0.0000000000000000     
   1.1562500000000000       0.37500000000000000        0.0000000000000000     
   1.1875000000000000       0.37500000000000000        0.0000000000000000     
   1.2187500000000000       0.37500000000000000        0.0000000000000000     
   1.2500000000000000       0.37500000000000000        0.0000000000000000     
   1.1250000000000000       0.40625000000000000        0.0000000000000000     
   1.1562500000000000       0.40625000000000000        0.0000000000000000     
   1.1875000000000000       0.40625000000000000        0.0000000000000000     
   1.2187500000000000       0.40625000000000000        0.0000000000000000     
   1.2500000000000000       0.40625000000000000        0.0000000000000000     
   1.1250000000000000       0.43750000000000000        0.0000000000000000     
   1.1562500000000000       0.43750000000000000        0.0000000000000000     
   1.1875000000000000       0.43750000000000000        0.0000000000000000     
   1.2187500000000000       0.43750000000000000        0.0000000000000000     
   1.2500000000000000       0.43750000000000000        0.0000000000000000     
   1.1250000000000000       0.46875000000000000        0.0000000000000000     
   1.1562500000000000       0.46875000000000000        0.0000000000000000     
   1.1875000000000000       0.46875000000000000        0.0000000000000000     
   1.2187500000000000       0.46875000000000000        0.0000000000000000     
   1.2500000000000000       0.46875000000000000        0.0000000000000000     
   1.1250000000000000       0.50000000000000000        0.0000000000000000     
   1.1562500000000000       0.50000000000000000        0.0000000000000000     
   1.1875000000000000       0.50000000000000000        0.0000000000000000     
   1.2187500000000000       0.50000000000000000        0.0000000000000000     
   1.2500000000000000       0.50000000000000000        0.0000000000000000     
   1.2500000000000000       0.37500000000000000        0.0000000000000000     
   1.2812500000000000       0.37500000000000000        0.0000000000000000     
   1.3125000000000000       0.37500000000000000        0.0000000000000000     
   1.3437500000000000       0.37500000000000000        0.0000000000000000     
   1.3750000000000000       0.37500000000000000        0.0000000000000000     
   1.2500000000000000       0.40625000000000000        0.0000000000000000     
   1.2812500000000000       0.40625000000000000        0.0000000000000000     
   1.3125000000000000       0.40625000000000000        0.0000000000000000     
   1.3437500000000000       0.40625000000000000        0.0000000000000000     
   1.3750000000000000       0.40625000000000000        0.0000000000000000     
   1.2500000000000000       0.43750000000000000        0.0000000000000000     
   1.2812500000000000       0.43750000000000000        0.0000000000000000     
   1.3125000000000000       0.43750000000000000        0.0000000000000000     
   1.3437500000000000       0.43750000000000000        0.0000000000000000     
   1.3750000000000000       0.43750000000000000        0.0000000000000000     
   1.2500000000000000       0.46875000000000000        0.0000000000000000     
   1.2812500000000000       0.46875000000000000        0.0000000000000000     
   1.3125000000000000       0.46875000000000000        0.0000000000000000     
   1.3437500000000000       0.46875000000000000        0.0000000000000000     
   1.3750000000000000       0.46875000000000000        0.0000000000000000     
   1.2500000000000000       0.50000000000000000        0.0000000000000000     
   1.2812500000000000       0.50000000000000000        0.0000000000000000     
   1.3125000000000000       0.50000000000000000        0.0000000000000000     
   1.3437500000000000       0.50000000000000000        0.0000000000000000     
   1.3750000000000000       0.50000000000000000        0.0000000000000000     
   1.3750000000000000       0.37500000000000000        0.0000000000000000     
   1.4062500000000000       0.37500000000000000        0.0000000000000000     
   1.4375000000000000       0.37500000000000000        0.0000000000000000     
   1.4687500000000000       0.37500000000000000        0.0000000000000000     
   1.5000000000000000       0.37500000000000000        0.0000000000000000     
   1.3750000000000000       0.40625000000000000        0.0000000000000000     
   1.4062500000000000       0.40625000000000000        0.0000000000000000     
   1.4375000000000000       0.40625000000000000        0.0000000000000000     
   1.4687500000000000       0.40625000000000000        0.0000000000000000     
   1.5000000000000000       0.40625000000000000        0.0000000000000000     
   1.3750000000000000       0.43750000000000000        0.0000000000000000     
   1.4062500000000000       0.43750000000000000        0.0000000000000000     
   1.4375000000000000       0.43750000000000000        0.0000000000000000     
   1.4687500000000000       0.43750000000000000        0.0000000000000000     
   1.5000000000000000       0.43750000000000000        0.0000000000000000     
   1.3750000000000000       0.46875000000000000        0.0000000000000000     
   1.4062500000000000       0.46875000000000000        0.0000000000000000     
   1.4375000000000000       0.46875000000000000        0.0000000000000000     
   1.4687500000000000       0.46875000000000000        0.0000000000000000     
   1.5000000000000000       0.46875000000000000        0.0000000000000000     
   1.3750000000000000       0.50000000000000000        0.0000000000000000     
   1.4062500000000000       0.50000000000000000        0.0000000000000000     
   1.4375000000000000       0.50000000000000000        0.0000000000000000     
   1.4687500000000000       0.50000000000000000        0.0000000000000000     
   1.5000000000000000       0.50000000000000000        0.0000000000000000     
  0.50000000000000000       0.50000000000000000        0.0000000000000000     
  0.53125000000000000       0.50000000000000000        0.0000000000000000     
  0.56250000000000000       0.50000000000000000        0.0000000000000000     
  0.59375000000000000       0.50000000000000000        0.0000000000000000     
  0.62500000000000000       0.50000000000000000        0.0000000000000000     
  0.50000000000000000       0.53125000000000000        0.0000000000000000     
  0.53125000000000000       0.53125000000000000        0.0000000000000000     
  0.56250000000000000       0.53125000000000000        0.0000000000000000     
  0.59375000000000000       0.53125000000000000        0.0000000000000000     
  0.62500000000000000       0.53125000000000000        0.0000000000000000     
  0.50000000000000000       0.56250000000000000        0.0000000000000000     
  0.53125000000000000       0.56250000000000000        0.0000000000000000     
  0.56250000000000000       0.56250000000000000        0.0000000000000000     
  0.59375000000000000       0.56250000000000000        0.0000000000000000     
  0.62500000000000000       0.56250000000000000        0.0000000000000000     
  0.50000000000000000       0.59375000000000000        0.0000000000000000     
  0.53125000000000000       0.59375000000000000        0.0000000000000000     
  0.56250000000000000       0.59375000000000000        0.0000000000000000     
  0.59375000000000000       0.59375000000000000        0.0000000000000000     
  0.62500000000000000       0.59375000000000000        0.0000000000000000     
  0.50000000000000000       0.62500000000000000        0.0000000000000000     
  0.53125000000000000       0.62500000000000000        0.0000000000000000     
  0.56250000000000000       0.62500000000000000        0.0000000000000000     
  0.59375000000000000       0.62500000000000000        0.0000000000000000     
  0.62500000000000000       0.62500000000000000        0.0000000000000000     
  0.62500000000000000       0.50000000000000000        0.0000000000000000     
  0.65625000000000000       0.50000000000000000        0.0000000000000000     
  0.68750000000000000       0.50000000000000000        0.0000000000000000     
  0.71875000000000000       0.50000000000000000        0.0000000000000000     
  0.75000000000000000       0.50000000000000000        0.0000000000000000     
  0.62500000000000000       0.53125000000000000        0.0000000000000000     
  0.65625000000000000       0.53125000000000000        0.0000000000000000     
  0.68750000000000000       0.53125000000000000        0.0000000000000000     
  0.71875000000000000       0.53125000000000000        0.0000000000000000     
  0.75000000000000000       0.53125000000000000        0.0000000000000000     
  0.62500000000000000       0.56250000000000000        0.0000000000000000     
  0.65625000000000000       0.56250000000000000        0.0000000000000000     
  0.68750000000000000       0.56250000000000000        0.0000000000000000     
  0.71875000000000000       0.56250000000000000        0.0000000000000000     
  0.75000000000000000       0.56250000000000000        0.0000000000000000     
  0.62500000000000000       0.59375000000000000        0.0000000000000000     
  0.65625000000000000       0.59375000000000000        0.0000000000000000     
  0.68750000000000000       0.59375000000000000        0.0000000000000000     
  0.71875000000000000       0.59375000000000000        0.0000000000000000     
  0.75000000000000000       0.59375000000000000        0.0000000000000000     
  0.62500000000000000       0.62500000000000000        0.0000000000000000     
  0.65625000000000000       0.62500000000000000        0.0000000000000000     
  0.68750000000000000       0.62500000000000000        0.0000000000000000     
  0.71875000000000000       0.62500000000000000        0.0000000000000000     
  0.75000000000000000       0.62500000000000000        0.0000000000000000     
  0.75000000000000000       0.50000000000000000        0.0000000000000000     
  0.78125000000000000       0.50000000000000000        0.0000000000000000     
  0.81250000000000000       0.50000000000000000        0.0000000000000000     
  0.84375000000000000       0.50000000000000000        0.0000000000000000     
  0.87500000000000000       0.50000000000000000        0.0000000000000000     
  0.75000000000000000       0.53125000000000000        0.0000000000000000     
  0.78125000000000000       0.53125000000000000        0.0000000000000000     
  0.81250000000000000       0.53125000000000000        0.0000000000000000     
  0.84375000000000000       0.53125000000000000        0.0000000000000000     
  0.87500000000000000       0.53125000000000000        0.0000000000000000     
  0.75000000000000000       0.56250000000000000        0.0000000000000000     
  0.78125000000000000       0.56250000000000000        0.0000000000000000     
  0.81250000000000000       0.56250000000000000        0.0000000000000000     
  0.84375000000000000       0.56250000000000000        0.0000000000000000     
  0.87500000000000000       0.56250000000000000        0.0000000000000000     
  0.75000000000000000       0.59375000000000000        0.0000000000000000     
  0.78125000000000000       0.59375000000000000        0.0000000000000000     
  0.81250000000000000       0.59375000000000000        0.0000000000000000     
  0.84375000000000000       0.59375000000000000        0.0000000000000000     
  0.87500000000000000       0.59375000000000000        0.0000000000000000     
  0.75000000000000000       0.62500000000000000        0.0000000000000000     
  0.78125000000000000       0.62500000000000000        0.0000000000000000     
  0.81250000000000000       0.62500000000000000        0.0000000000000000     
  0.84375000000000000       0.62500000000000000        0.0000000000000000     
  0.87500000000000000       0.62500000000000000        0.0000000000000000     
  0.87500000000000000       0.50000000000000000        0.0000000000000000     
  0.90625000000000000       0.50000000000000000        0.0000000000000000     
  0.93750000000000000       0.50000000000000000        0.0000000000000000     
  0.96875000000000000       0.50000000000000000        0.0000000000000000     
   1.0000000000000000       0.50000000000000000        0.0000000000000000     
  0.87500000000000000       0.53125000000000000        0.0000000000000000     
  0.90625000000000000       0.53125000000000000        0.0000000000000000     
  0.93750000000000000       0.53125000000000000        0.0000000000000000     
  0.96875000000000000       0.53125000000000000        0.0000000000000000     
   1.0000000000000000       0.53125000000000000        0.0000000000000000     
  0.87500000000000000       0.56250000000000000        0.0000000000000000     
  0.90625000000000000       0.56250000000000000        0.0000000000000000     
  0.93750000000000000       0.56250000000000000        0.0000000000000000     
  0.96875000000000000       0.56250000000000000        0.0000000000000000     
   1.0000000000000000       0.56250000000000000        0.0000000000000000     
  0.87500000000000000       0.59375000000000000        0.0000000000000000     
  0.90625000000000000       0.59375000000000000        0.0000000000000000     
  0.93750000000000000       0.59375000000000000        0.0000000000000000     
  0.96875000000000000       0.59375000000000000        0.0000000000000000     
   1.0000000000000000       0.59375000000000000        0.0000000000000000     
  0.87500000000000000       0.62500000000000000        0.0000000000000000     
  0.90625000000000000       0.62500000000000000        0.0000000000000000     
  0.93750000000000000       0.62500000000000000        0.0000000000000000     
  0.96875000000000000       0.62500000000000000        0.0000000000000000     
   1.0000000000000000       0.62500000000000000        0.0000000000000000     
   1.0000000000000000       0.50000000000000000        0.0000000000000000     
   1.0312500000000000       0.50000000000000000        0.0000000000000000     
   1.0625000000000000       0.50000000000000000        0.0000000000000000     
   1.0937500000000000       0.50000000000000000        0.0000000000000000     
   1.1250000000000000       0.50000000000000000        0.0000000000000000     
   1.0000000000000000       0.53125000000000000        0.0000000000000000     
   1.0312500000000000       0.53125000000000000        0.0000000000000000     
   1.0625000000000000       0.53125000000000000        0.0000000000000000     
   1.0937500000000000       0.53125000000000000        0.0000000000000000     
   1.1250000000000000       0.53125000000000000        0.0000000000000000     
   1.0000000000000000       0.56250000000000000        0.0000000000000000     
   1.0312500000000000       0.56250000000000000        0.0000000000000000     
   1.0625000000000000       0.56250000000000000        0.0000000000000000     
   1.0937500000000000       0.56250000000000000        0.0000000000000000     
   1.1250000000000000       0.56250000000000000        0.0000000000000000     
   1.0000000000000000       0.59375000000000000        0.0000000000000000     
   1.0312500000000000       0.59375000000000000        0.0000000000000000     
   1.0625000000000000       0.59375000000000000        0.0000000000000000     
   1.0937500000000000       0.59375000000000000        0.0000000000000000     
   1.1250000000000000       0.59375000000000000        0.0000000000000000     
   1.0000000000000000       0.62500000000000000        0.0000000000000000     
   1.0312500000000000       0.62500000000000000        0.0000000000000000     
   1.0625000000000000       0.62500000000000000        0.0000000000000000     
   1.0937500000000000       0.62500000000000000        0.0000000000000000     
   1.1250000000000000       0.62500000000000000        0.0000000000000000     
   1.1250000000000000       0.50000000000000000        0.0000000000000000     
   1.1562500000000000       0.50000000000000000        0.0000000000000000     
   1.1875000000000000       0.50000000000000000        0.0000000000000000     
   1.2187500000000000       0.50000000000000000        0.0000000000000000     
   1.2500000000000000       0.50000000000000000        0.0000000000000000     
   1.1250000000000000       0.53125000000000000        0.0000000000000000     
   1.1562500000000000       0.53125000000000000        0.0000000000000000     
   1.1875000000000000       0.53125000000000000        0.0000000000000000     
   1.2187500000000000       0.53125000000000000        0.0000000000000000     
   1.2500000000000000       0.53125000000000000        0.0000000000000000     
   1.1250000000000000       0.56250000000000000        0.0000000000000000     
   1.1562500000000000       0.56250000000000000        0.0000000000000000     
   1.1875000000000000       0.56250000000000000        0.0000000000000000     
   1.2187500000000000       0.56250000000000000        0.0000000000000000     
   1.2500000000000000       0.56250000000000000        0.0000000000000000     
   1.1250000000000000       0.59375000000000000        0.0000000000000000     
   1.1562500000000000       0.59375000000000000        0.0000000000000000     
   1.1875000000000000       0.59375000000000000        0.0000000000000000     
   1.2187500000000000       0.59375000000000000        0.0000000000000000     
   1.2500000000000000       0.59375000000000000        0.0000000000000000     
   1.1250000000000000       0.62500000000000000        0.0000000000000000     
   1.1562500000000000       0.62500000000000000        0.0000000000000000     
   1.1875000000000000       0.62500000000000000        0.0000000000000000     
   1.2187500000000000       0.62500000000000000        0.0000000000000000     
   1.2500000000000000       0.62500000000000000        0.0000000000000000     
   1.2500000000000000       0.50000000000000000        0.0000000000000000     
   1.2812500000000000       0.50000000000000000        0.0000000000000000     
   1.3125000000000000       0.50000000000000000        0.0000000000000000     
   1.3437500000000000       0.50000000000000000        0.0000000000000000     
   1.3750000000000000       0.50000000000000000        0.0000000000000000     
   1.2500000000000000       0.53125000000000000        0.0000000000000000     
   1.2812500000000000       0.53125000000000000        0.0000000000000000     
   1.3125000000000000       0.53125000000000000        0.0000000000000000     
   1.3437500000000000       0.53125000000000000        0.0000000000000000     
   1.3750000000000000       0.53125000000000000        0.0000000000000000     
   1.2500000000000000       0.56250000000000000        0.0000000000000000     
   1.2812500000000000       0.56250000000000000        0.0000000000000000     
   1.3125000000000000       0.56250000000000000        0.0000000000000000     
   1.3437500000000000       0.56250000000000000        0.0000000000000000     
   1.3750000000000000       0.56250000000000000        0.0000000000000000     
   1.2500000000000000       0.59375000000000000        0.0000000000000000     
   1.2812500000000000       0.59375000000000000        0.0000000000000000     
   1.3125000000000000       0.59375000000000000        0.0000000000000000     
   1.3437500000000000       0.59375000000000000        0.0000000000000000     
   1.3750000000000000       0.59375000000000000        0.0000000000000000     
   1.2500000000000000       0.62500000000000000        0.0000000000000000     
   1.2812500000000000       0.62500000000000000        0.0000000000000000     
   1.3125000000000000       0.62500000000000000        0.0000000000000000     
   1.3437500000000000       0.62500000000000000        0.0000000000000000     
   1.3750000000000000       0.62500000000000000        0.0000000000000000     
   1.3750000000000000       0.50000000000000000        0.0000000000000000     
   1.4062500000000000       0.50000000000000000        0.0000000000000000     
   1.4375000000000000       0.50000000000000000        0.0000000000000000     
   1.4687500000000000       0.50000000000000000        0.0000000000000000     
   1.5000000000000000       0.50000000000000000        0.0000000000000000     
   1.3750000000000000       0.53125000000000000        0.0000000000000000     
   1.4062500000000000       0.53125000000000000        0.0000000000000000     
   1.4375000000000000       0.53125000000000000        0.0000000000000000     
   1.4687500000000000       0.53125000000000000        0.0000000000000000     
   1.5000000000000000       0.53125000000000000        0.0000000000000000     
   1.3750000000000000       0.56250000000000000        0.0000000000000000     
   1.4062500000000000       0.56250000000000000        0.0000000000000000     
   1.4375000000000000       0.56250000000000000        0.0000000000000000     
   1.4687500000000000       0.56250000000000000        0.0000000000000000     
   1.5000000000000000       0.56250000000000000        0.0000000000000000     
   1.3750000000000000       0.59375000000000000        0.0000000000000000     
   1.4062500000000000       0.59375000000000000        0.0000000000000000     
   1.4375000000000000       0.59375000000000000        0.0000000000000000     
   1.4687500000000000       0.59375000000000000        0.0000000000000000     
   1.5000000000000000       0.59375000000000000        0.0000000000000000     
   1.3750000000000000       0.62500000000000000        0.0000000000000000     
   1.4062500000000000       0.62500000000000000        0.0000000000000000     
   1.4375000000000000       0.62500000000000000        0.0000000000000000     
   1.4687500000000000       0.62500000000000000        0.0000000000000000     
   1.5000000000000000       0.62500000000000000        0.0000000000000000     
  0.50000000000000000       0.62500000000000000        0.0000000000000000     
  0.53125000000000000       0.62500000000000000        0.0000000000000000     
  0.56250000000000000       0.62500000000000000        0.0000000000000000     
  0.59375000000000000       0.62500000000000000        0.0000000000000000     
  0.62500000000000000       0.62500000000000000        0.0000000000000000     
  0.50000000000000000       0.65625000000000000        0.0000000000000000     
  0.53125000000000000       0.65625000000000000        0.0000000000000000     
  0.56250000000000000       0.65625000000000000        0.0000000000000000     
  0.59375000000000000       0.65625000000000000        0.0000000000000000     
  0.62500000000000000       0.65625000000000000        0.0000000000000000     
  0.50000000000000000       0.68750000000000000        0.0000000000000000     
  0.53125000000000000       0.68750000000000000        0.0000000000000000     
  0.56250000000000000       0.68750000000000000        0.0000000000000000     
  0.59375000000000000       0.68750000000000000        0.0000000000000000     
  0.62500000000000000       0.68750000000000000        0.0000000000000000     
  0.50000000000000000       0.71875000000000000        0.0000000000000000     
  0.53125000000000000       0.71875000000000000        0.0000000000000000     
  0.56250000000000000       0.71875000000000000        0.0000000000000000     
  0.59375000000000000       0.71875000000000000        0.0000000000000000     
  0.62500000000000000       0.71875000000000000        0.0000000000000000     
  0.50000000000000000       0.75000000000000000        0.0000000000000000     
  0.53125000000000000       0.75000000000000000        0.0000000000000000     
  0.56250000000000000       0.75000000000000000        0.0000000000000000     
  0.59375000000000000       0.75000000000000000        0.0000000000000000     
  0.62500000000000000       0.75000000000000000        0.0000000000000000     
  0.62500000000000000       0.62500000000000000        0.0000000000000000     
  0.65625000000000000       0.62500000000000000        0.0000000000000000     
  0.68750000000000000       0.62500000000000000        0.0000000000000000     
  0.71875000000000000       0.62500000000000000        0.0000000000000000     
  0.75000000000000000       0.62500000000000000        0.0000000000000000     
  0.62500000000000000       0.65625000000000000        0.0000000000000000     
  0.65625000000000000       0.65625000000000000        0.0000000000000000     
  0.68750000000000000       0.65625000000000000        0.0000000000000000     
  0.71875000000000000       0.65625000000000000        0.0000000000000000     
  0.75000000000000000       0.65625000000000000        0.0000000000000000     
  0.62500000000000000       0.68750000000000000        0.0000000000000000     
  0.65625000000000000       0.68750000000000000        0.0000000000000000     
  0.68750000000000000       0.68750000000000000        0.0000000000000000     
  0.71875000000000000       0.68750000000000000        0.0000000000000000     
  0.75000000000000000       0.68750000000000000        0.0000000000000000     
  0.62500000000000000       0.71875000000000000        0.0000000000000000     
  0.65625000000000000       0.71875000000000000        0.0000000000000000     
  0.68750000000000000       0.71875000000000000        0.0000000000000000     
  0.71875000000000000       0.71875000000000000        0.0000000000000000     
  0.75000000000000000       0.71875000000000000        0.0000000000000000     
  0.62500000000000000       0.75000000000000000        0.0000000000000000     
  0.65625000000000000       0.75000000000000000        0.0000000000000000     
  0.68750000000000000       0.75000000000000000        0.0000000000000000     
  0.71875000000000000       0.75000000000000000        0.0000000000000000     
  0.75000000000000000       0.75000000000000000        0.0000000000000000     
  0.75000000000000000       0.62500000000000000        0.0000000000000000     
  0.78125000000000000       0.62500000000000000        0.0000000000000000     
  0.81250000000000000       0.62500000000000000        0.0000000000000000     
  0.84375000000000000       0.62500000000000000        0.0000000000000000     
  0.87500000000000000       0.62500000000000000        0.0000000000000000     
  0.75000000000000000       0.65625000000000000        0.0000000000000000     
  0.78125000000000000       0.65625000000000000        0.0000000000000000     
  0.81250000000000000       0.65625000000000000        0.0000000000000000     
  0.84375000000000000       0.65625000000000000        0.0000000000000000     
  0.87500000000000000       0.65625000000000000        0.0000000000000000     
  0.75000000000000000       0.68750000000000000        0.0000000000000000     
  0.78125000000000000       0.68750000000000000        0.0000000000000000     
  0.81250000000000000       0.68750000000000000        0.0000000000000000     
  0.84375000000000000       0.68750000000000000        0.0000000000000000     
  0.87500000000000000       0.68750000000000000        0.0000000000000000     
  0.75000000000000000       0.71875000000000000        0.0000000000000000     
  0.78125000000000000       0.71875000000000000        0.0000000000000000     
  0.81250000000000000       0.71875000000000000        0.0000000000000000     
  0.84375000000000000       0.71875000000000000        0.0000000000000000     
  0.87500000000000000       0.71875000000000000        0.0000000000000000     
  0.75000000000000000       0.75000000000000000        0.0000000000000000     
  0.78125000000000000       0.75000000000000000        0.0000000000000000     
  0.81250000000000000       0.75000000000000000        0.0000000000000000     
  0.84375000000000000       0.75000000000000000        0.0000000000000000     
  0.87500000000000000       0.75000000000000000        0.0000000000000000     
  0.87500000000000000       0.62500000000000000        0.0000000000000000     
  0.90625000000000000       0.62500000000000000        0.0000000000000000     
  0.93750000000000000       0.62500000000000000        0.0000000000000000     
  0.96875000000000000       0.62500000000000000        0.0000000000000000     
   1.0000000000000000       0.62500000000000000        0.0000000000000000     
  0.87500000000000000       0.65625000000000000        0.0000000000000000     
  0.90625000000000000       0.65625000000000000        0.0000000000000000     
  0.93750000000000000       0.65625000000000000        0.0000000000000000     
  0.96875000000000000       0.65625000000000000        0.0000000000000000     
   1.0000000000000000       0.65625000000000000        0.0000000000000000     
  0.87500000000000000       0.68750000000000000        0.0000000000000000     
  0.90625000000000000       0.68750000000000000        0.0000000000000000     
  0.93750000000000000       0.68750000000000000        0.0000000000000000     
  0.96875000000000000       0.68750000000000000        0.0000000000000000     
   1.0000000000000000       0.68750000000000000        0.0000000000000000     
  0.87500000000000000       0.71875000000000000        0.0000000000000000     
  0.90625000000000000       0.71875000000000000        0.0000000000000000     
  0.93750000000000000       0.71875000000000000        0.0000000000000000     
  0.96875000000000000       0.71875000000000000        0.0000000000000000     
   1.0000000000000000       0.71875000000000000        0.0000000000000000     
  0.87500000000000000       0.75000000000000000        0.0000000000000000     
  0.90625000000000000       0.75000000000000000        0.0000000000000000     
  0.93750000000000000       0.75000000000000000        0.0000000000000000     
  0.96875000000000000       0.75000000000000000        0.0000000000000000     
   1.0000000000000000       0.75000000000000000        0.0000000000000000     
   1.0000000000000000       0.62500000000000000        0.0000000000000000     
   1.0312500000000000       0.62500000000000000        0.0000000000000000     
   1.0625000000000000       0.62500000000000000        0.0000000000000000     
   1.0937500000000000       0.62500000000000000        0.0000000000000000     
   1.1250000000000000       0.62500000000000000        0.0000000000000000     
   1.0000000000000000       0.65625000000000000        0.0000000000000000     
   1.0312500000000000       0.65625000000000000        0.0000000000000000     
   1.0625000000000000       0.65625000000000000        0.0000000000000000     
   1.0937500000000000       0.65625000000000000        0.0000000000000000     
   1.1250000000000000       0.65625000000000000        0.0000000000000000     
   1.0000000000000000       0.68750000000000000        0.0000000000000000     
   1.0312500000000000       0.68750000000000000        0.0000000000000000     
   1.0625000000000000       0.68750000000000000        0.0000000000000000     
   1.0937500000000000       0.68750000000000000        0.0000000000000000     
   1.1250000000000000       0.68750000000000000        0.0000000000000000     
   1.0000000000000000       0.71875000000000000        0.0000000000000000     
   1.0312500000000000       0.71875000000000000        0.0000000000000000     
   1.0625000000000000       0.71875000000000000        0.0000000000000000     
   1.0937500000000000       0.71875000000000000        0.0000000000000000     
   1.1250000000000000       0.71875000000000000        0.0000000000000000     
   1.0000000000000000       0.75000000000000000        0.0000000000000000     
   1.0312500000000000       0.75000000000000000        0.0000000000000000     
   1.0625000000000000       0.75000000000000000        0.0000000000000000     
   1.0937500000000000       0.75000000000000000        0.0000000000000000     
   1.1250000000000000       0.75000000000000000        0.0000000000000000     
   1.1250000000000000       0.62500000000000000        0.0000000000000000     
   1.1562500000000000       0.62500000000000000        0.0000000000000000     
   1.1875000000000000       0.62500000000000000        0.0000000000000000     
   1.2187500000000000       0.62500000000000000        0.0000000000000000     
   1.2500000000000000       0.62500000000000000        0.0000000000000000     
   1.1250000000000000       0.65625000000000000        0.0000000000000000     
   1.1562500000000000       0.65625000000000000        0.0000000000000000     
   1.1875000000000000       0.65625000000000000        0.0000000000000000     
   1.2187500000000000       0.65625000000000000        0.0000000000000000     
   1.2500000000000000       0.65625000000000000        0.0000000000000000     
   1.1250000000000000       0.68750000000000000        0.0000000000000000     
   1.1562500000000000       0.68750000000000000        0.0000000000000000     
   1.1875000000000000       0.68750000000000000        0.0000000000000000     
   1.2187500000000000       0.68750000000000000        0.0000000000000000     
   1.2500000000000000       0.68750000000000000        0.0000000000000000     
   1.1250000000000000       0.71875000000000000        0.0000000000000000     
   1.1562500000000000       0.71875000000000000        0.0000000000000000     
   1.1875000000000000       0.71875000000000000        0.0000000000000000     
   1.2187500000000000       0.71875000000000000        0.0000000000000000     
   1.2500000000000000       0.71875000000000000        0.0000000000000000     
   1.1250000000000000       0.75000000000000000        0.0000000000000000     
   1.1562500000000000       0.75000000000000000        0.0000000000000000     
   1.1875000000000000       0.75000000000000000        0.0000000000000000     
   1.2187500000000000       0.75000000000000000        0.0000000000000000     
   1.2500000000000000       0.75000000000000000        0.0000000000000000     
   1.2500000000000000       0.62500000000000000        0.0000000000000000     
   1.2812500000000000       0.62500000000000000        0.0000000000000000     
   1.3125000000000000       0.62500000000000000        0.0000000000000000     
   1.3437500000000000       0.62500000000000000        0.0000000000000000     
   1.3750000000000000       0.62500000000000000        0.0000000000000000     
   1.2500000000000000       0.65625000000000000        0.0000000000000000     
   1.2812500000000000       0.65625000000000000        0.0000000000000000     
   1.3125000000000000       0.65625000000000000        0.0000000000000000     
   1.3437500000000000       0.65625000000000000        0.0000000000000000     
   1.3750000000000000       0.65625000000000000        0.0000000000000000     
   1.2500000000000000       0.68750000000000000        0.0000000000000000     
   1.2812500000000000       0.68750000000000000        0.0000000000000000     
   1.3125000000000000       0.68750000000000000        0.0000000000000000     
   1.3437500000000000       0.68750000000000000        0.0000000000000000     
   1.3750000000000000       0.68750000000000000        0.0000000000000000     
   1.2500000000000000       0.71875000000000000        0.0000000000000000     
   1.2812500000000000       0.71875000000000000        0.0000000000000000     
   1.3125000000000000       0.71875000000000000        0.0000000000000000     
   1.3437500000000000       0.71875000000000000        0.0000000000000000     
   1.3750000000000000       0.71875000000000000        0.0000000000000000     
   1.2500000000000000       0.75000000000000000        0.0000000000000000     
   1.2812500000000000       0.75000000000000000        0.0000000000000000     
   1.3125000000000000       0.75000000000000000        0.0000000000000000     
   1.3437500000000000       0.75000000000000000        0.0000000000000000     
   1.3750000000000000       0.75000000000000000        0.0000000000000000     
   1.3750000000000000       0.62500000000000000        0.0000000000000000     
   1.4062500000000000       0.62500000000000000        0.0000000000000000     
   1.4375000000000000       0.62500000000000000        0.0000000000000000     
   1.4687500000000000       0.62500000000000000        0.0000000000000000     
   1.5000000000000000       0.62500000000000000        0.0000000000000000     
   1.3750000000000000       0.65625000000000000        0.0000000000000000     
   1.4062500000000000       0.65625000000000000        0.0000000000000000     
   1.4375000000000000       0.65625000000000000        0.0000000000000000     
   1.4687500000000000       0.65625000000000000        0.0000000000000000     
   1.5000000000000000       0.65625000000000000        0.0000000000000000     
   1.3750000000000000       0.68750000000000000        0.0000000000000000     
   1.4062500000000000       0.68750000000000000        0.0000000000000000     
   1.4375000000000000       0.68750000000000000        0.0000000000000000     
   1.4687500000000000       0.68750000000000000        0.0000000000000000     
   1.5000000000000000       0.68750000000000000        0.0000000000000000     
   1.3750000000000000       0.71875000000000000        0.0000000000000000     
   1.4062500000000000       0.71875000000000000        0.0000000000000000     
   1.4375000000000000       0.71875000000000000        0.0000000000000000     
   1.4687500000000000       0.71875000000000000        0.0000000000000000     
   1.5000000000000000       0.71875000000000000        0.0000000000000000     
   1.3750000000000000       0.75000000000000000        0.0000000000000000     
   1.4062500000000000       0.75000000000000000        0.0000000000000000     
   1.4375000000000000       0.75000000000000000        0.0000000000000000     
   1.4687500000000000       0.75000000000000000        0.0000000000000000     
   1.5000000000000000       0.75000000000000000        0.0000000000000000     
  0.50000000000000000       0.75000000000000000        0.0000000000000000     
  0.53125000000000000       0.75000000000000000        0.0000000000000000     
  0.56250000000000000       0.75000000000000000        0.0000000000000000     
  0.59375000000000000       0.75000000000000000        0.0000000000000000     
  0.62500000000000000       0.75000000000000000        0.0000000000000000     
  0.50000000000000000       0.78125000000000000        0.0000000000000000     
  0.53125000000000000       0.78125000000000000        0.0000000000000000     
  0.56250000000000000       0.78125000000000000        0.0000000000000000     
  0.59375000000000000       0.78125000000000000        0.0000000000000000     
  0.62500000000000000       0.78125000000000000        0.0000000000000000     
  0.50000000000000000       0.81250000000000000        0.0000000000000000     
  0.53125000000000000       0.81250000000000000        0.0000000000000000     
  0.56250000000000000       0.81250000000000000        0.0000000000000000     
  0.59375000000000000       0.81250000000000000        0.0000000000000000     
  0.62500000000000000       0.81250000000000000        0.0000000000000000     
  0.50000000000000000       0.84375000000000000        0.0000000000000000     
  0.53125000000000000       0.84375000000000000        0.0000000000000000     
  0.56250000000000000       0.84375000000000000        0.0000000000000000     
  0.59375000000000000       0.84375000000000000        0.0000000000000000     
  0.62500000000000000       0.84375000000000000        0.0000000000000000     
  0.50000000000000000       0.87500000000000000        0.0000000000000000     
  0.53125000000000000       0.87500000000000000        0.0000000000000000     
  0.56250000000000000       0.87500000000000000        0.0000000000000000     
  0.59375000000000000       0.87500000000000000        0.0000000000000000     
  0.62500000000000000       0.87500000000000000        0.0000000000000000     
  0.62500000000000000       0.75000000000000000        0.0000000000000000     
  0.65625000000000000       0.75000000000000000        0.0000000000000000     
  0.68750000000000000       0.75000000000000000        0.0000000000000000     
  0.71875000000000000       0.75000000000000000        0.0000000000000000     
  0.75000000000000000       0.75000000000000000        0.0000000000000000     
  0.62500000000000000       0.78125000000000000        0.0000000000000000     
  0.65625000000000000       0.78125000000000000        0.0000000000000000     
  0.68750000000000000       0.78125000000000000        0.0000000000000000     
  0.71875000000000000       0.78125000000000000        0.0000000000000000     
  0.75000000000000000       0.78125000000000000        0.0000000000000000     
  0.62500000000000000       0.81250000000000000        0.0000000000000000     
  0.65625000000000000       0.81250000000000000        0.0000000000000000     
  0.68750000000000000       0.81250000000000000        0.0000000000000000     
  0.71875000000000000       0.81250000000000000        0.0000000000000000     
  0.75000000000000000       0.81250000000000000        0.0000000000000000     
  0.62500000000000000       0.84375000000000000        0.0000000000000000     
  0.65625000000000000       0.84375000000000000        0.0000000000000000     
  0.68750000000000000       0.84375000000000000        0.0000000000000000     
  0.71875000000000000       0.84375000000000000        0.0000000000000000     
  0.75000000000000000       0.84375000000000000        0.0000000000000000     
  0.62500000000000000       0.87500000000000000        0.0000000000000000     
  0.65625000000000000       0.87500000000000000        0.0000000000000000     
  0.68750000000000000       0.87500000000000000        0.0000000000000000     
  0.71875000000000000       0.87500000000000000        0.0000000000000000     
  0.75000000000000000       0.87500000000000000        0.0000000000000000     
  0.75000000000000000       0.75000000000000000        0.0000000000000000     
  0.78125000000000000       0.75000000000000000        0.0000000000000000     
  0.81250000000000000       0.75000000000000000        0.0000000000000000     
  0.84375000000000000       0.75000000000000000        0.0000000000000000     
  0.87500000000000000       0.75000000000000000        0.0000000000000000     
  0.75000000000000000       0.78125000000000000        0.0000000000000000     
  0.78125000000000000       0.78125000000000000        0.0000000000000000     
  0.81250000000000000       0.78125000000000000        0.0000000000000000     
  0.84375000000000000       0.78125000000000000        0.0000000000000000     
  0.87500000000000000       0.78125000000000000        0.0000000000000000     
  0.75000000000000000       0.81250000000000000        0.0000000000000000     
  0.78125000000000000       0.81250000000000000        0.0000000000000000     
  0.81250000000000000       0.81250000000000000        0.0000000000000000     
  0.84375000000000000       0.81250000000000000        0.0000000000000000     
  0.87500000000000000       0.81250000000000000        0.0000000000000000     
  0.75000000000000000       0.84375000000000000        0.0000000000000000     
  0.78125000000000000       0.84375000000000000        0.0000000000000000     
  0.81250000000000000       0.84375000000000000        0.0000000000000000     
  0.84375000000000000       0.84375000000000000        0.0000000000000000     
  0.87500000000000000       0.84375000000000000        0.0000000000000000     
  0.75000000000000000       0.87500000000000000        0.0000000000000000     
  0.78125000000000000       0.87500000000000000        0.0000000000000000     
  0.81250000000000000       0.87500000000000000        0.0000000000000000     
  0.84375000000000000       0.87500000000000000        0.0000000000000000     
  0.87500000000000000       0.87500000000000000        0.0000000000000000     
  0.87500000000000000       0.75000000000000000        0.0000000000000000     
  0.90625000000000000       0.75000000000000000        0.0000000000000000     
  0.93750000000000000       0.75000000000000000        0.0000000000000000     
  0.96875000000000000       0.75000000000000000        0.0000000000000000     
   1.0000000000000000       0.75000000000000000        0.0000000000000000     
  0.87500000000000000       0.78125000000000000        0.0000000000000000     
  0.90625000000000000       0.78125000000000000        0.0000000000000000     
  0.93750000000000000       0.78125000000000000        0.0000000000000000     
  0.96875000000000000       0.78125000000000000        0.0000000000000000     
   1.0000000000000000       0.78125000000000000        0.0000000000000000     
  0.87500000000000000       0.81250000000000000        0.0000000000000000     
  0.90625000000000000       0.81250000000000000        0.0000000000000000     
  0.93750000000000000       0.81250000000000000        0.0000000000000000     
  0.96875000000000000       0.81250000000000000        0.0000000000000000     
   1.0000000000000000       0.81250000000000000        0.0000000000000000     
  0.87500000000000000       0.84375000000000000        0.0000000000000000     
  0.90625000000000000       0.84375000000000000        0.0000000000000000     
  0.93750000000000000       0.84375000000000000        0.0000000000000000     
  0.96875000000000000       0.84375000000000000        0.0000000000000000     
   1.0000000000000000       0.84375000000000000        0.0000000000000000     
  0.87500000000000000       0.87500000000000000        0.0000000000000000     
  0.90625000000000000       0.87500000000000000        0.0000000000000000     
  0.93750000000000000       0.87500000000000000        0.0000000000000000     
  0.96875000000000000       0.87500000000000000        0.0000000000000000     
   1.0000000000000000       0.87500000000000000        0.0000000000000000     
   1.0000000000000000       0.75000000000000000        0.0000000000000000     
   1.0312500000000000       0.75000000000000000        0.0000000000000000     
   1.0625000000000000       0.75000000000000000        0.0000000000000000     
   1.0937500000000000       0.75000000000000000        0.0000000000000000     
   1.1250000000000000       0.75000000000000000        0.0000000000000000     
   1.0000000000000000       0.78125000000000000        0.0000000000000000     
   1.0312500000000000       0.78125000000000000        0.0000000000000000     
   1.0625000000000000       0.78125000000000000        0.0000000000000000     
   1.0937500000000000       0.78125000000000000        0.0000000000000000     
   1.1250000000000000       0.78125000000000000        0.0000000000000000     
   1.0000000000000000       0.81250000000000000        0.0000000000000000     
   1.0312500000000000       0.81250000000000000        0.0000000000000000     
   1.0625000000000000       0.81250000000000000        0.0000000000000000     
   1.0937500000000000       0.81250000000000000        0.0000000000000000     
   1.1250000000000000       0.81250000000000000        0.0000000000000000     
   1.0000000000000000       0.84375000000000000        0.0000000000000000     
   1.0312500000000000       0.84375000000000000        0.0000000000000000     
   1.0625000000000000       0.84375000000000000        0.0000000000000000     
   1.0937500000000000       0.84375000000000000        0.0000000000000000     
   1.1250000000000000       0.84375000000000000        0.0000000000000000     
   1.0000000000000000       0.87500000000000000        0.0000000000000000     
   1.0312500000000000       0.87500000000000000        0.0000000000000000     
   1.0625000000000000       0.87500000000000000        0.0000000000000000     
   1.0937500000000000       0.87500000000000000        0.0000000000000000     
   1.1250000000000000       0.87500000000000000        0.0000000000000000     
   1.1250000000000000       0.75000000000000000        0.0000000000000000     
   1.1562500000000000       0.75000000000000000        0.0000000000000000     
   1.1875000000000000       0.75000000000000000        0.0000000000000000     
   1.2187500000000000       0.75000000000000000        0.0000000000000000     
   1.2500000000000000       0.75000000000000000        0.0000000000000000     
   1.1250000000000000       0.78125000000000000        0.0000000000000000     
   1.1562500000000000       0.78125000000000000        0.0000000000000000     
   1.1875000000000000       0.78125000000000000        0.0000000000000000     
   1.2187500000000000       0.78125000000000000        0.0000000000000000     
   1.2500000000000000       0.78125000000000000        0.0000000000000000     
   1.1250000000000000       0.81250000000000000        0.0000000000000000     
   1.1562500000000000       0.81250000000000000        0.0000000000000000     
   1.1875000000000000       0.81250000000000000        0.0000000000000000     
   1.2187500000000000       0.81250000000000000        0.0000000000000000     
   1.2500000000000000       0.81250000000000000        0.0000000000000000     
   1.1250000000000000       0.84375000000000000        0.0000000000000000     
   1.1562500000000000       0.84375000000000000        0.0000000000000000     
   1.1875000000000000       0.84375000000000000        0.0000000000000000     
   1.2187500000000000       0.84375000000000000        0.0000000000000000     
   1.2500000000000000       0.84375000000000000        0.0000000000000000     
   1.1250000000000000       0.87500000000000000        0.0000000000000000     
   1.1562500000000000       0.87500000000000000        0.0000000000000000     
   1.1875000000000000       0.87500000000000000        0.0000000000000000     
   1.2187500000000000       0.87500000000000000        0.0000000000000000     
   1.2500000000000000       0.87500000000000000        0.0000000000000000     
   1.2500000000000000       0.75000000000000000        0.0000000000000000     
   1.2812500000000000       0.75000000000000000        0.0000000000000000     
   1.3125000000000000       0.75000000000000000        0.0000000000000000     
   1.3437500000000000       0.75000000000000000        0.0000000000000000     
   1.3750000000000000       0.75000000000000000        0.0000000000000000     
   1.2500000000000000       0.78125000000000000        0.0000000000000000     
   1.2812500000000000       0.78125000000000000        0.0000000000000000     
   1.3125000000000000       0.78125000000000000        0.0000000000000000     
   1.3437500000000000       0.78125000000000000        0.0000000000000000     
   1.3750000000000000       0.78125000000000000        0.0000000000000000     
   1.2500000000000000       0.81250000000000000        0.0000000000000000     
   1.2812500000000000       0.81250000000000000        0.0000000000000000     
   1.3125000000000000       0.81250000000000000        0.0000000000000000     
   1.3437500000000000       0.81250000000000000        0.0000000000000000     
   1.3750000000000000       0.81250000000000000        0.0000000000000000     
   1.2500000000000000       0.84375000000000000        0.0000000000000000     
   1.2812500000000000       0.84375000000000000        0.0000000000000000     
   1.3125000000000000       0.84375000000000000        0.0000000000000000     
   1.3437500000000000       0.84375000000000000        0.0000000000000000     
   1.3750000000000000       0.84375000000000000        0.0000000000000000     
   1.2500000000000000       0.87500000000000000        0.0000000000000000     
   1.2812500000000000       0.87500000000000000        0.0000000000000000     
   1.3125000000000000       0.87500000000000000        0.0000000000000000     
   1.3437500000000000       0.87500000000000000        0.0000000000000000     
   1.3750000000000000       0.87500000000000000        0.0000000000000000     
   1.3750000000000000       0.75000000000000000        0.0000000000000000     
   1.4062500000000000       0.75000000000000000        0.0000000000000000     
   1.4375000000000000       0.75000000000000000        0.0000000000000000     
   1.4687500000000000       0.75000000000000000        0.0000000000000000     
   1.5000000000000000       0.75000000000000000        0.0000000000000000     
   1.3750000000000000       0.78125000000000000        0.0000000000000000     
   1.4062500000000000       0.78125000000000000        0.0000000000000000     
   1.4375000000000000       0.78125000000000000        0.0000000000000000     
   1.4687500000000000       0.78125000000000000        0.0000000000000000     
   1.5000000000000000       0.78125000000000000        0.0000000000000000     
   1.3750000000000000       0.81250000000000000        0.0000000000000000     
   1.4062500000000000       0.81250000000000000        0.0000000000000000     
   1.4375000000000000       0.81250000000000000        0.0000000000000000     
   1.4687500000000000       0.81250000000000000        0.0000000000000000     
   1.5000000000000000       0.81250000000000000        0.0000000000000000     
   1.3750000000000000       0.84375000000000000        0.0000000000000000     
   1.4062500000000000       0.84375000000000000        0.0000000000000000     
   1.4375000000000000       0.84375000000000000        0.0000000000000000     
   1.4687500000000000       0.84375000000000000        0.0000000000000000     
   1.5000000000000000       0.84375000000000000        0.0000000000000000     
   1.3750000000000000       0.87500000000000000        0.0000000000000000     
   1.4062500000000000       0.87500000000000000        0.0000000000000000     
   1.4375000000000000       0.87500000000000000        0.0000000000000000     
   1.4687500000000000       0.87500000000000000        0.0000000000000000     
   1.5000000000000000       0.87500000000000000        0.0000000000000000     
  0.50000000000000000       0.87500000000000000        0.0000000000000000     
  0.53125000000000000       0.87500000000000000        0.0000000000000000     
  0.56250000000000000       0.87500000000000000        0.0000000000000000     
  0.59375000000000000       0.87500000000000000        0.0000000000000000     
  0.62500000000000000       0.87500000000000000        0.0000000000000000     
  0.50000000000000000       0.90625000000000000        0.0000000000000000     
  0.53125000000000000       0.90625000000000000        0.0000000000000000     
  0.56250000000000000       0.90625000000000000        0.0000000000000000     
  0.59375000000000000       0.90625000000000000        0.0000000000000000     
  0.62500000000000000       0.90625000000000000        0.0000000000000000     
  0.50000000000000000       0.93750000000000000        0.0000000000000000     
  0.53125000000000000       0.93750000000000000        0.0000000000000000     
  0.56250000000000000       0.93750000000000000        0.0000000000000000     
  0.59375000000000000       0.93750000000000000        0.0000000000000000     
  0.62500000000000000       0.93750000000000000        0.0000000000000000     
  0.50000000000000000       0.96875000000000000        0.0000000000000000     
  0.53125000000000000       0.96875000000000000        0.0000000000000000     
  0.56250000000000000       0.96875000000000000        0.0000000000000000     
  0.59375000000000000       0.96875000000000000        0.0000000000000000     
  0.62500000000000000       0.96875000000000000        0.0000000000000000     
  0.50000000000000000        1.0000000000000000        0.0000000000000000     
  0.53125000000000000        1.0000000000000000        0.0000000000000000     
  0.56250000000000000        1.0000000000000000        0.0000000000000000     
  0.59375000000000000        1.0000000000000000        0.0000000000000000     
  0.62500000000000000        1.0000000000000000        0.0000000000000000     
  0.62500000000000000       0.87500000000000000        0.0000000000000000     
  0.65625000000000000       0.87500000000000000        0.0000000000000000     
  0.68750000000000000       0.87500000000000000        0.0000000000000000     
  0.71875000000000000       0.87500000000000000        0.0000000000000000     
  0.75000000000000000       0.87500000000000000        0.0000000000000000     
  0.62500000000000000       0.90625000000000000        0.0000000000000000     
  0.65625000000000000       0.90625000000000000        0.0000000000000000     
  0.68750000000000000       0.90625000000000000        0.0000000000000000     
  0.71875000000000000       0.90625000000000000        0.0000000000000000     
  0.75000000000000000       0.90625000000000000        0.0000000000000000     
  0.62500000000000000       0.93750000000000000        0.0000000000000000     
  0.65625000000000000       0.93750000000000000        0.0000000000000000     
  0.68750000000000000       0.93750000000000000        0.0000000000000000     
  0.71875000000000000       0.93750000000000000        0.0000000000000000     
  0.75000000000000000       0.93750000000000000        0.0000000000000000     
  0.62500000000000000       0.96875000000000000        0.0000000000000000     
  0.65625000000000000       0.96875000000000000        0.0000000000000000     
  0.68750000000000000       0.96875000000000000        0.0000000000000000     
  0.71875000000000000       0.96875000000000000        0.0000000000000000     
  0.75000000000000000       0.96875000000000000        0.0000000000000000     
  0.62500000000000000        1.0000000000000000        0.0000000000000000     
  0.65625000000000000        1.0000000000000000        0.0000000000000000     
  0.68750000000000000        1.0000000000000000        0.0000000000000000     
  0.71875000000000000        1.0000000000000000        0.0000000000000000     
  0.75000000000000000        1.0000000000000000        0.0000000000000000     
  0.75000000000000000       0.87500000000000000        0.0000000000000000     
  0.78125000000000000       0.87500000000000000        0.0000000000000000     
  0.81250000000000000       0.87500000000000000        0.0000000000000000     
  0.84375000000000000       0.87500000000000000        0.0000000000000000     
  0.87500000000000000       0.87500000000000000        0.0000000000000000     
  0.75000000000000000       0.90625000000000000        0.0000000000000000     
  0.78125000000000000       0.90625000000000000        0.0000000000000000     
  0.81250000000000000       0.90625000000000000        0.0000000000000000     
  0.84375000000000000       0.90625000000000000        0.0000000000000000     
  0.87500000000000000       0.90625000000000000        0.0000000000000000     
  0.75000000000000000       0.93750000000000000        0.0000000000000000     
  0.78125000000000000       0.93750000000000000        0.0000000000000000     
  0.81250000000000000       0.93750000000000000        0.0000000000000000     
  0.84375000000000000       0.93750000000000000        0.0000000000000000     
  0.87500000000000000       0.93750000000000000        0.0000000000000000     
  0.75000000000000000       0.96875000000000000        0.0000000000000000     
  0.78125000000000000       0.96875000000000000        0.0000000000000000     
  0.81250000000000000       0.96875000000000000        0.0000000000000000     
  0.84375000000000000       0.96875000000000000        0.0000000000000000     
  0.87500000000000000       0.96875000000000000        0.0000000000000000     
  0.75000000000000000        1.0000000000000000        0.0000000000000000     
  0.78125000000000000        1.0000000000000000        0.0000000000000000     
  0.81250000000000000        1.0000000000000000        0.0000000000000000     
  0.84375000000000000        1.0000000000000000        0.0000000000000000     
  0.87500000000000000        1.0000000000000000        0.0000000000000000     
  0.87500000000000000       0.87500000000000000        0.0000000000000000     
  0.90625000000000000       0.87500000000000000        0.0000000000000000     
  0.93750000000000000       0.87500000000000000        0.0000000000000000     
  0.96875000000000000       0.87500000000000000        0.0000000000000000     
   1.0000000000000000       0.87500000000000000        0.0000000000000000     
  0.87500000000000000       0.90625000000000000        0.0000000000000000     
  0.90625000000000000       0.90625000000000000        0.0000000000000000     
  0.93750000000000000       0.90625000000000000        0.0000000000000000     
  0.96875000000000000       0.90625000000000000        0.0000000000000000     
   1.0000000000000000       0.90625000000000000        0.0000000000000000     
  0.87500000000000000       0.93750000000000000        0.0000000000000000     
  0.90625000000000000       0.93750000000000000        0.0000000000000000     
  0.93750000000000000       0.93750000000000000        0.0000000000000000     
  0.96875000000000000       0.93750000000000000        0.0000000000000000     
   1.0000000000000000       0.93750000000000000        0.0000000000000000     
  0.87500000000000000       0.96875000000000000        0.0000000000000000     
  0.90625000000000000       0.96875000000000000        0.0000000000000000     
  0.93750000000000000       0.96875000000000000        0.0000000000000000     
  0.96875000000000000       0.96875000000000000        0.0000000000000000     
   1.0000000000000000       0.96875000000000000        0.0000000000000000     
  0.87500000000000000        1.0000000000000000        0.0000000000000000     
  0.90625000000000000        1.0000000000000000        0.0000000000000000     
  0.93750000000000000        1.0000000000000000        0.0000000000000000     
  0.96875000000000000        1.0000000000000000        0.0000000000000000     
   1.0000000000000000        1.0000000000000000        0.0000000000000000     
   1.0000000000000000       0.87500000000000000        0.0000000000000000     
   1.0312500000000000       0.87500000000000000        0.0000000000000000     
   1.0625000000000000       0.87500000000000000        0.0000000000000000     
   1.0937500000000000       0.87500000000000000        0.0000000000000000     
   1.1250000000000000       0.87500000000000000        0.0000000000000000     
   1.0000000000000000       0.90625000000000000        0.0000000000000000     
   1.0312500000000000       0.90625000000000000        0.0000000000000000     
   1.0625000000000000       0.90625000000000000        0.0000000000000000     
   1.0937500000000000       0.90625000000000000        0.0000000000000000     
   1.1250000000000000       0.90625000000000000        0.0000000000000000     
   1.0000000000000000       0.93750000000000000        0.0000000000000000     
   1.0312500000000000       0.93750000000000000        0.0000000000000000     
   1.0625000000000000       0.93750000000000000        0.0000000000000000     
   1.0937500000000000       0.93750000000000000        0.0000000000000000     
   1.1250000000000000       0.93750000000000000        0.0000000000000000     
   1.0000000000000000       0.96875000000000000        0.0000000000000000     
   1.0312500000000000       0.96875000000000000        0.0000000000000000     
   1.0625000000000000       0.96875000000000000        0.0000000000000000     
   1.0937500000000000       0.96875000000000000        0.0000000000000000     
   1.1250000000000000       0.96875000000000000        0.0000000000000000     
   1.0000000000000000        1.0000000000000000        0.0000000000000000     
   1.0312500000000000        1.0000000000000000        0.0000000000000000     
   1.0625000000000000        1.0000000000000000        0.0000000000000000     
   1.0937500000000000        1.0000000000000000        0.0000000000000000     
   1.1250000000000000        1.0000000000000000        0.0000000000000000     
   1.1250000000000000       0.87500000000000000        0.0000000000000000     
   1.1562500000000000       0.87500000000000000        0.0000000000000000     
   1.1875000000000000       0.87500000000000000        0.0000000000000000     
   1.2187500000000000       0.87500000000000000        0.0000000000000000     
   1.2500000000000000       0.87500000000000000        0.0000000000000000     
   1.1250000000000000       0.90625000000000000        0.0000000000000000     
   1.1562500000000000       0.90625000000000000        0.0000000000000000     
   1.1875000000000000       0.90625000000000000        0.0000000000000000     
   1.2187500000000000       0.90625000000000000        0.0000000000000000     
   1.2500000000000000       0.90625000000000000        0.0000000000000000     
   1.1250000000000000       0.93750000000000000        0.0000000000000000     
   1.1562500000000000       0.93750000000000000        0.0000000000000000     
   1.1875000000000000       0.93750000000000000        0.0000000000000000     
   1.2187500000000000       0.93750000000000000        0.0000000000000000     
   1.2500000000000000       0.93750000000000000        0.0000000000000000     
   1.1250000000000000       0.96875000000000000        0.0000000000000000     
   1.1562500000000000       0.96875000000000000        0.0000000000000000     
   1.1875000000000000       0.96875000000000000        0.0000000000000000     
   1.2187500000000000       0.96875000000000000        0.0000000000000000     
   1.2500000000000000       0.96875000000000000        0.0000000000000000     
   1.1250000000000000        1.0000000000000000        0.0000000000000000     
   1.1562500000000000        1.0000000000000000        0.0000000000000000     
   1.1875000000000000        1.0000000000000000        0.0000000000000000     
   1.2187500000000000        1.0000000000000000        0.0000000000000000     
   1.2500000000000000        1.0000000000000000        0.0000000000000000     
   1.2500000000000000       0.87500000000000000        0.0000000000000000     
   1.2812500000000000       0.87500000000000000        0.0000000000000000     
   1.3125000000000000       0.87500000000000000        0.0000000000000000     
   1.3437500000000000       0.87500000000000000        0.0000000000000000     
   1.3750000000000000       0.87500000000000000        0.0000000000000000     
   1.2500000000000000       0.90625000000000000        0.0000000000000000     
   1.2812500000000000       0.90625000000000000        0.0000000000000000     
   1.3125000000000000       0.90625000000000000        0.0000000000000000     
   1.3437500000000000       0.90625000000000000        0.0000000000000000     
   1.3750000000000000       0.90625000000000000        0.0000000000000000     
   1.2500000000000000       0.93750000000000000        0.0000000000000000     
   1.2812500000000000       0.93750000000000000        0.0000000000000000     
   1.3125000000000000       0.93750000000000000        0.0000000000000000     
   1.3437500000000000       0.93750000000000000        0.0000000000000000     
   1.3750000000000000       0.93750000000000000        0.0000000000000000     
   1.2500000000000000       0.96875000000000000        0.0000000000000000     
   1.2812500000000000       0.96875000000000000        0.0000000000000000     
   1.3125000000000000       0.96875000000000000        0.0000000000000000     
   1.3437500000000000       0.96875000000000000        0.0000000000000000     
   1.3750000000000000       0.96875000000000000        0.0000000000000000     
   1.2500000000000000        1.0000000000000000        0.0000000000000000     
   1.2812500000000000        1.0000000000000000        0.0000000000000000     
   1.3125000000000000        1.0000000000000000        0.0000000000000000     
   1.3437500000000000        1.0000000000000000        0.0000000000000000     
   1.3750000000000000        1.0000000000000000        0.0000000000000000     
   1.3750000000000000       0.87500000000000000        0.0000000000000000     
   1.4062500000000000       0.87500000000000000        0.0000000000000000     
   1.4375000000000000       0.87500000000000000        0.0000000000000000     
   1.4687500000000000       0.87500000000000000        0.0000000000000000     
   1.5000000000000000       0.87500000000000000        0.0000000000000000     
   1.3750000000000000       0.90625000000000000        0.0000000000000000     
   1.4062500000000000       0.90625000000000000        0.0000000000000000     
   1.4375000000000000       0.90625000000000000        0.0000000000000000     
   1.4687500000000000       0.90625000000000000        0.0000000000000000     
   1.5000000000000000       0.90625000000000000        0.0000000000000000     
   1.3750000000000000       0.93750000000000000        0.0000000000000000     
   1.4062500000000000       0.93750000000000000        0.0000000000000000     
   1.4375000000000000       0.93750000000000000        0.0000000000000000     
   1.4687500000000000       0.93750000000000000        0.0000000000000000     
   1.5000000000000000       0.93750000000000000        0.0000000000000000     
   1.3750000000000000       0.96875000000000000        0.0000000000000000     
   1.4062500000000000       0.96875000000000000        0.0000000000000000     
   1.4375000000000000       0.96875000000000000        0.0000000000000000     
   1.4687500000000000       0.96875000000000000        0.0000000000000000     
   1.5000000000000000       0.96875000000000000        0.0000000000000000     
   1.3750000000000000        1.0000000000000000        0.0000000000000000     
   1.4062500000000000        1.0000000000000000        0.0000000000000000     
   1.4375000000000000        1.0000000000000000        0.0000000000000000     
   1.4687500000000000        1.0000000000000000        0.0000000000000000     
   1.5000000000000000        1.0000000000000000        0.0000000000000000     
 </DataArray>
 </Points>
 <Cells>
 <DataArray  type="Int32"  Name="connectivity"  format="ascii">
           0           1           6           5
           1           2           7           6
           2           3           8           7
           3           4           9           8
           5           6          11          10
           6           7          12          11
           7           8          13          12
           8           9          14          13
          10          11          16          15
          11          12          17          16
          12          13          18          17
          13          14          19          18
          15          16          21          20
          16          17          22          21
          17          18          23          22
          18          19          24          23
          25          26          31          30
          26          27          32          31
          27          28          33          32
          28          29          34          33
          30          31          36          35
          31          32          37          36
          32          33          38          37
          33          34          39          38
          35          36          41          40
          36          37          42          41
          37          38          43          42
          38          39          44          43
          40          41          46          45
          41          42          47          46
          42          43          48          47
          43          44          49          48
          50          51          56          55
          51          52          57          56
          52          53          58          57
          53          54          59          58
          55          56          61          60
          56          57          62          61
          57          58          63          62
          58          59          64          63
          60          61          66          65
          61          62          67          66
          62          63          68          67
          63          64          69          68
          65          66          71          70
          66          67          72          71
          67          68          73          72
          68          69          74          73
          75          76          81          80
          76          77          82          81
          77          78          83          82
          78          79          84          83
          80          81          86          85
          81          82          87          86
          82          83          88          87
          83          84          89          88
          85          86          91          90
          86          87          92          91
          87          88          93          92
          88          89          94          93
          90          91          96          95
          91          92          97          96
          92          93          98          97
          93          94          99          98
         100         101         106         105
         101         102         107         106
         102         103         108         107
         103         104         109         108
         105         106         111         110
         106         107         112         111
         107         108         113         112
         108         109         114         113
         110         111         116         115
         111         112         117         116
         112         113         118         117
         113         114         119         118
         115         116         121         120
         116         117         122         121
         117         118         123         122
         118         119         124         123
         125         126         131         130
         126         127         132         131
         127         128         133         132
         128         129         134         133
         130         131         136         135
         131         132         137         136
         132         133         138         137
         133         134         139         138
         135         136         141         140
         136         137         142         141
         137         138         143         142
         138         139         144         143
         140         141         146         145
         141         142         147         146
         142         143         148         147
         143         144         149         148
         150         151         156         155
         151         152         157         156
         152         153         158         157
         153         154         159         158
         155         156         161         160
         156         157         162         161
         157         158         163         162
         158         159         164         163
         160         161         166         165
         161         162         167         166
         162         163         168         167
         163         164         169         168
         165         166         171         170
         166         167         172         171
         167         168         173         172
         168         169         174         173
         175         176         181         180
         176         177         182         181
         177         178         183         182
         178         179         184         183
         180         181         186         185
         181         182         187         186
         182         183         188         187
         183         184         189         188
         185         186         191         190
         186         187         192         191
         187         188         193         192
         188         189         194         193
         190         191         196         195
         191         192         197         196
         192         193         198         197
         193         194         199         198
         200         201         206         205
         201         202         207         206
         202         203         208         207
         203         204         209         208
         205         206         211         210
         206         207         212         211
         207         208         213         212
         208         209         214         213
         210         211         216         215
         211         212         217         216
         212         213         218         217
         213         214         219         218
         215         216         221         220
         216         217         222         221
         217         218         223         222
         218         219         224         223
         225         226         231         230
         226         227         232         231
         227         228         233         232
         228         229         234         233
         230         231         236         235
         231         232         237         236
         232         233         238         237
         233         234         239         238
         235         236         241         240
         236         237         242         241
         237         238         243         242
         238         239         244         243
         240         241         246         245
         241         242         247         246
         242         243         248         247
         243         244         249         248
         250         251         256         255
         251         252         257         256
         252         253         258         257
         253         254         259         258
         255         256         261         260
         256         257         262         261
         257         258         263         262
         258         259         264         263
         260         261         266         265
         261         262         267         266
         262         263         268         267
         263         264         269         268
         265         266         271         270
         266         267         272         271
         267         268         273         272
         268         269         274         273
         275         276         281         280
         276         277         282         281
         277         278         283         282
         278         279         284         283
         280         281         286         285
         281         282         287         286
         282         283         288         287
         283         284         289         288
         285         286         291         290
         286         287         292         291
         287         288         293         292
         288         289         294         293
         290         291         296         295
         291         292         297         296
         292         293         298         297
         293         294         299         298
         300         301         306         305
         301         302         307         306
         302         303         308         307
         303         304         309         308
         305         306         311         310
         306         307         312         311
         307         308         313         312
         308         309         314         313
         310         311         316         315
         311         312         317         316
         312         313         318         317
         313         314         319         318
         315         316         321         320
         316         317         322         321
         317         318         323         322
         318         319         324         323
         325         326         331         330
         326         327         332         331
         327         328         333         332
         328         329         334         333
         330         331         336         335
         331         332         337         336
         332         333         338         337
         333         334         339         338
         335         336         341         340
         336         337         342         341
         337         338         343         342
         338         339         344         343
         340         341         346         345
         341         342         347         346
         342         343         348         347
         343         344         349         348
         350         351         356         355
         351         352         357         356
         352         353         358         357
         353         354         359         358
         355         356         361         360
         356         357         362         361
         357         358         363         362
         358         359         364         363
         360         361         366         365
         361         362         367         366
         362         363         368         367
         363         364         369         368
         365         366         371         370
         366         367         372         371
         367         368         373         372
         368         369         374         373
         375         376         381         380
         376         377         382         381
         377         378         383         382
         378         379         384         383
         380         381         386         385
         381         382         387         386
         382         383         388         387
         383         384         389         388
         385         386         391         390
         386         387         392         391
         387         388         393         392
         388         389         394         393
         390         391         396         395
         391         392         397         396
         392         393         398         397
         393         394         399         398
         400         401         406         405
         401         402         407         406
         402         403         408         407
         403         404         409         408
         405         406         411         410
         406         407         412         411
         407         408         413         412
         408         409         414         413
         410         411         416         415
         411         412         417         416
         412         413         418         417
         413         414         419         418
         415         416         421         420
         416         417         422         421
         417         418         423         422
         418         419         424         423
         425         426         431         430
         426         427         432         431
         427         428         433         432
         428         429         434         433
         430         431         436         435
         431         432         437         436
         432         433         438         437
         433         434         439         438
         435         436         441         440
         436         437         442         441
         437         438         443         442
         438         439         444         443
         440         441         446         445
         441         442         447         446
         442         443         448         447
         443         444         449         448
         450         451         456         455
         451         452         457         456
         452         453         458         457
         453         454         459         458
         455         456         461         460
         456         457         462         461
         457         458         463         462
         458         459         464         463
         460         461         466         465
         461         462         467         466
         462         463         468         467
         463         464         469         468
         465         466         471         470
         466         467         472         471
         467         468         473         472
         468         469         474         473
         475         476         481         480
         476         477         482         481
         477         478         483         482
         478         479         484         483
         480         481         486         485
         481         482         487         486
         482         483         488         487
         483         484         489         488
         485         486         491         490
         486         487         492         491
         487         488         493         492
         488         489         494         493
         490         491         496         495
         491         492         497         496
         492         493         498         497
         493         494         499         498
         500         501         506         505
         501         502         507         506
         502         503         508         507
         503         504         509         508
         505         506         511         510
         506         507         512         511
         507         508         513         512
         508         509         514         513
         510         511         516         515
         511         512         517         516
         512         513         518         517
         513         514         519         518
         515         516         521         520
         516         517         522         521
         517         518         523         522
         518         519         524         523
         525         526         531         530
         526         527         532         531
         527         528         533         532
         528         529         534         533
         530         531         536         535
         531         532         537         536
         532         533         538         537
         533         534         539         538
         535         536         541         540
         536         537         542         541
         537         538         543         542
         538         539         544         543
         540         541         546         545
         541         542         547         546
         542         543         548         547
         543         544         549         548
         550         551         556         555
         551         552         557         556
         552         553         558         557
         553         554         559         558
         555         556         561         560
         556         557         562         561
         557         558         563         562
         558         559         564         563
         560         561         566         565
         561         562         567         566
         562         563         568         567
         563         564         569         568
         565         566         571         570
         566         567         572         571
         567         568         573         572
         568         569         574         573
         575         576         581         580
         576         577         582         581
         577         578         583         582
         578         579         584         583
         580         581         586         585
         581         582         587         586
         582         583         588         587
         583         584         589         588
         585         586         591         590
         586         587         592         591
         587         588         593         592
         588         589         594         593
         590         591         596         595
         591         592         597         596
         592         593         598         597
         593         594         599         598
         600         601         606         605
         601         602         607         606
         602         603         608         607
         603         604         609         608
         605         606         611         610
         606         607         612         611
         607         608         613         612
         608         609         614         613
         610         611         616         615
         611         612         617         616
         612         613         618         617
         613         614         619         618
         615         616         621         620
         616         617         622         621
         617         618         623         622
         618         619         624         623
         625         626         631         630
         626         627         632         631
         627         628         633         632
         628         629         634         633
         630         631         636         635
         631         632         637         636
         632         633         638         637
         633         634         639         638
         635         636         641         640
         636         637         642         641
         637         638         643         642
         638         639         644         643
         640         641         646         645
         641         642         647         646
         642         643         648         647
         643         644         649         648
         650         651         656         655
         651         652         657         656
         652         653         658         657
         653         654         659         658
         655         656         661         660
         656         657         662         661
         657         658         663         662
         658         659         664         663
         660         661         666         665
         661         662         667         666
         662         663         668         667
         663         664         669         668
         665         666         671         670
         666         667         672         671
         667         668         673         672
         668         669         674         673
         675         676         681         680
         676         677         682         681
         677         678         683         682
         678         679         684         683
         680         681         686         685
         681         682         687         686
         682         683         688         687
         683         684         689         688
         685         686         691         690
         686         687         692         691
         687         688         693         692
         688         689         694         693
         690         691         696         695
         691         692         697         696
         692         693         698         697
         693         694         699         698
         700         701         706         705
         701         702         707         706
         702         703         708         707
         703         704         709         708
         705         706         711         710
         706         707         712         711
         707         708         713         712
         708         709         714         713
         710         711         716         715
         711         712         717         716
         712         713         718         717
         713         714         719         718
         715         716         721         720
         716         717         722         721
         717         718         723         722
         718         719         724         723
         725         726         731         730
         726         727         732         731
         727         728         733         732
         728         729         734         733
         730         731         736         735
         731         732         737         736
         732         733         738         737
         733         734         739         738
         735         736         741         740
         736         737         742         741
         737         738         743         742
         738         739         744         743
         740         741         746         745
         741         742         747         746
         742         743         748         747
         743         744         749         748
         750         751         756         755
         751         752         757         756
         752         753         758         757
         753         754         759         758
         755         756         761         760
         756         757         762         761
         757         758         763         762
         758         759         764         763
         760         761         766         765
         761         762         767         766
         762         763         768         767
         763         764         769         768
         765         766         771         770
         766         767         772         771
         767         768         773         772
         768         769         774         773
         775         776         781         780
         776         777         782         781
         777         778         783         782
         778         779         784         783
         780         781         786         785
         781         782         787         786
         782         783         788         787
         783         784         789         788
         785         786         791         790
         786         787         792         791
         787         788         793         792
         788         789         794         793
         790         791         796         795
         791         792         797         796
         792         793         798         797
         793         794         799         798
         800         801         806         805
         801         802         807         806
         802         803         808         807
         803         804         809         808
         805         806         811         810
         806         807         812         811
         807         808         813         812
         808         809         814         813
         810         811         816         815
         811         812         817         816
         812         813         818         817
         813         814         819         818
         815         816         821         820
         816         817         822         821
         817         818         823         822
         818         819         824         823
         825         826         831         830
         826         827         832         831
         827         828         833         832
         828         829         834         833
         830         831         836         835
         831         832         837         836
         832         833         838         837
         833         834         839         838
         835         836         841         840
         836         837         842         841
         837         838         843         842
         838         839         844         843
         840         841         846         845
         841         842         847         846
         842         843         848         847
         843         844         849         848
         850         851         856         855
         851         852         857         856
         852         853         858         857
         853         854         859         858
         855         856         861         860
         856         857         862         861
         857         858         863         862
         858         859         864         863
         860         861         866         865
         861         862         867         866
         862         863         868         867
         863         864         869         868
         865         866         871         870
         866         867         872         871
         867         868         873         872
         868         869         874         873
         875         876         881         880
         876         877         882         881
         877         878         883         882
         878         879         884         883
         880         881         886         885
         881         882         887         886
         882         883         888         887
         883         884         889         888
         885         886         891         890
         886         887         892         891
         887         888         893         892
         888         889         894         893
         890         891         896         895
         891         892         897         896
         892         893         898         897
         893         894         899         898
         900         901         906         905
         901         902         907         906
         902         903         908         907
         903         904         909         908
         905         906         911         910
         906         907         912         911
         907         908         913         912
         908         909         914         913
         910         911         916         915
         911         912         917         916
         912         913         918         917
         913         914         919         918
         915         916         921         920
         916         917         922         921
         917         918         923         922
         918         919         924         923
         925         926         931         930
         926         927         932         931
         927         928         933         932
         928         929         934         933
         930         931         936         935
         931         932         937         936
         932         933         938         937
         933         934         939         938
         935         936         941         940
         936         937         942         941
         937         938         943         942
         938         939         944         943
         940         941         946         945
         941         942         947         946
         942         943         948         947
         943         944         949         948
         950         951         956         955
         951         952         957         956
         952         953         958         957
         953         954         959         958
         955         956         961         960
         956         957         962         961
         957         958         963         962
         958         959         964         963
         960         961         966         965
         961         962         967         966
         962         963         968         967
         963         964         969         968
         965         966         971         970
         966         967         972         971
         967         968         973         972
         968         969         974         973
         975         976         981         980
         976         977         982         981
         977         978         983         982
         978         979         984         983
         980         981         986         985
         981         982         987         986
         982         983         988         987
         983         984         989         988
         985         986         991         990
         986         987         992         991
         987         988         993         992
         988         989         994         993
         990         991         996         995
         991         992         997         996
         992         993         998         997
         993         994         999         998
        1000        1001        1006        1005
        1001        1002        1007        1006
        1002        1003        1008        1007
        1003        1004        1009        1008
        1005        1006        1011        1010
        1006        1007        1012        1011
        1007        1008        1013        1012
        1008        1009        1014        1013
        1010        1011        1016        1015
        1011        1012        1017        1016
        1012        1013        1018        1017
        1013        1014        1019        1018
        1015        1016        1021        1020
        1016        1017        1022        1021
        1017        1018        1023        1022
        1018        1019        1024        1023
        1025        1026        1031        1030
        1026        1027        1032        1031
        1027        1028        1033        1032
        1028        1029        1034        1033
        1030        1031        1036        1035
        1031        1032        1037        1036
        1032        1033        1038        1037
        1033        1034        1039        1038
        1035        1036        1041        1040
        1036        1037        1042        1041
        1037        1038        1043        1042
        1038        1039        1044        1043
        1040        1041        1046        1045
        1041        1042        1047        1046
        1042        1043        1048        1047
        1043        1044        1049        1048
        1050        1051        1056        1055
        1051        1052        1057        1056
        1052        1053        1058        1057
        1053        1054        1059        1058
        1055        1056        1061        1060
        1056        1057        1062        1061
        1057        1058        1063        1062
        1058        1059        1064        1063
        1060        1061        1066        1065
        1061        1062        1067        1066
        1062        1063        1068        1067
        1063        1064        1069        1068
        1065        1066        1071        1070
        1066        1067        1072        1071
        1067        1068        1073        1072
        1068        1069        1074        1073
        1075        1076        1081        1080
        1076        1077        1082        1081
        1077        1078        1083        1082
        1078        1079        1084        1083
        1080        1081        1086        1085
        1081        1082        1087        1086
        1082        1083        1088        1087
        1083        1084        1089        1088
        1085        1086        1091        1090
        1086        1087        1092        1091
        1087        1088        1093        1092
        1088        1089        1094        1093
        1090        1091        1096        1095
        1091        1092        1097        1096
        1092        1093        1098        1097
        1093        1094        1099        1098
        1100        1101        1106        1105
        1101        1102        1107        1106
        1102        1103        1108        1107
        1103        1104        1109        1108
        1105        1106        1111        1110
        1106        1107        1112        1111
        1107        1108        1113        1112
        1108        1109        1114        1113
        1110        1111        1116        1115
        1111        1112        1117        1116
        1112        1113        1118        1117
        1113        1114        1119        1118
        1115        1116        1121        1120
        1116        1117        1122        1121
        1117        1118        1123        1122
        1118        1119        1124        1123
        1125        1126        1131        1130
        1126        1127        1132        1131
        1127        1128        1133        1132
        1128        1129        1134        1133
        1130        1131        1136        1135
        1131        1132        1137        1136
        1132        1133        1138        1137
        1133        1134        1139        1138
        1135        1136        1141        1140
        1136        1137        1142        1141
        1137        1138        1143        1142
        1138        1139        1144        1143
        1140        1141        1146        1145
        1141        1142        1147        1146
        1142        1143        1148        1147
        1143        1144        1149        1148
        1150        1151        1156        1155
        1151        1152        1157        1156
        1152        1153        1158        1157
        1153        1154        1159        1158
        1155        1156        1161        1160
        1156        1157        1162        1161
        1157        1158        1163        1162
        1158        1159        1164        1163
        1160        1161        1166        1165
        1161        1162        1167        1166
        1162        1163        1168        1167
        1163        1164        1169        1168
        1165        1166        1171        1170
        1166        1167        1172        1171
        1167        1168        1173        1172
        1168        1169        1174        1173
        1175        1176        1181        1180
        1176        1177        1182        1181
        1177        1178        1183        1182
        1178        1179        1184        1183
        1180        1181        1186        1185
        1181        1182        1187        1186
        1182        1183        1188        1187
        1183        1184        1189        1188
        1185        1186        1191        1190
        1186        1187        1192        1191
        1187        1188        1193        1192
        1188        1189        1194        1193
        1190        1191        1196        1195
        1191        1192        1197        1196
        1192        1193        1198        1197
        1193        1194        1199        1198
        1200        1201        1206        1205
        1201        1202        1207        1206
        1202        1203        1208        1207
        1203        1204        1209        1208
        1205        1206        1211        1210
        1206        1207        1212        1211
        1207        1208        1213        1212
        1208        1209        1214        1213
        1210        1211        1216        1215
        1211        1212        1217        1216
        1212        1213        1218        1217
        1213        1214        1219        1218
        1215        1216        1221        1220
        1216        1217        1222        1221
        1217        1218        1223        1222
        1218        1219        1224        1223
        1225        1226        1231        1230
        1226        1227        1232        1231
        1227        1228        1233        1232
        1228        1229        1234        1233
        1230        1231        1236        1235
        1231        1232        1237        1236
        1232        1233        1238        1237
        1233        1234        1239        1238
        1235        1236        1241        1240
        1236        1237        1242        1241
        1237        1238        1243        1242
        1238        1239        1244        1243
        1240        1241        1246        1245
        1241        1242        1247        1246
        1242        1243        1248        1247
        1243        1244        1249        1248
        1250        1251        1256        1255
        1251        1252        1257        1256
        1252        1253        1258        1257
        1253        1254        1259        1258
        1255        1256        1261        1260
        1256        1257        1262        1261
        1257        1258        1263        1262
        1258        1259        1264        1263
        1260        1261        1266        1265
        1261        1262        1267        1266
        1262        1263        1268        1267
        1263        1264        1269        1268
        1265        1266        1271        1270
        1266        1267        1272        1271
        1267        1268        1273        1272
        1268        1269        1274        1273
        1275        1276        1281        1280
        1276        1277        1282        1281
        1277        1278        1283        1282
        1278        1279        1284        1283
        1280        1281        1286        1285
        1281        1282        1287        1286
        1282        1283        1288        1287
        1283        1284        1289        1288
        1285        1286        1291        1290
        1286        1287        1292        1291
        1287        1288        1293        1292
        1288        1289        1294        1293
        1290        1291        1296        1295
        1291        1292        1297        1296
        1292        1293        1298        1297
        1293        1294        1299        1298
        1300        1301        1306        1305
        1301        1302        1307        1306
        1302        1303        1308        1307
        1303        1304        1309        1308
        1305        1306        1311        1310
        1306        1307        1312        1311
        1307        1308        1313        1312
        1308        1309        1314        1313
        1310        1311        1316        1315
        1311        1312        1317        1316
        1312        1313        1318        1317
        1313        1314        1319        1318
        1315        1316        1321        1320
        1316        1317        1322        1321
        1317        1318        1323        1322
        1318        1319        1324        1323
        1325        1326        1331        1330
        1326        1327        1332        1331
        1327        1328        1333        1332
        1328        1329        1334        1333
        1330        1331        1336        1335
        1331        1332        1337        1336
        1332        1333        1338        1337
        1333        1334        1339        1338
        1335        1336        1341        1340
        1336        1337        1342        1341
        1337        1338        1343        1342
        1338        1339        1344        1343
        1340        1341        1346        1345
        1341        1342        1347        1346
        1342        1343        1348        1347
        1343        1344        1349        1348
        1350        1351        1356        1355
        1351        1352        1357        1356
        1352        1353        1358        1357
        1353        1354        1359        1358
        1355        1356        1361        1360
        1356        1357        1362        1361
        1357        1358        1363        1362
        1358        1359        1364        1363
        1360        1361        1366        1365
        1361        1362        1367        1366
        1362        1363        1368        1367
        1363        1364        1369        1368
        1365        1366        1371        1370
        1366        1367        1372        1371
        1367        1368        1373        1372
        1368        1369        1374        1373
        1375        1376        1381        1380
        1376        1377        1382        1381
        1377        1378        1383        1382
        1378        1379        1384        1383
        1380        1381        1386        1385
        1381        1382        1387        1386
        1382        1383        1388        1387
        1383        1384        1389        1388
        1385        1386        1391        1390
        1386        1387        1392        1391
        1387        1388        1393        1392
        1388        1389        1394        1393
        1390        1391        1396        1395
        1391        1392        1397        1396
        1392        1393        1398        1397
        1393        1394        1399        1398
        1400        1401        1406        1405
        1401        1402        1407        1406
        1402        1403        1408        1407
        1403        1404        1409        1408
        1405        1406        1411        1410
        1406        1407        1412        1411
        1407        1408        1413        1412
        1408        1409        1414        1413
        1410        1411        1416        1415
        1411        1412        1417        1416
        1412        1413        1418        1417
        1413        1414        1419        1418
        1415        1416        1421        1420
        1416        1417        1422        1421
        1417        1418        1423        1422
        1418        1419        1424        1423
        1425        1426        1431        1430
        1426        1427        1432        1431
        1427        1428        1433        1432
        1428        1429        1434        1433
        1430        1431        1436        1435
        1431        1432        1437        1436
        1432        1433        1438        1437
        1433        1434        1439        1438
        1435        1436        1441        1440
        1436        1437        1442        1441
        1437        1438        1443        1442
        1438        1439        1444        1443
        1440        1441        1446        1445
        1441        1442        1447        1446
        1442        1443        1448        1447
        1443        1444        1449        1448
        1450        1451        1456        1455
        1451        1452        1457        1456
        1452        1453        1458        1457
        1453        1454        1459        1458
        1455        1456        1461        1460
        1456        1457        1462        1461
        1457        1458        1463        1462
        1458        1459        1464        1463
        1460        1461        1466        1465
        1461        1462        1467        1466
        1462        1463        1468        1467
        1463        1464        1469        1468
        1465        1466        1471        1470
        1466        1467        1472        1471
        1467        1468        1473        1472
        1468        1469        1474        1473
        1475        1476        1481        1480
        1476        1477        1482        1481
        1477        1478        1483        1482
        1478        1479        1484        1483
        1480        1481        1486        1485
        1481        1482        1487        1486
        1482        1483        1488        1487
        1483        1484        1489        1488
        1485        1486        1491        1490
        1486        1487        1492        1491
        1487        1488        1493        1492
        1488        1489        1494        1493
        1490        1491        1496        1495
        1491        1492        1497        1496
        1492        1493        1498        1497
        1493        1494        1499        1498
        1500        1501        1506        1505
        1501        1502        1507        1506
        1502        1503        1508        1507
        1503        1504        1509        1508
        1505        1506        1511        1510
        1506        1507        1512        1511
        1507        1508        1513        1512
        1508        1509        1514        1513
        1510        1511        1516        1515
        1511        1512        1517        1516
        1512        1513        1518        1517
        1513        1514        1519        1518
        1515        1516        1521        1520
        1516        1517        1522        1521
        1517        1518        1523        1522
        1518        1519        1524        1523
        1525        1526        1531        1530
        1526        1527        1532        1531
        1527        1528        1533        1532
        1528        1529        1534        1533
        1530        1531        1536        1535
        1531        1532        1537        1536
        1532        1533        1538        1537
        1533        1534        1539        1538
        1535        1536        1541        1540
        1536        1537        1542        1541
        1537        1538        1543        1542
        1538        1539        1544        1543
        1540        1541        1546        1545
        1541        1542        1547        1546
        1542        1543        1548        1547
        1543        1544        1549        1548
        1550        1551        1556        1555
        1551        1552        1557        1556
        1552        1553        1558        1557
        1553        1554        1559        1558
        1555        1556        1561        1560
        1556        1557        1562        1561
        1557        1558        1563        1562
        1558        1559        1564        1563
        1560        1561        1566        1565
        1561        1562        1567        1566
        1562        1563        1568        1567
        1563        1564        1569        1568
        1565        1566        1571        1570
        1566        1567        1572        1571
        1567        1568        1573        1572
        1568        1569        1574        1573
        1575        1576        1581        1580
        1576        1577        1582        1581
        1577        1578        1583        1582
        1578        1579        1584        1583
        1580        1581        1586        1585
        1581        1582        1587        1586
        1582        1583        1588        1587
        1583        1584        1589        1588
        1585        1586        1591        1590
        1586        1587        1592        1591
        1587        1588        1593        1592
        1588        1589        1594        1593
        1590        1591        1596        1595
        1591        1592        1597        1596
        1592        1593        1598        1597
        1593        1594        1599        1598
 </DataArray>
 <DataArray  type="Int32"  Name="offsets"  format="ascii"> 
           4
           8
          12
          16
          20
          24
          28
          32
          36
          40
          44
          48
          52
          56
          60
          64
          68
          72
          76
          80
          84
          88
          92
          96
         100
         104
         108
         112
         116
         120
         124
         128
         132
         136
         140
         144
         148
         152
         156
         160
         164
         168
         172
         176
         180
         184
         188
         192
         196
         200
         204
         208
         212
         216
         220
         224
         228
         232
         236
         240
         244
         248
         252
         256
         260
         264
         268
         272
         276
         280
         284
         288
         292
         296
         300
         304
         308
         312
         316
         320
         324
         328
         332
         336
         340
         344
         348
         352
         356
         360
         364
         368
         372
         376
         380
         384
         388
         392
         396
         400
         404
         408
         412
         416
         420
         424
         428
         432
         436
         440
         444
         448
         452
         456
         460
         464
         468
         472
         476
         480
         484
         488
         492
         496
         500
         504
         508
         512
         516
         520
         524
         528
         532
         536
         540
         544
         548
         552
         556
         560
         564
         568
         572
         576
         580
         584
         588
         592
         596
         600
         604
         608
         612
         616
         620
         624
         628
         632
         636
         640
         644
         648
         652
         656
         660
         664
         668
         672
         676
         680
         684
         688
         692
         696
         700
         704
         708
         712
         716
         720
         724
         728
         732
         736
         740
         744
         748
         752
         756
         760
         764
         768
         772
         776
         780
         784
         788
         792
         796
         800
         804
         808
         812
         816
         820
         824
         828
         832
         836
         840
         844
         848
         852
         856
         860
         864
         868
         872
         876
         880
         884
         888
         892
         896
         900
         904
         908
         912
         916
         920
         924
         928
         932
         936
         940
         944
         948
         952
         956
         960
         964
         968
         972
         976
         980
         984
         988
         992
         996
        1000
        1004
        1008
        1012
        1016
        1020
        1024
        1028
        1032
        1036
        1040
        1044
        1048
        1052
        1056
        1060
        1064
        1068
        1072
        1076
        1080
        1084
        1088
        1092
        1096
        1100
        1104
        1108
        1112
        1116
        1120
        1124
        1128
        1132
        1136
        1140
        1144
        1148
        1152
        1156
        1160
        1164
        1168
        1172
        1176
        1180
        1184
        1188
        1192
        1196
        1200
        1204
        1208
        1212
        1216
        1220
        1224
        1228
        1232
        1236
        1240
        1244
        1248
        1252
        1256
        1260
        1264
        1268
        1272
        1276
        1280
        1284
        1288
        1292
        1296
        1300
        1304
        1308
        1312
        1316
        1320
        1324
        1328
        1332
        1336
        1340
        1344
        1348
        1352
        1356
        1360
        1364
        1368
        1372
        1376
        1380
        1384
        1388
        1392
        1396
        1400
        1404
        1408
        1412
        1416
        1420
        1424
        1428
        1432
        1436
        1440
        1444
        1448
        1452
        1456
        1460
        1464
        1468
        1472
        1476
        1480
        1484
        1488
        1492
        1496
        1500
        1504
        1508
        1512
        1516
        1520
        1524
        1528
        1532
        1536
        1540
        1544
        1548
        1552
        1556
        1560
        1564
        1568
        1572
        1576
        1580
        1584
        1588
        1592
        1596
        1600
        1604
        1608
        1612
        1616
        1620
        1624
        1628
        1632
        1636
        1640
        1644
        1648
        1652
        1656
        1660
        1664
        1668
        1672
        1676
        1680
        1684
        1688
        1692
        1696
        1700
        1704
        1708
        1712
        1716
        1720
        1724
        1728
        1732
        1736
        1740
        1744
        1748
        1752
        1756
        1760
        1764
        1768
        1772
        1776
        1780
        1784
        1788
        1792
        1796
        1800
        1804
        1808
        1812
        1816
        1820
        1824
        1828
        1832
        1836
        1840
        1844
        1848
        1852
        1856
        1860
        1864
        1868
        1872
        1876
        1880
        1884
        1888
        1892
        1896
        1900
        1904
        1908
        1912
        1916
        1920
        1924
        1928
        1932
        1936
        1940
        1944
        1948
        1952
        1956
        1960
        1964
        1968
        1972
        1976
        1980
        1984
        1988
        1992
        1996
        2000
        2004
        2008
        2012
        2016
        2020
        2024
        2028
        2032
        2036
        2040
        2044
        2048
        2052
        2056
        2060
        2064
        2068
        2072
        2076
        2080
        2084
        2088
        2092
        2096
        2100
        2104
        2108
        2112
        2116
        2120
        2124
        2128
        2132
        2136
        2140
        2144
        2148
        2152
        2156
        2160
        2164
        2168
        2172
        2176
        2180
        2184
        2188
        2192
        2196
        2200
        2204
        2208
        2212
        2216
        2220
        2224
        2228
        2232
        2236
        2240
        2244
        2248
        2252
        2256
        2260
        2264
        2268
        2272
        2276
        2280
        2284
        2288
        2292
        2296
        2300
        2304
        2308
        2312
        2316
        2320
        2324
        2328
        2332
        2336
        2340
        2344
        2348
        2352
        2356
        2360
        2364
        2368
        2372
        2376
        2380
        2384
        2388
        2392
        2396
        2400
        2404
        2408
        2412
        2416
        2420
        2424
        2428
        2432
        2436
        2440
        2444
        2448
        2452
        2456
        2460
        2464
        2468
        2472
        2476
        2480
        2484
        2488
        2492
        2496
        2500
        2504
        2508
        2512
        2516
        2520
        2524
        2528
        2532
        2536
        2540
        2544
        2548
        2552
        2556
        2560
        2564
        2568
        2572
        2576
        2580
        2584
        2588
        2592
        2596
        2600
        2604
        2608
        2612
        2616
        2620
        2624
        2628
        2632
        2636
        2640
        2644
        2648
        2652
        2656
        2660
        2664
        2668
        2672
        2676
        2680
        2684
        2688
        2692
        2696
        2700
        2704
        2708
        2712
        2716
        2720
        2724
        2728
        2732
        2736
        2740
        2744
        2748
        2752
        2756
        2760
        2764
        2768
        2772
        2776
        2780
        2784
        2788
        2792
        2796
        2800
        2804
        2808
        2812
        2816
        2820
        2824
        2828
        2832
        2836
        2840
        2844
        2848
        2852
        2856
        2860
        2864
        2868
        2872
        2876
        2880
        2884
        2888
        2892
        2896
        2900
        2904
        2908
        2912
        2916
        2920
        2924
        2928
        2932
        2936
        2940
        2944
        2948
        2952
        2956
        2960
        2964
        2968
        2972
        2976
        2980
        2984
        2988
        2992
        2996
        3000
        3004
        3008
        3012
        3016
        3020
        3024
        3028
        3032
        3036
        3040
        3044
        3048
        3052
        3056
        3060
        3064
        3068
        3072
        3076
        3080
        3084
        3088
        3092
        3096
        3100
        3104
        3108
        3112
        3116
        3120
        3124
        3128
        3132
        3136
        3140
        3144
        3148
        3152
        3156
        3160
        3164
        3168
        3172
        3176
        3180
        3184
        3188
        3192
        3196
        3200
        3204
        3208
        3212
        3216
        3220
        3224
        3228
        3232
        3236
        3240
        3244
        3248
        3252
        3256
        3260
        3264
        3268
        3272
        3276
        3280
        3284
        3288
        3292
        3296
        3300
        3304
        3308
        3312
        3316
        3320
        3324
        3328
        3332
        3336
        3340
        3344
        3348
        3352
        3356
        3360
        3364
        3368
        3372
        3376
        3380
        3384
        3388
        3392
        3396
        3400
        3404
        3408
        3412
        3416
        3420
        3424
        3428
        3432
        3436
        3440
        3444
        3448
        3452
        3456
        3460
        3464
        3468
        3472
        3476
        3480
        3484
        3488
        3492
        3496
        3500
        3504
        3508
        3512
        3516
        3520
        3524
        3528
        3532
        3536
        3540
        3544
        3548
        3552
        3556
        3560
        3564
        3568
        3572
        3576
        3580
        3584
        3588
        3592
        3596
        3600
        3604
        3608
        3612
        3616
        3620
        3624
        3628
        3632
        3636
        3640
        3644
        3648
        3652
        3656
        3660
        3664
        3668
        3672
        3676
        3680
        3684
        3688
        3692
        3696
        3700
        3704
        3708
        3712
        3716
        3720
        3724
        3728
        3732
        3736
        3740
        3744
        3748
        3752
        3756
        3760
        3764
        3768
        3772
        3776
        3780
        3784
        3788
        3792
        3796
        3800
        3804
        3808
        3812
        3816
        3820
        3824
        3828
        3832
        3836
        3840
        3844
        3848
        3852
        3856
        3860
        3864
        3868
        3872
        3876
        3880
        3884
        3888
        3892
        3896
        3900
        3904
        3908
        3912
        3916
        3920
        3924
        3928
        3932
        3936
        3940
        3944
        3948
        3952
        3956
        3960
        3964
        3968
        3972
        3976
        3980
        3984
        3988
        3992
        3996
        4000
        4004
        4008
        4012
        4016
        4020
        4024
        4028
        4032
        4036
        4040
        4044
        4048
        4052
        4056
        4060
        4064
        4068
        4072
        4076
        4080
        4084
        4088
        4092
        4096
 </DataArray>
 <DataArray  type="UInt8"  Name="types"  format="ascii">
 9
 9
 9
 9
 9
 9
 9
 9
 9
 9
 9
 9
 9
 9
 9
 9
 9
 9
 9
 9
 9
 9
 9
 9
 9
 9
 9
 9
 9
 9
 9
 9
 9
 9
 9
 9
 9
 9
 9
 9
 9
 9
 9
 9
 9
 9
 9
 9
 9
 9
 9
 9
 9
 9
 9
 9
 9
 9
 9
 9
 9
 9
 9
 9
 9
 9
 9
 9
 9
 9
 9
 9
 9
 9
 9
 9
 9
 9
 9
 9
 9
 9
 9
 9
 9
 9
 9
 9
 9
 9
 9
 9
 9
 9
 9
 9
 9
 9
 9
 9
 9
 9
 9
 9
 9
 9
 9
 9
 9
 9
 9
 9
 9
 9
 9
 9
 9
 9
 9
 9
 9
 9
 9
 9
 9
 9
 9
 9
 9
 9
 9
 9
 9
 9
 9
 9
 9
 9
 9
 9
 9
 9
 9
 9
 9
 9
 9
 9
 9
 9
 9
 9
 9
 9
 9
 9
 9
 9
 9
 9
 9
 9
 9
 9
 9
 9
 9
 9
 9
 9
 9
 9
 9
 9
 9
 9
 9
 9
 9
 9
 9
 9
 9
 9
 9
 9
 9
 9
 9
 9
 9
 9
 9
 9
 9
 9
 9
 9
 9
 9
 9
 9
 9
 9
 9
 9
 9
 9
 9
 9
 9
 9
 9
 9
 9
 9
 9
 9
 9
 9
 9
 9
 9
 9
 9
 9
 9
 9
 9
 9
 9
 9
 9
 9
 9
 9
 9
 9
 9
 9
 9
 9
 9
 9
 9
 9
 9
 9
 9
 9
 9
 9
 9
 9
 9
 9
 9
 9
 9
 9
 9
 9
 9
 9
 9
 9
 9
 9
 9
 9
 9
 9
 9
 9
 9
 9
 9
 9
 9
 9
 9
 9
 9
 9
 9
 9
 9
 9
 9
 9
 9
 9
 9
 9
 9
 9
 9
 9
 9
 9
 9
 9
 9
 9
 9
 9
 9
 9
 9
 9
 9
 9
 9
 9
 9
 9
 9
 9
 9
 9
 9
 9
 9
 9
 9
 9
 9
 9
 9
 9
 9
 9
 9
 9
 9
 9
 9
 9
 9
 9
 9
 9
 9
 9
 9
 9
 9
 9
 9
 9
 9
 9
 9
 9
 9
 9
 9
 9
 9
 9
 9
 9
 9
 9
 9
 9
 9
 9
 9
 9
 9
 9
 9
 9
 9
 9
 9
 9
 9
 9
 9
 9
 9
 9
 9
 9
 9
 9
 9
 9
 9
 9
 9
 9
 9
 9
 9
 9
 9
 9
 9
 9
 9
 9
 9
 9
 9
 9
 9
 9
 9
 9
 9
 9
 9
 9
 9
 9
 9
 9
 9
 9
 9
 9
 9
 9
 9
 9
 9
 9
 9
 9
 9
 9
 9
 9
 9
 9
 9
 9
 9
 9
 9
 9
 9
 9
 9
 9
 9
 9
 9
 9
 9
 9
 9
 9
 9
 9
 9
 9
 9
 9
 9
 9
 9
 9
 9
 9
 9
 9
 9
 9
 9
 9
 9
 9
 9
 9
 9
 9
 9
 9
 9
 9
 9
 9
 9
 9
 9
 9
 9
 9
 9
 9
 9
 9
 9
 9
 9
 9
 9
 9
 9
 9
 9
 9
 9
 9
 9
 9
 9
 9
 9
 9
 9
 9
 9
 9
 9
 9
 9
 9
 9
 9
 9
 9
 9
 9
 9
 9
 9
 9
 9
 9
 9
 9
 9
 9
 9
 9
 9
 9
 9
 9
 9
 9
 9
 9
 9
 9
 9
 9
 9
 9
 9
 9
 9
 9
 9
 9
 9
 9
 9
 9
 9
 9
 9
 9
 9
 9
 9
 9
 9
 9
 9
 9
 9
 9
 9
 9
 9
 9
 9
 9
 9
 9
 9
 9
 9
 9
 9
 9
 9
 9
 9
 9
 9
 9
 9
 9
 9
 9
 9
 9
 9
 9
 9
 9
 9
 9
 9
 9
 9
 9
 9
 9
 9
 9
 9
 9
 9
 9
 9
 9
 9
 9
 9
 9
 9
 9
 9
 9
 9
 9
 9
 9
 9
 9
 9
 9
 9
 9
 9
 9
 9
 9
 9
 9
 9
 9
 9
 9
 9
 9
 9
 9
 9
 9
 9
 9
 9
 9
 9
 9
 9
 9
 9
 9
 9
 9
 9
 9
 9
 9
 9
 9
 9
 9
 9
 9
 9
 9
 9
 9
 9
 9
 9
 9
 9
 9
 9
 9
 9
 9
 9
 9
 9
 9
 9
 9
 9
 9
 9
 9
 9
 9
 9
 9
 9
 9
 9
 9
 9
 9
 9
 9
 9
 9
 9
 9
 9
 9
 9
 9
 9
 9
 9
 9
 9
 9
 9
 9
 9
 9
 9
 9
 9
 9
 9
 9
 9
 9
 9
 9
 9
 9
 9
 9
 9
 9
 9
 9
 9
 9
 9
 9
 9
 9
 9
 9
 9
 9
 9
 9
 9
 9
 9
 9
 9
 9
 9
 9
 9
 9
 9
 9
 9
 9
 9
 9
 9
 9
 9
 9
 9
 9
 9
 9
 9
 9
 9
 9
 9
 9
 9
 9
 9
 9
 9
 9
 9
 9
 9
 9
 9
 9
 9
 9
 9
 9
 9
 9
 9
 9
 9
 9
 9
 9
 9
 9
 9
 9
 9
 9
 9
 9
 9
 9
 9
 9
 9
 9
 9
 9
 9
 9
 9
 9
 9
 9
 9
 9
 9
 9
 9
 9
 9
 9
 9
 9
 9
 9
 9
 9
 9
 9
 9
 9
 9
 9
 9
 9
 9
 9
 9
 9
 9
 9
 9
 9
 9
 9
 9
 9
 9
 9
 9
 9
 9
 9
 9
 9
 9
 9
 9
 9
 9
 9
 9
 9
 9
 9
 9
 9
 9
 9
 9
 9
 9
 9
 9
 9
 9
 9
 9
 9
 9
 9
 9
 9
 9
 9
 9
 9
 9
 9
 9
 9
 9
 9
 9
 9
 9
 9
 9
 9
 9
 9
 9
 9
 9
 9
 9
 9
 9
 9
 9
 9
 9
 9
 9
 9
 9
 9
 9
 9
 9
 9
 9
 9
 9
 9
 9
 9
 9
 9
 9
 9
 9
 9
 9
 9
 9
 9
 9
 9
 9
 9
 9
 9
 9
 9
 9
 9
 9
 9
 9
 9
 9
 9
 9
 9
 9
 9
 9
 9
 9
 9
 9
 9
 9
 9
 9
 9
 9
 9
 9
 9
 9
 9
 9
 9
 9
 9
 9
 9
 9
 9
 9
 9
 9
 9
 9
 9
 9
 9
 9
 9
 9
 9
 9
 9
 9
 9
 </DataArray>
 </Cells> 
 <PointData>
 <DataArray  type="Float64" Name="disp" NumberOfComponents="3" format="ascii">
   6.8754487397743147E-002   6.0086326327119591E-002   0.0000000000000000     
   7.0798667999083950E-002   6.6628672710561804E-002   0.0000000000000000     
   7.2976396132721444E-002   7.3033806776921659E-002   0.0000000000000000     
   7.5287671798655642E-002   7.9301728526199183E-002   0.0000000000000000     
   7.7732494996886517E-002   8.5432437958394364E-002   0.0000000000000000     
   6.1392073227238789E-002   5.9930417337046141E-002   0.0000000000000000     
   6.3828732281093203E-002   6.6179263963344337E-002   0.0000000000000000     
   6.6289102697110872E-002   7.2382704569957546E-002   0.0000000000000000     
   6.8773184475291793E-002   7.8540739156885822E-002   0.0000000000000000     
   7.1280977615635982E-002   8.4653367724129125E-002   0.0000000000000000     
   5.5020486673147156E-002   5.9792114324510856E-002   0.0000000000000000     
   5.7635369687704052E-002   6.5766736959859282E-002   0.0000000000000000     
   6.0207046011774373E-002   7.1780652353892402E-002   0.0000000000000000     
   6.2735515645358120E-002   7.7833860506610189E-002   0.0000000000000000     
   6.5220778588455319E-002   8.3926361418012671E-002   0.0000000000000000     
   4.9639727735468271E-002   5.9671417289513723E-002   0.0000000000000000     
   5.2218580218916490E-002   6.5391091700106665E-002   0.0000000000000000     
   5.4730226076711949E-002   7.1227650128726200E-002   0.0000000000000000     
   5.7174665308854636E-002   7.7181092575372326E-002   0.0000000000000000     
   5.9551897915344543E-002   8.3251419040045044E-002   0.0000000000000000     
   4.5249796414202112E-002   5.9568326232054755E-002   0.0000000000000000     
   4.7578363874730543E-002   6.5052328184086489E-002   0.0000000000000000     
   4.9858642891923606E-002   7.0723697894458981E-002   0.0000000000000000     
   5.2090633465781307E-002   7.6582435363172205E-002   0.0000000000000000     
   5.4274335596303659E-002   8.2628540590226202E-002   0.0000000000000000     
   7.7732494996886517E-002   8.5432437958394364E-002   0.0000000000000000     
   8.0217254750027223E-002   9.1563886624024857E-002   0.0000000000000000     
   8.2648340080690913E-002   9.7834026073608346E-002   0.0000000000000000     
   8.5025750988877533E-002  0.10424285630714479        0.0000000000000000     
   8.7349487474587137E-002  0.11079037732463426        0.0000000000000000     
   7.1280977615635982E-002   8.4653367724129125E-002   0.0000000000000000     
   7.3757602756699472E-002   9.0812279117438693E-002   0.0000000000000000     
   7.6148180537038312E-002   9.7109162182565795E-002   0.0000000000000000     
   7.8452710956652488E-002  0.10354401691951041        0.0000000000000000     
   8.0671194015542028E-002  0.11011684332827255        0.0000000000000000     
   6.5220778588455319E-002   8.3926361418012671E-002   0.0000000000000000     
   6.7632273834371190E-002   9.0107977587572441E-002   0.0000000000000000     
   6.9939440376410936E-002   9.6428531514762120E-002   0.0000000000000000     
   7.2142278214574584E-002  0.10288802319958171        0.0000000000000000     
   7.4240787348862136E-002  0.10948645264203120        0.0000000000000000     
   5.9551897915344543E-002   8.3251419040045044E-002   0.0000000000000000     
   6.1841267983042382E-002   8.9450982034426099E-002   0.0000000000000000     
   6.4022119598808810E-002   9.5792134070197321E-002   0.0000000000000000     
   6.6094452762643821E-002  0.10227487514735868        0.0000000000000000     
   6.8058267474547449E-002  0.10889920526591018        0.0000000000000000     
   5.4274335596303659E-002   8.2628540590226202E-002   0.0000000000000000     
   5.6384585202713049E-002   8.8841292457999682E-002   0.0000000000000000     
   5.8396218204231895E-002   9.5199969848871385E-002   0.0000000000000000     
   6.0309234600860191E-002  0.10170457276284131        0.0000000000000000     
   6.2123634392597937E-002  0.10835510119990949        0.0000000000000000     
   8.7349487474587137E-002  0.11079037732463426        0.0000000000000000     
   8.9604047782389271E-002  0.11747783450073193        0.0000000000000000     
   9.1773930156853561E-002  0.12430647321009303        0.0000000000000000     
   9.3859134597979968E-002  0.13127629345271760        0.0000000000000000     
   9.5859661105768518E-002  0.13838729522860560        0.0000000000000000     
   8.0671194015542028E-002  0.11011684332827255        0.0000000000000000     
   8.2805060804558878E-002  0.11682944892357139        0.0000000000000000     
   8.4855742414555013E-002  0.12368364122012609        0.0000000000000000     
   8.6823238845530407E-002  0.13067942021793666        0.0000000000000000     
   8.8707550097485086E-002  0.13781678591700308        0.0000000000000000     
   7.4240787348862136E-002  0.10948645264203120        0.0000000000000000     
   7.6246748308280876E-002  0.11622496845866083        0.0000000000000000     
   7.8171941621838131E-002  0.12310471926602083        0.0000000000000000     
   8.0016367289533888E-002  0.13012570506411122        0.0000000000000000     
   8.1780025311368160E-002  0.13728792585293195        0.0000000000000000     
   6.8058267474547449E-002  0.10889920526591018        0.0000000000000000     
   6.9929110293555266E-002  0.11566439310600019        0.0000000000000000     
   7.1722527778702902E-002  0.12256970734777724        0.0000000000000000     
   7.3438519929990398E-002  0.12961514799124119        0.0000000000000000     
   7.5077086747417712E-002  0.13680071503639216        0.0000000000000000     
   6.2123634392597937E-002  0.10835510119990949        0.0000000000000000     
   6.3852146760382034E-002  0.11514772286558958        0.0000000000000000     
   6.5507500885149367E-002  0.12207860546539530        0.0000000000000000     
   6.7089696766899937E-002  0.12914774899932668        0.0000000000000000     
   6.8598734405633743E-002  0.13635515346738375        0.0000000000000000     
   9.5859661105768518E-002  0.13838729522860560        0.0000000000000000     
   9.7769486202590752E-002  0.14562596874570113        0.0000000000000000     
   9.9582586410818213E-002  0.15297880421194826        0.0000000000000000     
  0.10129896173045096       0.16044580162734698        0.0000000000000000     
  0.10291861216148893       0.16802696099189729        0.0000000000000000     
   8.8707550097485086E-002  0.13781678591700308        0.0000000000000000     
   9.0506046036434126E-002  0.14508193821050258        0.0000000000000000     
   9.2216096528392549E-002  0.15246107699161232        0.0000000000000000     
   9.3837701573360383E-002  0.15995420226033227        0.0000000000000000     
   9.5370861171337640E-002  0.16756131401666252        0.0000000000000000     
   8.1780025311368160E-002  0.13728792585293195        0.0000000000000000     
   8.3462587059663654E-002  0.14457773552330211        0.0000000000000000     
   8.5063723906743077E-002  0.15198148796604072        0.0000000000000000     
   8.6583435852606472E-002  0.15949918318114786        0.0000000000000000     
   8.8021722897253796E-002  0.16713082116862346        0.0000000000000000     
   7.5077086747417712E-002  0.13680071503639216        0.0000000000000000     
   7.6639109272279335E-002  0.14411336068409972        0.0000000000000000     
   7.8125468545869825E-002  0.15154003713523359        0.0000000000000000     
   7.9536164568189197E-002  0.15908074438979372        0.0000000000000000     
   8.0871197339237366E-002  0.16673548244778019        0.0000000000000000     
   6.8598734405633743E-002  0.13635515346738375        0.0000000000000000     
   7.0035612674281211E-002  0.14368881369289543        0.0000000000000000     
   7.1401330445772820E-002  0.15113672449919083        0.0000000000000000     
   7.2695887720108543E-002  0.15869888588626990        0.0000000000000000     
   7.3919284497288379E-002  0.16637529785413263        0.0000000000000000     
  0.10291861216148893       0.16802696099189729        0.0000000000000000     
  0.10444871123428161       0.17570764680548351        0.0000000000000000     
  0.10589643247917843       0.18347322356798992        0.0000000000000000     
  0.10726177589617941       0.19132369127941659        0.0000000000000000     
  0.10854474148528453       0.19925904993976351        0.0000000000000000     
   9.5370861171337640E-002  0.16756131401666252        0.0000000000000000     
   9.6817590808213699E-002  0.17526810544301002        0.0000000000000000     
   9.8179905969877967E-002  0.18306026972178177        0.0000000000000000     
   9.9457806656330430E-002  0.19093780685297784        0.0000000000000000     
  0.10065129286757109       0.19890071683659821        0.0000000000000000     
   8.8021722897253796E-002  0.16713082116862346        0.0000000000000000     
   8.9377159500277498E-002  0.17486235799943226        0.0000000000000000     
   9.0648320121269985E-002  0.18267974974453891        0.0000000000000000     
   9.1835204760231312E-002  0.19058299640394349        0.0000000000000000     
   9.2937813417161397E-002  0.19857209797764591        0.0000000000000000     
   8.0871197339237366E-002  0.16673548244778019        0.0000000000000000     
   8.2127417310472961E-002  0.17449040447475025        0.0000000000000000     
   8.3301674933354497E-002  0.18233166363626133        0.0000000000000000     
   8.4393970207882016E-002  0.19025925993231352        0.0000000000000000     
   8.5404303134055476E-002  0.19827319336290664        0.0000000000000000     
   7.3919284497288379E-002  0.16637529785413263        0.0000000000000000     
   7.5068364238800117E-002  0.17415224486896402        0.0000000000000000     
   7.6139970406131519E-002  0.18201601139694915        0.0000000000000000     
   7.7134102999282569E-002  0.18996659743808791        0.0000000000000000     
   7.8050762018253297E-002  0.19800400299238036        0.0000000000000000     
  0.10854474148528453       0.19925904993976351        0.0000000000000000     
  0.10974942608633501       0.20727820931810231        0.0000000000000000     
  0.11087992653917199       0.21538007918350488        0.0000000000000000     
  0.11193624284379550       0.22356465953597107        0.0000000000000000     
  0.11291837500020552       0.23183195037550097        0.0000000000000000     
  0.10065129286757109       0.19890071683659821        0.0000000000000000     
  0.10176634263230591       0.20694553580100311        0.0000000000000000     
  0.10280893397924093       0.21506879987455296        0.0000000000000000     
  0.10377906690837610       0.22327050905724757        0.0000000000000000     
  0.10467674141971139       0.23155066334908703        0.0000000000000000     
   9.2937813417161397E-002  0.19857209797764591        0.0000000000000000     
   9.3962399123692475E-002  0.20664203254677146        0.0000000000000000     
   9.4915214911456672E-002  0.21478777819244535        0.0000000000000000     
   9.5796260780454001E-002  0.22300933491466748        0.0000000000000000     
   9.6605536730684463E-002  0.23130670271343798        0.0000000000000000     
   8.5404303134055476E-002  0.19827319336290664        0.0000000000000000     
   8.6337595560494640E-002  0.20636769955540735        0.0000000000000000     
   8.7198769335819201E-002  0.21453701413718210        0.0000000000000000     
   8.7987824460029215E-002  0.22278113710823097        0.0000000000000000     
   8.8704760933124654E-002  0.23110006846855385        0.0000000000000000     
   7.8050762018253297E-002  0.19800400299238036        0.0000000000000000     
   7.8891931942712379E-002  0.20612253682691070        0.0000000000000000     
   7.9659597252328504E-002  0.21431650770876320        0.0000000000000000     
   8.0353757947101728E-002  0.22258591563793789        0.0000000000000000     
   8.0974414027031982E-002  0.23093076061443468        0.0000000000000000     
  0.11291837500020552       0.23183195037550097        0.0000000000000000     
  0.11385376556275717       0.24019795343130329        0.0000000000000000     
  0.11476985708580563       0.24867867043258673        0.0000000000000000     
  0.11566664956935088       0.25727410137935142        0.0000000000000000     
  0.11654414301339290       0.26598424627159717        0.0000000000000000     
  0.10467674141971139       0.23155066334908703        0.0000000000000000     
  0.10550654418526437       0.23993224280714681        0.0000000000000000     
  0.10627306187705245       0.24843822748850233        0.0000000000000000     
  0.10697629449507563       0.25706861739315356        0.0000000000000000     
  0.10761624203933393       0.26582341252110064        0.0000000000000000     
   9.6605536730684463E-002  0.23130670271343798        0.0000000000000000     
   9.7333686492770383E-002  0.23970594763914857        0.0000000000000000     
   9.7971353797334099E-002  0.24823313574219083        0.0000000000000000     
   9.8518538644375583E-002  0.25688826702256501        0.0000000000000000     
   9.8975241033894878E-002  0.26567134148027105        0.0000000000000000     
   8.8704760933124654E-002  0.23110006846855385        0.0000000000000000     
   8.9335192485275203E-002  0.23951906792730854        0.0000000000000000     
   8.9864732846650572E-002  0.24806339519365245        0.0000000000000000     
   9.0293382017250734E-002  0.25673305026758575        0.0000000000000000     
   9.0621139997075689E-002  0.26552803314910833        0.0000000000000000     
   8.0974414027031982E-002  0.23093076061443468        0.0000000000000000     
   8.1511062162778841E-002  0.23937160367162671        0.0000000000000000     
   8.1953199025001880E-002  0.24792900584288705        0.0000000000000000     
   8.2300824613701071E-002  0.25660296712821562        0.0000000000000000     
   8.2553938928876400E-002  0.26539348752761255        0.0000000000000000     
  0.11654414301339290       0.26598424627159717        0.0000000000000000     
  0.11734288600794193       0.27497381484717404        0.0000000000000000     
  0.11800342714300822       0.28440751684393190        0.0000000000000000     
  0.11852576641859175       0.29428535226187069        0.0000000000000000     
  0.11890990383469252       0.30460732110099042        0.0000000000000000     
  0.10761624203933393       0.26582341252110064        0.0000000000000000     
  0.10817402826742784       0.27483481880667088        0.0000000000000000     
  0.10863077693695779       0.28423504218419154        0.0000000000000000     
  0.10898648804792377       0.29402408265366281        0.0000000000000000     
  0.10924116160032582       0.30420194021508462        0.0000000000000000     
   9.8975241033894878E-002  0.26567134148027105        0.0000000000000000     
   9.9352515663996263E-002  0.27468067251301193        0.0000000000000000     
   9.9661417232784030E-002  0.28401457351849102        0.0000000000000000     
   9.9901945740258222E-002  0.29367304449670817        0.0000000000000000     
  0.10007410118641881       0.30365608544766343        0.0000000000000000     
   9.0621139997075689E-002  0.26552803314910833        0.0000000000000000     
   9.0878348197647188E-002  0.27451137596619746        0.0000000000000000     
   9.1095348030487022E-002  0.28374611084683021        0.0000000000000000     
   9.1272139495595137E-002  0.29323223779100654        0.0000000000000000     
   9.1408722592971517E-002  0.30296975679872667        0.0000000000000000     
   8.2553938928876400E-002  0.26539348752761255        0.0000000000000000     
   8.2751525868380693E-002  0.27432692916622720        0.0000000000000000     
   8.2932569330066708E-002  0.28342965416920907        0.0000000000000000     
   8.3097069313934444E-002  0.29270166253655822        0.0000000000000000     
   8.3245025819983914E-002  0.30214295426827453        0.0000000000000000     
   4.5249796414202112E-002   5.9568326232054755E-002   0.0000000000000000     
   4.7578363874730543E-002   6.5052328184086489E-002   0.0000000000000000     
   4.9858642891923606E-002   7.0723697894458981E-002   0.0000000000000000     
   5.2090633465781307E-002   7.6582435363172205E-002   0.0000000000000000     
   5.4274335596303659E-002   8.2628540590226202E-002   0.0000000000000000     
   4.1334739587546243E-002   5.9406720211811294E-002   0.0000000000000000     
   4.3338032563666834E-002   6.4704209819227629E-002   0.0000000000000000     
   4.5325607712536853E-002   7.0244781516278387E-002   0.0000000000000000     
   4.7297465034156307E-002   7.6028435302963521E-002   0.0000000000000000     
   4.9253604528525181E-002   8.2055171179283071E-002   0.0000000000000000     
   3.7378604133698222E-002   5.9110478288460652E-002   0.0000000000000000     
   3.9120898194246023E-002   6.4300500012958964E-002   0.0000000000000000     
   4.0864431793679205E-002   6.9766886859372046E-002   0.0000000000000000     
   4.2609204931997761E-002   7.5509638827699899E-002   0.0000000000000000     
   4.4355217609201691E-002   8.1528755917942522E-002   0.0000000000000000     
   3.3381390052658035E-002   5.8679600462002858E-002   0.0000000000000000     
   3.4926960766468125E-002   6.3841198765280507E-002   0.0000000000000000     
   3.6475115135350664E-002   6.9290013923740013E-002   0.0000000000000000     
   3.8025853159305671E-002   7.5026045937381353E-002   0.0000000000000000     
   3.9579174838333148E-002   8.1049294806204555E-002   0.0000000000000000     
   2.9343097344425695E-002   5.8114086732437897E-002   0.0000000000000000     
   3.0756220280333108E-002   6.3326306076192246E-002   0.0000000000000000     
   3.2157657737551221E-002   6.8814162709382259E-002   0.0000000000000000     
   3.3547409716080050E-002   7.4577656632007883E-002   0.0000000000000000     
   3.4925476215919578E-002   8.0616787844069171E-002   0.0000000000000000     
   5.4274335596303659E-002   8.2628540590226202E-002   0.0000000000000000     
   5.6384585202713049E-002   8.8841292457999682E-002   0.0000000000000000     
   5.8396218204231895E-002   9.5199969848871385E-002   0.0000000000000000     
   6.0309234600860191E-002  0.10170457276284131        0.0000000000000000     
   6.2123634392597937E-002  0.10835510119990949        0.0000000000000000     
   4.9253604528525181E-002   8.2055171179283071E-002   0.0000000000000000     
   5.1160375750173855E-002   8.8278790072346972E-002   0.0000000000000000     
   5.2984128253632669E-002   9.4653092909265157E-002   0.0000000000000000     
   5.4724862038901645E-002  0.10117807969003760        0.0000000000000000     
   5.6382577105980755E-002  0.10785375041466433        0.0000000000000000     
   4.4355217609201691E-002   8.1528755917942522E-002   0.0000000000000000     
   4.6066789882215471E-002   8.7763356091521735E-002   0.0000000000000000     
   4.7708241807963625E-002   9.4152557309859372E-002   0.0000000000000000     
   4.9279573386446132E-002  0.10069635957295546        0.0000000000000000     
   5.0780784617663013E-002  0.10739476288080994        0.0000000000000000     
   3.9579174838333148E-002   8.1049294806204555E-002   0.0000000000000000     
   4.1103827598837905E-002   8.7294990515524015E-002   0.0000000000000000     
   4.2568558867224743E-002   9.3698363050654113E-002   0.0000000000000000     
   4.3973368643493681E-002  0.10025941241159490        0.0000000000000000     
   4.5318256927644691E-002  0.10697813859834633        0.0000000000000000     
   3.4925476215919578E-002   8.0616787844069171E-002   0.0000000000000000     
   3.6271488900041136E-002   8.6873693344353770E-002   0.0000000000000000     
   3.7565079431416022E-002   9.3290510131649337E-002   0.0000000000000000     
   3.8806247810044256E-002   9.9867238205955902E-002   0.0000000000000000     
   3.9994994035925817E-002  0.10660387756727346        0.0000000000000000     
   6.2123634392597937E-002  0.10835510119990949        0.0000000000000000     
   6.3852146760382034E-002  0.11514772286558958        0.0000000000000000     
   6.5507500885149367E-002  0.12207860546539530        0.0000000000000000     
   6.7089696766899937E-002  0.12914774899932668        0.0000000000000000     
   6.8598734405633743E-002  0.13635515346738375        0.0000000000000000     
   5.6382577105980755E-002  0.10785375041466433        0.0000000000000000     
   5.7964699397524522E-002  0.11467294362526019        0.0000000000000000     
   5.9478654856187439E-002  0.12162849786394006        0.0000000000000000     
   6.0924443481969508E-002  0.12872041313070393        0.0000000000000000     
   6.2302065274870727E-002  0.13594868942555180        0.0000000000000000     
   5.0780784617663013E-002  0.10739476288080994        0.0000000000000000     
   5.2215609893746052E-002  0.11423804127284343        0.0000000000000000     
   5.3587783606827102E-002  0.12121646878847654        0.0000000000000000     
   5.4897305756906142E-002  0.12833004542770918        0.0000000000000000     
   5.6144176343983179E-002  0.13557877119054143        0.0000000000000000     
   4.5318256927644691E-002  0.10697813859834633        0.0000000000000000     
   4.6604878249046647E-002  0.11384301580833930        0.0000000000000000     
   4.7834887137068356E-002  0.12084251823900467        0.0000000000000000     
   4.9008283591709827E-002  0.12797664589034244        0.0000000000000000     
   5.0125067612971058E-002  0.13524539876235264        0.0000000000000000     
   3.9994994035925817E-002  0.10660387756727346        0.0000000000000000     
   4.1132504463426277E-002  0.11348786723174777        0.0000000000000000     
   4.2219965446911201E-002  0.12050664621552451        0.0000000000000000     
   4.3257376986380561E-002  0.12766021451860374        0.0000000000000000     
   4.4244739081834385E-002  0.13494857214098541        0.0000000000000000     
   6.8598734405633743E-002  0.13635515346738375        0.0000000000000000     
   7.0035612674281211E-002  0.14368881369289543        0.0000000000000000     
   7.1401330445772820E-002  0.15113672449919083        0.0000000000000000     
   7.2695887720108543E-002  0.15869888588626990        0.0000000000000000     
   7.3919284497288379E-002  0.16637529785413263        0.0000000000000000     
   6.2302065274870727E-002  0.13594868942555180        0.0000000000000000     
   6.3612090977011648E-002  0.14330235793465651        0.0000000000000000     
   6.4855091330512787E-002  0.15077044984419091        0.0000000000000000     
   6.6031066335374172E-002  0.15835296515415506        0.0000000000000000     
   6.7140015991595775E-002  0.16604990386454890        0.0000000000000000     
   5.6144176343983179E-002  0.13557877119054143        0.0000000000000000     
   5.7328537891813025E-002  0.14295225679435020        0.0000000000000000     
   5.8450532924150513E-002  0.15044011295651238        0.0000000000000000     
   5.9510161440995669E-002  0.15804233967702805        0.0000000000000000     
   6.0507423442348468E-002  0.16575893695589716        0.0000000000000000     
   5.0125067612971058E-002  0.13524539876235264        0.0000000000000000     
   5.1184953418685356E-002  0.14263851027197647        0.0000000000000000     
   5.2187655226686017E-002  0.15014571383615519        0.0000000000000000     
   5.3133173036973055E-002  0.15776700945488881        0.0000000000000000     
   5.4021506849546472E-002  0.16550239712817735        0.0000000000000000     
   4.4244739081834385E-002  0.13494857214098541        0.0000000000000000     
   4.5181337557628633E-002  0.14236111836753534        0.0000000000000000     
   4.6066458238119279E-002  0.14988725248311935        0.0000000000000000     
   4.6900101123306330E-002  0.15752697448773739        0.0000000000000000     
   4.7682266213189779E-002  0.16528028438138948        0.0000000000000000     
   7.3919284497288379E-002  0.16637529785413263        0.0000000000000000     
   7.5068364238800117E-002  0.17415224486896402        0.0000000000000000     
   7.6139970406131519E-002  0.18201601139694915        0.0000000000000000     
   7.7134102999282569E-002  0.18996659743808791        0.0000000000000000     
   7.8050762018253297E-002  0.19800400299238036        0.0000000000000000     
   6.7140015991595775E-002  0.16604990386454890        0.0000000000000000     
   6.8179482028918825E-002  0.17384770123852203        0.0000000000000000     
   6.9147006177084552E-002  0.18173279253922395        0.0000000000000000     
   7.0042588436092956E-002  0.18970517776665469        0.0000000000000000     
   7.0866228805944009E-002  0.19776485692081425        0.0000000000000000     
   6.0507423442348468E-002  0.16575893695589716        0.0000000000000000     
   6.1440252424488952E-002  0.17357659563987268        0.0000000000000000     
   6.2306581883697150E-002  0.18148200657570757        0.0000000000000000     
   6.3106411819973077E-002  0.18947516976340190        0.0000000000000000     
   6.3839742233316718E-002  0.19755608520295553        0.0000000000000000     
   5.4021506849546472E-002  0.16550239712817735        0.0000000000000000     
   5.4850675425510476E-002  0.17333892807301601        0.0000000000000000     
   5.5618697525969304E-002  0.18126365350640006        0.0000000000000000     
   5.6325573150922965E-002  0.18927657342832943        0.0000000000000000     
   5.6971302300371444E-002  0.19737768783880424        0.0000000000000000     
   4.7682266213189779E-002  0.16528028438138948        0.0000000000000000     
   4.8410751031983418E-002  0.17313469853795202        0.0000000000000000     
   4.9083353103901023E-002  0.18107773333130134        0.0000000000000000     
   4.9700072428942622E-002  0.18910938876143746        0.0000000000000000     
   5.0260909007108175E-002  0.19722966482836035        0.0000000000000000     
   7.8050762018253297E-002  0.19800400299238036        0.0000000000000000     
   7.8891931942712379E-002  0.20612253682691070        0.0000000000000000     
   7.9659597252328504E-002  0.21431650770876320        0.0000000000000000     
   8.0353757947101728E-002  0.22258591563793789        0.0000000000000000     
   8.0974414027031982E-002  0.23093076061443468        0.0000000000000000     
   7.0866228805944009E-002  0.19776485692081425        0.0000000000000000     
   7.1616835293172601E-002  0.20590631811647161        0.0000000000000000     
   7.2293315904313649E-002  0.21412404946839578        0.0000000000000000     
   7.2895670639367097E-002  0.22241805097658679        0.0000000000000000     
   7.3423899498333001E-002  0.23078832264104462        0.0000000000000000     
   6.3839742233316718E-002  0.19755608520295553        0.0000000000000000     
   6.4503732634702202E-002  0.20571881717928009        0.0000000000000000     
   6.5095542535103607E-002  0.21395742997728701        0.0000000000000000     
   6.5615171934520947E-002  0.22227192359697623        0.0000000000000000     
   6.6062620832954236E-002  0.23066229803834790        0.0000000000000000     
   5.6971302300371444E-002  0.19737768783880424        0.0000000000000000     
   5.7552623967301139E-002  0.20556003401533610        0.0000000000000000     
   5.8066277144698412E-002  0.21381664923543678        0.0000000000000000     
   5.8512261832563250E-002  0.22214753349910626        0.0000000000000000     
   5.8890578030895695E-002  0.23055268680634450        0.0000000000000000     
   5.0260909007108175E-002  0.19722966482836035        0.0000000000000000     
   5.0763509290969407E-002  0.20542996862463975        0.0000000000000000     
   5.1205519733098018E-002  0.21370170724284521        0.0000000000000000     
   5.1586940333494015E-002  0.22204488068297679        0.0000000000000000     
   5.1907771092157384E-002  0.23045948894503443        0.0000000000000000     
   8.0974414027031982E-002  0.23093076061443468        0.0000000000000000     
   8.1511062162778841E-002  0.23937160367162671        0.0000000000000000     
   8.1953199025001880E-002  0.24792900584288705        0.0000000000000000     
   8.2300824613701071E-002  0.25660296712821562        0.0000000000000000     
   8.2553938928876400E-002  0.26539348752761255        0.0000000000000000     
   7.3423899498333001E-002  0.23078832264104462        0.0000000000000000     
   7.3874912873236040E-002  0.23924863729423945        0.0000000000000000     
   7.4245621156100991E-002  0.24781276776864142        0.0000000000000000     
   7.4536024346927854E-002  0.25648071406425049        0.0000000000000000     
   7.4746122445716615E-002  0.26525247618106668        0.0000000000000000     
   6.6062620832954236E-002  0.23066229803834790        0.0000000000000000     
   6.6440361964601527E-002  0.23913525121728288        0.0000000000000000     
   6.6750868063660901E-002  0.24769748104966222        0.0000000000000000     
   6.6994139130132357E-002  0.25634898753548591        0.0000000000000000     
   6.7170175164015924E-002  0.26508977067475387        0.0000000000000000     
   5.8890578030895695E-002  0.23055268680634450        0.0000000000000000     
   5.9207409436875282E-002  0.23903144544075713        0.0000000000000000     
   5.9468939747681589E-002  0.24758314568594950        0.0000000000000000     
   5.9675168963314609E-002  0.25620778754192181        0.0000000000000000     
   5.9826097083774343E-002  0.26490537100867395        0.0000000000000000     
   5.1907771092157384E-002  0.23045948894503443        0.0000000000000000     
   5.2176055290057338E-002  0.23893721996466202        0.0000000000000000     
   5.2399836208163061E-002  0.24746976167750334        0.0000000000000000     
   5.2579113846474582E-002  0.25605711408355836        0.0000000000000000     
   5.2713888204991878E-002  0.26469927718282710        0.0000000000000000     
   8.2553938928876400E-002  0.26539348752761255        0.0000000000000000     
   8.2751525868380693E-002  0.27432692916622720        0.0000000000000000     
   8.2932569330066708E-002  0.28342965416920907        0.0000000000000000     
   8.3097069313934444E-002  0.29270166253655822        0.0000000000000000     
   8.3245025819983914E-002  0.30214295426827453        0.0000000000000000     
   7.4746122445716615E-002  0.26525247618106668        0.0000000000000000     
   7.4916883102292567E-002  0.27412167086464007        0.0000000000000000     
   7.5089273966481004E-002  0.28308191486052037        0.0000000000000000     
   7.5263295038281969E-002  0.29213320816870780        0.0000000000000000     
   7.5438946317695418E-002  0.30127555078920221        0.0000000000000000     
   6.7170175164015924E-002  0.26508977067475387        0.0000000000000000     
   6.7319254325478722E-002  0.27388993981297471        0.0000000000000000     
   6.7481654774687871E-002  0.28271960429565679        0.0000000000000000     
   6.7657376511643441E-002  0.29157876412280020        0.0000000000000000     
   6.7846419536345376E-002  0.30046741929440490        0.0000000000000000     
   5.9826097083774343E-002  0.26490537100867395        0.0000000000000000     
   5.9958639537939132E-002  0.27363173601123114        0.0000000000000000     
   6.0109711754687302E-002  0.28234272247461828        0.0000000000000000     
   6.0279313734018874E-002  0.29103833039883548        0.0000000000000000     
   6.0467445475933808E-002  0.29971855978388268        0.0000000000000000     
   5.2713888204991878E-002  0.26469927718282710        0.0000000000000000     
   5.2835038739673823E-002  0.27334705945940935        0.0000000000000000     
   5.2973444906479275E-002  0.28195126939740478        0.0000000000000000     
   5.3129106705408234E-002  0.29051190699681351        0.0000000000000000     
   5.3302024136460714E-002  0.29902897225763547        0.0000000000000000     
   2.9343097344425695E-002   5.8114086732437897E-002   0.0000000000000000     
   3.0756220280333108E-002   6.3326306076192246E-002   0.0000000000000000     
   3.2157657737551221E-002   6.8814162709382259E-002   0.0000000000000000     
   3.3547409716080050E-002   7.4577656632007883E-002   0.0000000000000000     
   3.4925476215919578E-002   8.0616787844069171E-002   0.0000000000000000     
   2.5351627499696022E-002   5.7499653271676707E-002   0.0000000000000000     
   2.6649858450525449E-002   6.2798182507334085E-002   0.0000000000000000     
   2.7918755823294474E-002   6.8351522580364824E-002   0.0000000000000000     
   2.9158319618003095E-002   7.4159673490768893E-002   0.0000000000000000     
   3.0368549834651329E-002   8.0222635238546336E-002   0.0000000000000000     
   2.1494882009163843E-002   5.6922016251630243E-002   0.0000000000000000     
   2.2649056991729598E-002   6.2299188620345905E-002   0.0000000000000000     
   2.3765105615593991E-002   6.7914282900753756E-002   0.0000000000000000     
   2.4843027880757047E-002   7.3767299092853775E-002   0.0000000000000000     
   2.5882823787218741E-002   7.9858237196646017E-002   0.0000000000000000     
   1.7772860872829158E-002   5.6381175672298479E-002   0.0000000000000000     
   1.8753815903945550E-002   6.1829324415227684E-002   0.0000000000000000     
   1.9696707114449798E-002   6.7502443670549042E-002   0.0000000000000000     
   2.0601534504341882E-002   7.3400533438262569E-002   0.0000000000000000     
   2.1468298073621814E-002   7.9523593718368230E-002   0.0000000000000000     
   1.4185564090691960E-002   5.5877131533681443E-002   0.0000000000000000     
   1.4964135187173318E-002   6.1388589891979449E-002   0.0000000000000000     
   1.5713560319861871E-002   6.7116004889750711E-002   0.0000000000000000     
   1.6433839488757616E-002   7.3059376526995207E-002   0.0000000000000000     
   1.7124972693860558E-002   7.9218704803712958E-002   0.0000000000000000     
   3.4925476215919578E-002   8.0616787844069171E-002   0.0000000000000000     
   3.6271488900041136E-002   8.6873693344353770E-002   0.0000000000000000     
   3.7565079431416022E-002   9.3290510131649337E-002   0.0000000000000000     
   3.8806247810044256E-002   9.9867238205955902E-002   0.0000000000000000     
   3.9994994035925817E-002  0.10660387756727346        0.0000000000000000     
   3.0368549834651329E-002   8.0222635238546336E-002   0.0000000000000000     
   3.1540978101585709E-002   8.6493408719684903E-002   0.0000000000000000     
   3.2667136047152788E-002   9.2924994830172400E-002   0.0000000000000000     
   3.3747023671352565E-002   9.9517393570008786E-002   0.0000000000000000     
   3.4780640974185054E-002  0.10627060493919410        0.0000000000000000     
   2.5882823787218741E-002   7.9858237196646017E-002   0.0000000000000000     
   2.6883499519232149E-002   8.6148080783191333E-002   0.0000000000000000     
   2.7844061261050344E-002   9.2597813423550585E-002   0.0000000000000000     
   2.8764509012673318E-002   9.9207435117723772E-002   0.0000000000000000     
   2.9644842774101079E-002  0.10597694586571091        0.0000000000000000     
   2.1468298073621814E-002   7.9523593718368230E-002   0.0000000000000000     
   2.2299053152980464E-002   8.5837709534873019E-002   0.0000000000000000     
   2.3095855073108688E-002   9.2308965911783905E-002   0.0000000000000000     
   2.3858703834006501E-002   9.8937362849100874E-002   0.0000000000000000     
   2.4587599435673891E-002  0.10572290034682394        0.0000000000000000     
   1.7124972693860558E-002   7.9218704803712958E-002   0.0000000000000000     
   1.7787639002830646E-002   8.5562294974730002E-002   0.0000000000000000     
   1.8422517483327832E-002   9.2058452294872389E-002   0.0000000000000000     
   1.9029608135352118E-002   9.8707176764140120E-002   0.0000000000000000     
   1.9608910958903495E-002  0.10550846838253318        0.0000000000000000     
   3.9994994035925817E-002  0.10660387756727346        0.0000000000000000     
   4.1132504463426277E-002  0.11348786723174777        0.0000000000000000     
   4.2219965446911201E-002  0.12050664621552451        0.0000000000000000     
   4.3257376986380561E-002  0.12766021451860374        0.0000000000000000     
   4.4244739081834385E-002  0.13494857214098541        0.0000000000000000     
   3.4780640974185054E-002  0.10627060493919410        0.0000000000000000     
   3.5769487281095233E-002  0.11317181160607508        0.0000000000000000     
   3.6715061917528068E-002  0.12020819623899853        0.0000000000000000     
   3.7617364883483585E-002  0.12737975883796443        0.0000000000000000     
   3.8476396178961765E-002  0.13468649940297281        0.0000000000000000     
   2.9644842774101079E-002  0.10597694586571091        0.0000000000000000     
   3.0486825446263740E-002  0.11289406499432755        0.0000000000000000     
   3.1292219930091417E-002  0.11994651183038928        0.0000000000000000     
   3.2061026225584113E-002  0.12713428637389604        0.0000000000000000     
   3.2793244332741833E-002  0.13445738862484788        0.0000000000000000     
   2.4587599435673891E-002  0.10572290034682394        0.0000000000000000     
   2.5284518958931822E-002  0.11265462739650518        0.0000000000000000     
   2.5951439484601244E-002  0.11972159298969672        0.0000000000000000     
   2.6588361012682155E-002  0.12692379712639854        0.0000000000000000     
   2.7195283543174555E-002  0.13426123980661062        0.0000000000000000     
   1.9608910958903495E-002  0.10550846838253318        0.0000000000000000     
   2.0162567819099468E-002  0.11245349881260798        0.0000000000000000     
   2.0692720581057540E-002  0.11953343971692089        0.0000000000000000     
   2.1199369244777704E-002  0.12674829109547189        0.0000000000000000     
   2.1682513810259964E-002  0.13409805294826105        0.0000000000000000     
   4.4244739081834385E-002  0.13494857214098541        0.0000000000000000     
   4.5181337557628633E-002  0.14236111836753534        0.0000000000000000     
   4.6066458238119279E-002  0.14988725248311935        0.0000000000000000     
   4.6900101123306330E-002  0.15752697448773739        0.0000000000000000     
   4.7682266213189779E-002  0.16528028438138948        0.0000000000000000     
   3.8476396178961765E-002  0.13468649940297281        0.0000000000000000     
   3.9291064993490492E-002  0.14211738430766668        0.0000000000000000     
   4.0060280516597595E-002  0.14966137992568904        0.0000000000000000     
   4.0784042748283109E-002  0.15731848625703995        0.0000000000000000     
   4.1462351688547019E-002  0.16508870330171938        0.0000000000000000     
   3.2793244332741833E-002  0.13445738862484788        0.0000000000000000     
   3.3487510411118554E-002  0.14190461131901022        0.0000000000000000     
   3.4142460620268295E-002  0.14946474719214844        0.0000000000000000     
   3.4758094960191041E-002  0.15713779624426263        0.0000000000000000     
   3.5334413430886794E-002  0.16492375847535276        0.0000000000000000     
   2.7195283543174555E-002  0.13426123980661062        0.0000000000000000     
   2.7770673810512833E-002  0.14172279940156599        0.0000000000000000     
   2.8312998549131347E-002  0.14929735428249763        0.0000000000000000     
   2.8822257759030110E-002  0.15698490444940549        0.0000000000000000     
   2.9298451440209112E-002  0.16478544990228960        0.0000000000000000     
   2.1682513810259964E-002  0.13409805294826105        0.0000000000000000     
   2.2140555191673319E-002  0.14157194855533400        0.0000000000000000     
   2.2571894303186776E-002  0.14915920119673648        0.0000000000000000     
   2.2976531144800326E-002  0.15685981087246847        0.0000000000000000     
   2.3354465716513974E-002  0.16467377758253005        0.0000000000000000     
   4.7682266213189779E-002  0.16528028438138948        0.0000000000000000     
   4.8410751031983418E-002  0.17313469853795202        0.0000000000000000     
   4.9083353103901023E-002  0.18107773333130134        0.0000000000000000     
   4.9700072428942622E-002  0.18910938876143746        0.0000000000000000     
   5.0260909007108175E-002  0.19722966482836035        0.0000000000000000     
   4.1462351688547019E-002  0.16508870330171938        0.0000000000000000     
   4.2092749149503492E-002  0.17295988461326520        0.0000000000000000     
   4.2672776943266710E-002  0.18091988374521531        0.0000000000000000     
   4.3202435069836682E-002  0.18896870069756974        0.0000000000000000     
   4.3681723529213394E-002  0.19710633547032846        0.0000000000000000     
   3.5334413430886794E-002  0.16492375847535276        0.0000000000000000     
   3.5868939683666411E-002  0.17281046387754007        0.0000000000000000     
   3.6359197369840751E-002  0.18078574244294587        0.0000000000000000     
   3.6805186489409801E-002  0.18884959417157024        0.0000000000000000     
   3.7206907042373574E-002  0.19700201906341308        0.0000000000000000     
   2.9298451440209112E-002  0.16478544990228960        0.0000000000000000     
   2.9739322634472185E-002  0.17268643633077663        0.0000000000000000     
   3.0142614383623142E-002  0.18067530942449306        0.0000000000000000     
   3.0508326687661996E-002  0.18875206918343895        0.0000000000000000     
   3.0836459546588736E-002  0.19691671560761423        0.0000000000000000     
   2.3354465716513974E-002  0.16467377758253005        0.0000000000000000     
   2.3703898001920805E-002  0.17258780197297488        0.0000000000000000     
   2.4023027984613896E-002  0.18058858468985681        0.0000000000000000     
   2.4311855664593245E-002  0.18867612573317585        0.0000000000000000     
   2.4570381041858859E-002  0.19685042510293194        0.0000000000000000     
   5.0260909007108175E-002  0.19722966482836035        0.0000000000000000     
   5.0763509290969407E-002  0.20542996862463975        0.0000000000000000     
   5.1205519733098018E-002  0.21370170724284521        0.0000000000000000     
   5.1586940333494015E-002  0.22204488068297679        0.0000000000000000     
   5.1907771092157384E-002  0.23045948894503443        0.0000000000000000     
   4.3681723529213394E-002  0.19710633547032846        0.0000000000000000     
   4.4109672550659271E-002  0.20532238001501940        0.0000000000000000     
   4.4485312363436717E-002  0.21360642628317053        0.0000000000000000     
   4.4808642967545734E-002  0.22195847427478185        0.0000000000000000     
   4.5079664362986341E-002  0.23037852398985331        0.0000000000000000     
   3.7206907042373574E-002  0.19700201906341308        0.0000000000000000     
   3.7564397691322936E-002  0.20523102719430361        0.0000000000000000     
   3.7877697098848723E-002  0.21352462864007110        0.0000000000000000     
   3.8146805264950956E-002  0.22188282340071544        0.0000000000000000     
   3.8371722189629615E-002  0.23030561147623671        0.0000000000000000     
   3.0836459546588736E-002  0.19691671560761423        0.0000000000000000     
   3.1127684712960405E-002  0.20515591016249241        0.0000000000000000     
   3.1382673939334048E-002  0.21345631431354686        0.0000000000000000     
   3.1601427225709647E-002  0.22181792806077760        0.0000000000000000     
   3.1783944572087219E-002  0.23024075140418465        0.0000000000000000     
   2.4570381041858859E-002  0.19685042510293194        0.0000000000000000     
   2.4799533615571686E-002  0.20509702891958573        0.0000000000000000     
   2.5000242884892675E-002  0.21340148330359784        0.0000000000000000     
   2.5172508849821827E-002  0.22176378825496831        0.0000000000000000     
   2.5316331510359148E-002  0.23018394377369711        0.0000000000000000     
   5.1907771092157384E-002  0.23045948894503443        0.0000000000000000     
   5.2176055290057338E-002  0.23893721996466202        0.0000000000000000     
   5.2399836208163061E-002  0.24746976167750334        0.0000000000000000     
   5.2579113846474582E-002  0.25605711408355836        0.0000000000000000     
   5.2713888204991878E-002  0.26469927718282710        0.0000000000000000     
   4.5079664362986341E-002  0.23037852398985331        0.0000000000000000     
   4.5306989441033368E-002  0.23885120299515869        0.0000000000000000     
   4.5499231092961681E-002  0.24736113885747177        0.0000000000000000     
   4.5656389318771272E-002  0.25590833157679255        0.0000000000000000     
   4.5778464118462148E-002  0.26449278115312097        0.0000000000000000     
   3.8371722189629615E-002  0.23030561147623671        0.0000000000000000     
   3.8560901806689113E-002  0.23877202273840817        0.0000000000000000     
   3.8722798049933810E-002  0.24726108705900313        0.0000000000000000     
   3.8857410919363712E-002  0.25577280443802142        0.0000000000000000     
   3.8964740414978813E-002  0.26430717487546335        0.0000000000000000     
   3.1783944572087219E-002  0.23024075140418465        0.0000000000000000     
   3.1937792387024551E-002  0.23869967919441040        0.0000000000000000     
   3.2070537079079441E-002  0.24716960628209725        0.0000000000000000     
   3.2182178648251868E-002  0.25565053266724519        0.0000000000000000     
   3.2272717094541860E-002  0.26414245834985423        0.0000000000000000     
   2.5316331510359148E-002  0.23018394377369711        0.0000000000000000     
   2.5437661182039707E-002  0.23863417236316536        0.0000000000000000     
   2.5542448180398580E-002  0.24708669652675422        0.0000000000000000     
   2.5630692505435780E-002  0.25554151626446370        0.0000000000000000     
   2.5702394157151292E-002  0.26399863157629372        0.0000000000000000     
   5.2713888204991878E-002  0.26469927718282710        0.0000000000000000     
   5.2835038739673823E-002  0.27334705945940935        0.0000000000000000     
   5.2973444906479275E-002  0.28195126939740478        0.0000000000000000     
   5.3129106705408234E-002  0.29051190699681351        0.0000000000000000     
   5.3302024136460714E-002  0.29902897225763547        0.0000000000000000     
   4.5778464118462148E-002  0.26449278115312097        0.0000000000000000     
   4.5889638145331854E-002  0.27306462132404408        0.0000000000000000     
   4.6014094052677888E-002  0.28157398582714910        0.0000000000000000     
   4.6151831840500278E-002  0.29002087466243581        0.0000000000000000     
   4.6302851508799009E-002  0.29840528782990439        0.0000000000000000     
   3.8964740414978813E-002  0.26430717487546335        0.0000000000000000     
   3.9063623969562276E-002  0.27281313277167030        0.0000000000000000     
   3.9172899015897225E-002  0.28123961252698371        0.0000000000000000     
   3.9292565553983680E-002  0.28958661414140380        0.0000000000000000     
   3.9422623583821634E-002  0.29785413761493051        0.0000000000000000     
   3.2272717094541860E-002  0.26414245834985423        0.0000000000000000     
   3.2356996212365104E-002  0.27259259380228773        0.0000000000000000     
   3.2449859796137299E-002  0.28094814949690872        0.0000000000000000     
   3.2551307845858461E-002  0.28920912543371752        0.0000000000000000     
   3.2661340361528582E-002  0.29737552161271380        0.0000000000000000     
   2.5702394157151292E-002  0.26399863157629372        0.0000000000000000     
   2.5769754873740329E-002  0.27240300441589654        0.0000000000000000     
   2.5844976393398104E-002  0.28069959673692424        0.0000000000000000     
   2.5928058716124608E-002  0.28888840853937686        0.0000000000000000     
   2.6019001841919846E-002  0.29696943982325441        0.0000000000000000     
   1.4185564090691960E-002   5.5877131533681443E-002   0.0000000000000000     
   1.4964135187173318E-002   6.1388589891979449E-002   0.0000000000000000     
   1.5713560319861871E-002   6.7116004889750711E-002   0.0000000000000000     
   1.6433839488757616E-002   7.3059376526995207E-002   0.0000000000000000     
   1.7124972693860558E-002   7.9218704803712958E-002   0.0000000000000000     
   1.0659015381241976E-002   5.5452191355198542E-002   0.0000000000000000     
   1.1226201339523281E-002   6.1015691419950072E-002   0.0000000000000000     
   1.1776072093887049E-002   6.6788983653162548E-002   0.0000000000000000     
   1.2308627644333279E-002   7.2772068054835992E-002   0.0000000000000000     
   1.2823867990861968E-002   7.8964944624970362E-002   0.0000000000000000     
   7.1192384629689184E-003   5.5148662656269214E-002   0.0000000000000000     
   7.4862008591058352E-003   6.0749335368488443E-002   0.0000000000000000     
   7.8446492985821629E-003   6.6555397055588425E-002   0.0000000000000000     
   8.1945837813979031E-003   7.2566847717569147E-002   0.0000000000000000     
   8.5360043075530523E-003   7.8783687354430587E-002   0.0000000000000000     
   3.5662333358727886E-003   5.4966545436893464E-002   0.0000000000000000     
   3.7441337459209801E-003   6.0589521737594576E-002   0.0000000000000000     
   3.9192919339472148E-003   6.6415245097028300E-002   0.0000000000000000     
   4.0917078999514918E-003   7.2443715515194643E-002   0.0000000000000000     
   4.2613816439338106E-003   7.8674932992093646E-002   0.0000000000000000     
  -4.6413393961497462E-014   5.4905839697071281E-002   0.0000000000000000     
  -3.1283569484896745E-014   6.0536250527268451E-002   0.0000000000000000     
  -1.7798154443304792E-014   6.6368527777482214E-002   0.0000000000000000     
  -5.9557122688430608E-015   7.2402671447712577E-002   0.0000000000000000     
   4.2422662605012817E-015   7.8638681537959540E-002   0.0000000000000000     
   1.7124972693860558E-002   7.9218704803712958E-002   0.0000000000000000     
   1.7787639002830646E-002   8.5562294974730002E-002   0.0000000000000000     
   1.8422517483327832E-002   9.2058452294872389E-002   0.0000000000000000     
   1.9029608135352118E-002   9.8707176764140120E-002   0.0000000000000000     
   1.9608910958903495E-002  0.10550846838253318        0.0000000000000000     
   1.2823867990861968E-002   7.8964944624970362E-002   0.0000000000000000     
   1.3319738033580386E-002   8.5336600785677827E-002   0.0000000000000000     
   1.3794182672595785E-002   9.1856023959070582E-002   0.0000000000000000     
   1.4247201907908175E-002   9.8523214145148599E-002   0.0000000000000000     
   1.4678795739517549E-002  0.10533817134391192        0.0000000000000000     
   8.5360043075530523E-003   7.8783687354430587E-002   0.0000000000000000     
   8.8658312100273612E-003   8.5175390650632121E-002   0.0000000000000000     
   9.1809848218005752E-003   9.1711432290633110E-002   0.0000000000000000     
   9.4814651428726925E-003   9.8391812274433568E-002   0.0000000000000000     
   9.7672721732437167E-003  0.10521653060203348        0.0000000000000000     
   4.2613816439338106E-003   7.8674932992093646E-002   0.0000000000000000     
   4.4259185321715785E-003   8.5078664569592871E-002   0.0000000000000000     
   4.5829239309421992E-003   9.1624677289559989E-002   0.0000000000000000     
   4.7323978402456727E-003   9.8312971151994985E-002   0.0000000000000000     
   4.8743402600820007E-003  0.10514354615689787        0.0000000000000000     
   4.2422662605012817E-015   7.8638681537959540E-002   0.0000000000000000     
   1.3034061677186237E-014   8.5046422542560091E-002   0.0000000000000000     
   2.0657303992366316E-014   9.1595758955851189E-002   0.0000000000000000     
   2.7112264256584639E-014   9.8286690777832877E-002   0.0000000000000000     
   3.2398129318211843E-014  0.10511921800850509        0.0000000000000000     
   1.9608910958903495E-002  0.10550846838253318        0.0000000000000000     
   2.0162567819099468E-002  0.11245349881260798        0.0000000000000000     
   2.0692720581057540E-002  0.11953343971692089        0.0000000000000000     
   2.1199369244777704E-002  0.12674829109547189        0.0000000000000000     
   2.1682513810259964E-002  0.13409805294826105        0.0000000000000000     
   1.4678795739517549E-002  0.10533817134391192        0.0000000000000000     
   1.5091077230846127E-002  0.11229427149528778        0.0000000000000000     
   1.5486159445316118E-002  0.11938489053920347        0.0000000000000000     
   1.5864042382927528E-002  0.12661002847565903        0.0000000000000000     
   1.6224726043680356E-002  0.13396968530465439        0.0000000000000000     
   9.7672721732437167E-003  0.10521653060203348        0.0000000000000000     
   1.0040152398251220E-002  0.11218053769719648        0.0000000000000000     
   1.0301852303232778E-002  0.11927878398368624        0.0000000000000000     
   1.0552371888188385E-002  0.12651126946150271        0.0000000000000000     
   1.0791711153118047E-002  0.13387799413064591        0.0000000000000000     
   4.8743402600820007E-003  0.10514354615689787        0.0000000000000000     
   5.0097933213147554E-003  0.11211229741833410        0.0000000000000000     
   5.1397991548075136E-003  0.11921512005036913        0.0000000000000000     
   5.2643577605602744E-003  0.12645201405300302        0.0000000000000000     
   5.3834691385730377E-003  0.13382297942623564        0.0000000000000000     
   3.2398129318211843E-014  0.10511921800850509        0.0000000000000000     
   3.6733203284677884E-014  0.11208955065870063        0.0000000000000000     
   4.0331453454722777E-014  0.11919389873925222        0.0000000000000000     
   4.3195481913560485E-014  0.12643226225015985        0.0000000000000000     
   4.5324421299453022E-014  0.13380464119142357        0.0000000000000000     
   2.1682513810259964E-002  0.13409805294826105        0.0000000000000000     
   2.2140555191673319E-002  0.14157194855533400        0.0000000000000000     
   2.2571894303186776E-002  0.14915920119673648        0.0000000000000000     
   2.2976531144800326E-002  0.15685981087246847        0.0000000000000000     
   2.3354465716513974E-002  0.16467377758253005        0.0000000000000000     
   1.6224726043680356E-002  0.13396968530465439        0.0000000000000000     
   1.6566700771229358E-002  0.14145349953353492        0.0000000000000000     
   1.6888456909229292E-002  0.14905110966964605        0.0000000000000000     
   1.7189994457680151E-002  0.15676251571298766        0.0000000000000000     
   1.7471313416581938E-002  0.16458771766355987        0.0000000000000000     
   1.0791711153118047E-002  0.13387799413064591        0.0000000000000000     
   1.1018656765810283E-002  0.14136889308938955        0.0000000000000000     
   1.1231995394053618E-002  0.14897390143600725        0.0000000000000000     
   1.1431727037848049E-002  0.15669301917049913        0.0000000000000000     
   1.1617851697193572E-002  0.16452624629286502        0.0000000000000000     
   5.3834691385730377E-003  0.13382297942623564        0.0000000000000000     
   5.4964231754161003E-003  0.14131812922289780        0.0000000000000000     
   5.6025097576597608E-003  0.14892757649582020        0.0000000000000000     
   5.7017288853040173E-003  0.15665132124500275        0.0000000000000000     
   5.7940805583488724E-003  0.16448936347044554        0.0000000000000000     
   4.5324421299453022E-014  0.13380464119142357        0.0000000000000000     
   4.6804140424461238E-014  0.14130120793405973        0.0000000000000000     
   4.7715195510000807E-014  0.14891213484908475        0.0000000000000000     
   4.8061137318186620E-014  0.15663742193649866        0.0000000000000000     
   4.7839336658750398E-014  0.16447706919630140        0.0000000000000000     
   2.3354465716513974E-002  0.16467377758253005        0.0000000000000000     
   2.3703898001920805E-002  0.17258780197297488        0.0000000000000000     
   2.4023027984613896E-002  0.18058858468985681        0.0000000000000000     
   2.4311855664593245E-002  0.18867612573317585        0.0000000000000000     
   2.4570381041858859E-002  0.19685042510293194        0.0000000000000000     
   1.7471313416581938E-002  0.16458771766355987        0.0000000000000000     
   1.7731158058631236E-002  0.17251260643006844        0.0000000000000000     
   1.7968272656524616E-002  0.18052307292121939        0.0000000000000000     
   1.8182657210262070E-002  0.18861911713701257        0.0000000000000000     
   1.8374311719843609E-002  0.19680073907744813        0.0000000000000000     
   1.1617851697193572E-002  0.16452624629286502        0.0000000000000000     
   1.1789595077222445E-002  0.17245889532799097        0.0000000000000000     
   1.1946182883066916E-002  0.18047627880076297        0.0000000000000000     
   1.2087615114726981E-002  0.18857839671118093        0.0000000000000000     
   1.2213891772202643E-002  0.19676524905924489        0.0000000000000000     
   5.7940805583488724E-003  0.16448936347044554        0.0000000000000000     
   5.8792090576944315E-003  0.17242666866674247        0.0000000000000000     
   5.9567586642407999E-003  0.18044820232848757        0.0000000000000000     
   6.0267293779879749E-003  0.18855396445568082        0.0000000000000000     
   6.0891211989359583E-003  0.19674395504832218        0.0000000000000000     
   4.7839336658750398E-014  0.16447706919630140        0.0000000000000000     
   4.7192718483080043E-014  0.17241592644632292        0.0000000000000000     
   4.6264641423432451E-014  0.18043884350439321        0.0000000000000000     
   4.5053045495679900E-014  0.18854582037051221        0.0000000000000000     
   4.3558906481777626E-014  0.19673685704467997        0.0000000000000000     
   2.4570381041858859E-002  0.19685042510293194        0.0000000000000000     
   2.4799533615571686E-002  0.20509702891958573        0.0000000000000000     
   2.5000242884892675E-002  0.21340148330359784        0.0000000000000000     
   2.5172508849821827E-002  0.22176378825496831        0.0000000000000000     
   2.5316331510359148E-002  0.23018394377369711        0.0000000000000000     
   1.8374311719843609E-002  0.19680073907744813        0.0000000000000000     
   1.8544160146924712E-002  0.20505261098968797        0.0000000000000000     
   1.8693126453160871E-002  0.21335940512089405        0.0000000000000000     
   1.8821210638552084E-002  0.22172112147106643        0.0000000000000000     
   1.8928412703098342E-002  0.23013776004020509        0.0000000000000000     
   1.2213891772202643E-002  0.19676524905924489        0.0000000000000000     
   1.2325780054787435E-002  0.20502088389690354        0.0000000000000000     
   1.2424047161774886E-002  0.21332934927610547        0.0000000000000000     
   1.2508693093164994E-002  0.22169064519685083        0.0000000000000000     
   1.2579717848957764E-002  0.23010477165913948        0.0000000000000000     
   6.0891211989359583E-003  0.19674395504832218        0.0000000000000000     
   6.1443933391598414E-003  0.20500184764123236        0.0000000000000000     
   6.1930050107347106E-003  0.21331131576923212        0.0000000000000000     
   6.2349562136605656E-003  0.22167235943232144        0.0000000000000000     
   6.2702469479374075E-003  0.23008497863050034        0.0000000000000000     
   4.3558906481777626E-014  0.19673685704467997        0.0000000000000000     
   4.1938457914780791E-014  0.20499550222267454        0.0000000000000000     
   4.0352270136434498E-014  0.21330530460027400        0.0000000000000000     
   3.8797741061524782E-014  0.22166626417747837        0.0000000000000000     
   3.7275738051789631E-014  0.23007838095428762        0.0000000000000000     
   2.5316331510359148E-002  0.23018394377369711        0.0000000000000000     
   2.5437661182039707E-002  0.23863417236316536        0.0000000000000000     
   2.5542448180398580E-002  0.24708669652675422        0.0000000000000000     
   2.5630692505435780E-002  0.25554151626446370        0.0000000000000000     
   2.5702394157151292E-002  0.26399863157629372        0.0000000000000000     
   1.8928412703098342E-002  0.23013776004020509        0.0000000000000000     
   1.9018825784930714E-002  0.23857984494765541        0.0000000000000000     
   1.9096543022180248E-002  0.24701790031276302        0.0000000000000000     
   1.9161564414846954E-002  0.25545192613552775        0.0000000000000000     
   1.9213889962930823E-002  0.26388192241594977        0.0000000000000000     
   1.2579717848957764E-002  0.23010477165913948        0.0000000000000000     
   1.2639603788893740E-002  0.23854103965086293        0.0000000000000000     
   1.2690833272713463E-002  0.24696876015991254        0.0000000000000000     
   1.2733406300416939E-002  0.25538793318628833        0.0000000000000000     
   1.2767322872004168E-002  0.26379855872999042        0.0000000000000000     
   6.2702469479374075E-003  0.23008497863050034        0.0000000000000000     
   6.2999951939287776E-003  0.23851775647278781        0.0000000000000000     
   6.3253189319982216E-003  0.24693927606820282        0.0000000000000000     
   6.3462181621457368E-003  0.25534953741674549        0.0000000000000000     
   6.3626928843713224E-003  0.26374854051841573        0.0000000000000000     
   3.7275738051789631E-014  0.23007838095428762        0.0000000000000000     
   3.5834833364556395E-014  0.23850999541343004        0.0000000000000000     
   3.4524249778455918E-014  0.24692944803763384        0.0000000000000000     
   3.3344149923814070E-014  0.25533673882689906        0.0000000000000000     
   3.2295346952260218E-014  0.26373186778122559        0.0000000000000000     
   2.5702394157151292E-002  0.26399863157629372        0.0000000000000000     
   2.5769754873740329E-002  0.27240300441589654        0.0000000000000000     
   2.5844976393398104E-002  0.28069959673692424        0.0000000000000000     
   2.5928058716124608E-002  0.28888840853937686        0.0000000000000000     
   2.6019001841919846E-002  0.29696943982325441        0.0000000000000000     
   1.9213889962930823E-002  0.26388192241594977        0.0000000000000000     
   1.9263484097129586E-002  0.27225065414536326        0.0000000000000000     
   1.9320311248140980E-002  0.28050088631510278        0.0000000000000000     
   1.9384371415965006E-002  0.28863261892516812        0.0000000000000000     
   1.9455664600601649E-002  0.29664585197555937        0.0000000000000000     
   1.2767322872004168E-002  0.26379855872999042        0.0000000000000000     
   1.2799768025974495E-002  0.27214183252355462        0.0000000000000000     
   1.2837926800827279E-002  0.28035895029951691        0.0000000000000000     
   1.2881799196562517E-002  0.28844991205787729        0.0000000000000000     
   1.2931385213180211E-002  0.29641471779863571        0.0000000000000000     
   6.3626928843713224E-003  0.26374854051841573        0.0000000000000000     
   6.3786066602750536E-003  0.27207653955047051        0.0000000000000000     
   6.3978230514569979E-003  0.28027378869016667        0.0000000000000000     
   6.4203420579171553E-003  0.28834028793750438        0.0000000000000000     
   6.4461636796555258E-003  0.29627603729248353        0.0000000000000000     
   3.2295346952260218E-014  0.26373186778122559        0.0000000000000000     
   3.1263837005357509E-014  0.27205477522611093        0.0000000000000000     
   3.0136700426841578E-014  0.28024540148705224        0.0000000000000000     
   2.8912907224648565E-014  0.28830374656404950        0.0000000000000000     
   2.7594246332363070E-014  0.29622981045710284        0.0000000000000000     
  -4.6413393961497462E-014   5.4905839697071281E-002   0.0000000000000000     
  -3.1283569484896745E-014   6.0536250527268451E-002   0.0000000000000000     
  -1.7798154443304792E-014   6.6368527777482214E-002   0.0000000000000000     
  -5.9557122688430608E-015   7.2402671447712577E-002   0.0000000000000000     
   4.2422662605012817E-015   7.8638681537959540E-002   0.0000000000000000     
  -3.5662333359665790E-003   5.4966545436802669E-002   0.0000000000000000     
  -3.7441337459845981E-003   6.0589521737510227E-002   0.0000000000000000     
  -3.9192919339839311E-003   6.6415245096950418E-002   0.0000000000000000     
  -4.0917078999645811E-003   7.2443715515123214E-002   0.0000000000000000     
  -4.2613816439265482E-003   7.8674932992028643E-002   0.0000000000000000     
  -7.1192384630656032E-003   5.5148662656087609E-002   0.0000000000000000     
  -7.4862008591726021E-003   6.0749335368320084E-002   0.0000000000000000     
  -7.8446492986222419E-003   6.6555397055433202E-002   0.0000000000000000     
  -8.1945837814145269E-003   7.2566847717426927E-002   0.0000000000000000     
  -8.5360043075494527E-003   7.8783687354301316E-002   0.0000000000000000     
  -1.0659015381343484E-002   5.5452191354926107E-002   0.0000000000000000     
  -1.1226201339595296E-002   6.1015691419698016E-002   0.0000000000000000     
  -1.1776072093932730E-002   6.6788983652930553E-002   0.0000000000000000     
  -1.2308627644355790E-002   7.2772068054623759E-002   0.0000000000000000     
  -1.2823867990864476E-002   7.8964944624777586E-002   0.0000000000000000     
  -1.4185564090800223E-002   5.5877131533318171E-002   0.0000000000000000     
  -1.4964135187252677E-002   6.1388589891644023E-002   0.0000000000000000     
  -1.5713560319915391E-002   6.7116004889442527E-002   0.0000000000000000     
  -1.6433839488788373E-002   7.3059376526713654E-002   0.0000000000000000     
  -1.7124972693871615E-002   7.9218704803457426E-002   0.0000000000000000     
   4.2422662605012817E-015   7.8638681537959540E-002   0.0000000000000000     
   1.3034061677186237E-014   8.5046422542560091E-002   0.0000000000000000     
   2.0657303992366316E-014   9.1595758955851189E-002   0.0000000000000000     
   2.7112264256584639E-014   9.8286690777832877E-002   0.0000000000000000     
   3.2398129318211843E-014  0.10511921800850509        0.0000000000000000     
  -4.2613816439265482E-003   7.8674932992028643E-002   0.0000000000000000     
  -4.4259185321467668E-003   8.5078664569534126E-002   0.0000000000000000     
  -4.5829239309021722E-003   9.1624677289507059E-002   0.0000000000000000     
  -4.7323978401927671E-003   9.8312971151947495E-002   0.0000000000000000     
  -4.8743402600185479E-003  0.10514354615685542        0.0000000000000000     
  -8.5360043075494527E-003   7.8783687354301316E-002   0.0000000000000000     
  -8.8658312100063190E-003   8.5175390650515340E-002   0.0000000000000000     
  -9.1809848217644166E-003   9.1711432290528000E-002   0.0000000000000000     
  -9.4814651428237421E-003   9.8391812274339269E-002   0.0000000000000000     
  -9.7672721731843007E-003  0.10521653060194917        0.0000000000000000     
  -1.2823867990864476E-002   7.8964944624777586E-002   0.0000000000000000     
  -1.3319738033565627E-002   8.5336600785503744E-002   0.0000000000000000     
  -1.3794182672566069E-002   9.1856023958913943E-002   0.0000000000000000     
  -1.4247201907865815E-002   9.8523214145008142E-002   0.0000000000000000     
  -1.4678795739464854E-002  0.10533817134378635        0.0000000000000000     
  -1.7124972693871615E-002   7.9218704803457426E-002   0.0000000000000000     
  -1.7787639002824682E-002   8.5562294974499353E-002   0.0000000000000000     
  -1.8422517483307137E-002   9.2058452294664916E-002   0.0000000000000000     
  -1.9029608135318985E-002   9.8707176763954102E-002   0.0000000000000000     
  -1.9608910958860214E-002  0.10550846838236694        0.0000000000000000     
   3.2398129318211843E-014  0.10511921800850509        0.0000000000000000     
   3.6733203284677884E-014  0.11208955065870063        0.0000000000000000     
   4.0331453454722777E-014  0.11919389873925222        0.0000000000000000     
   4.3195481913560485E-014  0.12643226225015985        0.0000000000000000     
   4.5324421299453022E-014  0.13380464119142357        0.0000000000000000     
  -4.8743402600185479E-003  0.10514354615685542        0.0000000000000000     
  -5.0097933212426594E-003  0.11211229741829631        0.0000000000000000     
  -5.1397991547282307E-003  0.11921512005033570        0.0000000000000000     
  -5.2643577604752703E-003  0.12645201405297354        0.0000000000000000     
  -5.3834691384837714E-003  0.13382297942620988        0.0000000000000000     
  -9.7672721731843007E-003  0.10521653060194917        0.0000000000000000     
  -1.0040152398183221E-002  0.11218053769712144        0.0000000000000000     
  -1.0301852303157631E-002  0.11927878398361982        0.0000000000000000     
  -1.0552371888107535E-002  0.12651126946144428        0.0000000000000000     
  -1.0791711153032934E-002  0.13387799413059481        0.0000000000000000     
  -1.4678795739464854E-002  0.10533817134378635        0.0000000000000000     
  -1.5091077230784955E-002  0.11229427149517603        0.0000000000000000     
  -1.5486159445247874E-002  0.11938489053910459        0.0000000000000000     
  -1.5864042382853605E-002  0.12661002847557201        0.0000000000000000     
  -1.6224726043602162E-002  0.13396968530457834        0.0000000000000000     
  -1.9608910958860214E-002  0.10550846838236694        0.0000000000000000     
  -2.0162567819047860E-002  0.11245349881246003        0.0000000000000000     
  -2.0692720580998952E-002  0.11953343971678998        0.0000000000000000     
  -2.1199369244713481E-002  0.12674829109535682        0.0000000000000000     
  -2.1682513810191456E-002  0.13409805294816046        0.0000000000000000     
   4.5324421299453022E-014  0.13380464119142357        0.0000000000000000     
   4.6804140424461238E-014  0.14130120793405973        0.0000000000000000     
   4.7715195510000807E-014  0.14891213484908475        0.0000000000000000     
   4.8061137318186620E-014  0.15663742193649866        0.0000000000000000     
   4.7839336658750398E-014  0.16447706919630140        0.0000000000000000     
  -5.3834691384837714E-003  0.13382297942620988        0.0000000000000000     
  -5.4964231753238686E-003  0.14131812922287548        0.0000000000000000     
  -5.6025097575656945E-003  0.14892757649580118        0.0000000000000000     
  -5.7017288852092424E-003  0.15665132124498690        0.0000000000000000     
  -5.7940805582545208E-003  0.16448936347043272        0.0000000000000000     
  -1.0791711153032934E-002  0.13387799413059481        0.0000000000000000     
  -1.1018656765722182E-002  0.14136889308934530        0.0000000000000000     
  -1.1231995393963643E-002  0.14897390143596959        0.0000000000000000     
  -1.1431727037757316E-002  0.15669301917046774        0.0000000000000000     
  -1.1617851697103195E-002  0.16452624629283966        0.0000000000000000     
  -1.6224726043602162E-002  0.13396968530457834        0.0000000000000000     
  -1.6566700771148135E-002  0.14145349953346914        0.0000000000000000     
  -1.6888456909146130E-002  0.14905110966959009        0.0000000000000000     
  -1.7189994457596149E-002  0.15676251571294106        0.0000000000000000     
  -1.7471313416498185E-002  0.16458771766352218        0.0000000000000000     
  -2.1682513810191456E-002  0.13409805294816046        0.0000000000000000     
  -2.2140555191601727E-002  0.14157194855524702        0.0000000000000000     
  -2.2571894303113158E-002  0.14915920119666254        0.0000000000000000     
  -2.2976531144725747E-002  0.15685981087240697        0.0000000000000000     
  -2.3354465716439492E-002  0.16467377758248031        0.0000000000000000     
   4.7839336658750398E-014  0.16447706919630140        0.0000000000000000     
   4.7192718483080043E-014  0.17241592644632292        0.0000000000000000     
   4.6264641423432451E-014  0.18043884350439321        0.0000000000000000     
   4.5053045495679900E-014  0.18854582037051221        0.0000000000000000     
   4.3558906481777626E-014  0.19673685704467997        0.0000000000000000     
  -5.7940805582545208E-003  0.16448936347043272        0.0000000000000000     
  -5.8792090576013445E-003  0.17242666866673245        0.0000000000000000     
  -5.9567586641495422E-003  0.18044820232847997        0.0000000000000000     
  -6.0267293778991119E-003  0.18855396445567524        0.0000000000000000     
  -6.0891211988500548E-003  0.19674395504831838        0.0000000000000000     
  -1.1617851697103195E-002  0.16452624629283966        0.0000000000000000     
  -1.1789595077133256E-002  0.17245889532797112        0.0000000000000000     
  -1.1946182882979477E-002  0.18047627880074790        0.0000000000000000     
  -1.2087615114641849E-002  0.18857839671116994        0.0000000000000000     
  -1.2213891772120376E-002  0.19676524905923734        0.0000000000000000     
  -1.7471313416498185E-002  0.16458771766352218        0.0000000000000000     
  -1.7731158058548545E-002  0.17251260643003896        0.0000000000000000     
  -1.7968272656443539E-002  0.18052307292119699        0.0000000000000000     
  -1.8182657210183157E-002  0.18861911713699636        0.0000000000000000     
  -1.8374311719767406E-002  0.19680073907743695        0.0000000000000000     
  -2.3354465716439492E-002  0.16467377758248031        0.0000000000000000     
  -2.3703898001847211E-002  0.17258780197293599        0.0000000000000000     
  -2.4023027984541732E-002  0.18058858468982739        0.0000000000000000     
  -2.4311855664523038E-002  0.18867612573315443        0.0000000000000000     
  -2.4570381041791146E-002  0.19685042510291723        0.0000000000000000     
   4.3558906481777626E-014  0.19673685704467997        0.0000000000000000     
   4.1938457914780791E-014  0.20499550222267454        0.0000000000000000     
   4.0352270136434498E-014  0.21330530460027400        0.0000000000000000     
   3.8797741061524782E-014  0.22166626417747837        0.0000000000000000     
   3.7275738051789631E-014  0.23007838095428762        0.0000000000000000     
  -6.0891211988500548E-003  0.19674395504831838        0.0000000000000000     
  -6.1443933390771420E-003  0.20500184764123003        0.0000000000000000     
  -6.1930050106551544E-003  0.21331131576923107        0.0000000000000000     
  -6.2349562135840843E-003  0.22167235943232153        0.0000000000000000     
  -6.2702469478639351E-003  0.23008497863050137        0.0000000000000000     
  -1.2213891772120376E-002  0.19676524905923734        0.0000000000000000     
  -1.2325780054708278E-002  0.20502088389689890        0.0000000000000000     
  -1.2424047161698770E-002  0.21332934927610339        0.0000000000000000     
  -1.2508693093091851E-002  0.22169064519685100        0.0000000000000000     
  -1.2579717848887523E-002  0.23010477165914150        0.0000000000000000     
  -1.8374311719767406E-002  0.19680073907743695        0.0000000000000000     
  -1.8544160146851462E-002  0.20505261098968108        0.0000000000000000     
  -1.8693126453090497E-002  0.21335940512089099        0.0000000000000000     
  -1.8821210638484503E-002  0.22172112147106662        0.0000000000000000     
  -1.8928412703033495E-002  0.23013776004020806        0.0000000000000000     
  -2.4570381041791146E-002  0.19685042510291723        0.0000000000000000     
  -2.4799533615506689E-002  0.20509702891957668        0.0000000000000000     
  -2.5000242884830326E-002  0.21340148330359374        0.0000000000000000     
  -2.5172508849762038E-002  0.22176378825496856        0.0000000000000000     
  -2.5316331510301840E-002  0.23018394377370099        0.0000000000000000     
   3.7275738051789631E-014  0.23007838095428762        0.0000000000000000     
   3.5834833364556395E-014  0.23850999541343004        0.0000000000000000     
   3.4524249778455918E-014  0.24692944803763384        0.0000000000000000     
   3.3344149923814070E-014  0.25533673882689906        0.0000000000000000     
   3.2295346952260218E-014  0.26373186778122559        0.0000000000000000     
  -6.2702469478639351E-003  0.23008497863050137        0.0000000000000000     
  -6.2999951938581553E-003  0.23851775647278967        0.0000000000000000     
  -6.3253189319301927E-003  0.24693927606820554        0.0000000000000000     
  -6.3462181620800471E-003  0.25534953741674904        0.0000000000000000     
  -6.3626928843077152E-003  0.26374854051842012        0.0000000000000000     
  -1.2579717848887523E-002  0.23010477165914150        0.0000000000000000     
  -1.2639603788826252E-002  0.23854103965086662        0.0000000000000000     
  -1.2690833272648491E-002  0.24696876015991798        0.0000000000000000     
  -1.2733406300354246E-002  0.25538793318629549        0.0000000000000000     
  -1.2767322871943512E-002  0.26379855872999913        0.0000000000000000     
  -1.8928412703033495E-002  0.23013776004020806        0.0000000000000000     
  -1.9018825784868462E-002  0.23857984494766096        0.0000000000000000     
  -1.9096543022120376E-002  0.24701790031277102        0.0000000000000000     
  -1.9161564414789254E-002  0.25545192613553830        0.0000000000000000     
  -1.9213889962875090E-002  0.26388192241596281        0.0000000000000000     
  -2.5316331510301840E-002  0.23018394377370099        0.0000000000000000     
  -2.5437661181984764E-002  0.23863417236317258        0.0000000000000000     
  -2.5542448180345841E-002  0.24708669652676474        0.0000000000000000     
  -2.5630692505385071E-002  0.25554151626447752        0.0000000000000000     
  -2.5702394157102456E-002  0.26399863157631087        0.0000000000000000     
   3.2295346952260218E-014  0.26373186778122559        0.0000000000000000     
   3.1263837005357509E-014  0.27205477522611093        0.0000000000000000     
   3.0136700426841578E-014  0.28024540148705224        0.0000000000000000     
   2.8912907224648565E-014  0.28830374656404950        0.0000000000000000     
   2.7594246332363070E-014  0.29622981045710284        0.0000000000000000     
  -6.3626928843077152E-003  0.26374854051842012        0.0000000000000000     
  -6.3786066602134978E-003  0.27207653955047584        0.0000000000000000     
  -6.3978230513976816E-003  0.28027378869017328        0.0000000000000000     
  -6.4203420578602651E-003  0.28834028793751243        0.0000000000000000     
  -6.4461636796012533E-003  0.29627603729249341        0.0000000000000000     
  -1.2767322871943512E-002  0.26379855872999913        0.0000000000000000     
  -1.2799768025915858E-002  0.27214183252356522        0.0000000000000000     
  -1.2837926800770831E-002  0.28035895029952990        0.0000000000000000     
  -1.2881799196508443E-002  0.28844991205789317        0.0000000000000000     
  -1.2931385213128688E-002  0.29641471779865503        0.0000000000000000     
  -1.9213889962875090E-002  0.26388192241596281        0.0000000000000000     
  -1.9263484097075810E-002  0.27225065414537913        0.0000000000000000     
  -1.9320311248089316E-002  0.28050088631512199        0.0000000000000000     
  -1.9384371415915619E-002  0.28863261892519154        0.0000000000000000     
  -1.9455664600554708E-002  0.29664585197558768        0.0000000000000000     
  -2.5702394157102456E-002  0.26399863157631087        0.0000000000000000     
  -2.5769754873693356E-002  0.27240300441591742        0.0000000000000000     
  -2.5844976393353137E-002  0.28069959673694966        0.0000000000000000     
  -2.5928058716081785E-002  0.28888840853940767        0.0000000000000000     
  -2.6019001841879316E-002  0.29696943982329144        0.0000000000000000     
  -1.4185564090800223E-002   5.5877131533318171E-002   0.0000000000000000     
  -1.4964135187252677E-002   6.1388589891644023E-002   0.0000000000000000     
  -1.5713560319915391E-002   6.7116004889442527E-002   0.0000000000000000     
  -1.6433839488788373E-002   7.3059376526713654E-002   0.0000000000000000     
  -1.7124972693871615E-002   7.9218704803457426E-002   0.0000000000000000     
  -1.7772860872946418E-002   5.6381175671845439E-002   0.0000000000000000     
  -1.8753815904034521E-002   6.1829324414810045E-002   0.0000000000000000     
  -1.9696707114513462E-002   6.7502443670165904E-002   0.0000000000000000     
  -2.0601534504383259E-002   7.3400533437912988E-002   0.0000000000000000     
  -2.1468298073643897E-002   7.9523593718051289E-002   0.0000000000000000     
  -2.1494882009292678E-002   5.6922016251089579E-002   0.0000000000000000     
  -2.2649056991830591E-002   6.2299188619848032E-002   0.0000000000000000     
  -2.3765105615670173E-002   6.7914282900297537E-002   0.0000000000000000     
  -2.4843027880811420E-002   7.3767299092438079E-002   0.0000000000000000     
  -2.5882823787254341E-002   7.9858237196269638E-002   0.0000000000000000     
  -2.5351627499838998E-002   5.7499653271050576E-002   0.0000000000000000     
  -2.6649858450640884E-002   6.2798182506757991E-002   0.0000000000000000     
  -2.7918755823385506E-002   6.8351522579837412E-002   0.0000000000000000     
  -2.9158319618072866E-002   7.4159673490288916E-002   0.0000000000000000     
  -3.0368549834702954E-002   8.0222635238112461E-002   0.0000000000000000     
  -2.9343097344585376E-002   5.8114086731728437E-002   0.0000000000000000     
  -3.0756220280465402E-002   6.3326306075539879E-002   0.0000000000000000     
  -3.2157657737659474E-002   6.8814162708785598E-002   0.0000000000000000     
  -3.3547409716167584E-002   7.4577656631465553E-002   0.0000000000000000     
  -3.4925476215989737E-002   8.0616787843579771E-002   0.0000000000000000     
  -1.7124972693871615E-002   7.9218704803457426E-002   0.0000000000000000     
  -1.7787639002824682E-002   8.5562294974499353E-002   0.0000000000000000     
  -1.8422517483307137E-002   9.2058452294664916E-002   0.0000000000000000     
  -1.9029608135318985E-002   9.8707176763954102E-002   0.0000000000000000     
  -1.9608910958860214E-002  0.10550846838236694        0.0000000000000000     
  -2.1468298073643897E-002   7.9523593718051289E-002   0.0000000000000000     
  -2.2299053152985877E-002   8.5837709534587192E-002   0.0000000000000000     
  -2.3095855073099688E-002   9.2308965911526999E-002   0.0000000000000000     
  -2.3858703833985324E-002   9.8937362848870711E-002   0.0000000000000000     
  -2.4587599435642808E-002  0.10572290034661831        0.0000000000000000     
  -2.5882823787254341E-002   7.9858237196269638E-002   0.0000000000000000     
  -2.6883499519251584E-002   8.6148080782852354E-002   0.0000000000000000     
  -2.7844061261055781E-002   9.2597813423246300E-002   0.0000000000000000     
  -2.8764509012666941E-002   9.9207435117451448E-002   0.0000000000000000     
  -2.9644842774085058E-002  0.10597694586546783        0.0000000000000000     
  -3.0368549834702954E-002   8.0222635238112461E-002   0.0000000000000000     
  -3.1540978101621805E-002   8.6493408719294826E-002   0.0000000000000000     
  -3.2667136047175423E-002   9.2924994829822791E-002   0.0000000000000000     
  -3.3747023671363806E-002   9.9517393569696327E-002   0.0000000000000000     
  -3.4780640974186969E-002  0.10627060493891544        0.0000000000000000     
  -3.4925476215989737E-002   8.0616787843579771E-002   0.0000000000000000     
  -3.6271488900096543E-002   8.6873693343914635E-002   0.0000000000000000     
  -3.7565079431458606E-002   9.3290510131256485E-002   0.0000000000000000     
  -3.8806247810075946E-002   9.9867238205605349E-002   0.0000000000000000     
  -3.9994994035948542E-002  0.10660387756696121        0.0000000000000000     
  -1.9608910958860214E-002  0.10550846838236694        0.0000000000000000     
  -2.0162567819047860E-002  0.11245349881246003        0.0000000000000000     
  -2.0692720580998952E-002  0.11953343971678998        0.0000000000000000     
  -2.1199369244713481E-002  0.12674829109535682        0.0000000000000000     
  -2.1682513810191456E-002  0.13409805294816046        0.0000000000000000     
  -2.4587599435642808E-002  0.10572290034661831        0.0000000000000000     
  -2.5284518958892586E-002  0.11265462739632223        0.0000000000000000     
  -2.5951439484555125E-002  0.11972159298953490        0.0000000000000000     
  -2.6588361012630429E-002  0.12692379712625629        0.0000000000000000     
  -2.7195283543118502E-002  0.13426123980648638        0.0000000000000000     
  -2.9644842774085058E-002  0.10597694586546783        0.0000000000000000     
  -3.0486825446239752E-002  0.11289406499411139        0.0000000000000000     
  -3.1292219930060636E-002  0.11994651183019817        0.0000000000000000     
  -3.2061026225547712E-002  0.12713428637372814        0.0000000000000000     
  -3.2793244332700970E-002  0.13445738862470130        0.0000000000000000     
  -3.4780640974186969E-002  0.10627060493891544        0.0000000000000000     
  -3.5769487281089377E-002  0.11317181160582750        0.0000000000000000     
  -3.6715061917515501E-002  0.12020819623877980        0.0000000000000000     
  -3.7617364883465336E-002  0.12737975883777236        0.0000000000000000     
  -3.8476396178938881E-002  0.13468649940280519        0.0000000000000000     
  -3.9994994035948542E-002  0.10660387756696121        0.0000000000000000     
  -4.1132504463441452E-002  0.11348786723147053        0.0000000000000000     
  -4.2219965446919694E-002  0.12050664621527979        0.0000000000000000     
  -4.3257376986383295E-002  0.12766021451838896        0.0000000000000000     
  -4.4244739081832227E-002  0.13494857214079803        0.0000000000000000     
  -2.1682513810191456E-002  0.13409805294816046        0.0000000000000000     
  -2.2140555191601727E-002  0.14157194855524702        0.0000000000000000     
  -2.2571894303113158E-002  0.14915920119666254        0.0000000000000000     
  -2.2976531144725747E-002  0.15685981087240697        0.0000000000000000     
  -2.3354465716439492E-002  0.16467377758248031        0.0000000000000000     
  -2.7195283543118502E-002  0.13426123980648638        0.0000000000000000     
  -2.7770673810453585E-002  0.14172279940145860        0.0000000000000000     
  -2.8312998549069938E-002  0.14929735428240634        0.0000000000000000     
  -2.8822257758967545E-002  0.15698490444932958        0.0000000000000000     
  -2.9298451440146422E-002  0.16478544990222835        0.0000000000000000     
  -3.2793244332700970E-002  0.13445738862470130        0.0000000000000000     
  -3.3487510411074325E-002  0.14190461131888354        0.0000000000000000     
  -3.4142460620221665E-002  0.14946474719204084        0.0000000000000000     
  -3.4758094960142975E-002  0.15713779624417315        0.0000000000000000     
  -3.5334413430838277E-002  0.16492375847528051        0.0000000000000000     
  -3.8476396178938881E-002  0.13468649940280519        0.0000000000000000     
  -3.9291064993463957E-002  0.14211738430752185        0.0000000000000000     
  -4.0060280516568340E-002  0.14966137992556605        0.0000000000000000     
  -4.0784042748252057E-002  0.15731848625693770        0.0000000000000000     
  -4.1462351688515073E-002  0.16508870330163689        0.0000000000000000     
  -4.4244739081832227E-002  0.13494857214079803        0.0000000000000000     
  -4.5181337557622471E-002  0.14236111836737347        0.0000000000000000     
  -4.6066458238109988E-002  0.14988725248298188        0.0000000000000000     
  -4.6900101123294756E-002  0.15752697448762321        0.0000000000000000     
  -4.7682266213176797E-002  0.16528028438129744        0.0000000000000000     
  -2.3354465716439492E-002  0.16467377758248031        0.0000000000000000     
  -2.3703898001847211E-002  0.17258780197293599        0.0000000000000000     
  -2.4023027984541732E-002  0.18058858468982739        0.0000000000000000     
  -2.4311855664523038E-002  0.18867612573315443        0.0000000000000000     
  -2.4570381041791146E-002  0.19685042510291723        0.0000000000000000     
  -2.9298451440146422E-002  0.16478544990222835        0.0000000000000000     
  -2.9739322634410127E-002  0.17268643633072869        0.0000000000000000     
  -3.0142614383562253E-002  0.18067530942445684        0.0000000000000000     
  -3.0508326687602765E-002  0.18875206918341259        0.0000000000000000     
  -3.0836459546531692E-002  0.19691671560759613        0.0000000000000000     
  -3.5334413430838277E-002  0.16492375847528051        0.0000000000000000     
  -3.5868939683618178E-002  0.17281046387748364        0.0000000000000000     
  -3.6359197369793282E-002  0.18078574244290324        0.0000000000000000     
  -3.6805186489363630E-002  0.18884959417153932        0.0000000000000000     
  -3.7206907042329158E-002  0.19700201906339179        0.0000000000000000     
  -4.1462351688515073E-002  0.16508870330163689        0.0000000000000000     
  -4.2092749149471365E-002  0.17295988461320080        0.0000000000000000     
  -4.2672776943234882E-002  0.18091988374516665        0.0000000000000000     
  -4.3202435069805596E-002  0.18896870069753446        0.0000000000000000     
  -4.3681723529183543E-002  0.19710633547030426        0.0000000000000000     
  -4.7682266213176797E-002  0.16528028438129744        0.0000000000000000     
  -4.8410751031969679E-002  0.17313469853788019        0.0000000000000000     
  -4.9083353103886979E-002  0.18107773333124710        0.0000000000000000     
  -4.9700072428928703E-002  0.18910938876139821        0.0000000000000000     
  -5.0260909007094838E-002  0.19722966482833346        0.0000000000000000     
  -2.4570381041791146E-002  0.19685042510291723        0.0000000000000000     
  -2.4799533615506689E-002  0.20509702891957668        0.0000000000000000     
  -2.5000242884830326E-002  0.21340148330359374        0.0000000000000000     
  -2.5172508849762038E-002  0.22176378825496856        0.0000000000000000     
  -2.5316331510301840E-002  0.23018394377370099        0.0000000000000000     
  -3.0836459546531692E-002  0.19691671560759613        0.0000000000000000     
  -3.1127684712905772E-002  0.20515591016248125        0.0000000000000000     
  -3.1382673939281736E-002  0.21345631431354184        0.0000000000000000     
  -3.1601427225659597E-002  0.22181792806077791        0.0000000000000000     
  -3.1783944572039348E-002  0.23024075140418937        0.0000000000000000     
  -3.7206907042329158E-002  0.19700201906339179        0.0000000000000000     
  -3.7564397691280491E-002  0.20523102719429057        0.0000000000000000     
  -3.7877697098808207E-002  0.21352462864006519        0.0000000000000000     
  -3.8146805264912299E-002  0.22188282340071580        0.0000000000000000     
  -3.8371722189592762E-002  0.23030561147624223        0.0000000000000000     
  -4.3681723529183543E-002  0.19710633547030426        0.0000000000000000     
  -4.4109672550630870E-002  0.20532238001500455        0.0000000000000000     
  -4.4485312363409739E-002  0.21360642628316390        0.0000000000000000     
  -4.4808642967520157E-002  0.22195847427478224        0.0000000000000000     
  -4.5079664362962124E-002  0.23037852398985961        0.0000000000000000     
  -5.0260909007094838E-002  0.19722966482833346        0.0000000000000000     
  -5.0763509290956882E-002  0.20542996862462318        0.0000000000000000     
  -5.1205519733086319E-002  0.21370170724283777        0.0000000000000000     
  -5.1586940333483169E-002  0.22204488068297717        0.0000000000000000     
  -5.1907771092147399E-002  0.23045948894504142        0.0000000000000000     
  -2.5316331510301840E-002  0.23018394377370099        0.0000000000000000     
  -2.5437661181984764E-002  0.23863417236317258        0.0000000000000000     
  -2.5542448180345841E-002  0.24708669652676474        0.0000000000000000     
  -2.5630692505385071E-002  0.25554151626447752        0.0000000000000000     
  -2.5702394157102456E-002  0.26399863157631087        0.0000000000000000     
  -3.1783944572039348E-002  0.23024075140418937        0.0000000000000000     
  -3.1937792386978754E-002  0.23869967919441917        0.0000000000000000     
  -3.2070537079035601E-002  0.24716960628211010        0.0000000000000000     
  -3.2182178648209873E-002  0.25565053266726218        0.0000000000000000     
  -3.2272717094501580E-002  0.26414245834987538        0.0000000000000000     
  -3.8371722189592762E-002  0.23030561147624223        0.0000000000000000     
  -3.8560901806653995E-002  0.23877202273841847        0.0000000000000000     
  -3.8722798049900350E-002  0.24726108705901817        0.0000000000000000     
  -3.8857410919331835E-002  0.25577280443804135        0.0000000000000000     
  -3.8964740414948462E-002  0.26430717487548810        0.0000000000000000     
  -4.5079664362962124E-002  0.23037852398985961        0.0000000000000000     
  -4.5306989441010484E-002  0.23885120299517035        0.0000000000000000     
  -4.5499231092940101E-002  0.24736113885748881        0.0000000000000000     
  -4.5656389318750969E-002  0.25590833157681503        0.0000000000000000     
  -4.5778464118443100E-002  0.26449278115314895        0.0000000000000000     
  -5.1907771092147399E-002  0.23045948894504142        0.0000000000000000     
  -5.2176055290048234E-002  0.23893721996467493        0.0000000000000000     
  -5.2399836208154846E-002  0.24746976167752219        0.0000000000000000     
  -5.2579113846467268E-002  0.25605711408358328        0.0000000000000000     
  -5.2713888204985480E-002  0.26469927718285802        0.0000000000000000     
  -2.5702394157102456E-002  0.26399863157631087        0.0000000000000000     
  -2.5769754873693356E-002  0.27240300441591742        0.0000000000000000     
  -2.5844976393353137E-002  0.28069959673694966        0.0000000000000000     
  -2.5928058716081785E-002  0.28888840853940767        0.0000000000000000     
  -2.6019001841879316E-002  0.29696943982329144        0.0000000000000000     
  -3.2272717094501580E-002  0.26414245834987538        0.0000000000000000     
  -3.2356996212326558E-002  0.27259259380231338        0.0000000000000000     
  -3.2449859796100607E-002  0.28094814949694003        0.0000000000000000     
  -3.2551307845823753E-002  0.28920912543375521        0.0000000000000000     
  -3.2661340361495983E-002  0.29737552161275893        0.0000000000000000     
  -3.8964740414948462E-002  0.26430717487548810        0.0000000000000000     
  -3.9063623969533459E-002  0.27281313277170038        0.0000000000000000     
  -3.9172899015870087E-002  0.28123961252702023        0.0000000000000000     
  -3.9292565553958325E-002  0.28958661414144776        0.0000000000000000     
  -3.9422623583798180E-002  0.29785413761498292        0.0000000000000000     
  -4.5778464118443100E-002  0.26449278115314895        0.0000000000000000     
  -4.5889638145314091E-002  0.27306462132407811        0.0000000000000000     
  -4.6014094052661554E-002  0.28157398582719023        0.0000000000000000     
  -4.6151831840485505E-002  0.29002087466248533        0.0000000000000000     
  -4.6302851508785915E-002  0.29840528782996334        0.0000000000000000     
  -5.2713888204985480E-002  0.26469927718285802        0.0000000000000000     
  -5.2835038739668411E-002  0.27334705945944693        0.0000000000000000     
  -5.2973444906475008E-002  0.28195126939745024        0.0000000000000000     
  -5.3129106705405264E-002  0.29051190699686796        0.0000000000000000     
  -5.3302024136459174E-002  0.29902897225770020        0.0000000000000000     
  -2.9343097344585376E-002   5.8114086731728437E-002   0.0000000000000000     
  -3.0756220280465402E-002   6.3326306075539879E-002   0.0000000000000000     
  -3.2157657737659474E-002   6.8814162708785598E-002   0.0000000000000000     
  -3.3547409716167584E-002   7.4577656631465553E-002   0.0000000000000000     
  -3.4925476215989737E-002   8.0616787843579771E-002   0.0000000000000000     
  -3.3381390052837141E-002   5.8679600461210429E-002   0.0000000000000000     
  -3.4926960766620302E-002   6.3841198764553575E-002   0.0000000000000000     
  -3.6475115135479415E-002   6.9290013923076710E-002   0.0000000000000000     
  -3.8025853159414466E-002   7.5026045936779848E-002   0.0000000000000000     
  -3.9579174838425456E-002   8.1049294805662989E-002   0.0000000000000000     
  -3.7378604133899609E-002   5.9110478287583847E-002   0.0000000000000000     
  -3.9120898194421737E-002   6.4300500012158909E-002   0.0000000000000000     
  -4.0864431793832652E-002   6.9766886858645530E-002   0.0000000000000000     
  -4.2609204932132362E-002   7.5509638827043757E-002   0.0000000000000000     
  -4.4355217609320874E-002   8.1528755917353535E-002   0.0000000000000000     
  -4.1334739587772791E-002   5.9406720210848675E-002   0.0000000000000000     
  -4.3338032563869706E-002   6.4704209818355840E-002   0.0000000000000000     
  -4.5325607712719207E-002   7.0244781515492030E-002   0.0000000000000000     
  -4.7297465034321300E-002   7.6028435302257225E-002   0.0000000000000000     
  -4.9253604528675998E-002   8.2055171178651423E-002   0.0000000000000000     
  -4.5249796414456686E-002   5.9568326231004914E-002   0.0000000000000000     
  -4.7578363874964204E-002   6.5052328183144423E-002   0.0000000000000000     
  -4.9858642892139059E-002   7.0723697893616225E-002   0.0000000000000000     
  -5.2090633465981272E-002   7.6582435362420292E-002   0.0000000000000000     
  -5.4274335596490836E-002   8.2628540589556668E-002   0.0000000000000000     
  -3.4925476215989737E-002   8.0616787843579771E-002   0.0000000000000000     
  -3.6271488900096543E-002   8.6873693343914635E-002   0.0000000000000000     
  -3.7565079431458606E-002   9.3290510131256485E-002   0.0000000000000000     
  -3.8806247810075946E-002   9.9867238205605349E-002   0.0000000000000000     
  -3.9994994035948542E-002  0.10660387756696121        0.0000000000000000     
  -3.9579174838425456E-002   8.1049294805662989E-002   0.0000000000000000     
  -4.1103827598916315E-002   8.7294990515039084E-002   0.0000000000000000     
  -4.2568558867290981E-002   9.3698363050221140E-002   0.0000000000000000     
  -4.3973368643549449E-002  0.10025941241120913        0.0000000000000000     
  -4.5318256927691716E-002  0.10697813859800309        0.0000000000000000     
  -4.4355217609320874E-002   8.1528755917353535E-002   0.0000000000000000     
  -4.6066789882321643E-002   8.7763356090995559E-002   0.0000000000000000     
  -4.7708241808058154E-002   9.4152557309390483E-002   0.0000000000000000     
  -4.9279573386530412E-002  0.10069635957253831        0.0000000000000000     
  -5.0780784617738411E-002  0.10739476288043905        0.0000000000000000     
  -4.9253604528675998E-002   8.2055171178651423E-002   0.0000000000000000     
  -5.1160375750312528E-002   8.8278790071784061E-002   0.0000000000000000     
  -5.2984128253760150E-002   9.4653092908764530E-002   0.0000000000000000     
  -5.4724862039018857E-002  0.10117807968959287        0.0000000000000000     
  -5.6382577106088648E-002  0.10785375041426905        0.0000000000000000     
  -5.4274335596490836E-002   8.2628540589556668E-002   0.0000000000000000     
  -5.6384585202888977E-002   8.8841292457404589E-002   0.0000000000000000     
  -5.8396218204396957E-002   9.5199969848343294E-002   0.0000000000000000     
  -6.0309234601014755E-002  0.10170457276237281        0.0000000000000000     
  -6.2123634392742405E-002  0.10835510119949313        0.0000000000000000     
  -3.9994994035948542E-002  0.10660387756696121        0.0000000000000000     
  -4.1132504463441452E-002  0.11348786723147053        0.0000000000000000     
  -4.2219965446919694E-002  0.12050664621527979        0.0000000000000000     
  -4.3257376986383295E-002  0.12766021451838896        0.0000000000000000     
  -4.4244739081832227E-002  0.13494857214079803        0.0000000000000000     
  -4.5318256927691716E-002  0.10697813859800309        0.0000000000000000     
  -4.6604878249086136E-002  0.11384301580803478        0.0000000000000000     
  -4.7834887137101038E-002  0.12084251823873600        0.0000000000000000     
  -4.9008283591736472E-002  0.12797664589010674        0.0000000000000000     
  -5.0125067612992381E-002  0.13524539876214700        0.0000000000000000     
  -5.0780784617738411E-002  0.10739476288043905        0.0000000000000000     
  -5.2215609893813582E-002  0.11423804127251443        0.0000000000000000     
  -5.3587783606887353E-002  0.12121646878818625        0.0000000000000000     
  -5.4897305756959718E-002  0.12833004542745452        0.0000000000000000     
  -5.6144176344030690E-002  0.13557877119031919        0.0000000000000000     
  -5.6382577106088648E-002  0.10785375041426905        0.0000000000000000     
  -5.7964699397623803E-002  0.11467294362490948        0.0000000000000000     
  -5.9478654856278602E-002  0.12162849786363056        0.0000000000000000     
  -6.0924443482053073E-002  0.12872041313043228        0.0000000000000000     
  -6.2302065274947180E-002  0.13594868942531468        0.0000000000000000     
  -6.2123634392742405E-002  0.10835510119949313        0.0000000000000000     
  -6.3852146760516787E-002  0.11514772286521993        0.0000000000000000     
  -6.5507500885274822E-002  0.12207860546506892        0.0000000000000000     
  -6.7089696767016510E-002  0.12914774899904005        0.0000000000000000     
  -6.8598734405741837E-002  0.13635515346713342        0.0000000000000000     
  -4.4244739081832227E-002  0.13494857214079803        0.0000000000000000     
  -4.5181337557622471E-002  0.14236111836737347        0.0000000000000000     
  -4.6066458238109988E-002  0.14988725248298188        0.0000000000000000     
  -4.6900101123294756E-002  0.15752697448762321        0.0000000000000000     
  -4.7682266213176797E-002  0.16528028438129744        0.0000000000000000     
  -5.0125067612992381E-002  0.13524539876214700        0.0000000000000000     
  -5.1184953418702141E-002  0.14263851027179886        0.0000000000000000     
  -5.2187655226699076E-002  0.15014571383600436        0.0000000000000000     
  -5.3133173036983207E-002  0.15776700945476357        0.0000000000000000     
  -5.4021506849554521E-002  0.16550239712807641        0.0000000000000000     
  -5.6144176344030690E-002  0.13557877119031919        0.0000000000000000     
  -5.7328537891855186E-002  0.14295225679415821        0.0000000000000000     
  -5.8450532924188107E-002  0.15044011295634935        0.0000000000000000     
  -5.9510161441029497E-002  0.15804233967689268        0.0000000000000000     
  -6.0507423442379291E-002  0.16575893695578814        0.0000000000000000     
  -6.2302065274947180E-002  0.13594868942531468        0.0000000000000000     
  -6.3612090977081620E-002  0.14330235793445159        0.0000000000000000     
  -6.4855091330577111E-002  0.15077044984401691        0.0000000000000000     
  -6.6031066335433597E-002  0.15835296515401054        0.0000000000000000     
  -6.7140015991651134E-002  0.16604990386443264        0.0000000000000000     
  -6.8598734405741837E-002  0.13635515346713342        0.0000000000000000     
  -7.0035612674381464E-002  0.14368881369267902        0.0000000000000000     
  -7.1401330445866037E-002  0.15113672449900695        0.0000000000000000     
  -7.2695887720195571E-002  0.15869888588611722        0.0000000000000000     
  -7.3919284497370036E-002  0.16637529785400987        0.0000000000000000     
  -4.7682266213176797E-002  0.16528028438129744        0.0000000000000000     
  -4.8410751031969679E-002  0.17313469853788019        0.0000000000000000     
  -4.9083353103886979E-002  0.18107773333124710        0.0000000000000000     
  -4.9700072428928703E-002  0.18910938876139821        0.0000000000000000     
  -5.0260909007094838E-002  0.19722966482833346        0.0000000000000000     
  -5.4021506849554521E-002  0.16550239712807641        0.0000000000000000     
  -5.4850675425517047E-002  0.17333892807293733        0.0000000000000000     
  -5.5618697525974814E-002  0.18126365350634074        0.0000000000000000     
  -5.6325573150927843E-002  0.18927657342828652        0.0000000000000000     
  -5.6971302300376114E-002  0.19737768783877480        0.0000000000000000     
  -6.0507423442379291E-002  0.16575893695578814        0.0000000000000000     
  -6.1440252424517380E-002  0.17357659563978781        0.0000000000000000     
  -6.2306581883723601E-002  0.18148200657564359        0.0000000000000000     
  -6.3106411819997973E-002  0.18947516976335563        0.0000000000000000     
  -6.3839742233340435E-002  0.19755608520292373        0.0000000000000000     
  -6.7140015991651134E-002  0.16604990386443264        0.0000000000000000     
  -6.8179482028970714E-002  0.17384770123843157        0.0000000000000000     
  -6.9147006177133361E-002  0.18173279253915586        0.0000000000000000     
  -7.0042588436139058E-002  0.18970517776660542        0.0000000000000000     
  -7.0866228805987821E-002  0.19776485692078025        0.0000000000000000     
  -7.3919284497370036E-002  0.16637529785400987        0.0000000000000000     
  -7.5068364238877000E-002  0.17415224486886866        0.0000000000000000     
  -7.6139970406204016E-002  0.18201601139687731        0.0000000000000000     
  -7.7134102999351112E-002  0.18996659743803593        0.0000000000000000     
  -7.8050762018318259E-002  0.19800400299234439        0.0000000000000000     
  -5.0260909007094838E-002  0.19722966482833346        0.0000000000000000     
  -5.0763509290956882E-002  0.20542996862462318        0.0000000000000000     
  -5.1205519733086319E-002  0.21370170724283777        0.0000000000000000     
  -5.1586940333483169E-002  0.22204488068297717        0.0000000000000000     
  -5.1907771092147399E-002  0.23045948894504142        0.0000000000000000     
  -5.6971302300376114E-002  0.19737768783877480        0.0000000000000000     
  -5.7552623967305837E-002  0.20556003401531800        0.0000000000000000     
  -5.8066277144703228E-002  0.21381664923542859        0.0000000000000000     
  -5.8512261832568267E-002  0.22214753349910660        0.0000000000000000     
  -5.8890578030900989E-002  0.23055268680635199        0.0000000000000000     
  -6.3839742233340435E-002  0.19755608520292373        0.0000000000000000     
  -6.4503732634725031E-002  0.20571881717926041        0.0000000000000000     
  -6.5095542535125686E-002  0.21395742997727799        0.0000000000000000     
  -6.5615171934542429E-002  0.22227192359697640        0.0000000000000000     
  -6.6062620832975261E-002  0.23066229803835570        0.0000000000000000     
  -7.0866228805987821E-002  0.19776485692078025        0.0000000000000000     
  -7.1616835293214443E-002  0.20590631811645047        0.0000000000000000     
  -7.2293315904353742E-002  0.21412404946838587        0.0000000000000000     
  -7.2895670639405663E-002  0.22241805097658660        0.0000000000000000     
  -7.3423899498370249E-002  0.23078832264105248        0.0000000000000000     
  -7.8050762018318259E-002  0.19800400299234439        0.0000000000000000     
  -7.8891931942774107E-002  0.20612253682688808        0.0000000000000000     
  -7.9659597252387332E-002  0.21431650770875235        0.0000000000000000     
  -8.0353757947157933E-002  0.22258591563793709        0.0000000000000000     
  -8.0974414027085884E-002  0.23093076061444240        0.0000000000000000     
  -5.1907771092147399E-002  0.23045948894504142        0.0000000000000000     
  -5.2176055290048234E-002  0.23893721996467493        0.0000000000000000     
  -5.2399836208154846E-002  0.24746976167752219        0.0000000000000000     
  -5.2579113846467268E-002  0.25605711408358328        0.0000000000000000     
  -5.2713888204985480E-002  0.26469927718285802        0.0000000000000000     
  -5.8890578030900989E-002  0.23055268680635199        0.0000000000000000     
  -5.9207409436880923E-002  0.23903144544077107        0.0000000000000000     
  -5.9468939747687626E-002  0.24758314568596998        0.0000000000000000     
  -5.9675168963321118E-002  0.25620778754194878        0.0000000000000000     
  -5.9826097083781379E-002  0.26490537100870748        0.0000000000000000     
  -6.6062620832975261E-002  0.23066229803835570        0.0000000000000000     
  -6.6440361964622247E-002  0.23913525121729765        0.0000000000000000     
  -6.6750868063681454E-002  0.24769748104968387        0.0000000000000000     
  -6.6994139130152883E-002  0.25634898753551449        0.0000000000000000     
  -6.7170175164036575E-002  0.26508977067478939        0.0000000000000000     
  -7.3423899498370249E-002  0.23078832264105248        0.0000000000000000     
  -7.3874912873272219E-002  0.23924863729425466        0.0000000000000000     
  -7.4245621156136324E-002  0.24781276776866390        0.0000000000000000     
  -7.4536024346962604E-002  0.25648071406428025        0.0000000000000000     
  -7.4746122445751031E-002  0.26525247618110376        0.0000000000000000     
  -8.0974414027085884E-002  0.23093076061444240        0.0000000000000000     
  -8.1511062162830814E-002  0.23937160367164212        0.0000000000000000     
  -8.1953199025052284E-002  0.24792900584291006        0.0000000000000000     
  -8.2300824613750267E-002  0.25660296712824626        0.0000000000000000     
  -8.2553938928924778E-002  0.26539348752765074        0.0000000000000000     
  -5.2713888204985480E-002  0.26469927718285802        0.0000000000000000     
  -5.2835038739668411E-002  0.27334705945944693        0.0000000000000000     
  -5.2973444906475008E-002  0.28195126939745024        0.0000000000000000     
  -5.3129106705405264E-002  0.29051190699686796        0.0000000000000000     
  -5.3302024136459174E-002  0.29902897225770020        0.0000000000000000     
  -5.9826097083781379E-002  0.26490537100870748        0.0000000000000000     
  -5.9958639537946820E-002  0.27363173601127172        0.0000000000000000     
  -6.0109711754695816E-002  0.28234272247466724        0.0000000000000000     
  -6.0279313734028367E-002  0.29103833039889410        0.0000000000000000     
  -6.0467445475944494E-002  0.29971855978395229        0.0000000000000000     
  -6.7170175164036575E-002  0.26508977067478939        0.0000000000000000     
  -6.7319254325499650E-002  0.27388993981301774        0.0000000000000000     
  -6.7481654774709313E-002  0.28271960429570869        0.0000000000000000     
  -6.7657376511665548E-002  0.29157876412286227        0.0000000000000000     
  -6.7846419536368385E-002  0.30046741929447834        0.0000000000000000     
  -7.4746122445751031E-002  0.26525247618110376        0.0000000000000000     
  -7.4916883102326887E-002  0.27412167086468503        0.0000000000000000     
  -7.5089273966515477E-002  0.28308191486057460        0.0000000000000000     
  -7.5263295038316774E-002  0.29213320816877231        0.0000000000000000     
  -7.5438946317730834E-002  0.30127555078927837        0.0000000000000000     
  -8.2553938928924778E-002  0.26539348752765074        0.0000000000000000     
  -8.2751525868428571E-002  0.27432692916627360        0.0000000000000000     
  -8.2932569330114336E-002  0.28342965416926474        0.0000000000000000     
  -8.3097069313982100E-002  0.29270166253662439        0.0000000000000000     
  -8.3245025820031876E-002  0.30214295426835236        0.0000000000000000     
  -4.5249796414456686E-002   5.9568326231004914E-002   0.0000000000000000     
  -4.7578363874964204E-002   6.5052328183144423E-002   0.0000000000000000     
  -4.9858642892139059E-002   7.0723697893616225E-002   0.0000000000000000     
  -5.2090633465981272E-002   7.6582435362420292E-002   0.0000000000000000     
  -5.4274335596490836E-002   8.2628540589556668E-002   0.0000000000000000     
  -4.9639727735763021E-002   5.9671417288385452E-002   0.0000000000000000     
  -5.2218580219192720E-002   6.5391091699102497E-002   0.0000000000000000     
  -5.4730226076971603E-002   7.1227650127834552E-002   0.0000000000000000     
  -5.7174665309099655E-002   7.7181092574581570E-002   0.0000000000000000     
  -5.9551897915576898E-002   8.3251419039343619E-002   0.0000000000000000     
  -5.5020486673503503E-002   5.9792114323323146E-002   0.0000000000000000     
  -5.7635369688042754E-002   6.5766736958807970E-002   0.0000000000000000     
  -6.0207046012096213E-002   7.1780652352963492E-002   0.0000000000000000     
  -6.2735515645663875E-002   7.7833860505789693E-002   0.0000000000000000     
  -6.5220778588745754E-002   8.3926361417286655E-002   0.0000000000000000     
  -6.1392073227678166E-002   5.9930417335818005E-002   0.0000000000000000     
  -6.3828732281514311E-002   6.6179263962260801E-002   0.0000000000000000     
  -6.6289102697512897E-002   7.2382704569003031E-002   0.0000000000000000     
  -6.8773184475673918E-002   7.8540739156044689E-002   0.0000000000000000     
  -7.1280977615997373E-002   8.4653367723385775E-002   0.0000000000000000     
  -6.8754487398286990E-002   6.0086326325870042E-002   0.0000000000000000     
  -7.0798667999607379E-002   6.6628672709461045E-002   0.0000000000000000     
  -7.2976396133221627E-002   7.3033806775953211E-002   0.0000000000000000     
  -7.5287671799129777E-002   7.9301728525346504E-002   0.0000000000000000     
  -7.7732494997331786E-002   8.5432437957640966E-002   0.0000000000000000     
  -5.4274335596490836E-002   8.2628540589556668E-002   0.0000000000000000     
  -5.6384585202888977E-002   8.8841292457404589E-002   0.0000000000000000     
  -5.8396218204396957E-002   9.5199969848343294E-002   0.0000000000000000     
  -6.0309234601014755E-002  0.10170457276237281        0.0000000000000000     
  -6.2123634392742405E-002  0.10835510119949313        0.0000000000000000     
  -5.9551897915576898E-002   8.3251419039343619E-002   0.0000000000000000     
  -6.1841267983263011E-002   8.9450982033804027E-002   0.0000000000000000     
  -6.4022119599017685E-002   9.5792134069646290E-002   0.0000000000000000     
  -6.6094452762840941E-002  0.10227487514687032        0.0000000000000000     
  -6.8058267474732786E-002  0.10889920526547620        0.0000000000000000     
  -6.5220778588745754E-002   8.3926361417286655E-002   0.0000000000000000     
  -6.7632273834646678E-002   9.0107977586929386E-002   0.0000000000000000     
  -6.9939440376671505E-002   9.6428531514193033E-002   0.0000000000000000     
  -7.2142278214820235E-002  0.10288802319907758        0.0000000000000000     
  -7.4240787349092882E-002  0.10948645264158306        0.0000000000000000     
  -7.1280977615997373E-002   8.4653367723385775E-002   0.0000000000000000     
  -7.3757602757039964E-002   9.0812279116780609E-002   0.0000000000000000     
  -7.6148180537358390E-002   9.7109162181983552E-002   0.0000000000000000     
  -7.8452710956952637E-002  0.10354401691899461        0.0000000000000000     
  -8.0671194015822678E-002  0.11011684332781380        0.0000000000000000     
  -7.7732494997331786E-002   8.5432437957640966E-002   0.0000000000000000     
  -8.0217254750442890E-002   9.1563886623357682E-002   0.0000000000000000     
  -8.2648340081078325E-002   9.7834026073017832E-002   0.0000000000000000     
  -8.5025750989238091E-002  0.10424285630662138        0.0000000000000000     
  -8.7349487474922188E-002  0.11079037732416835        0.0000000000000000     
  -6.2123634392742405E-002  0.10835510119949313        0.0000000000000000     
  -6.3852146760516787E-002  0.11514772286521993        0.0000000000000000     
  -6.5507500885274822E-002  0.12207860546506892        0.0000000000000000     
  -6.7089696767016510E-002  0.12914774899904005        0.0000000000000000     
  -6.8598734405741837E-002  0.13635515346713342        0.0000000000000000     
  -6.8058267474732786E-002  0.10889920526547620        0.0000000000000000     
  -6.9929110293729058E-002  0.11566439310561465        0.0000000000000000     
  -7.1722527778865633E-002  0.12256970734743651        0.0000000000000000     
  -7.3438519930142526E-002  0.12961514799094176        0.0000000000000000     
  -7.5077086747559724E-002  0.13680071503613045        0.0000000000000000     
  -7.4240787349092882E-002  0.10948645264158306        0.0000000000000000     
  -7.6246748308497134E-002  0.11622496845826236        0.0000000000000000     
  -7.8171941622040719E-002  0.12310471926566845        0.0000000000000000     
  -8.0016367289723653E-002  0.13012570506380128        0.0000000000000000     
  -8.1780025311545934E-002  0.13728792585266089        0.0000000000000000     
  -8.0671194015822678E-002  0.11011684332781380        0.0000000000000000     
  -8.2805060804821015E-002  0.11682944892316316        0.0000000000000000     
  -8.4855742414800081E-002  0.12368364121976473        0.0000000000000000     
  -8.6823238845759904E-002  0.13067942021761858        0.0000000000000000     
  -8.8707550097700413E-002  0.13781678591672472        0.0000000000000000     
  -8.7349487474922188E-002  0.11079037732416835        0.0000000000000000     
  -8.9604047782700702E-002  0.11747783450031696        0.0000000000000000     
  -9.1773930157143704E-002  0.12430647320972543        0.0000000000000000     
  -9.3859134598251209E-002  0.13127629345239378        0.0000000000000000     
  -9.5859661106023231E-002  0.13838729522832197        0.0000000000000000     
  -6.8598734405741837E-002  0.13635515346713342        0.0000000000000000     
  -7.0035612674381464E-002  0.14368881369267902        0.0000000000000000     
  -7.1401330445866037E-002  0.15113672449900695        0.0000000000000000     
  -7.2695887720195571E-002  0.15869888588611722        0.0000000000000000     
  -7.3919284497370036E-002  0.16637529785400987        0.0000000000000000     
  -7.5077086747559724E-002  0.13680071503613045        0.0000000000000000     
  -7.6639109272411937E-002  0.14411336068387331        0.0000000000000000     
  -7.8125468545993823E-002  0.15154003713504116        0.0000000000000000     
  -7.9536164568305381E-002  0.15908074438963393        0.0000000000000000     
  -8.0871197339346598E-002  0.16673548244765168        0.0000000000000000     
  -8.1780025311545934E-002  0.13728792585266089        0.0000000000000000     
  -8.3462587059830229E-002  0.14457773552306746        0.0000000000000000     
  -8.5063723906899258E-002  0.15198148796584110        0.0000000000000000     
  -8.6583435852752993E-002  0.15949918318098194        0.0000000000000000     
  -8.8021722897391450E-002  0.16713082116848979        0.0000000000000000     
  -8.8707550097700413E-002  0.13781678591672472        0.0000000000000000     
  -9.0506046036636381E-002  0.14508193821026139        0.0000000000000000     
  -9.2216096528582370E-002  0.15246107699140685        0.0000000000000000     
  -9.3837701573538462E-002  0.15995420226016113        0.0000000000000000     
  -9.5370861171504576E-002  0.16756131401652430        0.0000000000000000     
  -9.5859661106023231E-002  0.13838729522832197        0.0000000000000000     
  -9.7769486202830366E-002  0.14562596874545514        0.0000000000000000     
  -9.9582586411043186E-002  0.15297880421173840        0.0000000000000000     
 -0.10129896173066173       0.16044580162717173        0.0000000000000000     
 -0.10291861216168598       0.16802696099175515        0.0000000000000000     
  -7.3919284497370036E-002  0.16637529785400987        0.0000000000000000     
  -7.5068364238877000E-002  0.17415224486886866        0.0000000000000000     
  -7.6139970406204016E-002  0.18201601139687731        0.0000000000000000     
  -7.7134102999351112E-002  0.18996659743803593        0.0000000000000000     
  -7.8050762018318259E-002  0.19800400299234439        0.0000000000000000     
  -8.0871197339346598E-002  0.16673548244765168        0.0000000000000000     
  -8.2127417310575851E-002  0.17449040447465042        0.0000000000000000     
  -8.3301674933451461E-002  0.18233166363618614        0.0000000000000000     
  -8.4393970207973401E-002  0.19025925993225890        0.0000000000000000     
  -8.5404303134141671E-002  0.19827319336286867        0.0000000000000000     
  -8.8021722897391450E-002  0.16713082116848979        0.0000000000000000     
  -8.9377159500406839E-002  0.17486235799932812        0.0000000000000000     
  -9.0648320121391415E-002  0.18267974974446019        0.0000000000000000     
  -9.1835204760345152E-002  0.19058299640388604        0.0000000000000000     
  -9.2937813417268020E-002  0.19857209797760561        0.0000000000000000     
  -9.5370861171504576E-002  0.16756131401652430        0.0000000000000000     
  -9.6817590808370005E-002  0.17526810544290192        0.0000000000000000     
  -9.8179905970023906E-002  0.18306026972169959        0.0000000000000000     
  -9.9457806656466349E-002  0.19093780685291734        0.0000000000000000     
 -0.10065129286769732       0.19890071683655519        0.0000000000000000     
 -0.10291861216168598       0.16802696099175515        0.0000000000000000     
 -0.10444871123446528       0.17570764680537165        0.0000000000000000     
 -0.10589643247934896       0.18347322356790424        0.0000000000000000     
 -0.10726177589633705       0.19132369127935284        0.0000000000000000     
 -0.10854474148542952       0.19925904993971755        0.0000000000000000     
  -7.8050762018318259E-002  0.19800400299234439        0.0000000000000000     
  -7.8891931942774107E-002  0.20612253682688808        0.0000000000000000     
  -7.9659597252387332E-002  0.21431650770875235        0.0000000000000000     
  -8.0353757947157933E-002  0.22258591563793709        0.0000000000000000     
  -8.0974414027085884E-002  0.23093076061444240        0.0000000000000000     
  -8.5404303134141671E-002  0.19827319336286867        0.0000000000000000     
  -8.6337595560576075E-002  0.20636769955538312        0.0000000000000000     
  -8.7198769335896376E-002  0.21453701413717008        0.0000000000000000     
  -8.7987824460102587E-002  0.22278113710822936        0.0000000000000000     
  -8.8704760933194654E-002  0.23110006846856113        0.0000000000000000     
  -9.2937813417268020E-002  0.19857209797760561        0.0000000000000000     
  -9.3962399123792437E-002  0.20664203254674535        0.0000000000000000     
  -9.4915214911550722E-002  0.21478777819243172        0.0000000000000000     
  -9.5796260780542902E-002  0.22300933491466474        0.0000000000000000     
  -9.6605536730768965E-002  0.23130670271344439        0.0000000000000000     
 -0.10065129286769732       0.19890071683655519        0.0000000000000000     
 -0.10176634263242318       0.20694553580097472        0.0000000000000000     
 -0.10280893397935037       0.21506879987453734        0.0000000000000000     
 -0.10377906690847889       0.22327050905724313        0.0000000000000000     
 -0.10467674141980877       0.23155066334909211        0.0000000000000000     
 -0.10854474148542952       0.19925904993971755        0.0000000000000000     
 -0.10974942608646829       0.20727820931807125        0.0000000000000000     
 -0.11087992653929533       0.21538007918348695        0.0000000000000000     
 -0.11193624284391060       0.22356465953596469        0.0000000000000000     
 -0.11291837500031413       0.23183195037550439        0.0000000000000000     
  -8.0974414027085884E-002  0.23093076061444240        0.0000000000000000     
  -8.1511062162830814E-002  0.23937160367164212        0.0000000000000000     
  -8.1953199025052284E-002  0.24792900584291006        0.0000000000000000     
  -8.2300824613750267E-002  0.25660296712824626        0.0000000000000000     
  -8.2553938928924778E-002  0.26539348752765074        0.0000000000000000     
  -8.8704760933194654E-002  0.23110006846856113        0.0000000000000000     
  -8.9335192485342371E-002  0.23951906792732369        0.0000000000000000     
  -8.9864732846715450E-002  0.24806339519367562        0.0000000000000000     
  -9.0293382017313822E-002  0.25673305026761678        0.0000000000000000     
  -9.0621139997137543E-002  0.26552803314914725        0.0000000000000000     
  -9.6605536730768965E-002  0.23130670271344439        0.0000000000000000     
  -9.7333686492851221E-002  0.23970594763916320        0.0000000000000000     
  -9.7971353797412009E-002  0.24823313574221376        0.0000000000000000     
  -9.8518538644451273E-002  0.25688826702259615        0.0000000000000000     
  -9.8975241033969069E-002  0.26567134148031024        0.0000000000000000     
 -0.10467674141980877       0.23155066334909211        0.0000000000000000     
 -0.10550654418535735       0.23993224280716052        0.0000000000000000     
 -0.10627306187714196       0.24843822748852459        0.0000000000000000     
 -0.10697629449516263       0.25706861739318437        0.0000000000000000     
 -0.10761624203941933       0.26582341252114000        0.0000000000000000     
 -0.11291837500031413       0.23183195037550439        0.0000000000000000     
 -0.11385376556286074       0.24019795343131567        0.0000000000000000     
 -0.11476985708590533       0.24867867043260802        0.0000000000000000     
 -0.11566664956944786       0.25727410137938145        0.0000000000000000     
 -0.11654414301348838       0.26598424627163608        0.0000000000000000     
  -8.2553938928924778E-002  0.26539348752765074        0.0000000000000000     
  -8.2751525868428571E-002  0.27432692916627360        0.0000000000000000     
  -8.2932569330114336E-002  0.28342965416926474        0.0000000000000000     
  -8.3097069313982100E-002  0.29270166253662439        0.0000000000000000     
  -8.3245025820031876E-002  0.30214295426835236        0.0000000000000000     
  -9.0621139997137543E-002  0.26552803314914725        0.0000000000000000     
  -9.0878348197708250E-002  0.27451137596624470        0.0000000000000000     
  -9.1095348030547529E-002  0.28374611084688689        0.0000000000000000     
  -9.1272139495655408E-002  0.29323223779107382        0.0000000000000000     
  -9.1408722593031885E-002  0.30296975679880550        0.0000000000000000     
  -9.8975241033969069E-002  0.26567134148031024        0.0000000000000000     
  -9.9352515664069510E-002  0.27468067251305983        0.0000000000000000     
  -9.9661417232856681E-002  0.28401457351854842        0.0000000000000000     
  -9.9901945740330608E-002  0.29367304449677617        0.0000000000000000     
 -0.10007410118649127       0.30365608544774292        0.0000000000000000     
 -0.10761624203941933       0.26582341252114000        0.0000000000000000     
 -0.10817402826751232       0.27483481880671901        0.0000000000000000     
 -0.10863077693704179       0.28423504218424939        0.0000000000000000     
 -0.10898648804800769       0.29402408265373137        0.0000000000000000     
 -0.10924116160041004       0.30420194021516461        0.0000000000000000     
 -0.11654414301348838       0.26598424627163608        0.0000000000000000     
 -0.11734288600803673       0.27497381484722211        0.0000000000000000     
 -0.11800342714310283       0.28440751684398985        0.0000000000000000     
 -0.11852576641868663       0.29428535226193941        0.0000000000000000     
 -0.11890990383478817       0.30460732110107064        0.0000000000000000     
 </DataArray>
 <DataArray  type="Float64" Name="stress" NumberOfComponents="3" format="ascii">
   4067853872.2595825        904109162.30021191       -920769553.27557147     
   4157748357.1285224        349053238.49785876       -653155979.36530268     
   4308002614.2841635       -4803444.3488488197       -482498882.16290212     
   4518616643.7264738       -157460886.23997450       -408798261.66836470     
   4789590445.4554682       -108919087.17549181       -432054117.88170576     
   5022955405.4642153        1224443099.1348724       -439717459.31618184     
   4893308565.7965641        640534249.06454790       -262527167.43452179     
   4819522673.1848631        242828555.84735942       -150599973.19590974     
   4801597727.6290970        31326019.483302832       -103935876.60034688     
   4839533729.1292667        6026639.9723582268       -122534877.64783069     
   5480727249.5901051        1395578129.2459102        58193361.320001245     
   5222091596.9996481        809982106.39174306        139711741.73717260     
   5014818066.2343884        395593156.28822970        187660403.57612205     
   4858906657.2943192        152411278.93534422        202039346.83684450     
   4754357370.1794462        80436474.333115816        182848571.51933995     
   5441169404.6372480        1417514252.6333227        572962908.63296211     
   5144097450.7377739        857396810.47945428        553560748.14977610     
   4893888793.4327364        453490356.97373962        532282248.15319180     
   4690543432.7221518        205794892.11618638        509127408.64320296     
   4534061368.6060104        114310415.90679264        484096229.61981356     
   4904281870.6056690        1290251469.2971215        1104591182.6226990     
   4659326127.0109386        782778361.32767045        979019851.80329430     
   4456734854.7799072        416520157.90389466        883265560.53530633     
   4296508053.9125843        191476859.02579594        817328308.81873775     
   4178645724.4089656        107648464.69338298        781208096.65359485     
   4789590445.4554682       -108919087.17549181       -432054117.88170576     
   4695232126.7727995       -79930512.264691353       -314598994.13206524     
   4599885296.4428511       -54236976.178154707       -226253090.66232228     
   4503549954.4656544       -31838478.915776968       -167016407.47247624     
   4406226100.8411942       -12735020.477617502       -136888944.56252903     
   4839533729.1292667        6026639.9723582268       -122534877.64783069     
   4673860441.8109207        4485457.5489590168       -47699614.973303884     
   4508265317.5903273        3204818.7847349644        8432528.4154209197     
   4342748356.4674816        2184723.6796715260        45861552.518333144     
   4177309558.4423895        1425172.2337837219        64587457.335433766     
   4754357370.1794462        80436474.333115816        182848571.51933995     
   4547100831.3513908        57285049.713335276        216308426.98794925     
   4340989130.3660946        37949751.236085415        241471264.16483289     
   4136022267.2235680        22430578.901398182        258337083.04999182     
   3932200241.9238043        10727532.709250689        266905883.64342827     
   4534061368.6060104        114310415.90679264        484096229.61981356     
   4314953295.3942070        78468264.228418112        477425131.75168175     
   4098056734.7701678        49997821.175941229        472863116.58591092     
   3883371686.7339101        28899086.749408007        470410184.12250352     
   3670898151.2854266        15172060.948773146        470066334.36145037     
   4178645724.4089656        107648464.69338298        781208096.65359485     
   3977417833.9393578        68035101.094182491        735650499.31790400     
   3779468130.8025408        39349028.604287386        702608085.67865801     
   3584796614.9985123        21590247.223683119        682080855.73585963     
   3393403286.5272727        14758756.952372789        674068809.48950100     
   4406226100.8411942       -12735020.477617502       -136888944.56252903     
   4243241989.2344112       -14076619.137863398       -119096326.80161798     
   4080753875.1845508       -13764892.608363390       -100542824.19436365     
   3918761758.6915965       -11799840.889172316       -81228436.740769893     
   3757265639.7555528       -8181463.9802894592       -61153164.440807238     
   4177309558.4423895        1425172.2337837219        64587457.335433766     
   4017957190.0395398        2635756.6236007214        77353261.936665609     
   3858621740.0438099        3902735.7038121223        91562864.990710407     
   3699303208.4551978        5226109.4744246006        107216266.49756689     
   3540001595.2736940        6605877.9353997707        124313466.45724274     
   3932200241.9238043        10727532.709250689        266905883.64342827     
   3778430798.4576492        15075654.668966293        274085949.41021430     
   3624199194.2488070        17883240.819724083        283392727.23628682     
   3469505429.2972813        19150291.161540031        294826217.12163478     
   3314349503.6030836        18876805.694430232        308386419.06626314     
   3670898151.2854266        15172060.948773146        470066334.36145037     
   3524662814.4887242        23243074.998211145        471101735.61903262     
   3377486237.7995381        28176622.739368677        474946762.54236192     
   3229368421.2178679        29972704.172239304        481601415.13143545     
   3080309364.7437115        28631319.296835423        491065693.38625419     
   3393403286.5272727        14758756.952372789        674068809.48950100     
   3256653238.1327810        27138017.611362457        668400620.56311095     
   3118482870.6960020        34782881.462721348        666224970.90893519     
   2978892184.2169375        37693348.506478906        667541860.52696633     
   2837881178.6955976        35869418.742628217        672351289.41720867     
   3757265639.7555528       -8181463.9802894592       -61153164.440807238     
   3570523389.3954964       -11616344.840750456       -57360937.239429116     
   3383628382.1320243       -15560415.379249811       -46989837.777872562     
   3196580617.9651661       -20013675.595714569       -30039866.056158066     
   3009380096.8948927       -24976125.490219593       -6511022.0742651355     
   3540001595.2736940        6605877.9353997707        124313466.45724274     
   3369575171.0112391        4568657.8002905846        124575482.46725062     
   3199079380.9097338        2300218.2017093897        130486724.58630010     
   3028514224.9691796       -199440.86039292812        142047192.81442004     
   2857879703.1895719       -2930319.3859969378        159256887.15158802     
   3314349503.6030836        18876805.694430232        308386419.06626314     
   3157582773.5779200        17440406.726629853        305215513.45995778     
   3000830068.7780590        16050758.509844780        306764187.81158870     
   2844091389.2034965        14707861.044052720        313032442.12116951     
   2687366734.8542233        13411714.329231024        324020276.38870132     
   3080309364.7437115        28631319.296835423        491065693.38625419     
   2934546197.0955267        26998901.938258410        484559155.73871040     
   2788880445.7369843        25691205.545151353        481842551.89800167     
   2643312110.6680956        24708230.117553234        482915881.86412281     
   2497841191.8888512        24049975.655444860        487779145.63707989     
   2837881178.6955976        35869418.742628217        672351289.41720867     
   2700465441.5640607        33244143.435145378        662606409.30350459     
   2563230511.7865286        31221559.307655931        655721816.84551811     
   2426176389.3629909        29801666.360158920        651697512.04326367     
   2289303074.2934446        28984464.592635512        650533494.89671862     
   3009380096.8948927       -24976125.490219593       -6511022.0742651355     
   2852526408.3024325       -20603655.598310232       -2461807.0799359721     
   2695977698.6197658       -15214589.340432405       -719706.59458485944     
   2539733967.8468890       -8808926.7165825367       -1284720.6181900203     
   2383795215.9838347       -1386667.7266592979       -4156849.1507706703     
   2857879703.1895719       -2930319.3859969378        159256887.15158802     
   2695867945.5559912       -2716870.1423988342        157810697.02713612     
   2534161267.0748968       -1486490.3905271292        155663649.99116507     
   2372759667.7463036        760819.86968362331        152815746.04369152     
   2211663147.5701952        4025060.6381769180        149266985.18469113     
   2687366734.8542233        13411714.329231024        324020276.38870132     
   2524786215.6008253        10842935.150901437        317078798.09527010     
   2362510875.7426128        9291420.6232070923        311042720.48778892     
   2200540715.2795749        8757170.7460932732        305912043.56625676     
   2038875734.2117314        9240185.5196123123        301686767.33064574     
   2497841191.8888512        24049975.655444860        487779145.63707989     
   2339281218.4369307        20075760.281606674        475342496.12449056     
   2181026524.6228790        17119143.700646281        465417504.89529103     
   2023077110.4467208        15180125.912672281        458004171.94949353     
   1865432975.9084239        14258706.917557836        453102497.28709191     
   2289303074.2934446        28984464.592635512        650533494.89671862     
   2139352954.0643051        24981605.249659300        632601791.11477005     
   1989708213.7157259        21996678.841899514        618788003.21367383     
   1840368853.2477179        20029685.369373083        609092131.19343126     
   1691334872.6602774        19080624.832065225        603514175.05402076     
   2383795215.9838347       -1386667.7266592979       -4156849.1507706703     
   2243688648.5461254        6369989.3805885315       -8964040.5165757593     
   2100365943.5984297        3406188.1212155819       -12113868.605607873     
   1953827101.1407838       -10278071.504652262       -13606333.417840114     
   1804072121.1731544       -34682789.497143507       -13441434.953307066     
   2211663147.5701952        4025060.6381769180        149266985.18469113     
   2074853359.4063206        11726307.344241619        140697627.80757076     
   1935860021.5408981        12149055.045147300        133019678.22611675     
   1794683133.9738851        5293303.7407412529        126233136.44034061     
   1651322696.7053113       -8840946.5688676834        120338002.45023592     
   2038875734.2117314        9240185.5196123123        301686767.33064574     
   1903174281.0899625        16229488.555011868        290559929.71867687     
   1766321866.0750227        19382251.946505666        279558544.42128056     
   1628318489.1669259        18698475.694155633        268682611.43843687     
   1489164150.3656578        14178159.797884822        257932130.77015671     
   1865432975.9084239        14258706.917557836        453102497.28709191     
   1728651413.5970044        19879533.012753844        440622865.21675283     
   1591751477.2008281        25105778.825403512        427502729.97986716     
   1454733166.7198939        29937444.355515361        413742091.57643098     
   1317596482.1541963        34374529.603104889        399340950.00644600     
   1691334872.6602774        19080624.832065225        603514175.05402076     
   1551284756.9274697        22676440.717516243        590886434.30177820     
   1412148854.9183106        29319635.681801081        576852234.90188849     
   1273927166.6327915        39010209.724879801        561411576.85432720     
   1136619692.0709105        51748162.846757770        544564460.15911376     
   1804072121.1731544       -34682789.497143507       -13441434.953307066     
   1772551462.9542820       -16237797.406129003       -8154972.1471930481     
   1749112489.6469016        29146144.389847755       -41549390.212830126     
   1733755201.2509716        101469035.89067042       -113624689.15025032     
   1726479597.7665081        200730877.09636956       -224380868.95940879     
   1651322696.7053113       -8840946.5688676834        120338002.45023592     
   1528318649.3481588       -13829965.664103985        135686794.86590454     
   1409501435.8074765       -4862872.0377954245        124752479.08994356     
   1294871056.0832541        18060334.310052454        87535055.122357443     
   1184427510.1755345        54939653.379586577        24034522.963137880     
   1489164150.3656578        14178159.797884822        257932130.77015671     
   1310098921.5277164       -3618208.1864347458        278799259.85122311     
   1131325675.4112568       -20441300.432475328        285781053.42079484     
   952844412.01626110       -36291116.940294385        278877511.47886705     
   774655131.34277201       -51167657.709786326        258088634.02542865     
   1317596482.1541963        34374529.603104889        399340950.00644600     
   1117892279.4929702        14397475.026960135        421182422.80874950     
   914585208.45824623       -17589140.794193327        441536332.77970111     
   707675269.04999316       -61585317.860423952        460402679.91926634     
   497162461.26824558       -117591056.17166179        477781464.22745711     
   1136619692.0709105        51748162.846757770        544564460.15911376     
   951698723.24392748        40217083.976085961        562836283.73850775     
   759280034.94843459        3693606.8770416975        592018317.16666353     
   559363627.18443263       -57822268.450362980        632110560.44358051     
   351949499.95193744       -144330542.00607848        683113013.56925011     
   1726479597.7665081        200730877.09636956       -224380868.95940879     
   1456279470.3403513        184555686.36546916       -96660939.978843167     
   1153892377.9450140        61090612.403988123        60164861.803945459     
   819318320.58056045       -169664344.78788602        246096536.38899553     
   452557298.24697101       -507709185.21022397        461134083.77626348     
   1184427510.1755345        54939653.379586577        24034522.963137880     
   977503856.57165551        11834516.175916851        155541902.45362642     
   732740342.36168480       -157403489.71471497        312832222.80657285     
   450136967.54561448       -452774364.29233944        495905484.02198350     
   129693732.12346876       -874278107.55690444        704761686.09985459     
   774655131.34277201       -51167657.709786326        258088634.02542865     
   621513860.30467916       -124050968.76306629        386788419.11606395     
   424879833.02352142       -341910133.95988494        537948213.12938428     
   184753049.49933285       -704745153.30017447        711568016.06537616     
  -98866490.267929435       -1212556026.7840068        907647827.92403650     
   497162461.26824558       -117591056.17166179        477781464.22745711     
   388309481.53940398       -223100768.45155248        597078610.00846875     
   230310849.93055251       -492429320.33147490        735512832.77236855     
   23166566.441686690       -925576711.81144178        893084132.51916289     
  -233123368.92717656       -1522542942.8914108        1069792509.2488437     
   351949499.95193744       -144330542.00607848        683113013.56925011     
   277890720.27583134       -285314882.88951451        786412475.13083506     
   149033393.08273983       -608961048.82956290        905526081.73553503     
  -34622481.627292156       -1115269039.8260767        1040453833.3833418     
  -273076903.85430533       -1804238855.8792057        1191195730.0742648     
   4904281870.6056690        1290251469.2971215        1104591182.6226990     
   4659326127.0109386        782778361.32767045        979019851.80329430     
   4456734854.7799072        416520157.90389466        883265560.53530633     
   4296508053.9125843        191476859.02579594        817328308.81873775     
   4178645724.4089656        107648464.69338298        781208096.65359485     
   4098408154.4582257        789988420.48713565        915952558.04100335     
   3972205370.0068798        469906566.71964347        878989153.47049046     
   3874168784.1372051        243712041.55771196        860313003.87378132     
   3804298396.8491926        111404845.00132823        859924109.25088561     
   3762594208.1428566        72984977.050521374        877822469.60179555     
   3444619946.1285830        335351024.02248311        793967554.04073203     
   3404227879.1703086        192777751.96185935        829047424.14006758     
   3377803738.0116644        96764232.566668630        870884764.63559520     
   3365347522.6526499        47310465.836917043        919479575.52732623     
   3366859233.0932689        44416451.772604346        974831856.81525099     
   2942917245.6167436       -73660720.096823215        738636170.62188256     
   2955393654.5012159       -48608082.945680976        829194663.81202495     
   2967639716.4032855       -24323269.069223046        914980842.82075012     
   2979655431.3229465       -806278.46744632721        995994707.64805925     
   2991440799.2602048        21942888.859645367        1072236258.2939577     
   2593300052.9227123       -437046811.87079072        749958407.78445590     
   2625702695.9996147       -254250938.00297248        879430872.48636329     
   2643676719.3120751       -119550463.34996283        992601238.42924070     
   2647222122.8600950       -32945387.911753774        1089469505.6130910     
   2636338906.6436744        5564288.3116531372        1170035674.0379190     
   4178645724.4089656        107648464.69338298        781208096.65359485     
   3977417833.9393578        68035101.094182491        735650499.31790400     
   3779468130.8025408        39349028.604287386        702608085.67865801     
   3584796614.9985123        21590247.223683119        682080855.73585963     
   3393403286.5272727        14758756.952372789        674068809.48950100     
   3762594208.1428566        72984977.050521374        877822469.60179555     
   3594348464.3489428        43485627.485853672        841892828.11735213     
   3428848380.1573792        23138476.595681906        816484881.75595021     
   3266093955.5681648        11943524.380011201        801598630.51759100     
   3106085190.5813060        9900770.8388466835        797234074.40227437     
   3366859233.0932689        44416451.772604346        974831856.81525099     
   3225899954.3367577        23322411.750983596        947908888.82987237     
   3087153807.4521575        9605477.9690679312        929514127.39413381     
   2950620792.4394646        3265650.4268431664        919647572.50803900     
   2816300909.2986836        4302929.1243222952        918309224.17158222     
   2991440799.2602048        21942888.859645367        1072236258.2939577     
   2872072303.9028044        7545453.8895845413        1053698681.4554696     
   2754384412.6868739       -1249967.2755676508        1041695822.5932150     
   2638377125.6124105       -4443374.6358324289        1036227681.7071998     
   2524050442.6794181       -2034768.1911976337        1037294258.7974217     
   2636338906.6436744        5564288.3116531372        1170035674.0379190     
   2532865513.0470839       -3845246.0983409882        1159262205.9941378     
   2430540195.8615294       -9427859.1382241249        1153029967.3531873     
   2329362955.0869994       -11183550.808019757        1151338958.1150746     
   2229333790.7235026       -9112321.1077057123        1154189178.2797973     
   3393403286.5272727        14758756.952372789        674068809.48950100     
   3256653238.1327810        27138017.611362457        668400620.56311095     
   3118482870.6960020        34782881.462721348        666224970.90893519     
   2978892184.2169375        37693348.506478906        667541860.52696633     
   2837881178.6955976        35869418.742628217        672351289.41720867     
   3106085190.5813060        9900770.8388466835        797234074.40227437     
   2978292682.9533410        20193475.849731922        789493138.20545590     
   2849515338.5874515        27203391.734202385        785631591.55253839     
   2719753157.4836416        30930518.492278099        785649434.44354355     
   2589006139.6419129        31374856.123944283        789546666.87845194     
   2816300909.2986836        4302929.1243222952        918309224.17158222     
   2698571228.9278154        12840664.434273124        909003603.39275074     
   2580292194.1233869        19547218.299028397        903964222.42953455     
   2461463804.8853979        24422590.718589544        903191081.28192043     
   2342086061.2138572        27466781.692957520        906684179.94992030     
   2524050442.6794181       -2034768.1911976337        1037294258.7974217     
   2417488876.0562139        5079583.3649942875        1026932016.1250066     
   2310813437.3038154        11814361.157207727        1021222863.5399039     
   2204024126.4222131        18169565.185413718        1020166801.0421044     
   2097120943.4114237        24145195.449650049        1023763828.6316192     
   2229333790.7235026       -9112321.1077057123        1154189178.2797973     
   2135045624.3385286       -3089767.3581093550        1143278376.4022236     
   2041079068.1287251        4004820.3087162971        1137407514.8836548     
   1947434122.0940900        12171441.892770171        1136576593.7240942     
   1854110786.2346170        21410097.394037127        1140785612.9235432     
   2837881178.6955976        35869418.742628217        672351289.41720867     
   2700465441.5640607        33244143.435145378        662606409.30350459     
   2563230511.7865286        31221559.307655931        655721816.84551811     
   2426176389.3629909        29801666.360158920        651697512.04326367     
   2289303074.2934446        28984464.592635512        650533494.89671862     
   2589006139.6419129        31374856.123944283        789546666.87845194     
   2460194095.2036691        30963605.957642674        780807004.12465429     
   2331420021.6885991        30678925.535276413        775314349.98507857     
   2202683919.0967126        30520814.856844544        773068704.45972860     
   2073985787.4280069        30489273.922345757        774070067.54861224     
   2342086061.2138572        27466781.692957520        906684179.94992030     
   2222982626.4931893        29601031.775116920        898783092.05341542     
   2103774326.2648876        31385730.165162563        894515733.72963560     
   1984461160.5289466        32820876.863087296        893882104.97858274     
   1865043129.2853813        33906471.868912935        896882205.80026364     
   2097120943.4114237        24145195.449650049        1023763828.6316192     
   1988831035.4326315        29156420.887562871        1016534673.0897841     
   1880293425.5153894        33341973.197306037        1013325968.0791818     
   1771508113.6596997        36701852.378897309        1014137713.5998075     
   1662475099.8655562        39236058.432310224        1018969909.6516750     
   1854110786.2346170        21410097.394037127        1140785612.9235432     
   1757739322.0219920        29629773.294984341        1134061747.2337623     
   1660977319.4401069        36547654.631727397        1131745053.0337169     
   1563824778.4889522        42163741.404235423        1133835530.3234072     
   1466281699.1685381        46478033.612556338        1140333179.1028328     
   2289303074.2934446        28984464.592635512        650533494.89671862     
   2139352954.0643051        24981605.249659300        632601791.11477005     
   1989708213.7157259        21996678.841899514        618788003.21367383     
   1840368853.2477179        20029685.369373083        609092131.19343126     
   1691334872.6602774        19080624.832065225        603514175.05402076     
   2073985787.4280069        30489273.922345757        774070067.54861224     
   1935080879.2207904        27901003.838536859        758686840.74972951     
   1796471167.4391098        26296721.839863420        747355571.33475745     
   1658156652.0829740        25676427.926319897        740076259.30367994     
   1520137333.1523683        26040122.097900212        736848904.65649652     
   1865043129.2853813        33906471.868912935        896882205.80026364     
   1736994980.2516582        32676255.189725637        884035575.28692758     
   1609231844.1884394        32396081.745584309        875174943.66053879     
   1481753721.0957470        33065951.536515176        870300310.92109454     
   1354560610.9735661        34685864.562487245        869411677.06861043     
   1662475099.8655562        39236058.432310224        1018969909.6516750     
   1545095257.1568952        39307359.303220391        1008647994.7263408     
   1427990243.9637234        40294758.559111476        1002246120.1910158     
   1311160060.2860391        42198256.199956179        999764286.04568756     
   1194604706.1238542        45017852.225791395        1001202492.2903705     
   1466281699.1685381        46478033.612556338        1140333179.1028328     
   1359381709.9365163        47794316.179046988        1132524099.0679893     
   1252746366.7649531        49992752.280405700        1128569100.9261992     
   1146375669.6538646        53073341.916679621        1128468184.6774559     
   1040269618.6032375        57036085.087830722        1132221350.3217604     
   1691334872.6602774        19080624.832065225        603514175.05402076     
   1551284756.9274697        22676440.717516243        590886434.30177820     
   1412148854.9183106        29319635.681801081        576852234.90188849     
   1273927166.6327915        39010209.724879801        561411576.85432720     
   1136619692.0709105        51748162.846757770        544564460.15911376     
   1520137333.1523683        26040122.097900212        736848904.65649652     
   1377727863.6453171        25747497.368200362        727751349.99558806     
   1235458841.4083121        25923030.205326557        719142698.91333950     
   1093330266.4413457        26566720.609245777        711022951.40975225     
   951342138.74443245        27678568.580008090        703392107.48482120     
   1354560610.9735661        34685864.562487245        869411677.06861043     
   1215207108.3388996        32129395.411608398        862941580.96983647     
   1075220286.5206735        27461862.315561712        858855750.67603743     
   934600145.51890123        20683265.274339080        857154186.18722427     
   793346685.33357799        11793604.287955374        857836887.50339031     
   1194604706.1238542        45017852.225791395        1001202492.2903705     
   1063722491.0081974        41822134.847729385        996457127.22452354     
   931433190.25539064        33936132.012506068        995991390.18998337     
   797736803.86543489        21359843.720112324        999805281.18674588     
   662633331.83833671        4093269.9705849886        1007898800.2148125     
   1040269618.6032375        57036085.087830722        1132221350.3217604     
   923274011.65322518        54825715.676569343        1128297988.7596607     
   804097552.61246312        45345839.296146959        1130549617.4551783     
   682740241.48096025        28596455.946588933        1138976236.4083271     
   559202078.25871456        4577565.6278937161        1153577845.6190856     
   1136619692.0709105        51748162.846757770        544564460.15911376     
   951698723.24392748        40217083.976085961        562836283.73850775     
   759280034.94843459        3693606.8770416975        592018317.16666353     
   559363627.18443263       -57822268.450362980        632110560.44358051     
   351949499.95193744       -144330542.00607848        683113013.56925011     
   951342138.74443245        27678568.580008090        703392107.48482120     
   792069543.52335906        10722506.886922240        721382743.17024744     
   624162499.22569680       -35015051.728125960        749444606.27818012     
   447621005.85143059       -109534107.26518238        787577696.80860913     
   262445063.40058780       -212834659.72417176        835782014.76152396     
   793346685.33357799        11793604.287955374        857836887.50339031     
   657325371.07196391       -11306568.021459490        874220150.75208104     
   511532878.12566566       -66977335.946481675        899835658.99701071     
   355969206.49468696       -155218699.48710427        934683412.23817611     
   190634356.17903626       -276030658.64330882        978763410.47558880     
   662633331.83833671        4093269.9705849886        1007898800.2148125     
   547466205.88971937       -25870140.749120981        1021348506.4839997     
   421391171.64834535       -92193245.778020799        1043191475.3231628     
   284408229.11419791       -194876045.11615974        1073427706.7323078     
   136517378.28729230       -333918538.76349872        1112057200.7114317     
   559202078.25871456        4577565.6278937161        1153577845.6190856     
   462492047.97665149       -32968211.296006233        1162767810.3659978     
   353737379.79373217       -110662781.22274944        1179512055.2566352     
   232938073.70995671       -228506144.15234628        1203810580.2909882     
   100094129.72533587       -386498300.08477241        1235663385.4690673     
   351949499.95193744       -144330542.00607848        683113013.56925011     
   277890720.27583134       -285314882.88951451        786412475.13083506     
   149033393.08273983       -608961048.82956290        905526081.73553503     
  -34622481.627292156       -1115269039.8260767        1040453833.3833418     
  -273076903.85430533       -1804238855.8792057        1191195730.0742648     
   262445063.40058780       -212834659.72417176        835782014.76152396     
   223706072.74406651       -352397957.29922563        885107865.80370045     
   140726477.98544931       -639429935.21459389        945460707.20822370     
   13506279.124736249       -1073930593.4702706        1016840538.9750687     
  -157954523.83806348       -1655899932.0662639        1099247361.1042566     
   190634356.17903626       -276030658.64330882        978763410.47558880     
   173537569.73989600       -418276188.35061848        986433251.64903939     
   122758122.61353803       -672797253.68200529        1000342928.5040573     
   38296014.799958110       -1039593854.6374702        1020492441.0406450     
  -79848753.700859785       -1518665991.2170334        1046881789.2587587     
   136517378.28729230       -333918538.76349872        1112057200.7114317     
   127385211.26332164       -482949576.04373914        1090388632.6668453     
   95128326.966996372       -709063004.23182857        1070172745.6230365     
   39746725.398318589       -1012258823.3277596        1051409539.5800140     
  -38759593.442705393       -1392537033.3315113        1034099014.5377936     
   100094129.72533587       -386498300.08477241        1235663385.4690673     
   85248997.314322233       -546418120.37860739        1196974008.8571126     
   57837091.045839936       -748227186.86400473        1154950158.5651767     
   17858410.919862807       -991925499.54106247        1109591834.5932486     
  -34687043.063592672       -1277513058.4097147        1060899036.9413198     
   2593300052.9227123       -437046811.87079072        749958407.78445590     
   2625702695.9996147       -254250938.00297248        879430872.48636329     
   2643676719.3120751       -119550463.34996283        992601238.42924070     
   2647222122.8600950       -32945387.911753774        1089469505.6130910     
   2636338906.6436744        5564288.3116531372        1170035674.0379190     
   2392799298.9646945       -426547871.88594282        920873464.12783515     
   2383113586.1217141       -271098681.77598786        1013429915.1081594     
   2361491577.9049854       -155437142.91186953        1096223579.6224959     
   2327933274.3145061       -79563255.293582320        1169254457.6708374     
   2282438675.3502750       -43477018.921134830        1232522549.2531891     
   2121423870.6138613       -437311334.21894145        1084673058.0451400     
   2088333551.2596717       -303603703.04424512        1143221207.0930262     
   2045799260.9224241       -201375975.14641702        1198545881.9679558     
   1993820999.6021175       -130628150.52545583        1250647082.6699300     
   1932398767.2987468       -91360229.181359887        1299524809.1989489     
   1779173767.8702154       -469337198.86978209        1241357189.5363820     
   1741362591.4134903       -351766001.80774605        1268804748.4409654     
   1696599768.3643978       -257366960.05360115        1299568145.4656303     
   1644885298.7229307       -186140073.60736430        1333647380.6103718     
   1586219182.4890976       -138085342.46902013        1371042453.8751938     
   1366048990.7337570       -522625465.83846831        1390925858.6015558     
   1342200706.5831647       -415585578.06648695        1390180539.1519763     
   1313893100.2308960       -323410097.63343608        1399290370.1155131     
   1281126171.6769469       -246099024.53931588        1418255351.4921641     
   1243899920.9213204       -183652358.78411889        1447075483.2819288     
   2636338906.6436744        5564288.3116531372        1170035674.0379190     
   2532865513.0470839       -3845246.0983409882        1159262205.9941378     
   2430540195.8615294       -9427859.1382241249        1153029967.3531873     
   2329362955.0869994       -11183550.808019757        1151338958.1150746     
   2229333790.7235026       -9112321.1077057123        1154189178.2797973     
   2282438675.3502750       -43477018.921134830        1232522549.2531891     
   2195237743.2820010       -38016735.731337786        1223767462.4555342     
   2108029774.7733448       -32579907.342813492        1219556927.9845648     
   2020814769.8243098       -27166533.755559206        1219890945.8402836     
   1933592728.4348888       -21776614.969579697        1224769516.0226893     
   1932398767.2987468       -91360229.181359887        1299524809.1989489     
   1861479790.8269413       -71027280.171327710        1291440471.9874394     
   1789398665.0633416       -54568162.133938789        1287904010.0264673     
   1716155390.0079465       -41982875.069200635        1288915423.3160379     
   1641749965.6607563       -33271418.977112889        1294474711.8561487     
   1586219182.4890976       -138085342.46902013        1371042453.8751938     
   1531591655.6819084       -102876879.41830599        1362281234.5898499     
   1474646866.7315116       -75392623.511615336        1358071213.4788973     
   1415384815.6379075       -55632574.748949826        1358412390.5423403     
   1353805502.4010980       -43596733.130301952        1363304765.7801733     
   1243899920.9213204       -183652358.78411889        1447075483.2819288     
   1205573337.8468976       -133565533.47228444        1436289750.2627659     
   1163774379.7778559       -95053291.475845456        1430058538.3418527     
   1118503046.7141986       -68115632.794792116        1428381847.5191824     
   1069759338.6559191       -52752557.429147303        1431259677.7947571     
   2229333790.7235026       -9112321.1077057123        1154189178.2797973     
   2135045624.3385286       -3089767.3581093550        1143278376.4022236     
   2041079068.1287251        4004820.3087162971        1137407514.8836548     
   1947434122.0940900        12171441.892770171        1136576593.7240942     
   1854110786.2346170        21410097.394037127        1140785612.9235432     
   1933592728.4348888       -21776614.969579697        1224769516.0226893     
   1852779188.1673388       -14216391.473176122        1215475304.3600838     
   1772136038.8723917       -6088198.0680979490        1211151402.4872277     
   1691663280.5500438        2607965.2456457615        1211797810.4041200     
   1611360913.2002983        11872098.468066156        1217414528.1107574     
   1641749965.6607563       -33271418.977112889        1294474711.8561487     
   1574212107.0270262       -24233209.078991175        1286620668.0055218     
   1506693420.1633384       -15131093.280735731        1283667303.3753803     
   1439193905.0696795       -5965071.5823743939        1285614617.9657249     
   1371713561.7460637        3264856.0161204934        1292462611.7765608     
   1353805502.4010980       -43596733.130301952        1363304765.7801733     
   1299344380.9175932       -33140220.175536513        1356714467.3385251     
   1244751212.0015633       -23123865.329186320        1354955217.5481100     
   1190025995.6530006       -13547668.591282248        1358027016.4089210     
   1135168731.8719110       -4411629.9618005753        1365929863.9209597     
   1069759338.6559191       -52752557.429147303        1431259677.7947571     
   1028176009.8390408       -40937424.762814462        1425756702.3591053     
   986309414.38706779       -30066514.213459671        1425015145.0054171     
   944159552.29999888       -20139825.781096756        1429035005.7337008     
   901726423.57783902       -11157359.465697527        1437816284.5439494     
   1854110786.2346170        21410097.394037127        1140785612.9235432     
   1757739322.0219920        29629773.294984341        1134061747.2337623     
   1660977319.4401069        36547654.631727397        1131745053.0337169     
   1563824778.4889522        42163741.404235423        1133835530.3234072     
   1466281699.1685381        46478033.612556338        1140333179.1028328     
   1611360913.2002983        11872098.468066156        1217414528.1107574     
   1526433993.5770953        19683431.488990307        1211465861.9838126     
   1441293539.3420930        26782982.470581949        1210007753.1774616     
   1355939550.4952869        33170751.412828684        1213040201.6917019     
   1270372027.0366766        38846738.315727234        1220563207.5265431     
   1371713561.7460637        3264856.0161204934        1292462611.7765608     
   1298469431.9433084        10739319.726339221        1287495649.5961561     
   1225188771.2862086        18092013.922085404        1287102630.5672047     
   1151871579.7747684        25322938.603359282        1291283554.6897063     
   1078517857.4089856        32432093.770156145        1300038421.9636519     
   1135168731.8719110       -4411629.9618005753        1365929863.9209597     
   1073845637.1206250        2797438.0070208907        1362151110.0708001     
   1012663015.2724531        10474748.986222386        1363029685.2029479     
   951620866.32740414        18620302.975836158        1368565589.3174069     
   890719190.28547335        27234099.975835234        1378758822.4141784     
   901726423.57783902       -11157359.465697527        1437816284.5439494     
   852562609.10904694       -4142213.6689658165        1435432243.4077377     
   803716271.30082464        3931187.6630009115        1437788917.0846953     
   755187410.15318990        13062844.530258864        1444886305.5748162     
   706976025.66612971        23252756.932764918        1456724408.8781116     
   1466281699.1685381        46478033.612556338        1140333179.1028328     
   1359381709.9365163        47794316.179046988        1132524099.0679893     
   1252746366.7649531        49992752.280405700        1128569100.9261992     
   1146375669.6538646        53073341.916679621        1128468184.6774559     
   1040269618.6032375        57036085.087830722        1132221350.3217604     
   1270372027.0366766        38846738.315727234        1220563207.5265431     
   1174317211.3541410        41029889.410773158        1214536281.2968426     
   1078247371.0697799        43162958.499722123        1212797667.7824974     
   982162506.18357921        45245945.582542777        1215347366.9835074     
   886062616.69554496        47278850.659256935        1222185378.8998644     
   1078517857.4089856        32432093.770156145        1300038421.9636519     
   994548874.76823175        35854311.241444170        1295467367.0997558     
   910285196.86334538        38294211.165626973        1295618855.7735133     
   825726823.69433224        39751793.542720735        1300492887.9849250     
   740873755.26118779        40227058.372707039        1310089463.7339830     
   890719190.28547335        27234099.975835234        1378758822.4141784     
   820076700.17878568        32267581.671051651        1375317356.4767292     
   748859844.14567339        35386510.278180510        1377032664.8992414     
   677068622.18612826        36590885.797199965        1383904747.6817048     
   604703034.30015671        35880708.228136629        1395933604.8241189     
   706976025.66612971        23252756.932764918        1456724408.8781116     
   650900687.58580172        30269700.699597746        1454086249.4277713     
   593971312.91675103        34439855.837352276        1457039095.1596816     
   536187901.65897095        35763222.346013129        1465582946.0738506     
   477550453.81246305        34239800.225580797        1479717802.1702712     
   1040269618.6032375        57036085.087830722        1132221350.3217604     
   923274011.65322518        54825715.676569343        1128297988.7596607     
   804097552.61246312        45345839.296146959        1130549617.4551783     
   682740241.48096025        28596455.946588933        1138976236.4083271     
   559202078.25871456        4577565.6278937161        1153577845.6190856     
   886062616.69554496        47278850.659256935        1222185378.8998644     
   784780383.42592740        44450341.905117750        1218823094.1029916     
   681332925.94732738        34404419.121040195        1221515677.1125386     
   575720244.25975585        17141082.307055026        1230263127.9285135     
   467942338.36320567       -7339668.5368624032        1245065446.5509017     
   740873755.26118779        40227058.372707039        1310089463.7339830     
   654961688.66852820        36677448.174635768        1307306488.2310662     
   566900025.74866009        25962516.885868907        1310458258.0833781     
   476688766.50158328        8082264.5064110458        1319544773.2909045     
   384327910.92730409       -16963308.963729694        1334566033.8536596     
   604703034.30015671        35880708.228136629        1395933604.8241189     
   533817927.38103342        31507034.485125124        1393748171.1438968     
   460798852.01646495        20020132.590635151        1397377360.3676915     
   385645808.20646179        1420002.5446988940        1406821172.4954982     
   308358795.95101666       -24293355.652716056        1422079607.5273445     
   477550453.81246305        34239800.225580797        1479717802.1702712     
   421349099.56343919        28939100.836584613        1478148142.8414717     
   363029404.75074542        16577266.235360727        1482272983.9654787     
   302591369.37437570       -2845703.5781218112        1492092325.5423107     
   240034993.43433988       -29329808.603819236        1507606167.5719638     
   559202078.25871456        4577565.6278937161        1153577845.6190856     
   462492047.97665149       -32968211.296006233        1162767810.3659978     
   353737379.79373217       -110662781.22274944        1179512055.2566352     
   232938073.70995671       -228506144.15234628        1203810580.2909882     
   100094129.72533587       -386498300.08477241        1235663385.4690673     
   467942338.36320567       -7339668.5368624032        1245065446.5509017     
   390337647.92880839       -41488042.825058073        1243370357.2616289     
   302555596.15419650       -109560954.91397771        1248033387.1032228     
   204596183.03938201       -211558404.80357516        1259054536.0756781     
   96459408.584343553       -347480392.49391103        1276433804.1789985     
   384327910.92730409       -16963308.963729694        1334566033.8536596     
   322410957.44670457       -48739561.484383181        1324164379.8489420     
   252183919.18653244       -108216096.60360368        1318924683.9622438     
   173646796.14678651       -195392914.32140344        1318846946.1935456     
   86799588.327469066       -310270014.63777781        1323931166.5428536     
   308358795.95101666       -24293355.652716056        1422079607.5273445     
   258711976.53033382       -54722767.273984164        1405149878.1279435     
   202622348.89071608       -106628206.29170240        1392185945.8336921     
   140089913.03217536       -180009672.70583314        1383187810.6445944     
   71114668.954694241       -274867166.51642621        1378155472.5606456     
   240034993.43433988       -29329808.603819236        1507606167.5719638     
   199240705.17969552       -59437660.193875432        1486326852.0986269     
   153870885.26676205       -104797283.97822577        1467817172.7175729     
   103925533.69553569       -165408679.95688722        1452077129.4288125     
   49404650.466016248       -241271848.12985897        1439106722.2323580     
   100094129.72533587       -386498300.08477241        1235663385.4690673     
   85248997.314322233       -546418120.37860739        1196974008.8571126     
   57837091.045839936       -748227186.86400473        1154950158.5651767     
   17858410.919862807       -991925499.54106247        1109591834.5932486     
  -34687043.063592672       -1277513058.4097147        1060899036.9413198     
   96459408.584343553       -347480392.49391103        1276433804.1789985     
   79597638.217858046       -488690328.76415420        1222076272.2153492     
   51372273.275201529       -667778913.62163675        1165184288.4220340     
   11783313.756363094       -884746147.06638396        1105757852.7990320     
  -39169240.338641465       -1139592029.0983658        1043796965.3463860     
   86799588.327469066       -310270014.63777781        1323931166.5428536     
   70206956.720703185       -432084333.86991817        1255309188.3890333     
   43453909.819074810       -587766704.08492780        1184952780.2558708     
   6540447.6225880384       -777317125.28279757        1112861942.1433644     
  -40533429.868752658       -1000735597.4635220        1039036674.0515130     
   71114668.954694241       -274867166.51642621        1378155472.5606456     
   57076952.822846040       -376600135.69592112        1296672757.3781838     
   34082000.677464992       -508190558.25386435        1214255634.0667007     
   2129812.5185376108       -669638434.19029570        1130904102.6262074     
  -38779611.653935879       -860943763.50521338        1046618163.0566859     
   49404650.466016248       -241271848.12985897        1439106722.2323580     
   40207626.524318412       -322237734.24207199        1346166979.1827853     
   23256545.850379199       -429050476.12842023        1253092849.8545253     
  -1448591.5557898283       -561710073.78886783        1159884334.2475641     
  -33907785.694186926       -720216527.22341168        1066541432.3619031     
   1366048990.7337570       -522625465.83846831        1390925858.6015558     
   1342200706.5831647       -415585578.06648695        1390180539.1519763     
   1313893100.2308960       -323410097.63343608        1399290370.1155131     
   1281126171.6769469       -246099024.53931588        1418255351.4921641     
   1243899920.9213204       -183652358.78411889        1447075483.2819288     
   984418240.62222171       -404004650.12907010        1421864246.1485822     
   976119935.57567286       -320848361.87865752        1424809096.5771828     
   964477138.87786674       -248840379.13243246        1435371918.8699815     
   949489850.52880692       -187980701.89038837        1453552713.0269847     
   931158070.52849102       -138269330.15252888        1479351479.0481901     
   629533158.79690540       -277360133.93380451        1441172087.7003868     
   630392894.14322066       -220005026.81831619        1449107743.6493187     
   629022968.38870466       -170082123.37226778        1462424192.9135447     
   625423381.53335690       -127591423.59565535        1481121435.4930604     
   619594133.57717705       -92532927.488485992        1505199471.3878660     
   301393745.25780559       -142691917.25267404        1448849383.2569623     
   305019582.28581095       -113055572.88546216        1463076480.3683901     
   307530588.76340842       -87135330.352940351        1480447192.2462010     
   308926764.69059658       -64931189.655117989        1500961518.8903921     
   309208110.06737608       -46443150.791989952        1524619460.3009622     
   4.9222530813202471E-003  -8.5680272400777205E-002   1444896132.8183095     
   3.4412948681149073E-003  -8.0096048841024212E-002   1466715306.7343948     
   1.9763494869955017E-003  -7.4461224731879647E-002   1489440916.8679540     
   5.2810320219429455E-004  -6.8768308355474733E-002   1513072963.2189779     
  -9.0797333022160295E-004  -6.3035520027175829E-002   1537611445.7874725     
   1243899920.9213204       -183652358.78411889        1447075483.2819288     
   1205573337.8468976       -133565533.47228444        1436289750.2627659     
   1163774379.7778559       -95053291.475845456        1430058538.3418527     
   1118503046.7141986       -68115632.794792116        1428381847.5191824     
   1069759338.6559191       -52752557.429147303        1431259677.7947571     
   931158070.52849102       -138269330.15252888        1479351479.0481901     
   901179834.20250452       -101074200.87320012        1465577184.4788723     
   868597316.63051987       -72560009.080528617        1456645180.7791455     
   833410517.81254208       -52726754.774501979        1452555467.9490116     
   795619437.74856472       -41574437.955137968        1453308045.9884658     
   619594133.57717705       -92532927.488485992        1505199471.3878660     
   598786443.34632373       -67982834.437657088        1489449391.3084571     
   576242565.61809742       -49220033.044738084        1478829371.8699796     
   551962500.39249849       -36244523.309727967        1473339413.0724409     
   525946247.66952676       -29056305.232627064        1472979514.9158351     
   309208110.06737608       -46443150.791989952        1524619460.3009622     
   298393165.27835721       -34291434.165650576        1507906370.7515159     
   286710126.74058574       -25033363.368484154        1496611111.6143515     
   274158994.45406991       -18668938.400466084        1490733682.8894639     
   260739768.41880244       -15198159.261620387        1490274084.5768588     
  -9.0797333022160295E-004  -6.3035520027175829E-002   1537611445.7874725     
  -1.3923386253468714E-003  -5.7170637271905127E-002   1520948122.8080506     
  -2.0054470904430962E-003  -5.1734898416537611E-002   1509990400.0122564     
  -2.7462235782130771E-003  -4.6724025747358885E-002   1504738277.4000857     
  -3.6107563825329633E-003  -4.2127061912127298E-002   1505191754.9715405     
   1069759338.6559191       -52752557.429147303        1431259677.7947571     
   1028176009.8390408       -40937424.762814462        1425756702.3591053     
   986309414.38706779       -30066514.213459671        1425015145.0054171     
   944159552.29999888       -20139825.781096756        1429035005.7337008     
   901726423.57783902       -11157359.465697527        1437816284.5439494     
   795619437.74856472       -41574437.955137968        1453308045.9884658     
   765336655.30562639       -32441674.203337282        1448973701.3329113     
   734841422.88633585       -24017077.039376169        1449189674.7863872     
   704133740.49070156       -16300646.463226199        1453955966.3488936     
   673213608.11872053       -9292382.4748991728        1463272576.0204315     
   525946247.66952676       -29056305.232627064        1472979514.9158351     
   506360868.82070178       -22786853.229318172        1469896420.4755843     
   486633856.65427548       -16989512.284677774        1471152544.1714263     
   466765211.17025065       -11664282.398701668        1476747886.0033612     
   446754932.36862504       -6811163.5713938475        1486682445.9713883     
   260739768.41880244       -15198159.261620387        1490274084.5768588     
   251248650.38426897       -11972961.840747386        1488524859.7871165     
   241686715.69088426       -8983819.9493786693        1490903753.1605322     
   232053964.33864644       -6230733.5875197798        1497410764.6971023     
   222350396.32755274       -3713702.7551815510        1508045894.3968256     
  -3.6107563825329633E-003  -4.2127061912127298E-002   1505191754.9715405     
  -3.6742129485421021E-003  -3.7634707621365719E-002   1504859019.2675152     
  -3.8441319724483317E-003  -3.3496534300870712E-002   1508443301.7537065     
  -4.1148174611239392E-003  -2.9695636975054420E-002   1515944602.4301162     
  -4.4964032497318849E-003  -2.6262325647508078E-002   1527362921.2967446     
   901726423.57783902       -11157359.465697527        1437816284.5439494     
   852562609.10904694       -4142213.6689658165        1435432243.4077377     
   803716271.30082464        3931187.6630009115        1437788917.0846953     
   755187410.15318990        13062844.530258864        1444886305.5748162     
   706976025.66612971        23252756.932764918        1456724408.8781116     
   673213608.11872053       -9292382.4748991728        1463272576.0204315     
   635935886.52194655       -4152481.3500949740        1461978808.2936459     
   598896272.42060244        1781111.4261429012        1465520222.8872309     
   562094765.81468272        8508395.8537909985        1473896819.8011825     
   525531366.70418340        16029371.932848692        1487108599.0355010     
   446754932.36862504       -6811163.5713938475        1486682445.9713883     
   421633210.80731195       -3465534.9694510698        1486386354.2946801     
   396670227.57626998        409221.40005844831        1491019912.4455464     
   371865982.67549229        4813105.5371181071        1500583120.4239795     
   347220476.10498691        9746117.4417507052        1515075978.2299840     
   222350396.32755274       -3713702.7551815510        1508045894.3968256     
   209654581.96513167       -2081374.5270741880        1508654881.4108512     
   197038136.76782060       -184482.41526772827        1514287985.7596467     
   184501060.73562500        1976973.5802555159        1524945207.4432101     
   172043353.86853707        4402993.4594734162        1540626546.4615450     
  -4.4964032497318849E-003  -2.6262325647508078E-002   1527362921.2967446     
  -4.5988853750818983E-003  -2.2979054556606988E-002   1528784389.6421483     
  -4.7402558069263379E-003  -1.9824023375239870E-002   1535324442.8295243     
  -4.9317464031997686E-003  -1.6836406353331251E-002   1546983080.8588734     
  -5.1575959620347453E-003  -1.3964013096018175E-002   1563760303.7301986     
   706976025.66612971        23252756.932764918        1456724408.8781116     
   650900687.58580172        30269700.699597746        1454086249.4277713     
   593971312.91675103        34439855.837352276        1457039095.1596816     
   536187901.65897095        35763222.346013129        1465582946.0738506     
   477550453.81246305        34239800.225580797        1479717802.1702712     
   525531366.70418340        16029371.932848692        1487108599.0355010     
   483467864.38418084        21289980.130719125        1484696246.0164280     
   440763834.62260330        24415496.856674358        1487876531.2235711     
   397419277.41945547        25405922.110727444        1496649454.6569281     
   353434192.77473384        24261255.892868966        1511015016.3164995     
   347220476.10498691        9746117.4417507052        1515075978.2299840     
   319173475.38519228        13251789.822616875        1513138525.6471884     
   290699456.37098145        15334067.888760880        1516795344.3345695     
   261798419.06234971        15992951.640167981        1526046434.2921264     
   232470363.45929834        15228441.076845273        1540891795.5198615     
   172043353.86853707        4402993.4594734162        1540626546.4615450     
   158017520.58884421        6155129.7753200755        1539413088.3200440     
   143778178.16188371        7195568.9336079508        1543795534.4926758     
   129325326.58765444        7524310.9343333542        1553773884.9794462     
   114658965.86616087        7141355.7775109783        1569348139.7803590     
  -5.1575959620347453E-003  -1.3964013096018175E-002   1563760303.7301986     
  -4.8751296040387675E-003  -1.1211407260445130E-002   1563519934.0349956     
  -4.6965178998573144E-003  -8.8063713830346113E-003   1568877101.6978967     
  -4.6301790240727064E-003  -6.7755782669469151E-003   1579831806.7188957     
  -4.6790410374092312E-003  -5.1274003358155445E-003   1596384049.0979874     
   477550453.81246305        34239800.225580797        1479717802.1702712     
   421349099.56343919        28939100.836584613        1478148142.8414717     
   363029404.75074542        16577266.235360727        1482272983.9654787     
   302591369.37437570       -2845703.5781218112        1492092325.5423107     
   240034993.43433988       -29329808.603819236        1507606167.5719638     
   353434192.77473384        24261255.892868966        1511015016.3164995     
   312233381.81549358        20570792.769739822        1508275378.2135463     
   269443815.43348831        11584478.237387016        1511008526.1270163     
   225065493.62871480       -2697687.7041912526        1519214460.0569148     
   179098416.40117583       -22275705.054985024        1532893180.0032504     
   232470363.45929834        15228441.076845273        1540891795.5198615     
   205636625.97158286        12958173.274105534        1537600027.9738114     
   177743718.20200303        7157337.8651498705        1539559332.0078044     
   148791640.15056145       -2174065.1500088573        1546769707.6218288     
   118780391.81725745       -15036035.771377102        1559231154.8158946     
   114658965.86616087        7141355.7775109783        1569348139.7803590     
   101558832.03170513        6101242.3496811241        1566122092.1222708     
   87929113.056289896        3295845.1186485253        1567925401.6078355     
   73769808.939907685       -1274835.9156030230        1574758068.2370434     
   59080919.682587713       -7610800.7529845983        1586620092.0098970     
  -4.6790410374092312E-003  -5.1274003358155445E-003   1596384049.0979874     
  -4.1382648223926366E-003  -3.5329797695441141E-003   1593841570.6589253     
  -3.6559125690153143E-003  -2.1326118526798655E-003   1596106734.9271121     
  -3.2211413024076417E-003  -8.9223500382856335E-004   1603179541.9025590     
  -2.8458005183132139E-003   1.5212190481642758E-004   1615059991.5852523     
   240034993.43433988       -29329808.603819236        1507606167.5719638     
   199240705.17969552       -59437660.193875432        1486326852.0986269     
   153870885.26676205       -104797283.97822577        1467817172.7175729     
   103925533.69553569       -165408679.95688722        1452077129.4288125     
   49404650.466016248       -241271848.12985897        1439106722.2323580     
   179098416.40117583       -22275705.054985024        1532893180.0032504     
   147893280.41265827       -45039419.686573453        1507230601.6290381     
   113256495.68042588       -79241963.463879406        1484479857.2999015     
   75188062.204463184       -124883336.38695249        1464640947.0158436     
   33687979.984784052       -181963538.45574689        1447713870.7768762     
   118780391.81725745       -15036035.771377102        1559231154.8158946     
   97570687.959982559       -30333729.484964684        1530519843.6077986     
   74073218.273559228       -53257309.295713834        1504862564.3975790     
   48287982.757984459       -83806775.203633353        1482259317.1852281     
   20214981.413259439       -121982127.20872247        1462710101.9707537     
   59080919.682587713       -7610800.7529845983        1586620092.0098970     
   48272927.821667500       -15320589.589046888        1556194578.0349193     
   36321053.046172485       -26843321.473690137        1528965294.0106161     
   23225295.356094092       -42178996.406947508        1504932239.9369678     
   8985654.7514400072       -61327614.388786525        1484095415.8139901     
  -2.8458005183132139E-003   1.5212190481642758E-004   1615059991.5852523     
  -2.2877304446438044E-003   1.1755248789032462E-003   1584254804.9104002     
  -1.7377125379661822E-003   2.1748628539123380E-003   1556788046.1390061     
  -1.2041649728626700E-003   3.1172180221698924E-003   1532659715.2710660     
  -6.7464349125505047E-004   4.0475406908885838E-003   1511869812.3065748     
   49404650.466016248       -241271848.12985897        1439106722.2323580     
   40207626.524318412       -322237734.24207199        1346166979.1827853     
   23256545.850379199       -429050476.12842023        1253092849.8545253     
  -1448591.5557898283       -561710073.78886783        1159884334.2475641     
  -33907785.694186926       -720216527.22341168        1066541432.3619031     
   33687979.984784052       -181963538.45574689        1447713870.7768762     
   29612009.678327173       -241841413.74475181        1347314603.5890999     
   19720496.822723940       -321104430.86424869        1246122530.6710007     
   4013441.4179674387       -419752589.81424969        1144137652.0225708     
  -17509156.535931379       -537785890.59473479        1041359967.6438512     
   20214981.413259439       -121982127.20872247        1462710101.9707537     
   19378866.308856517       -161336351.20444220        1357112910.5250230     
   14665722.838380501       -213614003.08706874        1250064493.8973470     
   6075551.0018357933       -278815082.85659778        1141564852.0877380     
  -6391649.2007697374       -356939590.51298594        1031613985.0961888     
   8985654.7514400072       -61327614.388786525        1484095415.8139901     
   9508196.4158849232       -80722546.621206164        1375561899.9905624     
   8092223.8973482475       -106579192.79689619        1264918739.5335746     
   4737737.1958171278       -138897552.91589895        1152165934.4430292     
  -555263.68868992478       -177677626.97815502        1037303484.7189370     
  -6.7464349125505047E-004   4.0475406908885838E-003   1511869812.3065748     
  -5.6987381846418774E-004   5.0115589334109745E-003   1402661571.9857168     
  -3.8247793210987539E-004   6.2468345514691843E-003   1290685267.5796847     
  -9.7952781417134666E-005   7.8093438309407778E-003   1175940899.0884688     
   2.9573413315289905E-004   9.7343378778892292E-003   1058428466.5120889     
   4.9222530813202471E-003  -8.5680272400777205E-002   1444896132.8183095     
   3.4412948681149073E-003  -8.0096048841024212E-002   1466715306.7343948     
   1.9763494869955017E-003  -7.4461224731879647E-002   1489440916.8679540     
   5.2810320219429455E-004  -6.8768308355474733E-002   1513072963.2189779     
  -9.0797333022160295E-004  -6.3035520027175829E-002   1537611445.7874725     
  -301393745.24816442        142691917.08122587        1448849383.2602994     
  -305019582.27888554        113055572.72590739        1463076480.3716028     
  -307530588.75923139        87135330.205179751        1480447192.2493088     
  -308926764.68920106        64931189.519035921        1500961518.8934121     
  -309208110.06879634        46443150.667472303        1524619460.3039198     
  -629533158.78785288        277360133.76215148        1441172087.7073529     
  -630392894.13658273        220005026.65930304        1449107743.6559598     
  -629022968.38457596        170082123.22557676        1462424192.9198980     
  -625423381.53183293        127591423.46096951        1481121435.4991698     
  -619594133.57835519        92532927.365478963        1505199471.3937728     
  -984418240.61414707        404004649.95709622        1421864246.1594639     
  -976119935.56964791        320848361.72008914        1424809096.5874617     
  -964477138.87405610        248840378.98673451        1435371918.8797240     
  -949489850.52736795        187980701.75703210        1453552713.0362484     
  -931158070.52958071        138269330.03098893        1479351479.0570381     
  -1366048990.7270439        522625465.66605848        1390925858.6166399     
  -1342200706.5780854        415585577.90826023        1390180539.1661136     
  -1313893100.2276733        323410097.48865038        1399290370.1287825     
  -1281126171.6758039        246099024.40722746        1418255351.5046499     
  -1243899920.9224792        183652358.66399050        1447075483.2937105     
  -9.0797333022160295E-004  -6.3035520027175829E-002   1537611445.7874725     
  -1.3923386253468714E-003  -5.7170637271905127E-002   1520948122.8080506     
  -2.0054470904430962E-003  -5.1734898416537611E-002   1509990400.0122564     
  -2.7462235782130771E-003  -4.6724025747358885E-002   1504738277.4000857     
  -3.6107563825329633E-003  -4.2127061912127298E-002   1505191754.9715405     
  -309208110.06879634        46443150.667472303        1524619460.3039198     
  -298393165.28075516        34291434.052813366        1507906370.7541208     
  -286710126.74422300        25033363.266457260        1496611111.6166098     
  -274158994.45920789        18668938.308378845        1490733682.8913827     
  -260739768.42569679        15198159.178618491        1490274084.5784376     
  -619594133.57835519        92532927.365478963        1505199471.3937728     
  -598786443.34847093        67982834.326305658        1489449391.3136508     
  -576242565.62148511        49220032.944136471        1478829371.8744721     
  -551962500.39739525        36244523.218980730        1473339413.0762374     
  -525946247.67620420        29056305.150829315        1472979514.9189463     
  -931158070.52958071        138269330.03098893        1479351479.0570381     
  -901179834.20454407        101074200.76328361        1465577184.4866397     
  -868597316.63379025        72560008.981302559        1456645180.7858434     
  -833410517.81731761        52726754.685053825        1452555467.9546511     
  -795619437.75512779        41574437.874522805        1453308045.9930599     
  -1243899920.9224792        183652358.66399050        1447075483.2937105     
  -1205573337.8489757        133565533.36375409        1436289750.2730858     
  -1163774379.7811384        95053291.377962291        1430058538.3507240     
  -1118503046.7189732        68115632.706600249        1428381847.5266235     
  -1069759338.6624742        52752557.349679410        1431259677.8007882     
  -3.6107563825329633E-003  -4.2127061912127298E-002   1505191754.9715405     
  -3.6742129485421021E-003  -3.7634707621365719E-002   1504859019.2675152     
  -3.8441319724483317E-003  -3.3496534300870712E-002   1508443301.7537065     
  -4.1148174611239392E-003  -2.9695636975054420E-002   1515944602.4301162     
  -4.4964032497318849E-003  -2.6262325647508078E-002   1527362921.2967446     
  -260739768.42569679        15198159.178618491        1490274084.5784376     
  -251248650.39131609        11972961.766595051        1488524859.7884250     
  -241686715.69828689        8983819.8834005445        1490903753.1615756     
  -232053964.34660393        6230733.5290519595        1497410764.6978958     
  -222350396.33627781        3713702.7035132647        1508045894.3973799     
  -525946247.67620420        29056305.150829315        1472979514.9189463     
  -506360868.82752085        22786853.156260103        1469896420.4781573     
  -486633856.66143304        16989512.219702840        1471152544.1734822     
  -466765211.17794693        11664282.341143310        1476747886.0049214     
  -446754932.37705892        6811163.5205889344        1486682445.9724803     
  -795619437.75512779        41574437.874522805        1453308045.9930599     
  -765336655.31228697        32441674.131362975        1448973701.3367076     
  -734841422.89329469        24017076.975375742        1449189674.7894180     
  -704133740.49814320        16300646.406585366        1453955966.3511930     
  -673213608.12683582        9292382.4249792099        1463272576.0220344     
  -1069759338.6624742        52752557.349679410        1431259677.8007882     
  -1028176009.8456242        40937424.691876173        1425756702.3640821     
  -986309414.39386308        30066514.150443196        1425015145.0093894     
  -944159552.30719602        20139825.725362182        1429035005.7367136     
  -901726423.58562136        11157359.416643560        1437816284.5460489     
  -4.4964032497318849E-003  -2.6262325647508078E-002   1527362921.2967446     
  -4.5988853750818983E-003  -2.2979054556606988E-002   1528784389.6421483     
  -4.7402558069263379E-003  -1.9824023375239870E-002   1535324442.8295243     
  -4.9317464031997686E-003  -1.6836406353331251E-002   1546983080.8588734     
  -5.1575959620347453E-003  -1.3964013096018175E-002   1563760303.7301986     
  -222350396.33627781        3713702.7035132647        1508045894.3973799     
  -209654581.97406739        2081374.4819257855        1508654881.4113102     
  -197038136.77705508        184482.37634629756        1514287985.7600212     
  -184501060.74524978       -1976973.6132571846        1524945207.4435070     
  -172043353.87864348       -4402993.4868591875        1540626546.4617698     
  -446754932.37705892        6811163.5205889344        1486682445.9724803     
  -421633210.81594390        3465534.9251198471        1486386354.2955813     
  -396670227.58519530       -409221.43823434412        1491019912.4462678     
  -371865982.68480444       -4813105.5694489628        1500583120.4245384     
  -347220476.11477923       -9746117.4685493261        1515075978.2303877     
  -673213608.12683582        9292382.4249792099        1463272576.0220344     
  -635935886.53023720        4152481.3065764308        1461978808.2949588     
  -598896272.42916024       -1781111.4635640383        1465520222.8882718     
  -562094765.82359898       -8508395.8854226768        1473896819.8019786     
  -525531366.71356267       -16029371.959033757        1487108599.0360661     
  -901726423.58562136        11157359.416643560        1437816284.5460489     
  -852562609.11694241        4142213.6263094544        1435432243.4094403     
  -803716271.30894876       -3931187.6996383071        1437788917.0860295     
  -755187410.16162360       -13062844.561149836        1444886305.5758088     
  -706976025.67499173       -23252756.958305210        1456724408.8787880     
  -5.1575959620347453E-003  -1.3964013096018175E-002   1563760303.7301986     
  -4.8751296040387675E-003  -1.1211407260445130E-002   1563519934.0349956     
  -4.6965178998573144E-003  -8.8063713830346113E-003   1568877101.6978967     
  -4.6301790240727064E-003  -6.7755782669469151E-003   1579831806.7188957     
  -4.6790410374092312E-003  -5.1274003358155445E-003   1596384049.0979874     
  -172043353.87864348       -4402993.4868591875        1540626546.4617698     
  -158017520.59839758       -6155129.7972541675        1539413088.3200433     
  -143778178.17110676       -7195568.9508324713        1543795534.4924610     
  -129325326.59676631       -7524310.9475799724        1553773884.9790077     
  -114658965.87538965       -7141355.7875404619        1569348139.7797070     
  -347220476.11477923       -9746117.4685493261        1515075978.2303877     
  -319173475.39444983       -13251789.844064191        1513138525.6471534     
  -290699456.37992150       -15334067.905579910        1516795344.3340962     
  -261798419.07119298       -15992951.653094828        1526046434.2912261     
  -232470363.46826217       -15228441.086605445        1540891795.5185356     
  -525531366.71356267       -16029371.959033757        1487108599.0360661     
  -483467864.39302939       -21289980.151634902        1484696246.0163319     
  -440763834.63114345       -24415496.873056173        1487876531.2228222     
  -397419277.42789745       -25405922.123278052        1496649454.6555374     
  -353434192.78329802       -24261255.902324393        1511015016.3144820     
  -706976025.67499173       -23252756.958305210        1456724408.8787880     
  -650900687.59413421       -30269700.719956547        1454086249.4275739     
  -593971312.92476583       -34439855.853240937        1457039095.1586246     
  -536187901.66688728       -35763222.358157307        1465582946.0719399     
  -477550453.82049233       -34239800.234684229        1479717802.1675298     
  -4.6790410374092312E-003  -5.1274003358155445E-003   1596384049.0979874     
  -4.1382648223926366E-003  -3.5329797695441141E-003   1593841570.6589253     
  -3.6559125690153143E-003  -2.1326118526798655E-003   1596106734.9271121     
  -3.2211413024076417E-003  -8.9223500382856335E-004   1603179541.9025590     
  -2.8458005183132139E-003   1.5212190481642758E-004   1615059991.5852523     
  -114658965.87538965       -7141355.7875404619        1569348139.7797070     
  -101558832.03987782       -6101242.3566093557        1566122092.1215456     
  -87929113.063512847       -3295845.1228329614        1567925401.6070356     
  -73769808.946289495        1274835.9138027579        1574758068.2361698     
  -59080919.688225940        7610800.7532415688        1586620092.0089531     
  -232470363.46826217       -15228441.086605445        1540891795.5185356     
  -205636625.97950315       -12958173.280824810        1537600027.9723363     
  -177743718.20899349       -7157337.8692087755        1539559332.0061843     
  -148791640.15672195        2174065.1482814476        1546769707.6200647     
  -118780391.82269925        15036035.771606408        1559231154.8139942     
  -353434192.78329802       -24261255.902324393        1511015016.3144820     
  -312233381.82302845       -20570792.776223600        1508275378.2112966     
  -269443815.44010407       -11584478.241272718        1511008526.1245477     
  -225065493.63451904        2697687.7025442868        1519214460.0542367     
  -179098416.40627292        22275705.055236131        1532893180.0003476     
  -477550453.82049233       -34239800.234684229        1479717802.1675298     
  -421349099.57044882       -28939100.842794225        1478148142.8384228     
  -363029404.75684541       -16577266.239035904        1482272983.9621389     
  -302591369.37967139        2845703.5766246915        1492092325.5386803     
  -240034993.43894106        29329808.604137525        1507606167.5680516     
  -2.8458005183132139E-003   1.5212190481642758E-004   1615059991.5852523     
  -2.2877304446438044E-003   1.1755248789032462E-003   1584254804.9104002     
  -1.7377125379661822E-003   2.1748628539123380E-003   1556788046.1390061     
  -1.2041649728626700E-003   3.1172180221698924E-003   1532659715.2710660     
  -6.7464349125505047E-004   4.0475406908885838E-003   1511869812.3065748     
  -59080919.688225940        7610800.7532415688        1586620092.0089531     
  -48272927.826225415        15320589.591270808        1556194578.0340190     
  -36321053.049658954        26843321.477854192        1528965294.0097296     
  -23225295.358517457        42178996.413021930        1504932239.9361072     
  -8985654.7528124228        61327614.396734782        1484095415.8131289     
  -118780391.82269925        15036035.771606408        1559231154.8139942     
  -97570687.964398637        30333729.487097092        1530519843.6059725     
  -74073218.276951611        53257309.299742915        1504862564.3958058     
  -48287982.760356799        83806775.209549069        1482259317.1835001     
  -20214981.414608456        121982127.21653122        1462710101.9690382     
  -179098416.40627292        22275705.055236131        1532893180.0003476     
  -147893280.41681457        45039419.688636407        1507230601.6262610     
  -113256495.68361974        79241963.467825234        1484479857.2972250     
  -75188062.206708401        124883336.39273906        1464640947.0132425     
  -33687979.986062832        181963538.46342677        1447713870.7743223     
  -240034993.43894106        29329808.604137525        1507606167.5680516     
  -199240705.18345767        59437660.195934221        1486326852.0948992     
  -153870885.26967669        104797283.98205927        1467817172.7139990     
  -103925533.69758338        165408679.96255580        1452077129.4253557     
  -49404650.467183888        241271848.13740903        1439106722.2289708     
  -6.7464349125505047E-004   4.0475406908885838E-003   1511869812.3065748     
  -5.6987381846418774E-004   5.0115589334109745E-003   1402661571.9857168     
  -3.8247793210987539E-004   6.2468345514691843E-003   1290685267.5796847     
  -9.7952781417134666E-005   7.8093438309407778E-003   1175940899.0884688     
   2.9573413315289905E-004   9.7343378778892292E-003   1058428466.5120889     
  -8985654.7528124228        61327614.396734782        1484095415.8131289     
  -9508196.4170500822        80722546.631048456        1375561899.9899316     
  -8092223.8981550410        106579192.80914167        1264918739.5331743     
  -4737737.1961145699        138897552.93104857        1152165934.4428680     
   555263.68908543885        177677626.99682549        1037303484.7190107     
  -20214981.414608456        121982127.21653122        1462710101.9690382     
  -19378866.309990123        161336351.21412075        1357112910.5237310     
  -14665722.839177951        213614003.09902138        1250064493.8964803     
  -6075551.0021596700        278815082.87127590        1141564852.0872993     
   6391649.2010528892        356939590.53084332        1031613985.0961990     
  -33687979.986062832        181963538.46342677        1447713870.7743223     
  -29612009.679371238        241841413.75427410        1347314603.5871167     
  -19720496.823425010        321104430.87596720        1246122530.6696017     
  -4013441.4182355404        419752589.82846910        1144137652.0217872     
   17509156.536211222        537785890.61183834        1041359967.6436628     
  -49404650.467183888        241271848.13740903        1439106722.2289708     
  -40207626.525202706        322237734.25149226        1346166979.1801002     
  -23256545.850916624        429050476.13992298        1253092849.8525422     
   1448591.5556708872        561710073.80268931        1159884334.2463229     
   33907785.694552034        720216527.23977494        1066541432.3614008     
  -1366048990.7270439        522625465.66605848        1390925858.6166399     
  -1342200706.5780854        415585577.90826023        1390180539.1661136     
  -1313893100.2276733        323410097.48865038        1399290370.1287825     
  -1281126171.6758039        246099024.40722746        1418255351.5046499     
  -1243899920.9224792        183652358.66399050        1447075483.2937105     
  -1779173767.8634865        469337198.70150208        1241357189.5552692     
  -1741362591.4083600        351766001.65334451        1268804748.4587855     
  -1696599768.3610375        257366959.91250157        1299568145.4823966     
  -1644885298.7215221        186140073.47897732        1333647380.6261034     
  -1586219182.4898036        138085342.35278857        1371042453.8899045     
  -2121423870.6067014        437311334.05491745        1084673058.0676773     
  -2088333551.2542708        303603702.89373052        1143221207.1144331     
  -2045799260.9188952        201375975.00900531        1198545881.9881842     
  -1993820999.6005871        130628150.40073335        1250647082.6889267     
  -1932398767.2993405        91360229.068923116        1299524809.2166669     
  -2392799298.9567060        426547871.72629321        920873464.15386748     
  -2383113586.1158190        271098681.62943065        1013429915.1330590     
  -2361491577.9012542        155437142.77815819        1096223579.6461451     
  -2327933274.3130116        79563255.172478080        1169254457.6931241     
  -2282438675.3510909        43477018.812386751        1232522549.2739980     
  -2593300052.9134841        437046811.71563876        749958407.81383884     
  -2625702695.9930010        254250937.86043406        879430872.51466250     
  -2643676719.3081031        119550463.21996677        992601238.45627987     
  -2647222122.8587875        32945387.794212222        1089469505.6386914     
  -2636338906.6450505       -5564288.4168021679        1170035674.0618973     
  -1243899920.9224792        183652358.66399050        1447075483.2937105     
  -1205573337.8489757        133565533.36375409        1436289750.2730858     
  -1163774379.7811384        95053291.377962291        1430058538.3507240     
  -1118503046.7189732        68115632.706600249        1428381847.5266235     
  -1069759338.6624742        52752557.349679410        1431259677.8007882     
  -1586219182.4898036        138085342.35278857        1371042453.8899045     
  -1531591655.6833951        102876879.31387740        1362281234.6026332     
  -1474646866.7341056        75392623.417899966        1358071213.4897959     
  -1415384815.6419363        55632574.664859533        1358412390.5513947     
  -1353805502.4068780        43596733.054775298        1363304765.7874269     
  -1932398767.2993405        91360229.068923116        1299524809.2166669     
  -1861479790.8281109        71027280.070898414        1291440472.0027237     
  -1789398665.0654478        54568162.044321895        1287904010.0393898     
  -1716155390.0113487        41982874.989190698        1288915423.3266628     
  -1641749965.6658175        33271418.905505538        1294474711.8645432     
  -2282438675.3510909        43477018.812386751        1232522549.2739980     
  -2195237743.2831187        38016735.634828568        1223767462.4733624     
  -2108029774.7751563        32579907.257233739        1219556927.9995053     
  -2020814769.8272135        27166533.679577827        1219890945.8524292     
  -1933592728.4392817        21776614.901875854        1224769516.0321312     
  -2636338906.6450505       -5564288.4168021679        1170035674.0618973     
  -2532865513.0484114        3845246.0056966543        1159262206.0145433     
  -2430540195.8632374        9427859.0566340685        1153029967.3701417     
  -2329362955.0895214        11183550.736046076        1151338958.1286902     
  -2229333790.7272758        9112321.0438938141        1154189178.2901940     
  -1069759338.6624742        52752557.349679410        1431259677.8007882     
  -1028176009.8456242        40937424.691876173        1425756702.3640821     
  -986309414.39386308        30066514.150443196        1425015145.0093894     
  -944159552.30719602        20139825.725362182        1429035005.7367136     
  -901726423.58562136        11157359.416643560        1437816284.5460489     
  -1353805502.4068780        43596733.054775298        1363304765.7874269     
  -1299344380.9233325        33140220.108301342        1356714467.3445005     
  -1244751212.0074480        23123865.269619346        1354955217.5528677     
  -1190025995.6592324        13547668.538705409        1358027016.4125257     
  -1135168731.8786821        4411629.9155746698        1365929863.9234788     
  -1641749965.6658175        33271418.905505538        1294474711.8645432     
  -1574212107.0319142        24233209.015471876        1286620668.0123894     
  -1506693420.1682529        15131093.224629223        1283667303.3808067     
  -1439193905.0748286        5965071.5329906344        1285614617.9697988     
  -1371713561.7516575       -3264856.0594769716        1292462611.7793601     
  -1933592728.4392817        21776614.901875854        1224769516.0321312     
  -1852779188.1713712        14216391.413374543        1215475304.3677471     
  -1772136038.8762770        6088198.0154768229        1211151402.4932141     
  -1691663280.5540025       -2607965.2918156385        1211797810.4085321     
  -1611360913.2045472       -11872098.508505285        1217414528.1137004     
  -2229333790.7272758        9112321.0438938141        1154189178.2901940     
  -2135045624.3417034        3089767.3020179272        1143278376.4105732     
  -2041079068.1315250       -4004820.3578503132        1137407514.8900836     
  -1947434122.0967317       -12171441.935667157        1136576593.7287209     
  -1854110786.2373459       -21410097.431499839        1140785612.9264922     
  -901726423.58562136        11157359.416643560        1437816284.5460489     
  -852562609.11694241        4142213.6263094544        1435432243.4094403     
  -803716271.30894876       -3931187.6996383071        1437788917.0860295     
  -755187410.16162360       -13062844.561149836        1444886305.5758088     
  -706976025.67499173       -23252756.958305210        1456724408.8787880     
  -1135168731.8786821        4411629.9155746698        1365929863.9234788     
  -1073845637.1275434       -2797438.0472176075        1362151110.0728717     
  -1012663015.2796168       -10474749.020712376        1363029685.2046051     
  -951620866.33489954       -18620303.004908741        1368565589.3186803     
  -890719190.29339600       -27234099.999814749        1378758822.4150972     
  -1371713561.7516575       -3264856.0594769716        1292462611.7793601     
  -1298469431.9490700       -10739319.764029026        1287495649.5984664     
  -1225188771.2922211       -18092013.954380095        1287102630.5690620     
  -1151871579.7811139       -25322938.630535662        1291283554.6911449     
  -1078517857.4157538       -32432093.792513669        1300038421.9647164     
  -1611360913.2045472       -11872098.508505285        1217414528.1137004     
  -1526433993.5815110       -19683431.524097979        1211465861.9862356     
  -1441293539.3467562       -26782982.500620842        1210007753.1794028     
  -1355939550.5002739       -33170751.438049793        1213040201.6932034     
  -1270372027.0420668       -38846738.336407483        1220563207.5276420     
  -1854110786.2373459       -21410097.431499839        1140785612.9264922     
  -1757739322.0248871       -29629773.327477455        1134061747.2361693     
  -1660977319.4432232       -36547654.659437597        1131745053.0356219     
  -1563824778.4923739       -42163741.427448392        1133835530.3248580     
  -1466281699.1723275       -46478033.631465554        1140333179.1038730     
  -706976025.67499173       -23252756.958305210        1456724408.8787880     
  -650900687.59413421       -30269700.719956547        1454086249.4275739     
  -593971312.92476583       -34439855.853240937        1457039095.1586246     
  -536187901.66688728       -35763222.358157307        1465582946.0719399     
  -477550453.82049233       -34239800.234684229        1479717802.1675298     
  -890719190.29339600       -27234099.999814749        1378758822.4150972     
  -820076700.18622947       -32267581.690127164        1375317356.4766130     
  -748859844.15283954       -35386510.293029368        1377032664.8980942     
  -677068622.19321990       -36590885.808500707        1383904747.6795487     
  -604703034.30738103       -35880708.236570626        1395933604.8209634     
  -1078517857.4157538       -32432093.792513669        1300038421.9647164     
  -994548874.77455676       -35854311.259150743        1295467367.0996203     
  -910285196.86942482       -38294211.179343790        1295618855.7721946     
  -825726823.70036042       -39751793.553099662        1300492887.9824390     
  -740873755.26736629       -40227058.380415916        1310089463.7303474     
  -1270372027.0420668       -38846738.336407483        1220563207.5276420     
  -1174317211.3591194       -41029889.427049875        1214536281.2965999     
  -1078247371.0745327       -43162958.512232125        1212797667.7809248     
  -982162506.18830574       -45245945.591943383        1215347366.9806209     
  -886062616.70043719       -47278850.666185260        1222185378.8956900     
  -1466281699.1723275       -46478033.631465554        1140333179.1038730     
  -1359381709.9399214       -47794316.193827510        1132524099.0675449     
  -1252746366.7681584       -49992752.291667402        1128569100.9242854     
  -1146375669.6570461       -53073341.925008595        1128468184.6740963     
  -1040269618.6065861       -57036085.093857944        1132221350.3169796     
  -477550453.82049233       -34239800.234684229        1479717802.1675298     
  -421349099.57044882       -28939100.842794225        1478148142.8384228     
  -363029404.75684541       -16577266.239035904        1482272983.9621389     
  -302591369.37967139        2845703.5766246915        1492092325.5386803     
  -240034993.43894106        29329808.604137525        1507606167.5680516     
  -604703034.30738103       -35880708.236570626        1395933604.8209634     
  -533817927.38729465       -31507034.490847111        1393748171.1403987     
  -460798852.02186865       -20020132.593992367        1397377360.3638437     
  -385645808.21110010       -1420002.5459956825        1406821172.4913023     
  -308358795.95500308        24293355.653095528        1422079607.5227869     
  -740873755.26736629       -40227058.380415916        1310089463.7303474     
  -654961688.67383575       -36677448.179826796        1307306488.2270603     
  -566900025.75318444       -25962516.888838261        1310458258.0789731     
  -476688766.50542575       -8082264.5074921846        1319544773.2860930     
  -384327910.93055749        16963308.964222506        1334566033.8484113     
  -886062616.70043719       -47278850.666185260        1222185378.8956900     
  -784780383.43005812       -44450341.909698486        1218823094.0984113     
  -681332925.95078969       -34404419.123570204        1221515677.1075287     
  -575720244.26264191       -17141082.307849020        1230263127.9230361     
  -467942338.36560822        7339668.5374922454        1245065446.5449371     
  -1040269618.6065861       -57036085.093857944        1132221350.3169796     
  -923274011.65597248       -54825715.680481046        1128297988.7544546     
  -804097552.61468792       -45345839.298194975        1130549617.4495084     
  -682740241.48275542       -28596455.947082937        1138976236.4021475     
  -559202078.26015854       -4577565.6270945370        1153577845.6123626     
  -240034993.43894106        29329808.604137525        1507606167.5680516     
  -199240705.18345767        59437660.195934221        1486326852.0948992     
  -153870885.26967669        104797283.98205927        1467817172.7139990     
  -103925533.69758338        165408679.96255580        1452077129.4253557     
  -49404650.467183888        241271848.13740903        1439106722.2289708     
  -308358795.95500308        24293355.653095528        1422079607.5227869     
  -258711976.53361458        54722767.275965065        1405149878.1236262     
  -202622348.89329064        106628206.29528612        1392185945.8295872     
  -140089913.03401884        180009672.71109867        1383187810.6406622     
  -71114668.955813318        274867166.52335972        1378155472.5568583     
  -384327910.93055749        16963308.964222506        1334566033.8484113     
  -322410957.44938374        48739561.486318886        1324164379.8439987     
  -252183919.18863913        108216096.60698511        1318924683.9575596     
  -173646796.14831284        195392914.32625711        1318846946.1890912     
  -86799588.328411296        310270014.64411312        1323931166.5386076     
  -467942338.36560822        7339668.5374922454        1245065446.5449371     
  -390337647.93076313        41488042.826996326        1243370357.2560043     
  -302555596.15571415        109560954.91718321        1248033387.0979066     
  -204596183.04045540        211558404.80806777        1259054536.0706422     
  -96459408.584980980        347480392.49967176        1276433804.1742043     
  -559202078.26015854       -4577565.6270945370        1153577845.6123626     
  -462492047.97776639        32968211.297963262        1162767810.3596568     
  -353737379.79452896        110662781.22583608        1179512055.2506375     
  -232938073.71044672        228506144.15652794        1203810580.2853150     
  -100094129.72551522        386498300.09004760        1235663385.4636819     
  -49404650.467183888        241271848.13740903        1439106722.2289708     
  -40207626.525202706        322237734.25149226        1346166979.1801002     
  -23256545.850916624        429050476.13992298        1253092849.8525422     
   1448591.5556708872        561710073.80268931        1159884334.2463229     
   33907785.694552034        720216527.23977494        1066541432.3614008     
  -71114668.955813318        274867166.52335972        1378155472.5568583     
  -57076952.823716372        376600135.70449799        1296672757.3752108     
  -34082000.678015798        508190558.26431847        1214255634.0645504     
  -2129812.5186985135        669638434.20285273        1130904102.6248872     
   38779611.654216230        860943763.52005911        1046618163.0562010     
  -86799588.328411296        310270014.64411312        1323931166.5386076     
  -70206956.721436620        432084333.87772167        1255309188.3857090     
  -43453909.819542080        587766704.09440756        1184952780.2534719     
  -6540447.6227317750        777317125.29412401        1112861942.1418970     
   40533429.868986845        1000735597.4769018        1039036674.0509621     
  -96459408.584980980        347480392.49967176        1276433804.1742043     
  -79597638.218360931        488690328.77118754        1222076272.2115865     
  -51372273.275502324        667778913.63016212        1165184288.4192972     
  -11783313.756434441        884746147.07649755        1105757852.7973230     
   39169240.338856697        1139592029.1102543        1043796965.3456879     
  -100094129.72551522        386498300.09004760        1235663385.4636819     
  -85248997.314478874        546418120.38490200        1196974008.8528597     
  -57837091.045898497        748227186.87158108        1154950158.5620356     
  -17858410.919803023        991925499.54997003        1109591834.5912013     
   34687043.063829064        1277513058.4201505        1060899036.9403667     
  -2593300052.9134841        437046811.71563876        749958407.81383884     
  -2625702695.9930010        254250937.86043406        879430872.51466250     
  -2643676719.3081031        119550463.21996677        992601238.45627987     
  -2647222122.8587875        32945387.794212222        1089469505.6386914     
  -2636338906.6450505       -5564288.4168021679        1170035674.0618973     
  -2942917245.6092472        73660719.938422203        738636170.65552926     
  -2955393654.4948406        48608082.805805326        829194663.84367204     
  -2967639716.3985991        24323268.945968986        914980842.85037029     
  -2979655431.3205271        806278.35890316963        995994707.67562139     
  -2991440799.2606215       -21942888.955379725        1072236258.3194258     
  -3444619946.1246438       -335351024.18468225        793967554.08105969     
  -3404227879.1655688       -192777752.09949136        829047424.17684484     
  -3377803738.0072460       -96764232.683471799        870884764.66894019     
  -3365347522.6496725       -47310465.936624050        919479575.55734885     
  -3366859233.0928512       -44416451.858946562        974831856.84206986     
  -4098408154.4596782       -789988420.65367758        915952558.09043717     
  -3972205370.0051966       -469906566.85546017        878989153.51417863     
  -3874168784.1340485       -243712041.66836345        860313003.91198993     
  -3804298396.8462334       -111404845.09237957        859924109.28387320     
  -3762594208.1417613       -72984977.127524853        877822469.62983179     
  -4904281870.6143427       -1290251469.4685652        1104591182.6836541     
  -4659326127.0137033       -782778361.46208620        979019851.85567164     
  -4456734854.7789974       -416520158.00869191        883265560.57951653     
  -4296508053.9102039       -191476859.10835767        817328308.85519612     
  -4178645724.4073305       -107648464.76109123        781208096.68270624     
  -2636338906.6450505       -5564288.4168021679        1170035674.0618973     
  -2532865513.0484114        3845246.0056966543        1159262206.0145433     
  -2430540195.8632374        9427859.0566340685        1153029967.3701417     
  -2329362955.0895214        11183550.736046076        1151338958.1286902     
  -2229333790.7272758        9112321.0438938141        1154189178.2901940     
  -2991440799.2606215       -21942888.955379725        1072236258.3194258     
  -2872072303.9028559       -7545453.9731628895        1053698681.4768189     
  -2754384412.6870456        1249967.2025305033        1041695822.6106493     
  -2638377125.6132002        4443374.5716813803        1036227681.7209179     
  -2524050442.6813126        2034768.1343051195        1037294258.8076272     
  -3366859233.0928512       -44416451.858946562        974831856.84206986     
  -3225899954.3354278       -23322411.825448871        947908888.85196400     
  -3087153807.4504604       -9605478.0334717035        929514127.41178298     
  -2950620792.4379444       -3265650.4829996824        919647572.52152836     
  -2816300909.2978859       -4302929.1740498543        918309224.18120050     
  -3762594208.1417613       -72984977.127524853        877822469.62983179     
  -3594348464.3461390       -43485627.551178932        841892828.13998044     
  -3428848380.1534729       -23138476.651344538        816484881.77354336     
  -3266093955.5637522       -11943524.427998066        801598630.53052223     
  -3106085190.5769820       -9900770.8811638355        797234074.41091037     
  -4178645724.4073305       -107648464.76109123        781208096.68270624     
  -3977417833.9349880       -68035101.150357246        735650499.34086955     
  -3779468130.7960839       -39349028.651097298        702608085.69593263     
  -3584796614.9906287       -21590247.263324022        682080855.74789512     
  -3393403286.5186176       -14758756.987033129        674068809.49675930     
  -2229333790.7272758        9112321.0438938141        1154189178.2901940     
  -2135045624.3417034        3089767.3020179272        1143278376.4105732     
  -2041079068.1315250       -4004820.3578503132        1137407514.8900836     
  -1947434122.0967317       -12171441.935667157        1136576593.7287209     
  -1854110786.2373459       -21410097.431499839        1140785612.9264922     
  -2524050442.6813126        2034768.1343051195        1037294258.8076272     
  -2417488876.0574999       -5079583.4151308537        1026932016.1332077     
  -2310813437.3046789       -11814361.201207399        1021222863.5461988     
  -2204024126.4228487       -18169565.223912239        1020166801.0466055     
  -2097120943.4120107       -24145195.483256817        1023763828.6344254     
  -2816300909.2978859       -4302929.1740498543        918309224.18120050     
  -2698571228.9264498       -12840664.478225350        909003603.40044844     
  -2580292194.1216044       -19547218.337698579        903964222.43539441     
  -2461463804.8833485       -24422590.752465487        903191081.28603649     
  -2342086061.2116704       -27466781.722509146        906684179.95237899     
  -3106085190.5769820       -9900770.8811638355        797234074.41091037     
  -2978292682.9485469       -20193475.887270689        789493138.21229792     
  -2849515338.5822954       -27203391.767328143        785631591.55766773     
  -2719753157.4782252       -30930518.521318316        785649434.44701850     
  -2589006139.6363444       -31374856.149273753        789546666.88035011     
  -3393403286.5186176       -14758756.987033129        674068809.49675930     
  -3256653238.1237946       -27138017.642248034        668400620.56875634     
  -3118482870.6867499       -34782881.490065813        666224970.91302168     
  -2978892184.2074914       -37693348.530509591        667541860.52954984     
  -2837881178.6860089       -35869418.763522506        672351289.41834235     
  -1854110786.2373459       -21410097.431499839        1140785612.9264922     
  -1757739322.0248871       -29629773.327477455        1134061747.2361693     
  -1660977319.4432232       -36547654.659437597        1131745053.0356219     
  -1563824778.4923739       -42163741.427448392        1133835530.3248580     
  -1466281699.1723275       -46478033.631465554        1140333179.1038730     
  -2097120943.4120107       -24145195.483256817        1023763828.6344254     
  -1988831035.4334421       -29156420.916709661        1016534673.0921844     
  -1880293425.5164776       -33341973.222170591        1013325968.0811998     
  -1771508113.6611109       -36701852.399630427        1014137713.6014780     
  -1662475099.8673491       -39236058.449098408        1018969909.6530080     
  -2342086061.2116704       -27466781.722509146        906684179.95237899     
  -2222982626.4913516       -29601031.800756454        898783092.05562580     
  -2103774326.2634256       -31385730.186991811        894515733.73160887     
  -1984461160.5279000       -32820876.881228209        893882104.98032975     
  -1865043129.2847717       -33906471.883444905        896882205.80178177     
  -2589006139.6363444       -31374856.149273753        789546666.88035011     
  -2460194095.1986108       -30963605.979610562        780807004.12649000     
  -2331420021.6840811       -30678925.553945065        775314349.98684716     
  -2202683919.0927334       -30520814.872229218        773068704.46141899     
  -2073985787.4245882       -30489273.934516191        774070067.55020344     
  -2837881178.6860089       -35869418.763522506        672351289.41834235     
  -2700465441.5552254       -33244143.453271270        662606409.30478680     
  -2563230511.7784328       -31221559.322992206        655721816.84691763     
  -2426176389.3556228       -29801666.372658253        651697512.04474163     
  -2289303074.2868066       -28984464.602294803        650533494.89826095     
  -1466281699.1723275       -46478033.631465554        1140333179.1038730     
  -1359381709.9399214       -47794316.193827510        1132524099.0675449     
  -1252746366.7681584       -49992752.291667402        1128569100.9242854     
  -1146375669.6570461       -53073341.925008595        1128468184.6740963     
  -1040269618.6065861       -57036085.093857944        1132221350.3169796     
  -1662475099.8673491       -39236058.449098408        1018969909.6530080     
  -1545095257.1583555       -39307359.316206813        1008647994.7261233     
  -1427990243.9650280       -40294758.568870366        1002246120.1892549     
  -1311160060.2873702       -42198256.207100451        999764286.04239869     
  -1194604706.1253898       -45017852.230918348        1001202492.2855574     
  -1865043129.2847717       -33906471.883444905        896882205.80178177     
  -1736994980.2507749       -32676255.200768292        884035575.28681552     
  -1609231844.1874700       -32396081.753732502        875174943.65880978     
  -1481753721.0948629       -33065951.542349815        870300310.91776121     
  -1354560610.9729545       -34685864.566630363        869411677.06367147     
  -2073985787.4245882       -30489273.934516191        774070067.55020344     
  -1935080879.2171810       -27901003.847522616        758686840.74962318     
  -1796471167.4354892       -26296721.846267462        747355571.33294702     
  -1658156652.0795226       -25676427.930752516        740076259.30017769     
  -1520137333.1492665       -26040122.100941479        736848904.65130877     
  -2289303074.2868066       -28984464.602294803        650533494.89826095     
  -2139352954.0575795       -24981605.256494522        632601791.11454320     
  -1989708213.7090831       -21996678.846469879        618788003.21167672     
  -1840368853.2413406       -20029685.372284770        609092131.18965673     
  -1691334872.6543403       -19080624.833907902        603514175.04848158     
  -1040269618.6065861       -57036085.093857944        1132221350.3169796     
  -923274011.65597248       -54825715.680481046        1128297988.7544546     
  -804097552.61468792       -45345839.298194975        1130549617.4495084     
  -682740241.48275542       -28596455.947082937        1138976236.4021475     
  -559202078.26015854       -4577565.6270945370        1153577845.6123626     
  -1194604706.1253898       -45017852.230918348        1001202492.2855574     
  -1063722491.0093460       -41822134.851063192        996457127.21931303     
  -931433190.25621653       -33936132.014266789        995991390.18433130     
  -797736803.86601734       -21359843.720561206        999805281.18060434     
  -662633331.83872604       -4093269.9698908031        1007898800.2081277     
  -1354560610.9729545       -34685864.566630363        869411677.06367147     
  -1215207108.3381259       -32129395.414282322        862941580.96453500     
  -1075220286.5197940       -27461862.316933990        858855750.67033076     
  -934600145.51797414       -20683265.274628222        857154186.18105114     
  -793346685.33265829       -11793604.287319750        857836887.49670327     
  -1520137333.1492665       -26040122.100941479        736848904.65130877     
  -1377727863.6423042       -25747497.370113373        727751349.99009824     
  -1235458841.4054251       -25923030.206230283        719142698.90749562     
  -1093330266.4386375       -26566720.609317005        711022951.40349042     
  -951342138.74192762       -27678568.579331577        703392107.47808707     
  -1691334872.6543403       -19080624.833907902        603514175.04848158     
  -1551284756.9218888       -22676440.718569756        590886434.29601872     
  -1412148854.9131083       -29319635.682132244        576852234.89583564     
  -1273927166.6280038       -39010209.724612594        561411576.84792531     
  -1136619692.0665615       -51748162.845972657        544564460.15228581     
  -559202078.26015854       -4577565.6270945370        1153577845.6123626     
  -462492047.97776639        32968211.297963262        1162767810.3596568     
  -353737379.79452896        110662781.22583608        1179512055.2506375     
  -232938073.71044672        228506144.15652794        1203810580.2853150     
  -100094129.72551522        386498300.09004760        1235663385.4636819     
  -662633331.83872604       -4093269.9698908031        1007898800.2081277     
  -547466205.88993812        25870140.750795662        1021348506.4777628     
  -421391171.64839411        92193245.780652404        1043191475.3173367     
  -284408229.11408961        194876045.11972398        1073427706.7268400     
  -136517378.28702471        333918538.76798713        1112057200.7062752     
  -793346685.33265829       -11793604.287319750        857836887.49670327     
  -657325371.07106793        11306568.022922337        874220150.74591804     
  -511532878.12480754        66977335.948729187        899835658.99131012     
  -355969206.49387896        155218699.49008906        934683412.23286974     
  -190634356.17828047        276030658.64703280        978763410.47060180     
  -951342138.74192762       -27678568.579331577        703392107.47808707     
  -792069543.52114809       -10722506.885636955        721382743.16411579     
  -624162499.22377503        35015051.730023980        749444606.27255917     
  -447621005.84983480        109534107.26759768        787577696.80340397     
  -262445063.39929098        212834659.72715038        835782014.75666225     
  -1136619692.0665615       -51748162.845972657        544564460.15228581     
  -951698723.24017775       -40217083.974861145        562836283.73235631     
  -759280034.94530034       -3693606.8754486442        592018317.16107702     
  -559363627.18193448        57822268.452264845        632110560.43844998     
  -351949499.95006645        144330542.00831839        683113013.56446421     
  -100094129.72551522        386498300.09004760        1235663385.4636819     
  -85248997.314478874        546418120.38490200        1196974008.8528597     
  -57837091.045898497        748227186.87158108        1154950158.5620356     
  -17858410.919803023        991925499.54997003        1109591834.5912013     
   34687043.063829064        1277513058.4201505        1060899036.9403667     
  -136517378.28702471        333918538.76798713        1112057200.7062752     
  -127385211.26312697        482949576.04909337        1090388632.6628706     
  -95128326.966858178        709063004.23812377        1070172745.6202326     
  -39746725.398228049        1012258823.3350132        1051409539.5783638     
   38759593.442786932        1392537033.3398557        1034099014.5372665     
  -190634356.17828047        276030658.64703280        978763410.47060180     
  -173537569.73932871        418276188.35500199        986433251.64526939     
  -122758122.61315492        672797253.68704450        1000342928.5014677     
  -38296014.799770057        1039593854.6431307        1020492441.0392177     
   79848753.700836897        1518665991.2232883        1046881789.2584871     
  -262445063.39929098        212834659.72715038        835782014.75666225     
  -223706072.74307963        352397957.30264086        885107865.80004990     
  -140726477.98480183        639429935.21836400        945460707.20575547     
  -13506279.124468505        1073930593.4742699        1016840538.9737564     
   157954523.83795136        1655899932.0704470        1099247361.1040804     
  -351949499.95006645        144330542.00831839        683113013.56446421     
  -277890720.27437168        285314882.89203739        786412475.12722003     
  -149033393.08177462        608961048.83209729        905526081.73306012     
   34622481.627725303        1115269039.8285198        1040453833.3819852     
   273076903.85414577        1804238855.8813162        1191195730.0739982     
  -4904281870.6143427       -1290251469.4685652        1104591182.6836541     
  -4659326127.0137033       -782778361.46208620        979019851.85567164     
  -4456734854.7789974       -416520158.00869191        883265560.57951653     
  -4296508053.9102039       -191476859.10835767        817328308.85519612     
  -4178645724.4073305       -107648464.76109123        781208096.68270624     
  -5441169404.6397543       -1417514252.7664270        572962908.69130552     
  -5144097450.7353258       -857396810.58359945        553560748.19835317     
  -4893888793.4270868       -453490357.05473852        532282248.19271290     
  -4690543432.7150450       -205794892.17986989        509127408.67438775     
  -4534061368.5991926       -114310415.95896721        484096229.64337319     
  -5480727249.5836735       -1395578129.3398428        58193361.372473694     
  -5222091596.9883499       -809982106.46452272        139711741.77923509     
  -5014818066.2195101       -395593156.34409595        187660403.60878968     
  -4858906657.2771235       -152411278.97855401        202039346.86113381     
  -4754357370.1612082       -80436474.367897272        182848571.53628153     
  -5022955405.4460897       -1224443099.1888065       -439717459.27284718     
  -4893308565.7727957       -640534249.10487628       -262527167.40169430     
  -4819522673.1562424       -242828555.87674403       -150599973.17226163     
  -4801597727.5964251       -31326019.504392385       -103935876.58455564     
  -4839533729.0933552       -6026639.9878728390       -122534877.63856943     
  -4067853872.2270117       -904109162.31332242       -920769553.24465513     
  -4157748357.0886579       -349053238.50466442       -653155979.34442699     
  -4308002614.2373085        4803444.3473110199       -482498882.15043265     
  -4518616643.6729679        157460886.24256873       -408798261.66268659     
  -4789590445.3956442        108919087.18112898       -432054117.88118440     
  -4178645724.4073305       -107648464.76109123        781208096.68270624     
  -3977417833.9349880       -68035101.150357246        735650499.34086955     
  -3779468130.7960839       -39349028.651097298        702608085.69593263     
  -3584796614.9906287       -21590247.263324022        682080855.74789512     
  -3393403286.5186176       -14758756.987033129        674068809.49675930     
  -4534061368.5991926       -114310415.95896721        484096229.64337319     
  -4314953295.3846359       -78468264.271575451        477425131.77045000     
  -4098056734.7583494       -49997821.211754799        472863116.60002226     
  -3883371686.7203403       -28899086.779514074        470410184.13209212     
  -3670898151.2705965       -15172060.974843025        470066334.36665547     
  -4754357370.1612082       -80436474.367897272        182848571.53628153     
  -4547100831.3313007       -57285049.741905451        216308427.00163510     
  -4340989130.3444920       -37949751.259569168        241471264.17508352     
  -4136022267.2007909       -22430578.920922756        258337083.05662465     
  -3932200241.9001899       -10727532.725952148        266905883.64625487     
  -4839533729.0933552       -6026639.9878728390       -122534877.63856943     
  -4673860441.7749691       -4485457.5613279343       -47699614.965572685     
  -4508265317.5545101       -3204818.7945542336        8432528.4211170841     
  -4342748356.4319849       -2184723.6875541210        45861552.521492295     
  -4177309558.4073954       -1425172.2403361797        64587457.335558422     
  -4789590445.3956442        108919087.18112898       -432054117.88118440     
  -4695232126.7156487        79930512.270142794       -314598994.13117623     
  -4599885296.3884039        54236976.183311462       -226253090.66188064     
  -4503549954.4139338        31838478.920572281       -167016407.47330096     
  -4406226100.7922125        12735020.481993437       -136888944.56543437     
  -3393403286.5186176       -14758756.987033129        674068809.49675930     
  -3256653238.1237946       -27138017.642248034        668400620.56875634     
  -3118482870.6867499       -34782881.490065813        666224970.91302168     
  -2978892184.2074914       -37693348.530509591        667541860.52954984     
  -2837881178.6860089       -35869418.763522506        672351289.41834235     
  -3670898151.2705965       -15172060.974843025        470066334.36665547     
  -3524662814.4739804       -23243075.021467686        471101735.62337339     
  -3377486237.7849150       -28176622.759933233        474946762.54568410     
  -3229368421.2034140       -29972704.190266490        481601415.13358700     
  -3080309364.7294617       -28631319.312441230        491065693.38708401     
  -3932200241.9001899       -10727532.725952148        266905883.64625487     
  -3778430798.4351268       -15075654.683968782        274085949.41295475     
  -3624199194.2273951       -17883240.833092690        283392727.23857427     
  -3469505429.2769918       -19150291.173316479        294826217.12311733     
  -3314349503.5839314       -18876805.704671860        308386419.06657249     
  -4177309558.4073954       -1425172.2403361797        64587457.335558422     
  -4017957190.0072346       -2635756.6297550201        77353261.937500194     
  -3858621740.0141830       -3902735.7095456123        91562864.991689324     
  -3699303208.4282446       -5226109.4796941280        107216266.49812277     
  -3540001595.2494001       -6605877.9401819706        124313466.45680720     
  -4406226100.7922125        12735020.481993437       -136888944.56543437     
  -4243241989.1903062        14076619.141163111       -119096326.80298996     
  -4080753875.1452832        13764892.610724449       -100542824.19497342     
  -3918761758.6571431        11799840.890668631       -81228436.741376147     
  -3757265639.7258983        8181463.9809725285       -61153164.442211248     
  -2837881178.6860089       -35869418.763522506        672351289.41834235     
  -2700465441.5552254       -33244143.453271270        662606409.30478680     
  -2563230511.7784328       -31221559.322992206        655721816.84691763     
  -2426176389.3556228       -29801666.372658253        651697512.04474163     
  -2289303074.2868066       -28984464.602294803        650533494.89826095     
  -3080309364.7294617       -28631319.312441230        491065693.38708401     
  -2934546197.0822372       -26998901.951752663        484559155.73979223     
  -2788880445.7246728       -25691205.556581497        481842551.89934981     
  -2643312110.6567664       -24708230.126945734        482915881.86576152     
  -2497841191.8785148       -24049975.662815690        487779145.63902318     
  -3314349503.5839314       -18876805.704671860        308386419.06657249     
  -3157582773.5598116       -17440406.735402703        305215513.46059477     
  -3000830068.7610154       -16050758.517216086        306764187.81263626     
  -2844091389.1875410       -14707861.050106049        313032442.12268835     
  -2687366734.8393970       -13411714.334085584        324020276.39075482     
  -3540001595.2494001       -6605877.9401819706        124313466.45680720     
  -3369575170.9879293       -4568657.8041956425        124575482.46720713     
  -3199079380.8874464       -2300218.2048532963        130486724.58677705     
  -3028514224.9479609        199440.85783517361        142047192.81552026     
  -2857879703.1694727        2930319.3838748932        159256887.15344006     
  -3757265639.7258983        8181463.9809725285       -61153164.442211248     
  -3570523389.3666010        11616344.841831684       -57360937.240392447     
  -3383628382.1039753        15560415.380475283       -46989837.778226122     
  -3196580617.9380145        20013675.596886992       -30039866.055734687     
  -3009380096.8687143        24976125.491105437       -6511022.0729123717     
  -2289303074.2868066       -28984464.602294803        650533494.89826095     
  -2139352954.0575795       -24981605.256494522        632601791.11454320     
  -1989708213.7090831       -21996678.846469879        618788003.21167672     
  -1840368853.2413406       -20029685.372284770        609092131.18965673     
  -1691334872.6543403       -19080624.833907902        603514175.04848158     
  -2497841191.8785148       -24049975.662815690        487779145.63902318     
  -2339281218.4267244       -20075760.286918163        475342496.12478179     
  -2181026524.6129160       -17119143.704286933        465417504.89394736     
  -2023077110.4371209       -15180125.915025115        458004171.94651991     
  -1865432975.8993034       -14258706.919034958        453102497.28250331     
  -2687366734.8393970       -13411714.334085584        324020276.39075482     
  -2524786215.5862989       -10842935.154450655        317078798.09585106     
  -2362510875.7284346       -9291420.6256090403        311042720.48692906     
  -2200540715.2658305       -8757170.7476307154        305912043.56396723     
  -2038875734.1984606       -9240185.5204271078        301686767.32698071     
  -2857879703.1694727        2930319.3838748932        159256887.15344006     
  -2695867945.5363073        2716870.1408700943        157810697.02776220     
  -2534161267.0556517        1486490.3895256519        155663649.99061278     
  -2372759667.7274837       -760819.87011277676        152815746.04199436     
  -2211663147.5518084       -4025060.6380797625        149266985.18191275     
  -3009380096.8687143        24976125.491105437       -6511022.0729123717     
  -2852526408.2767506        20603655.599073648       -2461807.0795004228     
  -2695977698.5945330        15214589.341221213       -719706.59499863104     
  -2539733967.8220706        8808926.7175099850       -1284720.6193957867     
  -2383795215.9593487        1386667.7280098200       -4156849.1527075823     
  -1691334872.6543403       -19080624.833907902        603514175.04848158     
  -1551284756.9218888       -22676440.718569756        590886434.29601872     
  -1412148854.9131083       -29319635.682132244        576852234.89583564     
  -1273927166.6280038       -39010209.724612594        561411576.84792531     
  -1136619692.0665615       -51748162.845972657        544564460.15228581     
  -1865432975.8993034       -14258706.919034958        453102497.28250331     
  -1728651413.5886080       -19879533.013643861        440622865.21221161     
  -1591751477.1931639       -25105778.825753808        427502729.97520262     
  -1454733166.7129753       -29937444.355376124        413742091.57148689     
  -1317596482.1480417       -34374529.602540851        399340950.00105065     
  -2038875734.1984606       -9240185.5204271078        301686767.32698071     
  -1903174281.0780389       -16229488.555496454        290559929.71533275     
  -1766321866.0644708       -19382251.946732402        279558544.41798604     
  -1628318489.1577353       -18698475.694083452        268682611.43494475     
  -1489164150.3578508       -14178159.797604382        257932130.76619706     
  -2211663147.5518084       -4025060.6380797625        149266985.18191275     
  -2074853359.3902109       -11726307.344208837        140697627.80539206     
  -1935860021.5270185       -12149055.045042634        133019678.22419056     
  -1794683133.9622838       -5293303.7407237291        126233136.43829584     
  -1651322696.6959810        8840946.5688208342        120338002.44771534     
  -2383795215.9593487        1386667.7280098200       -4156849.1527075823     
  -2243688648.5250907       -6369989.3797072172       -8964040.5176108275     
  -2100365943.5808623       -3406188.1208448410       -12113868.606197145     
  -1953827101.1266308        10278071.504689097       -13606333.418456286     
  -1804072121.1624379        34682789.496761203       -13441434.954388252     
  -1136619692.0665615       -51748162.845972657        544564460.15228581     
  -951698723.24017775       -40217083.974861145        562836283.73235631     
  -759280034.94530034       -3693606.8754486442        592018317.16107702     
  -559363627.18193448        57822268.452264845        632110560.43844998     
  -351949499.95006645        144330542.00831839        683113013.56446421     
  -1317596482.1480417       -34374529.602540851        399340950.00105065     
  -1117892279.4877536       -14397475.026077926        421182422.80396777     
  -914585208.45396817        17589140.795394301        441536332.77538037     
  -707675269.04668105        61585317.861853302        460402679.91529751     
  -497162461.26588041        117591056.17337725        477781464.22371525     
  -1489164150.3578508       -14178159.797604382        257932130.76619706     
  -1310098921.5212259        3618208.1869429946        278799259.84780151     
  -1131325675.4060969        20441300.433192313        285781053.41775912     
  -952844412.01245081        36291116.941154778        278877511.47606581     
  -774655131.34027767        51167657.710884362        258088634.02272761     
  -1651322696.6959810        8840946.5688208342        120338002.44771534     
  -1528318649.3406029        13829965.664169252        135686794.86386275     
  -1409501435.8016868        4862872.0379619598        124752479.08821081     
  -1294871056.0792432       -18060334.309820473        87535055.120754555     
  -1184427510.1732862       -54939653.379210293        24034522.961510494     
  -1804072121.1624379        34682789.496761203       -13441434.954388252     
  -1772551462.9458640        16237797.405656934       -8154972.1478566192     
  -1749112489.6407421       -29146144.390321374       -41549390.213275917     
  -1733755201.2470984       -101469035.89122128       -113624689.15063782     
  -1726479597.7648902       -200730877.09688336       -224380868.95994937     
  -351949499.95006645        144330542.00831839        683113013.56446421     
  -277890720.27437168        285314882.89203739        786412475.12722003     
  -149033393.08177462        608961048.83209729        905526081.73306012     
   34622481.627725303        1115269039.8285198        1040453833.3819852     
   273076903.85414577        1804238855.8813162        1191195730.0739982     
  -497162461.26588041        117591056.17337725        477781464.22371525     
  -388309481.53751242        223100768.45357206        597078610.00568318     
  -230310849.92920703        492429320.33358049        735512832.77051079     
  -23166566.440946281        925576711.81343329        893084132.51818717     
   233123368.92725140        1522542942.8931119        1069792509.2487425     
  -774655131.34027767        51167657.710884362        258088634.02272761     
  -621513860.30275285        124050968.76448017        386788419.11412126     
  -424879833.02224016        341910133.96137756        537948213.12815094     
  -184753049.49872401        704745153.30160511        711568016.06481171     
   98866490.267767310        1212556026.7851040        907647827.92411077     
  -1184427510.1732862       -54939653.379210293        24034522.961510494     
  -977503856.57010031       -11834516.175232172        155541902.45254251     
  -732740342.36089432        157403489.71545795        312832222.80598700     
  -450136967.54561794        452774364.29302698        495905484.02184451     
  -129693732.12434542        874278107.55731416        704761686.10009027     
  -1726479597.7648902       -200730877.09688336       -224380868.95994937     
  -1456279470.3395360       -184555686.36557090       -96660939.979050696     
  -1153892377.9451141       -61090612.404054701        60164861.804017194     
  -819318320.58160543        169664344.78774983        246096536.38927543     
  -452557298.24904120        507709185.20976281        461134083.77672464     
 </DataArray>
 <DataArray  type="Float64" Name="VM" NumberOfComponents="1" format="ascii">
   4028711240.2506676     
   4151779405.9581070     
   4390674021.4270706     
   4653551734.0184879     
   4902420841.2118740     
   4599899255.0816545     
   4628950492.0243711     
   4710041170.7388105     
   4789396111.4984980     
   4841177676.6681614     
   4934307025.2310152     
   4873917215.2344208     
   4840115262.7712336     
   4797302431.3035393     
   4725278942.6155415     
   4988746881.5646315     
   4868842124.3582716     
   4773514724.5534019     
   4675028503.3212271     
   4555824448.2502041     
   4800972575.7560892     
   4642228113.8362417     
   4529914883.7019987     
   4435993650.9338427     
   4342084954.9696026     
   4902420841.2118740     
   4766949076.8720856     
   4643806805.0215282     
   4528801773.3693876     
   4418972704.3210297     
   4841177676.6681614     
   4672349827.0205221     
   4506687430.2397890     
   4342383009.5291595     
   4178095069.7070794     
   4725278942.6155415     
   4534235840.4674606     
   4342328001.2237225     
   4149050987.5720339     
   3953966017.5575018     
   4555824448.2502041     
   4355478915.5605383     
   4154813287.8392491     
   3953864203.9484496     
   3752721067.9926891     
   4342084954.9696026     
   4144565399.1382408     
   3951984775.3248363     
   3764244830.7462173     
   3581679431.6847248     
   4418972704.3210297     
   4255300581.2719636     
   4091361555.6983304     
   3927195933.4453692     
   3762854114.3791342     
   4178095069.7070794     
   4018873866.1872873     
   3859931224.5153074     
   3701354422.3926616     
   3543251561.4279981     
   3953966017.5575018     
   3800680673.1401634     
   3648460154.1578851     
   3497450516.2080646     
   3347836791.8161459     
   3752721067.9926891     
   3606615412.0094609     
   3462623908.9472017     
   3320955529.3276739     
   3181881323.9466119     
   3581679431.6847248     
   3443606516.6069002     
   3308963973.6963162     
   3178013753.7642732     
   3051103377.5337968     
   3762854114.3791342     
   3577725461.2398510     
   3392411819.4249825     
   3207056392.1644616     
   3021966612.9202666     
   3543251561.4279981     
   3374199226.8294792     
   3205906416.5419245     
   3038590902.8790698     
   2872620363.5857215     
   3347836791.8161459     
   3192966197.8963227     
   3039635822.0252876     
   2888115229.6662273     
   2738803582.8203497     
   3181881323.9466119     
   3039317937.4352489     
   2898858605.0966573     
   2760800806.6514091     
   2625547844.9506431     
   3051103377.5337968     
   2919072776.5206122     
   2789446305.6559553     
   2662526028.7823911     
   2538695713.3941998     
   3021966612.9202666     
   2862887017.3080239     
   2703617388.3654723     
   2544150841.9409375     
   2384499722.0952573     
   2872620363.5857215     
   2711041927.5026627     
   2549203024.3496881     
   2387099020.5154638     
   2224726927.0073199     
   2738803582.8203497     
   2578546839.4290605     
   2418643340.4144635     
   2259188383.4824038     
   2100310635.9054503     
   2625547844.9506431     
   2470531981.5731258     
   2317255450.1583405     
   2166025006.8588719     
   2017263110.1061385     
   2538695713.3941998     
   2392606476.2181926     
   2250411392.5691900     
   2112694101.8641195     
   1980251012.8828430     
   2384499722.0952573     
   2240564240.8960314     
   2098769805.1611402     
   1959128110.0240836     
   1821809919.9473674     
   2224726927.0073199     
   2083317323.0569146     
   1943518833.7043600     
   1805331044.9042318     
   1668828262.9500868     
   2100310635.9054503     
   1960796627.2824619     
   1822221789.4963322     
   1684605205.5399354     
   1547993614.9452488     
   2017263110.1061385     
   1880614700.2443225     
   1744309793.9272578     
   1608459324.5477955     
   1473217540.5709586     
   1980251012.8828430     
   1849124478.2161882     
   1718108216.1094635     
   1587534230.2707839     
   1457880505.9559681     
   1821809919.9473674     
   1780781906.1147048     
   1736215185.2450247     
   1696765247.2635925     
   1680924521.1014564     
   1668828262.9500868     
   1553164020.7147768     
   1428377300.7523170     
   1294843071.9674492     
   1158683662.7803082     
   1547993614.9452488     
   1397962649.0511992     
   1244368848.0949125     
   1084954978.7376957     
   917701051.18944073     
   1473217540.5709586     
   1328901617.6938963     
   1199051812.4326370     
   1088159605.5808549     
   1002140414.7988950     
   1457880505.9559681     
   1348861509.9678500     
   1274822495.8114431     
   1243891489.5725391     
   1263102128.0490370     
   1680924521.1014564     
   1383501374.0032132     
   1129410077.2413011     
   1010330699.3421735     
   1153376847.2437181     
   1158683662.7803082     
   1008298274.5396521     
   985196505.12954891     
   1161552900.6832509     
   1544227368.8713150     
   917701051.18944073     
   963111292.30180860     
   1144928370.1908081     
   1476479041.8604381     
   1957462459.6585295     
   1002140414.7988950     
   1164774205.4383221     
   1425439904.0059950     
   1808720314.7286074     
   2334718658.9480247     
   1263102128.0490370     
   1446806115.6386774     
   1715730892.8609936     
   2110460353.5233772     
   2663455403.4087586     
   4800972575.7560892     
   4642228113.8362417     
   4529914883.7019987     
   4435993650.9338427     
   4342084954.9696026     
   4086593127.0836058     
   4055925059.8339190     
   4042871892.2772126     
   4034809596.4409652     
   4024865959.8186488     
   3565650499.8226604     
   3609934931.7791519     
   3656144368.4000568     
   3702014875.5560069     
   3746873553.1222873     
   3243411074.3758626     
   3308029895.5982628     
   3375089574.4116015     
   3443365496.7924643     
   3511784514.1270194     
   3120404050.8929892     
   3153845516.0448570     
   3205486443.8732076     
   3264493151.6321588     
   3323040005.4449973     
   4342084954.9696026     
   4144565399.1382408     
   3951984775.3248363     
   3764244830.7462173     
   3581679431.6847248     
   4024865959.8186488     
   3858922127.5761333     
   3698397080.0362582     
   3543470727.2575026     
   3394680707.6510129     
   3746873553.1222873     
   3609339616.5843558     
   3477491458.9779506     
   3351685098.8806076     
   3232541798.2303033     
   3511784514.1270194     
   3399709972.5544672     
   3293245892.1367021     
   3192816988.7329121     
   3099017388.3067803     
   3323040005.4449973     
   3233701991.6918249     
   3149438622.3049941     
   3070643513.4543643     
   2997796618.8501687     
   3581679431.6847248     
   3443606516.6069002     
   3308963973.6963162     
   3178013753.7642732     
   3051103377.5337968     
   3394680707.6510129     
   3268086786.8302011     
   3145570250.4148455     
   3027478432.7570095     
   2914251069.3318214     
   3232541798.2303033     
   3118759812.1048794     
   3009868155.3020558     
   2906294477.6028090     
   2808562013.2362590     
   3099017388.3067803     
   2999294338.5020642     
   2905406330.9093471     
   2817840880.6673975     
   2737177556.7436819     
   2997796618.8501687     
   2913122465.1212821     
   2835301255.7357335     
   2764844260.1422334     
   2702344158.5685172     
   3051103377.5337968     
   2919072776.5206122     
   2789446305.6559553     
   2662526028.7823911     
   2538695713.3941998     
   2914251069.3318214     
   2793978522.3755836     
   2677362895.9563894     
   2564844230.1529756     
   2456962704.2179284     
   2808562013.2362590     
   2701880556.0375252     
   2600249638.0629187     
   2504217882.8966703     
   2414434004.8498368     
   2737177556.7436819     
   2645437584.6761055     
   2560158376.5398803     
   2481933983.7898526     
   2411437949.8797679     
   2702344158.5685172     
   2626163012.7700248     
   2557736725.4137721     
   2497626482.2456470     
   2446440601.5503325     
   2538695713.3941998     
   2392606476.2181926     
   2250411392.5691900     
   2112694101.8641195     
   1980251012.8828430     
   2456962704.2179284     
   2327690474.0713491     
   2203719564.8383632     
   2085834564.5772340     
   1975031635.8787875     
   2414434004.8498368     
   2303479434.0200596     
   2199167427.4880366     
   2102370030.2205048     
   2014121010.4602404     
   2411437949.8797679     
   2319535112.8081169     
   2235336918.3707986     
   2159670949.7814331     
   2093453549.6373241     
   2446440601.5503325     
   2373407827.4973125     
   2308733233.3198676     
   2253103037.8577332     
   2207228272.3550420     
   1980251012.8828430     
   1849124478.2161882     
   1718108216.1094635     
   1587534230.2707839     
   1457880505.9559681     
   1975031635.8787875     
   1858007006.8768077     
   1745423266.6166725     
   1638197660.4588223     
   1537454893.6781836     
   2014121010.4602404     
   1916434517.8002431     
   1827628208.4625440     
   1748918106.5521636     
   1681616487.8016641     
   2093453549.6373241     
   2016816278.8340564     
   1952717787.4075136     
   1902270358.9583588     
   1866538862.3403692     
   2207228272.3550420     
   2150346636.1395106     
   2108694845.9755349     
   2083081526.1771066     
   2074221220.5868909     
   1457880505.9559681     
   1348861509.9678500     
   1274822495.8114431     
   1243891489.5725391     
   1263102128.0490370     
   1537454893.6781836     
   1476541685.5705042     
   1448330630.4579437     
   1456786854.1190116     
   1505200364.7504516     
   1681616487.8016641     
   1653003082.8460510     
   1652127597.3627648     
   1681356369.5041237     
   1743298239.0343928     
   1866538862.3403692     
   1855804368.3714912     
   1868064478.6857512     
   1905526223.7445066     
   1971227516.4324231     
   2074221220.5868909     
   2070343033.2744675     
   2085729611.6152992     
   2123012653.0028954     
   2186018752.9680133     
   1263102128.0490370     
   1446806115.6386774     
   1715730892.8609936     
   2110460353.5233772     
   2663455403.4087586     
   1505200364.7504516     
   1613477639.3506126     
   1788951411.5760567     
   2066375617.0242939     
   2475970842.7218957     
   1743298239.0343928     
   1787962127.9365723     
   1884774509.8062570     
   2060642796.7156212     
   2340799665.0087538     
   1971227516.4324231     
   1969220665.5351019     
   2003766662.1369905     
   2093529976.0995052     
   2257159684.5641732     
   2186018752.9680133     
   2156539376.9500809     
   2146670431.7388532     
   2166917499.7772985     
   2228328960.1496315     
   3120404050.8929892     
   3153845516.0448570     
   3205486443.8732076     
   3264493151.6321588     
   3323040005.4449973     
   3077677506.1341829     
   3078945337.2619352     
   3094024093.5315700     
   3116454644.4659915     
   3141335017.2556033     
   3024723140.0073118     
   3001366724.3798604     
   2991213535.3441443     
   2990850952.1528063     
   2997557384.0636764     
   2973831224.3764324     
   2932274137.9823675     
   2906539066.4981403     
   2895223799.8061662     
   2897147684.6599383     
   2942309202.8451762     
   2886142609.1387882     
   2851293756.4560452     
   2837512577.0478625     
   2844563713.4137988     
   3323040005.4449973     
   3233701991.6918249     
   3149438622.3049941     
   3070643513.4543643     
   2997796618.8501687     
   3141335017.2556033     
   3065418438.2191453     
   2995911830.8483109     
   2933211660.6859179     
   2877767062.6557450     
   2997557384.0636764     
   2933568340.9260130     
   2877266007.9411044     
   2828941485.2867360     
   2788918720.0304317     
   2897147684.6599383     
   2842771976.1704254     
   2797233845.7692866     
   2760616476.3695302     
   2733040644.3861094     
   2844563713.4137988     
   2796614848.4906111     
   2758483059.5517855     
   2729963453.0001969     
   2710924789.0246115     
   2997796618.8501687     
   2913122465.1212821     
   2835301255.7357335     
   2764844260.1422334     
   2702344158.5685172     
   2877767062.6557450     
   2809176624.3283095     
   2748082145.9473610     
   2694936262.1594052     
   2650243215.9422731     
   2788918720.0304317     
   2735517765.8852673     
   2690084974.1780262     
   2652982173.1242042     
   2624596943.5342417     
   2733040644.3861094     
   2693413650.1732955     
   2662035814.3729634     
   2639162673.9077377     
   2625057834.8183537     
   2710924789.0246115     
   2683143525.9721365     
   2663713504.2448683     
   2652787444.2766166     
   2650517481.5110359     
   2702344158.5685172     
   2626163012.7700248     
   2557736725.4137721     
   2497626482.2456470     
   2446440601.5503325     
   2650243215.9422731     
   2589071516.8848476     
   2536099079.9550443     
   2491805454.3537474     
   2456690452.0430698     
   2624596943.5342417     
   2577814706.9721537     
   2539517327.9159427     
   2510083717.7383127     
   2489894317.6201949     
   2625057834.8183537     
   2591624047.0841422     
   2566814851.1740680     
   2550906669.5695848     
   2544168254.6208434     
   2650517481.5110359     
   2629031919.3805385     
   2616204626.8926659     
   2612221865.5282683     
   2617260907.9251909     
   2446440601.5503325     
   2373407827.4973125     
   2308733233.3198676     
   2253103037.8577332     
   2207228272.3550420     
   2456690452.0430698     
   2399545247.5733166     
   2351717380.2588220     
   2313754347.4054685     
   2286189303.0729833     
   2489894317.6201949     
   2447337579.6358185     
   2414769469.5343719     
   2392577297.6725583     
   2381115741.5423603     
   2544168254.6208434     
   2514278940.8062692     
   2494834787.1773577     
   2486073877.3031373     
   2488201740.0138907     
   2617260907.9251909     
   2597688559.7019706     
   2588903341.6334805     
   2591023114.9642935     
   2604144752.1016674     
   2207228272.3550420     
   2150346636.1395106     
   2108694845.9755349     
   2083081526.1771066     
   2074221220.5868909     
   2286189303.0729833     
   2244896775.1097789     
   2217714815.9276156     
   2205112523.2245693     
   2207492320.0342045     
   2381115741.5423603     
   2352328312.1088243     
   2336500391.2951837     
   2333889458.5151815     
   2344720594.4872947     
   2488201740.0138907     
   2469157173.3426628     
   2462011696.8483696     
   2466903833.1297517     
   2483968118.6567774     
   2604144752.1016674     
   2592478518.2788987     
   2591803757.3005934     
   2602200846.2103834     
   2623765668.9697881     
   2074221220.5868909     
   2070343033.2744675     
   2085729611.6152992     
   2123012653.0028954     
   2186018752.9680133     
   2207492320.0342045     
   2192758221.5311112     
   2193046688.4241509     
   2210329290.6959028     
   2247535219.5637317     
   2344720594.4872947     
   2319972511.3891549     
   2306791013.0559464     
   2306584651.9893589     
   2321446566.5374737     
   2483968118.6567774     
   2451004374.4044886     
   2426638780.6170001     
   2411819181.4360161     
   2407923142.9946437     
   2623765668.9697881     
   2585067625.6510825     
   2552302044.9184890     
   2526051207.4643373     
   2507121327.2266850     
   2186018752.9680133     
   2156539376.9500809     
   2146670431.7388532     
   2166917499.7772985     
   2228328960.1496315     
   2247535219.5637317     
   2182765187.2710238     
   2134440532.4894459     
   2112212375.6283803     
   2126994025.0730505     
   2321446566.5374737     
   2224716766.2058225     
   2141316879.0190158     
   2079599432.4557726     
   2049717804.6947670     
   2407923142.9946437     
   2282687308.4389262     
   2167945943.0085936     
   2070429578.8499038     
   1998892116.9273732     
   2507121327.2266850     
   2356884985.0166526     
   2214797616.2915497     
   2085833556.0256104     
   1976859255.7872376     
   2942309202.8451762     
   2886142609.1387882     
   2851293756.4560452     
   2837512577.0478625     
   2844563713.4137988     
   2755921330.5364771     
   2731150520.8139467     
   2722685471.9282613     
   2730164822.4466133     
   2753246585.0946717     
   2622742648.8811941     
   2623781007.7266183     
   2635837048.3816581     
   2658645286.0761070     
   2691963676.9589524     
   2540019533.4644203     
   2561655916.3900886     
   2589234650.5010700     
   2622664147.6272087     
   2661864143.1624727     
   2502633513.7011008     
   2540425431.5029421     
   2579787342.8872685     
   2620719247.8540649     
   2663221146.4033408     
   2844563713.4137988     
   2796614848.4906111     
   2758483059.5517855     
   2729963453.0001969     
   2710924789.0246115     
   2753246585.0946717     
   2712411578.3257389     
   2681081354.7184405     
   2659144297.7534199     
   2646531500.6947575     
   2691963676.9589524     
   2656925391.8697915     
   2631282903.3611407     
   2614989285.5151420     
   2608016819.9428344     
   2661864143.1624727     
   2630929794.1951284     
   2609509751.4789820     
   2597593247.7553177     
   2595174274.8591051     
   2663221146.4033408     
   2634359424.3800521     
   2615380091.7624807     
   2606283148.5506196     
   2607068594.7444720     
   2710924789.0246115     
   2683143525.9721365     
   2663713504.2448683     
   2652787444.2766166     
   2650517481.5110359     
   2646531500.6947575     
   2628725132.4682093     
   2618906187.7751064     
   2617157184.2332568     
   2623558378.2455916     
   2608016819.9428344     
   2598123438.5095415     
   2595811674.7025070     
   2601115771.2654495     
   2614068355.6372414     
   2595174274.8591051     
   2591022230.9450593     
   2594040564.6529002     
   2604237071.6830535     
   2621619059.3669391     
   2607068594.7444720     
   2606492279.5996084     
   2612700438.9743710     
   2625693072.8687634     
   2645470181.2827859     
   2650517481.5110359     
   2629031919.3805385     
   2616204626.8926659     
   2612221865.5282683     
   2617260907.9251909     
   2623558378.2455916     
   2611363344.0169873     
   2607846197.0671577     
   2613112301.4599833     
   2627259442.1547408     
   2614068355.6372414     
   2609076645.4293623     
   2612777497.0113792     
   2625217466.9424896     
   2646438862.6458182     
   2621619059.3669391     
   2621548092.0974255     
   2630221420.8872399     
   2647650553.4580183     
   2673845781.4889011     
   2645470181.2827859     
   2647932236.6783762     
   2659259941.0831141     
   2679453294.4970012     
   2708512296.9200430     
   2617260907.9251909     
   2597688559.7019706     
   2588903341.6334805     
   2591023114.9642935     
   2604144752.1016674     
   2627259442.1547408     
   2614740952.1261196     
   2612553755.0214877     
   2620757430.6124020     
   2639399310.1403742     
   2646438862.6458182     
   2639428402.3067284     
   2642401947.5012236     
   2655383289.8693390     
   2678390709.0963678     
   2673845781.4889011     
   2670844954.9838653     
   2677611497.5653758     
   2694150780.5457873     
   2720466799.7319369     
   2708512296.9200430     
   2708095964.3953519     
   2717374850.9721613     
   2736348956.6504617     
   2765018281.4302435     
   2604144752.1016674     
   2592478518.2788987     
   2591803757.3005934     
   2602200846.2103834     
   2623765668.9697881     
   2639399310.1403742     
   2629861936.2273836     
   2630409303.1087227     
   2641080581.3708439     
   2661925336.5175562     
   2678390709.0963678     
   2670661191.3981028     
   2672283797.6753063     
   2683273513.2123575     
   2703650538.1646142     
   2720466799.7319369     
   2714396251.2454209     
   2717098228.9569759     
   2728575924.3152022     
   2748833949.4365845     
   2765018281.4302435     
   2760614579.5966396     
   2764537959.1966286     
   2776788420.2302303     
   2797365962.6974206     
   2623765668.9697881     
   2585067625.6510825     
   2552302044.9184890     
   2526051207.4643373     
   2507121327.2266850     
   2661925336.5175562     
   2616446876.7210517     
   2576649438.6834202     
   2542864160.6456614     
   2515552016.6125655     
   2703650538.1646142     
   2653464307.6889901     
   2608850730.9025402     
   2569957239.9384699     
   2536989688.2896581     
   2748833949.4365845     
   2696021005.0845470     
   2648814710.6530900     
   2607251664.5189333     
   2571382993.0152102     
   2797365962.6974206     
   2744009814.2399330     
   2696435992.5286403     
   2654644497.5635352     
   2618635329.3446097     
   2507121327.2266850     
   2356884985.0166526     
   2214797616.2915497     
   2085833556.0256104     
   1976859255.7872376     
   2515552016.6125655     
   2347827820.3345833     
   2183642227.2803540     
   2026091285.4864681     
   1879732907.6168618     
   2536989688.2896581     
   2356861860.6106777     
   2176456419.5529895     
   1997243012.8981755     
   1821495960.6172004     
   2571382993.0152102     
   2384090116.4338355     
   2193705842.6291742     
   2000607922.0915713     
   1805399276.5429893     
   2618635329.3446097     
   2429481108.5036917     
   2235532460.0286455     
   2036789383.9194541     
   1833251880.1761520     
   2502633513.7011008     
   2540425431.5029421     
   2579787342.8872685     
   2620719247.8540649     
   2663221146.4033408     
   2540019533.4489126     
   2561655916.3780751     
   2589234650.4920869     
   2622664147.6208286     
   2661864143.1583271     
   2622742648.8512726     
   2623781007.7033129     
   2635837048.3641458     
   2658645286.0636172     
   2691963676.9507680     
   2755921330.4939179     
   2731150520.7805624     
   2722685471.9030237     
   2730164822.4284883     
   2753246585.0826731     
   2942309202.7922087     
   2886142609.0969143     
   2851293756.4241319     
   2837512577.0247445     
   2844563713.3983026     
   2663221146.4033408     
   2634359424.3800521     
   2615380091.7624807     
   2606283148.5506196     
   2607068594.7444720     
   2661864143.1583271     
   2630929794.1920257     
   2609509751.4767008     
   2597593247.7536602     
   2595174274.8578820     
   2691963676.9507680     
   2656925391.8636408     
   2631282903.3565917     
   2614989285.5117917     
   2608016819.9403305     
   2753246585.0826731     
   2712411578.3166900     
   2681081354.7117023     
   2659144297.7484150     
   2646531500.6909666     
   2844563713.3983026     
   2796614848.4788809     
   2758483059.5430036     
   2729963452.9936256     
   2710924789.0195885     
   2607068594.7444720     
   2606492279.5996084     
   2612700438.9743710     
   2625693072.8687634     
   2645470181.2827859     
   2595174274.8578820     
   2591022230.9440761     
   2594040564.6520991     
   2604237071.6823955     
   2621619059.3663778     
   2608016819.9403305     
   2598123438.5075078     
   2595811674.7008519     
   2601115771.2640824     
   2614068355.6360831     
   2646531500.6909666     
   2628725132.4651022     
   2618906187.7725563     
   2617157184.2311420     
   2623558378.2437892     
   2710924789.0195885     
   2683143525.9679689     
   2663713504.2414203     
   2652787444.2737327     
   2650517481.5085659     
   2645470181.2827859     
   2647932236.6783762     
   2659259941.0831141     
   2679453294.4970012     
   2708512296.9200430     
   2621619059.3663778     
   2621548092.0970945     
   2630221420.8871183     
   2647650553.4580731     
   2673845781.4890957     
   2614068355.6360831     
   2609076645.4286623     
   2612777497.0110769     
   2625217466.9425278     
   2646438862.6461186     
   2623558378.2437892     
   2611363344.0158501     
   2607846197.0666041     
   2613112301.4599347     
   2627259442.1550889     
   2650517481.5085659     
   2629031919.3789101     
   2616204626.8917832     
   2612221865.5280218     
   2617260907.9254522     
   2708512296.9200430     
   2708095964.3953519     
   2717374850.9721613     
   2736348956.6504617     
   2765018281.4302435     
   2673845781.4890957     
   2670844954.9838200     
   2677611497.5650711     
   2694150780.5451722     
   2720466799.7310004     
   2646438862.6461186     
   2639428402.3065748     
   2642401947.5005383     
   2655383289.8680725     
   2678390709.0944638     
   2627259442.1550889     
   2614740952.1257925     
   2612553755.0203800     
   2620757430.6104288     
   2639399310.1374707     
   2617260907.9254522     
   2597688559.7013645     
   2588903341.6318703     
   2591023114.9615459     
   2604144752.0976992     
   2765018281.4302435     
   2760614579.5966396     
   2764537959.1966286     
   2776788420.2302303     
   2797365962.6974206     
   2720466799.7310004     
   2714396251.2443480     
   2717098228.9557581     
   2728575924.3138385     
   2748833949.4350824     
   2678390709.0944638     
   2670661191.3959193     
   2672283797.6728382     
   2683273513.2096019     
   2703650538.1615863     
   2639399310.1374707     
   2629861936.2240438     
   2630409303.1049495     
   2641080581.3666482     
   2661925336.5129166     
   2604144752.0976992     
   2592478518.2743487     
   2591803757.2954645     
   2602200846.2046680     
   2623765668.9635091     
   2797365962.6974206     
   2744009814.2399330     
   2696435992.5286403     
   2654644497.5635352     
   2618635329.3446097     
   2748833949.4350824     
   2696021005.0831151     
   2648814710.6516914     
   2607251664.5176091     
   2571382993.0139437     
   2703650538.1615863     
   2653464307.6860819     
   2608850730.8997421     
   2569957239.9358120     
   2536989688.2871404     
   2661925336.5129166     
   2616446876.7166171     
   2576649438.6791916     
   2542864160.6416578     
   2515552016.6088266     
   2623765668.9635091     
   2585067625.6451125     
   2552302044.9128313     
   2526051207.4590149     
   2507121327.2217326     
   2618635329.3446097     
   2429481108.5036917     
   2235532460.0286455     
   2036789383.9194541     
   1833251880.1761520     
   2571382993.0139437     
   2384090116.4331207     
   2193705842.6291218     
   2000607922.0923736     
   1805399276.5449317     
   2536989688.2871404     
   2356861860.6091967     
   2176456419.5527539     
   1997243012.8995183     
   1821495960.6206589     
   2515552016.6088266     
   2347827820.3322768     
   2183642227.2797933     
   2026091285.4881289     
   1879732907.6213250     
   2507121327.2217326     
   2356884985.0134959     
   2214797616.2905302     
   2085833556.0272729     
   1976859255.7921858     
   2942309202.7922087     
   2886142609.0969143     
   2851293756.4241319     
   2837512577.0247445     
   2844563713.3983026     
   2973831224.3186302     
   2932274137.9377766     
   2906539066.4648442     
   2895223799.7823353     
   2897147684.6438680     
   3024723139.9447842     
   3001366724.3327022     
   2991213535.3096867     
   2990850952.1285639     
   2997557384.0474439     
   3077677506.0665984     
   3078945337.2120776     
   3094024093.4960208     
   3116454644.4416184     
   3141335017.2396832     
   3120404050.8196568     
   3153845515.9919319     
   3205486443.8365221     
   3264493151.6078787     
   3323040005.4298820     
   2844563713.3983026     
   2796614848.4788809     
   2758483059.5430036     
   2729963452.9936256     
   2710924789.0195885     
   2897147684.6438680     
   2842771976.1577206     
   2797233845.7593350     
   2760616476.3617511     
   2733040644.3799624     
   2997557384.0474439     
   2933568340.9126601     
   2877266007.9302206     
   2828941485.2778921     
   2788918720.0231996     
   3141335017.2396832     
   3065418438.2055507     
   2995911830.8368020     
   2933211660.6762080     
   2877767062.6475110     
   3323040005.4298820     
   3233701991.6784182     
   3149438622.2932091     
   3070643513.4440365     
   2997796618.8410683     
   2710924789.0195885     
   2683143525.9679689     
   2663713504.2414203     
   2652787444.2737327     
   2650517481.5085659     
   2733040644.3799624     
   2693413650.1680846     
   2662035814.3685617     
   2639162673.9040046     
   2625057834.8151474     
   2788918720.0231996     
   2735517765.8789530     
   2690084974.1725330     
   2652982173.1194201     
   2624596943.5300212     
   2877767062.6475110     
   2809176624.3209033     
   2748082145.9407024     
   2694936262.1533942     
   2650243215.9367900     
   2997796618.8410683     
   2913122465.1128268     
   2835301255.7278681     
   2764844260.1348758     
   2702344158.5615582     
   2650517481.5085659     
   2629031919.3789101     
   2616204626.8917832     
   2612221865.5280218     
   2617260907.9254522     
   2625057834.8151474     
   2591624047.0819869     
   2566814851.1728568     
   2550906669.5691929     
   2544168254.6211276     
   2624596943.5300212     
   2577814706.9691701     
   2539517327.9140854     
   2510083717.7374516     
   2489894317.6201992     
   2650243215.9367900     
   2589071516.8807535     
   2536099079.9522295     
   2491805454.3520942     
   2456690452.0424323     
   2702344158.5615582     
   2626163012.7645574     
   2557736725.4097004     
   2497626482.2428613     
   2446440601.5487151     
   2617260907.9254522     
   2597688559.7013645     
   2588903341.6318703     
   2591023114.9615459     
   2604144752.0976992     
   2544168254.6211276     
   2514278940.8055925     
   2494834787.1755404     
   2486073877.3000436     
   2488201740.0093803     
   2489894317.6201992     
   2447337579.6347895     
   2414769469.5321250     
   2392577297.6689167     
   2381115741.5371599     
   2456690452.0424323     
   2399545247.5716372     
   2351717380.2558861     
   2313754347.4010687     
   2286189303.0669346     
   2446440601.5487151     
   2373407827.4946570     
   2308733233.3159542     
   2253103037.8523440     
   2207228272.3479557     
   2604144752.0976992     
   2592478518.2743487     
   2591803757.2954645     
   2602200846.2046680     
   2623765668.9635091     
   2488201740.0093803     
   2469157173.3375072     
   2462011696.8425202     
   2466903833.1231961     
   2483968118.6494913     
   2381115741.5371599     
   2352328312.1029401     
   2336500391.2885170     
   2333889458.5076919     
   2344720594.4789219     
   2286189303.0669346     
   2244896775.1030116     
   2217714815.9200244     
   2205112523.2160463     
   2207492320.0246944     
   2207228272.3479557     
   2150346636.1317201     
   2108694845.9668934     
   2083081526.1674721     
   2074221220.5761678     
   2623765668.9635091     
   2585067625.6451125     
   2552302044.9128313     
   2526051207.4590149     
   2507121327.2217326     
   2483968118.6494913     
   2451004374.3975954     
   2426638780.6105137     
   2411819181.4299722     
   2407923142.9891319     
   2344720594.4789219     
   2319972511.3812661     
   2306791013.0485349     
   2306584651.9824915     
   2321446566.5312724     
   2207492320.0246944     
   2192758221.5221195     
   2193046688.4157033     
   2210329290.6880856     
   2247535219.5566545     
   2074221220.5761678     
   2070343033.2642915     
   2085729611.6057057     
   2123012652.9940045     
   2186018752.9599586     
   2507121327.2217326     
   2356884985.0134959     
   2214797616.2905302     
   2085833556.0272729     
   1976859255.7921858     
   2407923142.9891319     
   2282687308.4354753     
   2167945943.0075860     
   2070429578.8518343     
   1998892116.9328067     
   2321446566.5312724     
   2224716766.2019286     
   2141316879.0178053     
   2079599432.4576957     
   2049717804.7002769     
   2247535219.5566545     
   2182765187.2664814     
   2134440532.4877880     
   2112212375.6299763     
   2126994025.0782290     
   2186018752.9599586     
   2156539376.9447446     
   2146670431.7365377     
   2166917499.7782531     
   2228328960.1541080     
   3120404050.8196568     
   3153845515.9919319     
   3205486443.8365221     
   3264493151.6078787     
   3323040005.4298820     
   3243411074.3165030     
   3308029895.5517802     
   3375089574.3764787     
   3443365496.7672992     
   3511784514.1105247     
   3565650499.7828879     
   3609934931.7426023     
   3656144368.3689976     
   3702014875.5316443     
   3746873553.1050787     
   4086593127.0668445     
   4055925059.8100009     
   4042871892.2523279     
   4034809596.4188972     
   4024865959.8013821     
   4800972575.7643661     
   4642228113.8271322     
   4529914883.6850901     
   4435993650.9153214     
   4342084954.9528608     
   3323040005.4298820     
   3233701991.6784182     
   3149438622.2932091     
   3070643513.4440365     
   2997796618.8410683     
   3511784514.1105247     
   3399709972.5392437     
   3293245892.1228185     
   3192816988.7203269     
   3099017388.2953658     
   3746873553.1050787     
   3609339616.5677814     
   3477491458.9621892     
   3351685098.8657103     
   3232541798.2162104     
   4024865959.8013821     
   3858922127.5586610     
   3698397080.0188465     
   3543470727.2402649     
   3394680707.6339111     
   4342084954.9528608     
   4144565399.1202793     
   3951984775.3059897     
   3764244830.7266264     
   3581679431.6643643     
   2997796618.8410683     
   2913122465.1128268     
   2835301255.7278681     
   2764844260.1348758     
   2702344158.5615582     
   3099017388.2953658     
   2999294338.4914031     
   2905406330.8993516     
   2817840880.6579733     
   2737177556.7347002     
   3232541798.2162104     
   3118759812.0915971     
   3009868155.2894893     
   2906294477.5908585     
   2808562013.2247944     
   3394680707.6339111     
   3268086786.8139329     
   3145570250.3993225     
   3027478432.7421293     
   2914251069.3174686     
   3581679431.6643643     
   3443606516.5873637     
   3308963973.6775160     
   3178013753.7461252     
   3051103377.5162125     
   2702344158.5615582     
   2626163012.7645574     
   2557736725.4097004     
   2497626482.2428613     
   2446440601.5487151     
   2737177556.7347002     
   2645437584.6688428     
   2560158376.5342612     
   2481933983.7858043     
   2411437949.8771653     
   2808562013.2247944     
   2701880556.0279627     
   2600249638.0552144     
   2504217882.8907685     
   2414434004.8456531     
   2914251069.3174686     
   2793978522.3632684     
   2677362895.9461031     
   2564844230.1446872     
   2456962704.2115822     
   3051103377.5162125     
   2919072776.5051842     
   2789446305.6426735     
   2662526028.7712483     
   2538695713.3851924     
   2446440601.5487151     
   2373407827.4946570     
   2308733233.3159542     
   2253103037.8523440     
   2207228272.3479557     
   2411437949.8771653     
   2319535112.8046880     
   2235336918.3663106     
   2159670949.7756314     
   2093453549.6299260     
   2414434004.8456531     
   2303479434.0152636     
   2199167427.4824085     
   2102370030.2137847     
   2014121010.4521167     
   2456962704.2115822     
   2327690474.0646391     
   2203719564.8310575     
   2085834564.5690763     
   1975031635.8694842     
   2538695713.3851924     
   2392606476.2090497     
   2250411392.5597258     
   2112694101.8540893     
   1980251012.8719668     
   2207228272.3479557     
   2150346636.1317201     
   2108694845.9668934     
   2083081526.1674721     
   2074221220.5761678     
   2093453549.6299260     
   2016816278.8261168     
   1952717787.3988624     
   1902270358.9488270     
   1866538862.3297999     
   2014121010.4521167     
   1916434517.7917945     
   1827628208.4536047     
   1748918106.5425234     
   1681616487.7911451     
   1975031635.8694842     
   1858007006.8674607     
   1745423266.6071208     
   1638197660.4488609     
   1537454893.6676104     
   1980251012.8719668     
   1849124478.2055902     
   1718108216.0990047     
   1587534230.2603097     
   1457880505.9452813     
   2074221220.5761678     
   2070343033.2642915     
   2085729611.6057057     
   2123012652.9940045     
   2186018752.9599586     
   1866538862.3297999     
   1855804368.3615298     
   1868064478.6764295     
   1905526223.7358749     
   1971227516.4245708     
   1681616487.7911451     
   1653003082.8362145     
   1652127597.3536065     
   1681356369.4956574     
   1743298239.0266438     
   1537454893.6676104     
   1476541685.5606744     
   1448330630.4488213     
   1456786854.1105719     
   1505200364.7427158     
   1457880505.9452813     
   1348861509.9579556     
   1274822495.8022678     
   1243891489.5640521     
   1263102128.0412118     
   2186018752.9599586     
   2156539376.9447446     
   2146670431.7365377     
   2166917499.7782531     
   2228328960.1541080     
   1971227516.4245708     
   1969220665.5299492     
   2003766662.1348443     
   2093529976.1005714     
   2257159684.5685010     
   1743298239.0266438     
   1787962127.9314494     
   1884774509.8040035     
   2060642796.7163582     
   2340799665.0123477     
   1505200364.7427158     
   1613477639.3453429     
   1788951411.5734727     
   2066375617.0243766     
   2475970842.7243552     
   1263102128.0412118     
   1446806115.6330981     
   1715730892.8578293     
   2110460353.5225344     
   2663455403.4097600     
   4800972575.7643661     
   4642228113.8271322     
   4529914883.6850901     
   4435993650.9153214     
   4342084954.9528608     
   4988746881.5523443     
   4868842124.3357925     
   4773514724.5272741     
   4675028503.2952967     
   4555824448.2263613     
   4934307025.2010374     
   4873917215.1999760     
   4840115262.7358513     
   4797302431.2689562     
   4725278942.5824080     
   4599899255.0367565     
   4628950491.9795694     
   4710041170.6944752     
   4789396111.4543877     
   4841177676.6238461     
   4028711240.1965604     
   4151779405.9071727     
   4390674021.3762054     
   4653551733.9654799     
   4902420841.1555023     
   4342084954.9528608     
   4144565399.1202793     
   3951984775.3059897     
   3764244830.7266264     
   3581679431.6643643     
   4555824448.2263613     
   4355478915.5367136     
   4154813287.8152504     
   3953864203.9240294     
   3752721067.9675226     
   4725278942.5824080     
   4534235840.4354343     
   4342328001.1923981     
   4149050987.5410028     
   3953966017.5263619     
   4841177676.6238461     
   4672349826.9781647     
   4506687430.1990995     
   4342383009.4898300     
   4178095069.6688304     
   4902420841.1555023     
   4766949076.8179150     
   4643806804.9698286     
   4528801773.3202829     
   4418972704.2745829     
   3581679431.6643643     
   3443606516.5873637     
   3308963973.6775160     
   3178013753.7461252     
   3051103377.5162125     
   3752721067.9675226     
   3606615411.9855866     
   3462623908.9245028     
   3320955529.3060179     
   3181881323.9258518     
   3953966017.5263619     
   3800680673.1110125     
   3648460154.1306267     
   3497450516.1825910     
   3347836791.7923131     
   4178095069.6688304     
   4018873866.1519756     
   3859931224.4829154     
   3701354422.3631649     
   3543251561.4013233     
   4418972704.2745829     
   4255300581.2296820     
   4091361555.6603289     
   3927195933.4117265     
   3762854114.3499022     
   3051103377.5162125     
   2919072776.5051842     
   2789446305.6426735     
   2662526028.7712483     
   2538695713.3851924     
   3181881323.9258518     
   3039317937.4165993     
   2898858605.0801425     
   2760800806.6370606     
   2625547844.9385018     
   3347836791.7923131     
   3192966197.8743572     
   3039635822.0052238     
   2888115229.6480999     
   2738803582.8042092     
   3543251561.4013233     
   3374199226.8042679     
   3205906416.5181847     
   3038590902.8567996     
   2872620363.5649657     
   3762854114.3499022     
   3577725461.2115560     
   3392411819.3975735     
   3207056392.1378942     
   3021966612.8945284     
   2538695713.3851924     
   2392606476.2090497     
   2250411392.5597258     
   2112694101.8540893     
   1980251012.8719668     
   2625547844.9385018     
   2470531981.5611997     
   2317255450.1465034     
   2166025006.8469706     
   2017263110.0939724     
   2738803582.8042092     
   2578546839.4133592     
   2418643340.3991456     
   2259188383.4673700     
   2100310635.8906257     
   2872620363.5649657     
   2711041927.4824271     
   2549203024.3299513     
   2387099020.4962211     
   2224726926.9885468     
   3021966612.8945284     
   2862887017.2827272     
   2703617388.3406382     
   2544150841.9165869     
   2384499722.0714569     
   1980251012.8719668     
   1849124478.2055902     
   1718108216.0990047     
   1587534230.2603097     
   1457880505.9452813     
   2017263110.0939724     
   1880614700.2330575     
   1744309793.9167347     
   1608459324.5378473     
   1473217540.5613775     
   2100310635.8906257     
   1960796627.2692201     
   1822221789.4845364     
   1684605205.5294659     
   1547993614.9359274     
   2224726926.9885468     
   2083317323.0404902     
   1943518833.6902344     
   1805331044.8922958     
   1668828262.9402609     
   2384499722.0714569     
   2240564240.8754482     
   2098769805.1437688     
   1959128110.0099633     
   1821809919.9364808     
   1457880505.9452813     
   1348861509.9579556     
   1274822495.8022678     
   1243891489.5640521     
   1263102128.0412118     
   1473217540.5613775     
   1328901617.6853511     
   1199051812.4250448     
   1088159605.5741153     
   1002140414.7928576     
   1547993614.9359274     
   1397962649.0433006     
   1244368848.0884252     
   1084954978.7325320     
   917701051.18551147     
   1668828262.9402609     
   1553164020.7068057     
   1428377300.7462225     
   1294843071.9632540     
   1158683662.7781367     
   1821809919.9364808     
   1780781906.1060572     
   1736215185.2386725     
   1696765247.2595804     
   1680924521.0999055     
   1263102128.0412118     
   1446806115.6330981     
   1715730892.8578293     
   2110460353.5225344     
   2663455403.4097600     
   1002140414.7928576     
   1164774205.4339499     
   1425439904.0035672     
   1808720314.7279952     
   2334718658.9488931     
   917701051.18551147     
   963111292.29873919     
   1144928370.1891255     
   1476479041.8601730     
   1957462459.6593268     
   1158683662.7781367     
   1008298274.5379758     
   985196505.12873483     
   1161552900.6834760     
   1544227368.8722086     
   1680924521.0999055     
   1383501374.0024128     
   1129410077.2413819     
   1010330699.3432350     
   1153376847.2452459     
 </DataArray>
 <DataArray  type="Float64" Name="strain" NumberOfComponents="3" format="ascii">
   6.3277018726158651E-002  -5.2707833229610479E-003  -3.9900013975274762E-002
   6.7550539759652750E-002  -1.4971187810678299E-002  -2.8303425772496449E-002
   7.1824060793146960E-002  -2.1620070477234965E-002  -2.0908284893725759E-002
   7.6097581826641114E-002  -2.5217431322631947E-002  -1.7714591338962471E-002
   8.0371102860135268E-002  -2.5763270346868872E-002  -1.8722345108207250E-002
   7.7593707928729216E-002  -4.7073920417398663E-003  -1.9054423237034546E-002
   7.8352471517953326E-002  -1.3790972011240354E-002  -1.1376177255495945E-002
   7.9111235107177602E-002  -2.0050470768468331E-002  -6.5259988384894219E-003
   7.9869998696401767E-002  -2.3485888313423769E-002  -4.5038879860150316E-003
   8.0628762285625988E-002  -2.4097224646107029E-002  -5.3098446980726632E-003
   8.4367563513605526E-002  -4.1440007605186846E-003   2.5217123238667205E-003
   8.2984949418035414E-002  -1.2610756211802521E-002   6.0541754752774790E-003
   8.1602335322465330E-002  -1.8480871059701448E-002   8.1319508216319558E-003
   8.0219721226895274E-002  -2.1754345304215862E-002   8.7550383629299289E-003
   7.8837107131325190E-002  -2.2431178945345298E-002   7.9234380991713982E-003
   8.3598585480787524E-002  -3.5806094792975307E-003   2.4828392707428357E-002
   8.1447973459898959E-002  -1.1430540412364631E-002   2.3987632419823629E-002
   7.9297361439010242E-002  -1.6911271350934690E-002   2.3065564086638311E-002
   7.7146749418121607E-002  -2.0022802295007653E-002   2.2062187707872129E-002
   7.4996137397232890E-002  -2.0765133244583511E-002   2.0977503283525253E-002
   7.5286773830275544E-002  -3.0172181980763213E-003   4.7865617913650294E-002
   7.3741543643543961E-002  -1.0250324612926853E-002   4.2424193578142755E-002
   7.2196313456812322E-002  -1.5341671642167959E-002   3.8274840956529943E-002
   7.0651083270080767E-002  -1.8291259285799659E-002   3.5417560048811969E-002
   6.9105853083349184E-002  -1.9099087543821780E-002   3.3852350854989111E-002
   8.0371102860135268E-002  -2.5763270346868872E-002  -1.8722345108207250E-002
   7.8653521340870114E-002  -2.4808335838275519E-002  -1.3632623079056161E-002
   7.6935939821604959E-002  -2.3903376085183503E-002  -9.8043005953672990E-003
   7.5218358302339805E-002  -2.3048391087591227E-002  -7.2373776571406367E-003
   7.3500776783074651E-002  -2.2243380845499594E-002  -5.9318542643762573E-003
   8.0628762285625988E-002  -2.4097224646107029E-002  -5.3098446980726632E-003
   7.7875246742437232E-002  -2.3294544583238624E-002  -2.0669833155098349E-003
   7.5121731199248448E-002  -2.2487912941539387E-002   3.6540956466823982E-004
   7.2368215656059665E-002  -2.1677329721009549E-002   1.9873339424611031E-003
   6.9614700112870909E-002  -2.0862794921648886E-002   2.7987898178687964E-003
   7.8837107131325190E-002  -2.2431178945345298E-002   7.9234380991713982E-003
   7.5498588607289835E-002  -2.1780753328201369E-002   9.3733651694778014E-003
   7.2160070083254479E-002  -2.1072449797895715E-002   1.0463754780476092E-002
   6.8821551559219152E-002  -2.0306268354427871E-002   1.1194606932166312E-002
   6.5483033035183824E-002  -1.9482208997798178E-002   1.1565921624548559E-002
   7.4996137397232890E-002  -2.0765133244583511E-002   2.0977503283525253E-002
   7.1523546935428034E-002  -2.0266962073164072E-002   2.0688422375906210E-002
   6.8050956473623095E-002  -1.9656986654251821E-002   2.0490735052056140E-002
   6.4578366011818128E-002  -1.8935206987846082E-002   2.0384441311975154E-002
   6.1105775550013244E-002  -1.8101623073947581E-002   2.0369541155662849E-002
   6.9105853083349184E-002  -1.9099087543821780E-002   3.3852350854989111E-002
   6.5950121726851718E-002  -1.8753170818127080E-002   3.1878188303775840E-002
   6.2794390370354239E-002  -1.8241523510607913E-002   3.0446350379408516E-002
   5.9638659013856794E-002  -1.7564145621264512E-002   2.9556837081887249E-002
   5.6482927657359350E-002  -1.6721037150096818E-002   2.9209648411211708E-002
   7.3500776783074651E-002  -2.2243380845499594E-002  -5.9318542643762573E-003
   7.0791082916262849E-002  -2.1450820265136450E-002  -5.1608408280701124E-003
   6.8081389049450991E-002  -2.0633184252728809E-002  -4.3568557150890919E-003
   6.5371695182639133E-002  -1.9790472808277518E-002  -3.5198989254333624E-003
   6.2662001315827331E-002  -1.8922685931782590E-002  -2.6499704591016471E-003
   6.9614700112870909E-002  -2.0862794921648886E-002   2.7987898178687964E-003
   6.6952774384207658E-002  -2.0045856673137685E-002   3.3519746839221765E-003
   6.4290848655544436E-002  -1.9228063105155513E-002   3.9677241495974513E-003
   6.1628922926881172E-002  -1.8409414217702244E-002   4.6460382148945656E-003
   5.8966997198217908E-002  -1.7589910010778476E-002   5.3869168798138523E-003
   6.5483033035183824E-002  -1.9482208997798178E-002   1.1565921624548559E-002
   6.2898468367615992E-002  -1.8640893081138810E-002   1.1877057807775954E-002
   6.0313903700048160E-002  -1.7822941957581967E-002   1.2280351513572429E-002
   5.7729339032480328E-002  -1.7028355627127408E-002   1.2775802741937507E-002
   5.5144774364912580E-002  -1.6257134089774916E-002   1.3363411492871402E-002
   6.1105775550013244E-002  -1.8101623073947581E-002   2.0369541155662849E-002
   5.8628164866487684E-002  -1.7235929489140100E-002   2.0414408543491414E-002
   5.6150554182962130E-002  -1.6417820810008213E-002   2.0581026376835683E-002
   5.3672943499436604E-002  -1.5647297036552019E-002   2.0869394655695536E-002
   5.1195332815911015E-002  -1.4924358168771301E-002   2.1279513380071016E-002
   5.6482927657359350E-002  -1.6721037150096818E-002   2.9209648411211708E-002
   5.4141863880822871E-002  -1.5830965897141197E-002   2.8964026891068140E-002
   5.1800800104286421E-002  -1.5012699662434653E-002   2.8869748739387191E-002
   4.9459736327749901E-002  -1.4266238445976707E-002   2.8926813956168543E-002
   4.7118672551213492E-002  -1.3591582247767520E-002   2.9135222541412376E-002
   6.2662001315827331E-002  -1.8922685931782590E-002  -2.6499704591016471E-003
   5.9566804880795354E-002  -1.8046222694323322E-002  -2.4856406137085951E-003
   5.6471608445763322E-002  -1.7177482166980951E-002  -2.0362263037078110E-003
   5.3376412010731344E-002  -1.6316464349754409E-002  -1.3017275291001829E-003
   5.0281215575699312E-002  -1.5463169242644792E-002  -2.8214428988482254E-004
   5.8966997198217908E-002  -1.7589910010778476E-002   5.3869168798138523E-003
   5.6136742894519198E-002  -1.6771731558384684E-002   5.3982709069141932E-003
   5.3306488590820350E-002  -1.5957059934520179E-002   5.6544247320730046E-003
   5.0476234287121627E-002  -1.5145895139185780E-002   6.1553783552915353E-003
   4.7645979983422848E-002  -1.4338237172381141E-002   6.9011317765688140E-003
   5.5144774364912580E-002  -1.6257134089774916E-002   1.3363411492871402E-002
   5.2539177525998848E-002  -1.5497240422445768E-002   1.3226005583264838E-002
   4.9933580687085088E-002  -1.4736637702059546E-002   1.3293114805168843E-002
   4.7327983848171343E-002  -1.3975325928616604E-002   1.3564739158584013E-002
   4.4722387009257569E-002  -1.3213305102117268E-002   1.4040878643510390E-002
   5.1195332815911015E-002  -1.4924358168771301E-002   2.1279513380071016E-002
   4.8774108775234151E-002  -1.4222749286506658E-002   2.0997563415344117E-002
   4.6352884734557315E-002  -1.3516215469599066E-002   2.0879843915580072E-002
   4.3931660693880492E-002  -1.2804756718047924E-002   2.0926354880778656E-002
   4.1510436653203621E-002  -1.2088373031853505E-002   2.1137096310940129E-002
   4.7118672551213492E-002  -1.3591582247767520E-002   2.9135222541412376E-002
   4.4841536642225288E-002  -1.2948258150567882E-002   2.8712944403151863E-002
   4.2564400733237195E-002  -1.2295793237138378E-002   2.8414612063305783E-002
   4.0287264824249047E-002  -1.1634187507478969E-002   2.8240225521874759E-002
   3.8010128915260899E-002  -1.0963440961589965E-002   2.8189784778857807E-002
   5.0281215575699312E-002  -1.5463169242644792E-002  -2.8214428988482254E-004
   4.7645125083032092E-002  -1.4606026301483999E-002  -1.0667830679722545E-004
   4.5009034590364927E-002  -1.3733464982106036E-002  -3.1187285765343908E-005
   4.2372944097697735E-002  -1.2845485284510821E-002  -5.5671226788234218E-005
   3.9736853605030542E-002  -1.1942087208696828E-002  -1.8013012986672905E-004
   4.7645979983422848E-002  -1.4338237172381141E-002   6.9011317765688140E-003
   4.4944716776645188E-002  -1.3524620896819939E-002   6.8384635378425651E-003
   4.2243453569867584E-002  -1.2695581175216603E-002   6.7454248329504862E-003
   3.9542190363089980E-002  -1.1851118007570126E-002   6.6220156618932990E-003
   3.6840927156312375E-002  -1.0991231393881362E-002   6.4682360246699488E-003
   4.4722387009257569E-002  -1.3213305102117268E-002   1.4040878643510390E-002
   4.2025555584259244E-002  -1.2443215492155768E-002   1.3740081250795039E-002
   3.9328724159260850E-002  -1.1657697368326281E-002   1.3478517887804187E-002
   3.6631892734262449E-002  -1.0856750730629652E-002   1.3256188554537793E-002
   3.3935061309264131E-002  -1.0040375579065119E-002   1.3073093250994650E-002
   4.1510436653203621E-002  -1.2088373031853505E-002   2.1137096310940129E-002
   3.8887641505874149E-002  -1.1361810087491209E-002   2.0598174832061257E-002
   3.6264846358544753E-002  -1.0619813561436958E-002   2.0168091878795945E-002
   3.3642051211215322E-002  -9.8623834536890678E-003   1.9846847451144720E-002
   3.1019256063885940E-002  -9.0895197642494874E-003   1.9634441549107318E-002
   3.8010128915260899E-002  -1.0963440961589965E-002   2.8189784778857807E-002
   3.5530974541490123E-002  -1.0280404682827204E-002   2.7412744281640034E-002
   3.3051820167719265E-002  -9.5819297545469695E-003   2.6814146805925865E-002
   3.0572665793948434E-002  -8.8680161767490384E-003   2.6393992351715356E-002
   2.8093511420177630E-002  -8.1386639494336332E-003   2.6152280919007564E-002
   3.9736853605030542E-002  -1.1942087208696828E-002  -1.8013012986672905E-004
   3.7362960862199146E-002  -1.1112276753054151E-002  -3.8844175571828288E-004
   3.4989068119367750E-002  -1.0445059915971888E-002  -5.2493430624300785E-004
   3.2615175376536326E-002  -9.9404366974481240E-003  -5.8960778143973824E-004
   3.0241282633704958E-002  -9.5984070974848290E-003  -5.8246218130997285E-004
   3.6840927156312375E-002  -1.0991231393881362E-002   6.4682360246699488E-003
   3.4522257786717470E-002  -1.0178828341294244E-002   6.0968972049947334E-003
   3.2203588417122564E-002  -9.4768158569520367E-003   5.7641860564650593E-003
   2.9884919047527714E-002  -8.8851939408570724E-003   5.4701025790814262E-003
   2.7566249677932864E-002  -8.4039625930076856E-003   5.2146467728435564E-003
   3.3935061309264131E-002  -1.0040375579065119E-002   1.3073093250994650E-002
   3.1638423908724317E-002  -9.2453799295329486E-003   1.2590930287809332E-002
   2.9341786508184517E-002  -8.5085717979333508E-003   1.2114203591588824E-002
   2.7045149107644655E-002  -7.8299511842653685E-003   1.1642913162332263E-002
   2.4748511707104875E-002  -7.2095180885302090E-003   1.1177059000040124E-002
   3.1019256063885940E-002  -9.0895197642494874E-003   1.9634441549107318E-002
   2.8711459228219639E-002  -8.3119315177724584E-003   1.9093657492725957E-002
   2.6403662392553453E-002  -7.5403277389140821E-003   1.8525118299127577E-002
   2.4095865556887322E-002  -6.7747084276742128E-003   1.7928823968312010E-002
   2.1788068721221077E-002  -6.0150735840525660E-003   1.7304774500279327E-002
   2.8093511420177630E-002  -8.1386639494336332E-003   2.6152280919007564E-002
   2.5741363745203583E-002  -7.3784831060120792E-003   2.5605078819743721E-002
   2.3389216070229507E-002  -6.5720836798948690E-003   2.4996930179081833E-002
   2.1037068395255459E-002  -5.7194656710826269E-003   2.4327834997020847E-002
   1.8684920720281384E-002  -4.8206290795752560E-003   2.3597793273561596E-002
   3.0241282633704958E-002  -9.5984070974848290E-003  -5.8246218130997285E-004
   2.9623713369602012E-002  -9.1333872715402276E-003  -3.5338212637836541E-004
   2.9006144105499121E-002  -8.2597933750703789E-003  -1.8004735758893053E-003
   2.8388574841396175E-002  -6.9776254080770178E-003  -4.9237365298441804E-003
   2.7771005577293284E-002  -5.2868833705597140E-003  -9.7231709882410478E-003
   2.7566249677932864E-002  -8.4039625930076856E-003   5.2146467728435564E-003
   2.5541127317456502E-002  -7.8720926744758613E-003   5.8797611108558634E-003
   2.3516004956980252E-002  -7.1285550463339731E-003   5.4059407605642207E-003
   2.1490882596503974E-002  -6.1733497085820627E-003   3.7931857219688225E-003
   1.9465760236027640E-002  -5.0064766612178957E-003   1.0414959950693081E-003
   2.4748511707104875E-002  -7.2095180885302090E-003   1.1177059000040124E-002
   2.1853073066394113E-002  -6.6107980774124941E-003   1.2081301260219668E-002
   1.8957634425683323E-002  -5.9973167175975395E-003   1.2383845648234443E-002
   1.6062195784972491E-002  -5.3690740090862124E-003   1.2084692164084240E-002
   1.3166757144261798E-002  -4.7260699518769655E-003   1.1183840807768575E-002
   2.1788068721221077E-002  -6.0150735840525660E-003   1.7304774500279327E-002
   1.8559550616414705E-002  -5.3495034803488495E-003   1.8251238321712479E-002
   1.5331032511608403E-002  -4.8660783888611198E-003   1.9133241087120383E-002
   1.2102514406802007E-002  -4.5647983095903656E-003   1.9950782796501542E-002
   8.8739963019957360E-003  -4.4456632425355913E-003   2.0703863449856474E-002
   1.8684920720281384E-002  -4.8206290795752560E-003   2.3597793273561596E-002
   1.5660559967518362E-002  -4.0882088832848718E-003   2.4389572295335338E-002
   1.2636199214755367E-002  -3.7348400601248111E-003   2.5654127077222089E-002
   9.6118384619923586E-003  -3.7605226100948796E-003   2.7391457619221821E-002
   6.5874777092293502E-003  -4.1652565331943281E-003   2.9601563921334173E-002
   2.7771005577293284E-002  -5.2868833705597140E-003  -9.7231709882410478E-003
   2.3348546073845178E-002  -4.2054692456106046E-003  -4.1886407324165376E-003
   1.8926086570396961E-002  -4.7512850163252685E-003   2.6071440115043032E-003
   1.4503627066948771E-002  -6.9243306827009021E-003   1.0664183243523140E-002
   1.0081167563500637E-002  -1.0724606244738588E-002   1.9982476963638085E-002
   1.9465760236027640E-002  -5.0064766612178957E-003   1.0414959950693081E-003
   1.6232558361981342E-002  -4.6902773465929970E-003   6.7401491063238117E-003
   1.2999356487934988E-002  -6.2870932070536734E-003   1.3556062988284823E-002
   9.7661546138886057E-003  -9.7969242426003966E-003   2.1489237640952619E-002
   6.5329527398423348E-003  -1.5219770453232417E-002   3.0539673064327033E-002
   1.3166757144261798E-002  -4.7260699518769655E-003   1.1183840807768575E-002
   1.0978819182226651E-002  -5.1750854475745012E-003   1.6760831495029438E-002
   8.7908812201914488E-003  -7.8229013977823558E-003   2.3311089235606652E-002
   6.6029432581564199E-003  -1.2669517802499572E-002   3.0834614029499635E-002
   4.4150052961212105E-003  -1.9714934661727135E-002   3.9331405876708248E-002
   8.8739963019957360E-003  -4.4456632425355913E-003   2.0703863449856474E-002
   7.5873285345811614E-003  -5.6598935485562274E-003   2.5873406433700313E-002
   6.3006607671665833E-003  -9.3587095885106775E-003   3.1872222753469306E-002
   5.0139929997519862E-003  -1.5542111362399129E-002   3.8700312409163724E-002
   3.7273252323374445E-003  -2.4210098870220964E-002   4.6357675400783227E-002
   6.5874777092293502E-003  -4.1652565331943281E-003   2.9601563921334173E-002
   6.0580864190447614E-003  -6.1447016495377316E-003   3.4077873922336188E-002
   5.5286951288601449E-003  -1.0894517779239749E-002   3.9239463541873187E-002
   4.9993038386755145E-003  -1.8414704922298152E-002   4.5086332779944810E-002
   4.4699125484909397E-003  -2.8705263078715237E-002   5.1618481636551472E-002
   7.5286773830275544E-002  -3.0172181980763213E-003   4.7865617913650294E-002
   7.3741543643543961E-002  -1.0250324612926853E-002   4.2424193578142755E-002
   7.2196313456812322E-002  -1.5341671642167959E-002   3.8274840956529943E-002
   7.0651083270080767E-002  -1.8291259285799659E-002   3.5417560048811969E-002
   6.9105853083349184E-002  -1.9099087543821780E-002   3.3852350854989111E-002
   6.4356860471868088E-002  -7.3255670975055365E-003   3.9691277515110146E-002
   6.3853889999849783E-002  -1.2029250738040342E-002   3.8089529983721254E-002
   6.3350919527831520E-002  -1.5308976561390825E-002   3.7280230167863859E-002
   6.2847949055813229E-002  -1.7164744567557157E-002   3.7263378067538377E-002
   6.2344978583795008E-002  -1.7596554756538929E-002   3.8038973682744476E-002
   5.5733577315363964E-002  -1.1633915996934863E-002   3.4405260675098387E-002
   5.5773242559695846E-002  -1.3808176863153887E-002   3.5925388379402928E-002
   5.5812907804027728E-002  -1.5276281480613843E-002   3.7738339800875792E-002
   5.5852573048359576E-002  -1.6038229849314630E-002   3.9844114939517471E-002
   5.5892238292691458E-002  -1.6094021969256272E-002   4.2242713795327541E-002
   4.9416924360763177E-002  -1.5942264896364106E-002   3.2007567393614912E-002
   4.9499601323082010E-002  -1.5587102988267432E-002   3.5931768765187749E-002
   4.9582278285400877E-002  -1.5243586399836813E-002   3.9649169855565838E-002
   4.9664955247719675E-002  -1.4911715131072171E-002   4.3159770664749235E-002
   4.9747632210038521E-002  -1.4591489181973602E-002   4.6463571192738168E-002
   4.5406901608065819E-002  -2.0250613795793404E-002   3.2498197670659756E-002
   4.5032966290008442E-002  -1.7366029113380949E-002   3.8108671141075745E-002
   4.4659030971951064E-002  -1.5210891319059755E-002   4.3012720331933763E-002
   4.4285095653893686E-002  -1.3785200412829705E-002   4.7210345243233948E-002
   4.3911160335836308E-002  -1.3088956394690821E-002   5.0701545874976495E-002
   6.9105853083349184E-002  -1.9099087543821780E-002   3.3852350854989111E-002
   6.5950121726851718E-002  -1.8753170818127080E-002   3.1878188303775840E-002
   6.2794390370354239E-002  -1.8241523510607913E-002   3.0446350379408516E-002
   5.9638659013856794E-002  -1.7564145621264512E-002   2.9556837081887249E-002
   5.6482927657359350E-002  -1.6721037150096818E-002   2.9209648411211708E-002
   6.2344978583795008E-002  -1.7596554756538929E-002   3.8038973682744476E-002
   5.9688379601719771E-002  -1.7246981863647148E-002   3.6482022551751925E-002
   5.7031780619644576E-002  -1.6758600624192196E-002   3.5381011542757843E-002
   5.4375181637569360E-002  -1.6131411038173973E-002   3.4735940655762278E-002
   5.1718582655494200E-002  -1.5365413105592418E-002   3.4546809890765223E-002
   5.5892238292691458E-002  -1.6094021969256272E-002   4.2242713795327541E-002
   5.3648387180191048E-002  -1.5740792909167398E-002   4.1076051849294470E-002
   5.1404536067690618E-002  -1.5275677737776321E-002   4.0278945520412467E-002
   4.9160684955190194E-002  -1.4698676455083269E-002   3.9851394808681689E-002
   4.6916833842689784E-002  -1.4009789061088046E-002   3.9793399714101896E-002
   4.9747632210038521E-002  -1.4591489181973602E-002   4.6463571192738168E-002
   4.7830144462265481E-002  -1.4234603954687612E-002   4.5660276196403685E-002
   4.5912656714492406E-002  -1.3792754851360497E-002   4.5140152312372651E-002
   4.3995168966719338E-002  -1.3265941871992593E-002   4.4903199540645325E-002
   4.2077681218946283E-002  -1.2654165016583716E-002   4.4949417881221608E-002
   4.3911160335836308E-002  -1.3088956394690821E-002   5.0701545874976495E-002
   4.2233651447943110E-002  -1.2728415000207771E-002   5.0234695593079304E-002
   4.0556142560049940E-002  -1.2309831964944715E-002   4.9964631918638119E-002
   3.8878633672156757E-002  -1.1833207288901994E-002   4.9891354851653233E-002
   3.7201124784263573E-002  -1.1298540972079274E-002   5.0014864392124547E-002
   5.6482927657359350E-002  -1.6721037150096818E-002   2.9209648411211708E-002
   5.4141863880822871E-002  -1.5830965897141197E-002   2.8964026891068140E-002
   5.1800800104286421E-002  -1.5012699662434653E-002   2.8869748739387191E-002
   4.9459736327749901E-002  -1.4266238445976707E-002   2.8926813956168543E-002
   4.7118672551213492E-002  -1.3591582247767520E-002   2.9135222541412376E-002
   5.1718582655494200E-002  -1.5365413105592418E-002   3.4546809890765223E-002
   4.9537244003307029E-002  -1.4554905483937841E-002   3.4211369322236423E-002
   4.7355905351119845E-002  -1.3794186830700550E-002   3.4044035633943329E-002
   4.5174566698932640E-002  -1.3083257145880239E-002   3.4044808825886889E-002
   4.2993228046745491E-002  -1.2422116429477159E-002   3.4213688898066252E-002
   4.6916833842689784E-002  -1.4009789061088046E-002   3.9793399714101896E-002
   4.4911983826625562E-002  -1.3278845070734527E-002   3.9390156147019198E-002
   4.2907133810561306E-002  -1.2575673998966461E-002   3.9171782971946498E-002
   4.0902283794497021E-002  -1.1900275845783830E-002   3.9138280188883219E-002
   3.8897433778432827E-002  -1.1252650611186660E-002   3.9289647797829882E-002
   4.2077681218946283E-002  -1.2654165016583716E-002   4.4949417881221608E-002
   4.0266083350778595E-002  -1.2002784657531164E-002   4.4500387365416949E-002
   3.8454485482610885E-002  -1.1357161167232281E-002   4.4252990753395838E-002
   3.6642887614443148E-002  -1.0717294545687503E-002   4.4207228045157858E-002
   3.4831289746275480E-002  -1.0083184792896285E-002   4.4363099240703502E-002
   3.7201124784263573E-002  -1.1298540972079274E-002   5.0014864392124547E-002
   3.5599542575766030E-002  -1.0726724244327801E-002   4.9542062977429691E-002
   3.3997960367268501E-002  -1.0138648335498351E-002   4.9287658978291710E-002
   3.2396378158770979E-002  -9.5343132455909460E-003   4.9251652394710743E-002
   3.0794795950273429E-002  -8.9137189746057999E-003   4.9434043226686875E-002
   4.7118672551213492E-002  -1.3591582247767520E-002   2.9135222541412376E-002
   4.4841536642225288E-002  -1.2948258150567882E-002   2.8712944403151863E-002
   4.2564400733237195E-002  -1.2295793237138378E-002   2.8414612063305783E-002
   4.0287264824249047E-002  -1.1634187507478969E-002   2.8240225521874759E-002
   3.8010128915260899E-002  -1.0963440961589965E-002   2.8189784778857807E-002
   4.2993228046745491E-002  -1.2422116429477159E-002   3.4213688898066252E-002
   4.0848416890272937E-002  -1.1784910376724300E-002   3.3834970178735019E-002
   3.8703605733800273E-002  -1.1145784682855056E-002   3.3596955166020070E-002
   3.6558794577327650E-002  -1.0504739347869486E-002   3.3499643859921574E-002
   3.4413983420855054E-002  -9.8617743717676065E-003   3.3543036260439862E-002
   3.8897433778432827E-002  -1.1252650611186660E-002   3.9289647797829882E-002
   3.6901705282677569E-002  -1.0621562602880663E-002   3.8947267322314669E-002
   3.4905976786922310E-002  -9.9957761285717275E-003   3.8762348461617545E-002
   3.2910248291167010E-002  -9.3752911882599450E-003   3.8734891215738587E-002
   3.0914519795411793E-002  -8.7601077819450257E-003   3.8864895584678094E-002
   3.4831289746275480E-002  -1.0083184792896285E-002   4.4363099240703502E-002
   3.3001401819439377E-002  -9.4582148290371093E-003   4.4049835833890646E-002
   3.1171513892603295E-002  -8.8457675742885135E-003   4.3910791950097880E-002
   2.9341625965767174E-002  -8.2458430286502099E-003   4.3945967589324994E-002
   2.7511738038931054E-002  -7.6584411921226114E-003   4.4155362751572586E-002
   3.0794795950273429E-002  -8.9137189746057999E-003   4.9434043226686875E-002
   2.9147506500558279E-002  -8.2948670551935555E-003   4.9142675713463035E-002
   2.7500217050843143E-002  -7.6957590200050774E-003   4.9042285631461069E-002
   2.5852927601128027E-002  -7.1163948690408374E-003   4.9132872980680975E-002
   2.4205638151412856E-002  -6.5567746023000861E-003   4.9414437761122754E-002
   3.8010128915260899E-002  -1.0963440961589965E-002   2.8189784778857807E-002
   3.5530974541490123E-002  -1.0280404682827204E-002   2.7412744281640034E-002
   3.3051820167719265E-002  -9.5819297545469695E-003   2.6814146805925865E-002
   3.0572665793948434E-002  -8.8680161767490384E-003   2.6393992351715356E-002
   2.8093511420177630E-002  -8.1386639494336332E-003   2.6152280919007564E-002
   3.4413983420855054E-002  -9.8617743717676065E-003   3.3543036260439862E-002
   3.2111842967820492E-002  -9.2103876654616723E-003   3.2876429765821613E-002
   2.9809702514785846E-002  -8.5440771398644921E-003   3.2385408091172824E-002
   2.7507562061751298E-002  -7.8628427949762048E-003   3.2069971236492800E-002
   2.5205421608716638E-002  -7.1666846307968379E-003   3.1930119201781515E-002
   3.0914519795411793E-002  -8.7601077819450257E-003   3.8864895584678094E-002
   2.8786535061579008E-002  -8.1403706480961957E-003   3.8308208262433530E-002
   2.6658550327746069E-002  -7.5062245251824589E-003   3.7924247558623350E-002
   2.4530565593913208E-002  -6.8576694132034821E-003   3.7713013473247431E-002
   2.2402580860080332E-002  -6.1947053121597095E-003   3.7674506006306452E-002
   2.7511738038931054E-002  -7.6584411921226114E-003   4.4155362751572586E-002
   2.5555050822765484E-002  -7.0703536307308024E-003   4.3708079771474770E-002
   2.3598363606599834E-002  -6.4683719105000925E-003   4.3430665208277354E-002
   2.1641676390434204E-002  -5.8524960314309260E-003   4.3323119061979797E-002
   1.9684989174268613E-002  -5.2227259935227477E-003   4.3385441332582722E-002
   2.4205638151412856E-002  -6.5567746023000861E-003   4.9414437761122754E-002
   2.2417390251380037E-002  -6.0003366133651315E-003   4.9076044292946208E-002
   2.0629142351347191E-002  -5.4305192958180037E-003   4.8904661040135300E-002
   1.8840894451314344E-002  -4.8473226496579952E-003   4.8900288002689751E-002
   1.7052646551281470E-002  -4.2507466748856748E-003   4.9062925180609618E-002
   2.8093511420177630E-002  -8.1386639494336332E-003   2.6152280919007564E-002
   2.5741363745203583E-002  -7.3784831060120792E-003   2.5605078819743721E-002
   2.3389216070229507E-002  -6.5720836798948690E-003   2.4996930179081833E-002
   2.1037068395255459E-002  -5.7194656710826269E-003   2.4327834997020847E-002
   1.8684920720281384E-002  -4.8206290795752560E-003   2.3597793273561596E-002
   2.5205421608716638E-002  -7.1666846307968379E-003   3.1930119201781515E-002
   2.2833393573914285E-002  -6.4595143620899131E-003   3.1535891833142149E-002
   2.0461365539111903E-002  -5.7452437036194515E-003   3.1162850286244714E-002
   1.8089337504309536E-002  -5.0238726553859664E-003   3.0810994561089267E-002
   1.5717309469507168E-002  -4.2954012173886946E-003   3.0480324657675584E-002
   2.2402580860080332E-002  -6.1947053121597095E-003   3.7674506006306452E-002
   2.0092804828590285E-002  -5.5405456181676915E-003   3.7394135175359583E-002
   1.7783028797100087E-002  -4.9184037273440062E-003   3.7217082529294954E-002
   1.5473252765609992E-002  -4.3282796396888548E-003   3.7143348068113050E-002
   1.3163476734119856E-002  -3.7701733552019667E-003   3.7172931791813579E-002
   1.9684989174268613E-002  -5.2227259935227477E-003   4.3385441332582722E-002
   1.7519597509231311E-002  -4.6215768742454977E-003   4.3179808846396023E-002
   1.5354205844193981E-002  -4.0915637510685193E-003   4.3159626908232614E-002
   1.3188814179156686E-002  -3.6326866239919688E-003   4.3324895518092321E-002
   1.1023422514119353E-002  -3.2449454930152666E-003   4.3675614675975208E-002
   1.7052646551281470E-002  -4.2507466748856748E-003   4.9062925180609618E-002
   1.5113771615837573E-002  -3.7026081303233038E-003   4.8892912846251968E-002
   1.3174896680393650E-002  -3.2647237747931990E-003   4.8990483423057729E-002
   1.1236021744949726E-002  -2.9370936082949856E-003   4.9355636911027512E-002
   9.2971468095057741E-003  -2.7197176308286775E-003   4.9988373310160372E-002
   1.8684920720281384E-002  -4.8206290795752560E-003   2.3597793273561596E-002
   1.5660559967518362E-002  -4.0882088832848718E-003   2.4389572295335338E-002
   1.2636199214755367E-002  -3.7348400601248111E-003   2.5654127077222089E-002
   9.6118384619923586E-003  -3.7605226100948796E-003   2.7391457619221821E-002
   6.5874777092293502E-003  -4.1652565331943281E-003   2.9601563921334173E-002
   1.5717309469507168E-002  -4.2954012173886946E-003   3.0480324657675584E-002
   1.3147546524288040E-002  -3.7816392695014245E-003   3.1259918870710723E-002
   1.0577783579068911E-002  -3.7043966915972504E-003   3.2475932938721142E-002
   8.0080206338497550E-003  -4.0636734836768593E-003   3.4128366861706394E-002
   5.4382576886306544E-003  -4.8594696457391340E-003   3.6217220639666037E-002
   1.3163476734119856E-002  -3.7701733552019667E-003   3.7172931791813579E-002
   1.1011955691306696E-002  -3.4750696557174776E-003   3.7882873199256845E-002
   8.8604346484935023E-003  -3.6739533230696897E-003   3.8992878556537131E-002
   6.7089136056803049E-003  -4.3668243572585058E-003   4.0502947863654298E-002
   4.5573925628671491E-003  -5.5536827582836623E-003   4.2413081120608848E-002
   1.1023422514119353E-002  -3.2449454930152666E-003   4.3675614675975208E-002
   9.2537874685742622E-003  -3.1685000419339471E-003   4.4258435280973320E-002
   7.4841524230291941E-003  -3.6435099545420735E-003   4.5204963930670389E-002
   5.7145173774840975E-003  -4.6699752308403189E-003   4.6515200625066672E-002
   3.9448823319390321E-003  -6.2478958708281074E-003   4.8189145364162043E-002
   9.2971468095057741E-003  -2.7197176308286775E-003   4.9988373310160372E-002
   7.8730418560908899E-003  -2.8619304281500280E-003   5.0386605115859906E-002
   6.4489369026759502E-003  -3.6130665860144850E-003   5.1112189061120861E-002
   5.0248319492610105E-003  -4.9731261044222222E-003   5.2165125145942820E-002
   3.6007269958461263E-003  -6.9421089833728855E-003   5.3545413370326256E-002
   6.5874777092293502E-003  -4.1652565331943281E-003   2.9601563921334173E-002
   6.0580864190447614E-003  -6.1447016495377316E-003   3.4077873922336188E-002
   5.5286951288601449E-003  -1.0894517779239749E-002   3.9239463541873187E-002
   4.9993038386755145E-003  -1.8414704922298152E-002   4.5086332779944810E-002
   4.4699125484909397E-003  -2.8705263078715237E-002   5.1618481636551472E-002
   5.4382576886306544E-003  -4.8594696457391340E-003   3.6217220639666037E-002
   5.4904243322305701E-003  -6.9918296520407597E-003   3.8354674184827020E-002
   5.5425909758304581E-003  -1.1360797976837145E-002   4.0969963979023027E-002
   5.5947576194302906E-003  -1.7966374620128192E-002   4.4063090022252976E-002
   5.6469242630302618E-003  -2.6808559581914082E-002   4.7634052314517783E-002
   4.5573925628671491E-003  -5.5536827582836623E-003   4.2413081120608848E-002
   4.9836737707513595E-003  -7.8389576545431217E-003   4.2745440904791709E-002
   5.4099549786356602E-003  -1.1827078174434444E-002   4.3348193568509150E-002
   5.8362361865199851E-003  -1.7518044317957625E-002   4.4221339111761286E-002
   6.2625173944041712E-003  -2.4911856085112927E-002   4.5364877534546211E-002
   3.9448823319390321E-003  -6.2478958708281074E-003   4.8189145364162043E-002
   4.5378347346073898E-003  -8.6860856570455947E-003   4.7250174082229965E-002
   5.1307871372757493E-003  -1.2293358372032125E-002   4.6374152310331582E-002
   5.7237395399441079E-003  -1.7069714015787586E-002   4.5561080048467276E-002
   6.3166919426124665E-003  -2.3015152588311660E-002   4.4810957296637727E-002
   3.6007269958461263E-003  -6.9421089833728855E-003   5.3545413370326256E-002
   4.1529072237984077E-003  -9.5332136595484007E-003   5.1868873717141550E-002
   4.7050874517506891E-003  -1.2759638569629278E-002   5.0047840204490990E-002
   5.2572676797030260E-003  -1.6621383713617023E-002   4.8082312832374102E-002
   5.8094479076553629E-003  -2.1118449091510616E-002   4.5972291600790527E-002
   4.5406901608065819E-002  -2.0250613795793404E-002   3.2498197670659756E-002
   4.5032966290008442E-002  -1.7366029113380949E-002   3.8108671141075745E-002
   4.4659030971951064E-002  -1.5210891319059755E-002   4.3012720331933763E-002
   4.4285095653893686E-002  -1.3785200412829705E-002   4.7210345243233948E-002
   4.3911160335836308E-002  -1.3088956394690821E-002   5.0701545874976495E-002
   4.2012727675507955E-002  -1.9073127692922520E-002   3.9904516778872856E-002
   4.1074053177575176E-002  -1.6433879293541703E-002   4.3915296321353575E-002
   4.0135378679642439E-002  -1.4398076938056087E-002   4.7503021783641491E-002
   3.9196704181709674E-002  -1.2965720626465567E-002   5.0667693165736286E-002
   3.8258029683776923E-002  -1.2136810358770289E-002   5.3409310467638194E-002
   3.7543621181325731E-002  -1.7895641590051664E-002   4.7002499181956064E-002
   3.6323577702882422E-002  -1.5501729473702444E-002   4.9539585640697797E-002
   3.5103534224439153E-002  -1.3585262557052405E-002   5.1936988218611424E-002
   3.3883490745995899E-002  -1.2146240840101515E-002   5.4194706915696965E-002
   3.2663447267552576E-002  -1.1184664322849730E-002   5.6312741731954455E-002
   3.1999582125519170E-002  -1.6718155487180780E-002   5.3792144879909888E-002
   3.0781539865930234E-002  -1.4569579653863220E-002   5.4981539099108502E-002
   2.9563497606341301E-002  -1.2772448176048674E-002   5.6314619636843977E-002
   2.8345455346752334E-002  -1.1326761053737392E-002   5.7791386493116118E-002
   2.7127413087163398E-002  -1.0232518286929157E-002   5.9411839667925070E-002
   2.5380610508088292E-002  -1.5540669384309924E-002   6.0273453872734084E-002
   2.4447939666718516E-002  -1.3637429834023940E-002   6.0241156696585640E-002
   2.3515268825348781E-002  -1.1959633795045083E-002   6.0635916038338900E-002
   2.2582597983979026E-002  -1.0507281267373332E-002   6.1457731897993778E-002
   2.1649927142609271E-002  -9.2803722510085840E-003   6.2706604275550248E-002
   4.3911160335836308E-002  -1.3088956394690821E-002   5.0701545874976495E-002
   4.2233651447943110E-002  -1.2728415000207771E-002   5.0234695593079304E-002
   4.0556142560049940E-002  -1.2309831964944715E-002   4.9964631918638119E-002
   3.8878633672156757E-002  -1.1833207288901994E-002   4.9891354851653233E-002
   3.7201124784263573E-002  -1.1298540972079274E-002   5.0014864392124547E-002
   3.8258029683776923E-002  -1.2136810358770289E-002   5.3409310467638194E-002
   3.6777379400023374E-002  -1.1609800978598969E-002   5.3029923373073148E-002
   3.5296729116269812E-002  -1.1083147329580281E-002   5.2847466879331145E-002
   3.3816078832516291E-002  -1.0556849411714201E-002   5.2861940986412295E-002
   3.2335428548762715E-002  -1.0030907225000774E-002   5.3073345694316543E-002
   3.2663447267552576E-002  -1.1184664322849730E-002   5.6312741731954455E-002
   3.1379799581305656E-002  -1.0491186956990167E-002   5.5962420452789041E-002
   3.0096151895058723E-002  -9.8564626942156883E-003   5.5809173767813587E-002
   2.8812504208811776E-002  -9.2804915345264093E-003   5.5853001677028308E-002
   2.7528856522564836E-002  -8.7632734779223287E-003   5.6093904180433113E-002
   2.7127413087163398E-002  -1.0232518286929157E-002   5.9411839667925070E-002
   2.6040911991790004E-002  -9.3725729353813098E-003   5.9032186832226829E-002
   2.4954410896416604E-002  -8.6297780588511473E-003   5.8849752584085549E-002
   2.3867909801043207E-002  -8.0041336573387009E-003   5.8864536923501416E-002
   2.2781408705669810E-002  -7.4956397308438560E-003   5.9076539850474181E-002
   2.1649927142609271E-002  -9.2803722510085840E-003   6.2706604275550248E-002
   2.0760716631476384E-002  -8.2539589137725633E-003   6.2239222511386527E-002
   1.9871506120343489E-002  -7.4030934234867035E-003   6.1969203328146955E-002
   1.8982295609210605E-002  -6.7277757801508624E-003   6.1896546725831239E-002
   1.8093085098077721E-002  -6.2280059837653834E-003   6.2021252704439478E-002
   3.7201124784263573E-002  -1.1298540972079274E-002   5.0014864392124547E-002
   3.5599542575766030E-002  -1.0726724244327801E-002   4.9542062977429691E-002
   3.3997960367268501E-002  -1.0138648335498351E-002   4.9287658978291710E-002
   3.2396378158770979E-002  -9.5343132455909460E-003   4.9251652394710743E-002
   3.0794795950273429E-002  -8.9137189746057999E-003   4.9434043226686875E-002
   3.2335428548762715E-002  -1.0030907225000774E-002   5.3073345694316543E-002
   3.0950735093488196E-002  -9.5008357987229619E-003   5.2670596522270297E-002
   2.9566041638213685E-002  -8.9621501621635902E-003   5.2483227441113195E-002
   2.8181348182939169E-002  -8.4148503153227902E-003   5.2511238450845196E-002
   2.6796654727664640E-002  -7.8589362582003885E-003   5.2754629551466148E-002
   2.7528856522564836E-002  -8.7632734779223287E-003   5.6093904180433113E-002
   2.6358034495845395E-002  -8.2749473531183171E-003   5.5753562280239283E-002
   2.5187212469125985E-002  -7.7856519888289538E-003   5.5625583146266477E-002
   2.4016390442406534E-002  -7.2953873850546379E-003   5.5709966778514745E-002
   2.2845568415687127E-002  -6.8041535417949772E-003   5.6006713176984302E-002
   2.2781408705669810E-002  -7.4956397308438560E-003   5.9076539850474181E-002
   2.1821440782837570E-002  -7.0490589075135751E-003   5.8790960251336087E-002
   2.0861472860005319E-002  -6.6091538154942550E-003   5.8714726093751432E-002
   1.9901504937173086E-002  -6.1759244547863728E-003   5.8847837377719911E-002
   1.8941537014340856E-002  -5.7493708253895659E-003   5.9190294103241586E-002
   1.8093085098077721E-002  -6.2280059837653834E-003   6.2021252704439478E-002
   1.7340953954464750E-002  -5.8231704619087776E-003   6.1782790435561230E-002
   1.6588822810851764E-002  -5.4326556421596672E-003   6.1750656283568073E-002
   1.5836691667238799E-002  -5.0564615245182742E-003   6.1924850248460367E-002
   1.5084560523625806E-002  -4.6945881089841546E-003   6.2305372330237807E-002
   3.0794795950273429E-002  -8.9137189746057999E-003   4.9434043226686875E-002
   2.9147506500558279E-002  -8.2948670551935555E-003   4.9142675713463035E-002
   2.7500217050843143E-002  -7.6957590200050774E-003   4.9042285631461069E-002
   2.5852927601128027E-002  -7.1163948690408374E-003   4.9132872980680975E-002
   2.4205638151412856E-002  -6.5567746023000861E-003   4.9414437761122754E-002
   2.6796654727664640E-002  -7.8589362582003885E-003   5.2754629551466148E-002
   2.5342149402173303E-002  -7.3041127764023051E-003   5.2496854019298544E-002
   2.3887644076681973E-002  -6.7600846555340988E-003   5.2433669304356667E-002
   2.2433138751190639E-002  -6.2268518955959570E-003   5.2565075406640419E-002
   2.0978633425699306E-002  -5.7044144965879284E-003   5.2891072326150201E-002
   2.2845568415687127E-002  -6.8041535417949772E-003   5.6006713176984302E-002
   2.1587460600423443E-002  -6.3133584976108881E-003   5.5791478149166768E-002
   2.0329352785159720E-002  -5.8244102910629536E-003   5.5774447324578869E-002
   1.9071244969896012E-002  -5.3373089221511877E-003   5.5955620703220604E-002
   1.7813137154632314E-002  -4.8520543908756597E-003   5.6334998285091586E-002
   1.8941537014340856E-002  -5.7493708253895659E-003   5.9190294103241586E-002
   1.7883440095308643E-002  -5.3226042188194433E-003   5.9026548103068004E-002
   1.6825343176276437E-002  -4.8887359265918917E-003   5.9064619692127743E-002
   1.5767246257244221E-002  -4.4477659487064183E-003   5.9304508870420970E-002
   1.4709149338212046E-002  -3.9996942851634465E-003   5.9746215637947728E-002
   1.5084560523625806E-002  -4.6945881089841546E-003   6.2305372330237807E-002
   1.4230087886828946E-002  -4.3318499400279986E-003   6.2202063881001968E-002
   1.3375615250032072E-002  -3.9530615621207743E-003   6.2304186407003470E-002
   1.2521142613235205E-002  -3.5582229752616351E-003   6.2611739908242037E-002
   1.1666669976438337E-002  -3.1473341794512333E-003   6.3124724384718167E-002
   2.4205638151412856E-002  -6.5567746023000861E-003   4.9414437761122754E-002
   2.2417390251380037E-002  -6.0003366133651315E-003   4.9076044292946208E-002
   2.0629142351347191E-002  -5.4305192958180037E-003   4.8904661040135300E-002
   1.8840894451314344E-002  -4.8473226496579952E-003   4.8900288002689751E-002
   1.7052646551281470E-002  -4.2507466748856748E-003   4.9062925180609618E-002
   2.0978633425699306E-002  -5.7044144965879284E-003   5.2891072326150201E-002
   1.9366804075515151E-002  -5.1877545665911518E-003   5.2629905522863174E-002
   1.7754974725331052E-002  -4.6718542136868629E-003   5.2554565603908227E-002
   1.6143145375146939E-002  -4.1567134378755165E-003   5.2665052569285317E-002
   1.4531316024962798E-002  -3.6423322391567758E-003   5.2961366418994127E-002
   1.7813137154632314E-002  -4.8520543908756597E-003   5.6334998285091586E-002
   1.6396543023263307E-002  -4.3751725198170888E-003   5.6136919240989416E-002
   1.4979948891894287E-002  -3.9131891315562772E-003   5.6143483750185574E-002
   1.3563354760525267E-002  -3.4661042260929822E-003   5.6354691812680088E-002
   1.2146760629156261E-002  -3.0339178034274883E-003   5.6770543428472597E-002
   1.4709149338212046E-002  -3.9996942851634465E-003   5.9746215637947728E-002
   1.3506607094624503E-002  -3.5625904730430674E-003   5.9597085447324935E-002
   1.2304064851036987E-002  -3.1545240494253585E-003   5.9671415478967128E-002
   1.1101522607449472E-002  -2.7754950143106423E-003   5.9969205732873870E-002
   9.8989803638619284E-003  -2.4255033676985061E-003   6.0490456209045154E-002
   1.1666669976438337E-002  -3.1473341794512333E-003   6.3124724384718167E-002
   1.0696996289598706E-002  -2.7500084262690461E-003   6.3010404141870091E-002
   9.7273226027590892E-003  -2.3958589672945507E-003   6.3138360790252868E-002
   8.7576489159194512E-003  -2.0848858025279693E-003   6.3508594329866858E-002
   7.7879752290798132E-003  -1.8170889319693018E-003   6.4121104760711756E-002
   1.7052646551281470E-002  -4.2507466748856748E-003   4.9062925180609618E-002
   1.5113771615837573E-002  -3.7026081303233038E-003   4.8892912846251968E-002
   1.3174896680393650E-002  -3.2647237747931990E-003   4.8990483423057729E-002
   1.1236021744949726E-002  -2.9370936082949856E-003   4.9355636911027512E-002
   9.2971468095057741E-003  -2.7197176308286775E-003   4.9988373310160372E-002
   1.4531316024962798E-002  -3.6423322391567758E-003   5.2961366418994127E-002
   1.2857421347573200E-002  -3.1830628853776743E-003   5.2815667411129641E-002
   1.1183526670183588E-002  -2.8332576443859669E-003   5.2932346008210007E-002
   9.5096319927939904E-003  -2.5929165161811957E-003   5.3311402210235587E-002
   7.8357373154044063E-003  -2.4620395007637352E-003   5.3952836017205741E-002
   1.2146760629156261E-002  -3.0339178034274883E-003   5.6770543428472597E-002
   1.0732640903602292E-002  -2.6635176404320449E-003   5.6649947823346203E-002
   9.3185211780483224E-003  -2.4017915139788182E-003   5.6786524516946379E-002
   7.9044014524943321E-003  -2.2487394240677319E-003   5.7180273509272531E-002
   6.4902817269403834E-003  -2.2043613706986820E-003   5.7831194800325253E-002
   9.8989803638619284E-003  -2.4255033676985061E-003   6.0490456209045154E-002
   8.7394302839249316E-003  -2.1439723954864154E-003   6.0395754082902195E-002
   7.5798802039879071E-003  -1.9703253835717388E-003   6.0553018949266631E-002
   6.4203301240508687E-003  -1.9045623319539941E-003   6.0962250808138260E-002
   5.2607800441138580E-003  -1.9466832406336843E-003   6.1623449659518263E-002
   7.7879752290798132E-003  -1.8170889319693018E-003   6.4121104760711756E-002
   6.8777894885410640E-003  -1.6244271505407859E-003   6.4053086189797104E-002
   5.9676037480022870E-003  -1.5388592531643819E-003   6.4231829305170740E-002
   5.0574180074635378E-003  -1.5603852398405754E-003   6.4657334106833469E-002
   4.1472322669247608E-003  -1.6890051105686865E-003   6.5329600594785098E-002
   9.2971468095057741E-003  -2.7197176308286775E-003   4.9988373310160372E-002
   7.8730418560908899E-003  -2.8619304281500280E-003   5.0386605115859906E-002
   6.4489369026759502E-003  -3.6130665860144850E-003   5.1112189061120861E-002
   5.0248319492610105E-003  -4.9731261044222222E-003   5.2165125145942820E-002
   3.6007269958461263E-003  -6.9421089833728855E-003   5.3545413370326256E-002
   7.8357373154044063E-003  -2.4620395007637352E-003   5.3952836017205741E-002
   6.7130676796054306E-003  -2.6431556200616768E-003   5.3879382148003918E-002
   5.5903980438064965E-003  -3.3387938960039443E-003   5.4081446774472991E-002
   4.4677284080075763E-003  -4.5489543285898298E-003   5.4559029896612724E-002
   3.3450587722086145E-003  -6.2736369178202356E-003   5.5312131514423268E-002
   6.4902817269403834E-003  -2.2043613706986820E-003   5.7831194800325253E-002
   5.6172137648669920E-003  -2.4243808119732424E-003   5.7380456460120827E-002
   4.7441458027935590E-003  -3.0645212059927235E-003   5.7153402971697229E-002
   3.8710778407201260E-003  -4.1247825527573230E-003   5.7150034335053647E-002
   2.9980098786467069E-003  -5.6051648522669750E-003   5.7370350550190324E-002
   5.2607800441138580E-003  -1.9466832406336843E-003   6.1623449659518263E-002
   4.5854801118754840E-003  -2.2056060038847386E-003   6.0889828052210881E-002
   3.9101801796371134E-003  -2.7902485159819537E-003   6.0328057652793324E-002
   3.2348802473987550E-003  -3.7006107769247624E-003   5.9938138461265757E-002
   2.5595803151603688E-003  -4.9366927867139088E-003   5.9720070477627972E-002
   4.1472322669247608E-003  -1.6890051105686865E-003   6.5329600594785098E-002
   3.6178667206309689E-003  -1.9868311957964013E-003   6.4407496924273833E-002
   3.0885011743371632E-003  -2.5159758259709064E-003   6.3605410817761499E-002
   2.5591356280433644E-003  -3.2764390010924654E-003   6.2923342275248539E-002
   2.0297700817495656E-003  -4.2682207211610645E-003   6.2361291296735510E-002
   3.6007269958461263E-003  -6.9421089833728855E-003   5.3545413370326256E-002
   4.1529072237984077E-003  -9.5332136595484007E-003   5.1868873717141550E-002
   4.7050874517506891E-003  -1.2759638569629278E-002   5.0047840204490990E-002
   5.2572676797030260E-003  -1.6621383713617023E-002   4.8082312832374102E-002
   5.8094479076553629E-003  -2.1118449091510616E-002   4.5972291600790527E-002
   3.3450587722086145E-003  -6.2736369178202356E-003   5.5312131514423268E-002
   3.7700789474517382E-003  -8.5428270038251930E-003   5.2956638462665129E-002
   4.1950991226948758E-003  -1.1386509926736621E-002   5.0491319164954807E-002
   4.6201192979379718E-003  -1.4804685686554880E-002   4.7916173621291386E-002
   5.0451394731811372E-003  -1.8797354283279555E-002   4.5231201831676726E-002
   2.9980098786467069E-003  -5.6051648522669750E-003   5.7370350550190324E-002
   3.3305376146946439E-003  -7.5524403481021518E-003   5.4396731496858114E-002
   3.6630653507425531E-003  -1.0013381283844172E-002   5.1347953811087740E-002
   3.9955930867904554E-003  -1.2987987659492901E-002   4.8224017492879127E-002
   4.3281208228383994E-003  -1.6476259475048272E-002   4.5024922542232226E-002
   2.5595803151603688E-003  -4.9366927867139088E-003   5.9720070477627972E-002
   2.8342832255270397E-003  -6.5620536923795825E-003   5.6189152819721297E-002
   3.1089861358937383E-003  -8.6402526409517302E-003   5.2617744142890360E-002
   3.3836890462604387E-003  -1.1171289632430951E-002   4.9005844447135648E-002
   3.6583919566271356E-003  -1.4155164666817210E-002   4.5353453732456389E-002
   2.0297700817495656E-003  -4.2682207211610645E-003   6.2361291296735510E-002
   2.2813157799490003E-003  -5.5716670366561249E-003   5.8333902431254026E-002
   2.5328614781484210E-003  -7.2671239980588997E-003   5.4300690160362763E-002
   2.7844071763478417E-003  -9.3545916053688477E-003   5.0261654484061113E-002
   3.0359528745472764E-003  -1.1834069858585927E-002   4.6216795402349131E-002
   2.5380610508088292E-002  -1.5540669384309924E-002   6.0273453872734084E-002
   2.4447939666718516E-002  -1.3637429834023940E-002   6.0241156696585640E-002
   2.3515268825348781E-002  -1.1959633795045083E-002   6.0635916038338900E-002
   2.2582597983979026E-002  -1.0507281267373332E-002   6.1457731897993778E-002
   2.1649927142609271E-002  -9.2803722510085840E-003   6.2706604275550248E-002
   1.8426993927682378E-002  -1.1655502038595611E-002   6.1614117333105234E-002
   1.7872907402321170E-002  -1.0228072375855990E-002   6.1741727518344586E-002
   1.7318820876959941E-002  -8.9697253465965410E-003   6.2199449817699204E-002
   1.6764734351598722E-002  -7.8804609508171738E-003   6.2987284231169338E-002
   1.6210647826237497E-002  -6.9602791885179371E-003   6.4105230758754905E-002
   1.1879019982950781E-002  -7.7703346928812700E-003   6.2450790467016765E-002
   1.1606573369811926E-002  -6.8187149176880402E-003   6.2794668891470479E-002
   1.1334126756673082E-002  -5.9798168981479854E-003   6.3371715026253606E-002
   1.1061680143534225E-002  -5.2536406342610399E-003   6.4181928871365951E-002
   1.0789233530395379E-002  -4.6401861260273181E-003   6.5225310426807528E-002
   5.7366886738934638E-003  -3.8851673471669290E-003   6.2783473274468371E-002
   5.6489375691908261E-003  -3.4093574595200904E-003   6.3399980815963569E-002
   5.5611864644881754E-003  -2.9899084496993814E-003   6.4152711664002049E-002
   5.4734353597855334E-003  -2.6268203177049494E-003   6.5041665818583658E-002
   5.3856842550828845E-003  -2.3200930635367129E-003   6.6066843279708368E-002
   5.1043891335922353E-013  -1.4526158054195548E-012   6.2612165755460081E-002
   4.5783515867370284E-013  -1.3521406216909782E-012   6.3557663291823774E-002
   4.0524528177598995E-013  -1.2509021596329717E-012   6.4542439730944673E-002
   3.5264326181394523E-013  -1.1487789886022171E-012   6.5566495072822376E-002
   3.0004471129885246E-013  -1.0460521338018225E-012   6.6629829317457145E-002
   2.1649927142609271E-002  -9.2803722510085840E-003   6.2706604275550248E-002
   2.0760716631476384E-002  -8.2539589137725633E-003   6.2239222511386527E-002
   1.9871506120343489E-002  -7.4030934234867035E-003   6.1969203328146955E-002
   1.8982295609210605E-002  -6.7277757801508624E-003   6.1896546725831239E-002
   1.8093085098077721E-002  -6.2280059837653834E-003   6.2021252704439478E-002
   1.6210647826237497E-002  -6.9602791885179371E-003   6.4105230758754905E-002
   1.5525034907741077E-002  -6.1904691855658583E-003   6.3508344660751129E-002
   1.4839421989244640E-002  -5.5523200678280760E-003   6.3121291167096305E-002
   1.4153809070748211E-002  -5.0458318353044096E-003   6.2944070277790504E-002
   1.3468196152251768E-002  -4.6710044879951229E-003   6.2976681992833516E-002
   1.0789233530395379E-002  -4.6401861260273181E-003   6.5225310426807528E-002
   1.0319688227960349E-002  -4.1269794573592367E-003   6.4542806956699811E-002
   9.8501429255253136E-003  -3.7015467121694554E-003   6.4082606114365781E-002
   9.3805976230902817E-003  -3.3638878904579585E-003   6.3844707899805772E-002
   8.9110523206552480E-003  -3.1140029922247514E-003   6.3829112313019520E-002
   5.3856842550828845E-003  -2.3200930635367129E-003   6.6066843279708368E-002
   5.1446765921342062E-003  -2.0634897291526288E-003   6.5342609399232351E-002
   4.9036689291855166E-003  -1.8507733565109978E-003   6.4853148169955230E-002
   4.6626612662368288E-003  -1.6819439456114511E-003   6.4598459591876767E-002
   4.4216536032881427E-003  -1.5570014964543522E-003   6.4578543664997212E-002
   3.0004471129885246E-013  -1.0460521338018225E-012   6.6629829317457145E-002
   2.6264754260374445E-013  -9.4588226140501774E-013   6.5907751988348862E-002
   2.2525037390863645E-013  -8.5222107149007797E-013   6.5432917333864443E-002
   1.8784973576657649E-013  -7.6500264456491607E-013   6.5205325354003710E-002
   1.5045603651842043E-013  -6.8406391662279020E-013   6.5224976048766758E-002
   1.8093085098077721E-002  -6.2280059837653834E-003   6.2021252704439478E-002
   1.7340953954464750E-002  -5.8231704619087776E-003   6.1782790435561230E-002
   1.6588822810851764E-002  -5.4326556421596672E-003   6.1750656283568073E-002
   1.5836691667238799E-002  -5.0564615245182742E-003   6.1924850248460367E-002
   1.5084560523625806E-002  -4.6945881089841546E-003   6.2305372330237807E-002
   1.3468196152251768E-002  -4.6710044879951229E-003   6.2976681992833516E-002
   1.2917819292777126E-002  -4.3673778465837532E-003   6.2788860391092827E-002
   1.2367442433302477E-002  -4.0744917317546148E-003   6.2798219240743441E-002
   1.1817065573827824E-002  -3.7923461435072775E-003   6.3004758541785388E-002
   1.1266688714353171E-002  -3.5209410818419218E-003   6.3408478294218695E-002
   8.9110523206552480E-003  -3.1140029922247514E-003   6.3829112313019520E-002
   8.5532820798249545E-003  -2.9115852312588120E-003   6.3695511553941986E-002
   8.1955118389946471E-003  -2.7163278213493403E-003   6.3749943580761803E-002
   7.8377415981643519E-003  -2.5282307624962808E-003   6.3992408393478986E-002
   7.4799713573340532E-003  -2.3472940546996890E-003   6.4422905992093493E-002
   4.4216536032881427E-003  -1.5570014964543522E-003   6.4578543664997212E-002
   4.2473423156082196E-003  -1.4557926159338014E-003   6.4502743924108388E-002
   4.0730310279282981E-003  -1.3581639109440657E-003   6.4605829303623061E-002
   3.8987197402483727E-003  -1.2641153814852285E-003   6.4887799803541105E-002
   3.7244084525684534E-003  -1.1736470275574562E-003   6.5348655423862437E-002
   1.5045603651842043E-013  -6.8406391662279020E-013   6.5224976048766758E-002
   1.2693665563112688E-013  -6.0887406228005148E-013   6.5210557501592326E-002
   1.0341380529688138E-013  -5.3905491181893694E-013   6.5365876409327284E-002
   7.9897893856539781E-014  -4.7435319561195399E-013   6.5690932771971702E-002
   5.6371574075342323E-014  -4.1522341120980855E-013   6.6185726589525595E-002
   1.5084560523625806E-002  -4.6945881089841546E-003   6.2305372330237807E-002
   1.4230087886828946E-002  -4.3318499400279986E-003   6.2202063881001968E-002
   1.3375615250032072E-002  -3.9530615621207743E-003   6.2304186407003470E-002
   1.2521142613235205E-002  -3.5582229752616351E-003   6.2611739908242037E-002
   1.1666669976438337E-002  -3.1473341794512333E-003   6.3124724384718167E-002
   1.1266688714353171E-002  -3.5209410818419218E-003   6.3408478294218695E-002
   1.0619693848782918E-002  -3.2488874551113156E-003   6.3352415026057984E-002
   9.9726989832126592E-003  -2.9647961716672971E-003   6.3505876325113342E-002
   9.3257041176424242E-003  -2.6686672315102307E-003   6.3868862191384573E-002
   8.6787092520721476E-003  -2.3605006346401058E-003   6.4441372624871707E-002
   7.4799713573340532E-003  -2.3472940546996890E-003   6.4422905992093493E-002
   7.0445478549691215E-003  -2.1659249701940775E-003   6.4410075352769477E-002
   6.6091243526042072E-003  -1.9765307812137090E-003   6.4610862872640340E-002
   6.1737008502392807E-003  -1.7791114877588263E-003   6.5025268551705775E-002
   5.7382773478743612E-003  -1.5736670898290894E-003   6.5653292389965978E-002
   3.7244084525684534E-003  -1.1736470275574562E-003   6.5348655423862437E-002
   3.5046499053875656E-003  -1.0829624852768949E-003   6.5375044861136891E-002
   3.2848913582066821E-003  -9.8826539076023179E-004   6.5619146049584687E-002
   3.0651328110258059E-003  -8.8955574400719981E-004   6.6080958989205768E-002
   2.8453742638449176E-003  -7.8683354501812852E-004   6.6760483680000288E-002
   5.6371574075342323E-014  -4.1522341120980855E-013   6.6185726589525595E-002
   3.8247183198336643E-014  -3.5998981573470701E-013   6.6247323551159754E-002
   2.0115853427427055E-014  -3.0669911055269949E-013   6.6530725855946049E-002
   1.9862583799934441E-015  -2.5594804053952203E-013   6.7035933503884509E-002
  -1.6139867220488213E-014  -2.0694557179012918E-013   6.7762946494975274E-002
   1.1666669976438337E-002  -3.1473341794512333E-003   6.3124724384718167E-002
   1.0696996289598706E-002  -2.7500084262690461E-003   6.3010404141870091E-002
   9.7273226027590892E-003  -2.3958589672945507E-003   6.3138360790252868E-002
   8.7576489159194512E-003  -2.0848858025279693E-003   6.3508594329866858E-002
   7.7879752290798132E-003  -1.8170889319693018E-003   6.4121104760711756E-002
   8.6787092520721476E-003  -2.3605006346401058E-003   6.4441372624871707E-002
   7.9513478390827522E-003  -2.0625063197422522E-003   6.4336837327378549E-002
   7.2239864260933498E-003  -1.7968942255017772E-003   6.4474649686354746E-002
   6.4966250131039543E-003  -1.5636643519184867E-003   6.4854809701800215E-002
   5.7692636001145520E-003  -1.3628166989925194E-003   6.5477317373714983E-002
   5.7382773478743612E-003  -1.5736670898290894E-003   6.5653292389965978E-002
   5.2532989739734540E-003  -1.3750042132156803E-003   6.5569336111378163E-002
   4.7683206000725536E-003  -1.1979294837088927E-003   6.5727798254498010E-002
   4.2833422261716551E-003  -1.0424429013089487E-003   6.6128678819325479E-002
   3.7983638522707461E-003  -9.0854446601573713E-004   6.6771977805860666E-002
   2.8453742638449176E-003  -7.8683354501812852E-004   6.6760483680000288E-002
   2.6028496942708031E-003  -6.8750210668888645E-004   6.6707900493868572E-002
   2.3603251246966887E-003  -5.9896474191595273E-004   6.6897806494682618E-002
   2.1178005551225738E-003  -5.2122145069938286E-004   6.7330201682442664E-002
   1.8752759855484597E-003  -4.5427223303895481E-004   6.8005086057148889E-002
  -1.6139867220488213E-014  -2.0694557179012918E-013   6.7762946494975274E-002
  -2.5195123765087146E-014  -1.6248113965389166E-013   6.7752530474849804E-002
  -3.4243441415782172E-014  -1.2329026688462363E-013   6.7984674406908863E-002
  -4.3291759066477198E-014  -8.9775409328751721E-014   6.8459378291152145E-002
  -5.2347015611076131E-014  -6.2061467076546251E-014   6.9176642127579457E-002
   7.7879752290798132E-003  -1.8170889319693018E-003   6.4121104760711756E-002
   6.8777894885410640E-003  -1.6244271505407859E-003   6.4053086189797104E-002
   5.9676037480022870E-003  -1.5388592531643819E-003   6.4231829305170740E-002
   5.0574180074635378E-003  -1.5603852398405754E-003   6.4657334106833469E-002
   4.1472322669247608E-003  -1.6890051105686865E-003   6.5329600594785098E-002
   5.7692636001145520E-003  -1.3628166989925194E-003   6.5477317373714983E-002
   5.1010357330761938E-003  -1.2183203629151373E-003   6.5358599722587007E-002
   4.4328078660378703E-003  -1.1541444398776579E-003   6.5477036132170707E-002
   3.7645799989995364E-003  -1.1702889298800950E-003   6.5832626602466304E-002
   3.0963521319611886E-003  -1.2667538329222960E-003   6.6425371133474187E-002
   3.7983638522707461E-003  -9.0854446601573713E-004   6.6771977805860666E-002
   3.3624862331558536E-003  -8.1221357528948879E-004   6.6629334545531826E-002
   2.9266086140409681E-003  -7.6942962659085068E-004   6.6714237720338188E-002
   2.4907309949260686E-003  -7.8019261991962158E-004   6.7026687330279250E-002
   2.0548533758111762E-003  -8.4450255527590556E-004   6.7566683375355430E-002
   1.8752759855484597E-003  -4.5427223303895481E-004   6.8005086057148889E-002
   1.6621409887800130E-003  -4.0610678766384023E-004   6.7865290658631741E-002
   1.4490059920115889E-003  -3.8471481330397406E-004   6.7943434069672876E-002
   1.2358709952431431E-003  -3.9009630995958874E-004   6.8239516290271876E-002
   1.0227359984747181E-003  -4.2225127762934855E-004   6.8753537320428867E-002
  -5.2347015611076131E-014  -6.2061467076546251E-014   6.9176642127579457E-002
  -5.1306181525490047E-014  -3.8191672047105385E-014   6.9066468061886765E-002
  -5.0268816886855916E-014  -1.7263968032921184E-014   6.9164625180174855E-002
  -4.9224513354317878E-014   1.2351231148954867E-015   6.9471113482444224E-002
  -4.8190618162635701E-014   1.6764367671839864E-014   6.9985932968694264E-002
   4.1472322669247608E-003  -1.6890051105686865E-003   6.5329600594785098E-002
   3.6178667206309689E-003  -1.9868311957964013E-003   6.4407496924273833E-002
   3.0885011743371632E-003  -2.5159758259709064E-003   6.3605410817761499E-002
   2.5591356280433644E-003  -3.2764390010924654E-003   6.2923342275248539E-002
   2.0297700817495656E-003  -4.2682207211610645E-003   6.2361291296735510E-002
   3.0963521319611886E-003  -1.2667538329222960E-003   6.6425371133474187E-002
   2.6900851053105052E-003  -1.4901233968395156E-003   6.5313326070591649E-002
   2.2838180786598286E-003  -1.8869818694667861E-003   6.4327460482995730E-002
   1.8775510520091486E-003  -2.4573292508048572E-003   6.3467774370686555E-002
   1.4712840253584686E-003  -3.2011655408530348E-003   6.2734267733664639E-002
   2.0548533758111762E-003  -8.4450255527590556E-004   6.7566683375355430E-002
   1.7778467800911996E-003  -9.9341559788265754E-004   6.6322526556337941E-002
   1.5008401843712230E-003  -1.2579879129630267E-003   6.5210711123895093E-002
   1.2238335886512412E-003  -1.6382195005171449E-003   6.4231237078026554E-002
   9.4682699293126976E-004  -2.1341103605450051E-003   6.3384104418732656E-002
   1.0227359984747181E-003  -4.2225127762934855E-004   6.8753537320428867E-002
   8.8115174497302613E-004  -4.9670779892578565E-004   6.7435098381513167E-002
   7.3956749147132544E-004  -6.2899395645903133E-004   6.6255162740460033E-002
   5.9798323796963907E-004  -8.1910975022959562E-004   6.5213730397268604E-002
   4.5639898446793274E-004  -1.0670551802369754E-003   6.4310801351939575E-002
  -4.8190618162635701E-014   1.6764367671839864E-014   6.9985932968694264E-002
  -4.4006465138579642E-014   3.1030733538273125E-014   6.8651041546117342E-002
  -3.9836189902331398E-014   4.4936276921703211E-014   6.7460815332690272E-002
  -3.5655506325227293E-014   5.7974458567144893E-014   6.6415254328412859E-002
  -3.1481761642027095E-014   7.0832228971084987E-014   6.5514358533284911E-002
   2.0297700817495656E-003  -4.2682207211610645E-003   6.2361291296735510E-002
   2.2813157799490003E-003  -5.5716670366561249E-003   5.8333902431254026E-002
   2.5328614781484210E-003  -7.2671239980588997E-003   5.4300690160362763E-002
   2.7844071763478417E-003  -9.3545916053688477E-003   5.0261654484061113E-002
   3.0359528745472764E-003  -1.1834069858585927E-002   4.6216795402349131E-002
   1.4712840253584686E-003  -3.2011655408530348E-003   6.2734267733664639E-002
   1.7027405633625453E-003  -4.1787502774708329E-003   5.8383632822194331E-002
   1.9341971013666429E-003  -5.4503429985177654E-003   5.3998642995743362E-002
   2.1656536393707057E-003  -7.0159437039939987E-003   4.9579298254311399E-002
   2.3971101773748171E-003  -8.8755523938992553E-003   4.5125598597900218E-002
   9.4682699293126976E-004  -2.1341103605450051E-003   6.3384104418732656E-002
   1.1296628611698195E-003  -2.7858335182849858E-003   5.8808226122750995E-002
   1.3124987294083519E-003  -3.6335619989763812E-003   5.4169461402218372E-002
   1.4953345976469190E-003  -4.6772958026191427E-003   4.9467810257135314E-002
   1.6781704658854341E-003  -5.9170349292125834E-003   4.4703272687501516E-002
   4.5639898446793274E-004  -1.0670551802369754E-003   6.4310801351939575E-002
   5.6208267337077948E-004  -1.3929167590995273E-003   5.9607682332924378E-002
   6.6776636227361841E-004  -1.8167809994350109E-003   5.4813145379788229E-002
   7.7345005117644694E-004  -2.3386479012440682E-003   4.9927190492531262E-002
   8.7913374007927633E-004  -2.9585174645258006E-003   4.4949817671153941E-002
  -3.1481761642027095E-014   7.0832228971084987E-014   6.5514358533284911E-002
  -3.4555691641457997E-014   8.6375351315837179E-014   6.0782001452714396E-002
  -3.7608804959177178E-014   1.0602629885170245E-013   5.5929694928453011E-002
  -4.0679265511656126E-014   1.3064549442276530E-013   5.0957438960500312E-002
  -4.3742787170231168E-014   1.6076029396572267E-013   4.5865233548857187E-002
   5.1043891335922353E-013  -1.4526158054195548E-012   6.2612165755460081E-002
   4.5783515867370284E-013  -1.3521406216909782E-012   6.3557663291823774E-002
   4.0524528177598995E-013  -1.2509021596329717E-012   6.4542439730944673E-002
   3.5264326181394523E-013  -1.1487789886022171E-012   6.5566495072822376E-002
   3.0004471129885246E-013  -1.0460521338018225E-012   6.6629829317457145E-002
  -5.7366886728755367E-003   3.8851673442612533E-003   6.2783473274612978E-002
  -5.6489375682776295E-003   3.4093574568262175E-003   6.3399980816102791E-002
  -5.5611864636797553E-003   2.9899084472158194E-003   6.4152711664136719E-002
  -5.4734353590818645E-003   2.6268203154299376E-003   6.5041665818714525E-002
  -5.3856842544839668E-003   2.3200930614685200E-003   6.6066843279836529E-002
  -1.1879019981941638E-002   7.7703346899751224E-003   6.2450790467318620E-002
  -1.1606573368906229E-002   6.8187149150046311E-003   6.2794668891758262E-002
  -1.1334126755870817E-002   5.9798168956824924E-003   6.3371715026528913E-002
  -1.1061680142835395E-002   5.2536406320086559E-003   6.4181928871630697E-002
  -1.0789233529799980E-002   4.6401861239830922E-003   6.5225310427063490E-002
  -1.8426993926687930E-002   1.1655502035689005E-002   6.1614117333576773E-002
  -1.7872907401427912E-002   1.0228072373183059E-002   6.1741727518790007E-002
  -1.7318820876167942E-002   8.9697253441491896E-003   6.2199449818121380E-002
  -1.6764734350907959E-002   7.8804609485873742E-003   6.2987284231570767E-002
  -1.6210647825647958E-002   6.9602791864977198E-003   6.4105230759138321E-002
  -2.5380610507114355E-002   1.5540669381402861E-002   6.0273453873387728E-002
  -2.4447939665842723E-002   1.3637429831361431E-002   6.0241156697198261E-002
  -2.3515268824571143E-002   1.1959633792615873E-002   6.0635916038913912E-002
  -2.2582597983299535E-002   1.0507281265166143E-002   6.1457731898534831E-002
  -2.1649927142027937E-002   9.2803722490122365E-003   6.2706604276060784E-002
   3.0004471129885246E-013  -1.0460521338018225E-012   6.6629829317457145E-002
   2.6264754260374445E-013  -9.4588226140501774E-013   6.5907751988348862E-002
   2.2525037390863645E-013  -8.5222107149007797E-013   6.5432917333864443E-002
   1.8784973576657649E-013  -7.6500264456491607E-013   6.5205325354003710E-002
   1.5045603651842043E-013  -6.8406391662279020E-013   6.5224976048766758E-002
  -5.3856842544839668E-003   2.3200930614685200E-003   6.6066843279836529E-002
  -5.1446765916099858E-003   2.0634897272839986E-003   6.5342609399345233E-002
  -4.9036689287360029E-003   1.8507733548287358E-003   6.4853148170053096E-002
  -4.6626612658620262E-003   1.6819439441023536E-003   6.4598459591959922E-002
  -4.4216536029880391E-003   1.5570014951054589E-003   6.4578543665065630E-002
  -1.0789233529799980E-002   4.6401861239830922E-003   6.5225310427063490E-002
  -1.0319688227439377E-002   4.1269794555141154E-003   6.4542806956924867E-002
  -9.8501429250787663E-003   3.7015467105096997E-003   6.4082606114560459E-002
  -9.3805976227181592E-003   3.3638878889699891E-003   6.3844707899970293E-002
  -8.9110523203575504E-003   3.1140029908948430E-003   6.3829112313154343E-002
  -1.6210647825647958E-002   6.9602791864977198E-003   6.4105230759138321E-002
  -1.5525034907225486E-002   6.1904691837441142E-003   6.3508344661087721E-002
  -1.4839421988803017E-002   5.5523200661906601E-003   6.3121291167386545E-002
  -1.4153809070380562E-002   5.0458318338374849E-003   6.2944070278034878E-002
  -1.3468196151958076E-002   4.6710044866843520E-003   6.2976681993032593E-002
  -2.1649927142027937E-002   9.2803722490122365E-003   6.2706604276060784E-002
  -2.0760716630968366E-002   8.2539589119741130E-003   6.2239222511833725E-002
  -1.9871506119908788E-002   7.4030934218717315E-003   6.1969203328531369E-002
  -1.8982295608849221E-002   6.7277757787048698E-003   6.1896546726153689E-002
  -1.8093085097789632E-002   6.2280059824736944E-003   6.2021252704700824E-002
   1.5045603651842043E-013  -6.8406391662279020E-013   6.5224976048766758E-002
   1.2693665563112688E-013  -6.0887406228005148E-013   6.5210557501592326E-002
   1.0341380529688138E-013  -5.3905491181893694E-013   6.5365876409327284E-002
   7.9897893856539781E-014  -4.7435319561195399E-013   6.5690932771971702E-002
   5.6371574075342323E-014  -4.1522341120980855E-013   6.6185726589525595E-002
  -4.4216536029880391E-003   1.5570014951054589E-003   6.4578543665065630E-002
  -4.2473423153549100E-003   1.4557926147331646E-003   6.4502743924165079E-002
  -4.0730310277217845E-003   1.3581639098814435E-003   6.4605829303668275E-002
  -3.8987197400886589E-003   1.2641153805505526E-003   6.4887799803575480E-002
  -3.7244084524555299E-003   1.1736470267399435E-003   6.5348655423886459E-002
  -8.9110523203575504E-003   3.1140029908948430E-003   6.3829112313154343E-002
  -8.5532820795733155E-003   2.9115852300752726E-003   6.3695511554053480E-002
  -8.1955118387890651E-003   2.7163278203022126E-003   6.3749943580850899E-002
  -7.8377415980048319E-003   2.5282307615754566E-003   6.3992408393546599E-002
  -7.4799713572205936E-003   2.3472940538951104E-003   6.4422905992140816E-002
  -1.3468196151958076E-002   4.6710044866843520E-003   6.2976681993032593E-002
  -1.2917819292528264E-002   4.3673778454174847E-003   6.2788860391257334E-002
  -1.2367442433098456E-002   4.0744917307227353E-003   6.2798219240874781E-002
  -1.1817065573668647E-002   3.7923461426004725E-003   6.3004758541885031E-002
  -1.1266688714238826E-002   3.5209410810504993E-003   6.3408478294288154E-002
  -1.8093085097789632E-002   6.2280059824736944E-003   6.2021252704700824E-002
  -1.7340953954219786E-002   5.8231704607593915E-003   6.1782790435776891E-002
  -1.6588822810649936E-002   5.4326556411433691E-003   6.1750656283740213E-002
  -1.5836691667080079E-002   5.0564615236253496E-003   6.1924850248590929E-002
  -1.5084560523510239E-002   4.6945881082054997E-003   6.2305372330328790E-002
   5.6371574075342323E-014  -4.1522341120980855E-013   6.6185726589525595E-002
   3.8247183198336643E-014  -3.5998981573470701E-013   6.6247323551159754E-002
   2.0115853427427055E-014  -3.0669911055269949E-013   6.6530725855946049E-002
   1.9862583799934441E-015  -2.5594804053952203E-013   6.7035933503884509E-002
  -1.6139867220488213E-014  -2.0694557179012918E-013   6.7762946494975274E-002
  -3.7244084524555299E-003   1.1736470267399435E-003   6.5348655423886459E-002
  -3.5046499053107520E-003   1.0829624845690999E-003   6.5375044861156778E-002
  -3.2848913581659828E-003   9.8826539015771375E-004   6.5619146049600924E-002
  -3.0651328110212102E-003   8.8955574350529573E-004   6.6080958989218633E-002
  -2.8453742638764289E-003   7.8683354461223098E-004   6.6760483680010030E-002
  -7.4799713572205936E-003   2.3472940538951104E-003   6.4422905992140816E-002
  -7.0445478548913313E-003   2.1659249694983840E-003   6.4410075352808530E-002
  -6.6091243525620838E-003   1.9765307806220711E-003   6.4610862872671607E-002
  -6.1737008502328293E-003   1.7791114872665395E-003   6.5025268551729992E-002
  -5.7382773479035740E-003   1.5736670894314075E-003   6.5653292389983464E-002
  -1.1266688714238826E-002   3.5209410810504993E-003   6.3408478294288154E-002
  -1.0619693848703503E-002   3.2488874544274599E-003   6.3352415026114883E-002
  -9.9726989831681843E-003   2.9647961710864007E-003   6.3505876325158445E-002
  -9.3257041176328694E-003   2.6686672310276167E-003   6.3868862191419074E-002
  -8.6787092520975422E-003   2.3605006342505841E-003   6.4441372624896201E-002
  -1.5084560523510239E-002   4.6945881082054997E-003   6.2305372330328790E-002
  -1.4230087886747254E-002   4.3318499393565357E-003   6.2202063881075742E-002
  -1.3375615249984287E-002   3.9530615615507719E-003   6.2304186407061285E-002
  -1.2521142613221311E-002   3.5582229747889542E-003   6.2611739908285044E-002
  -1.1666669976458335E-002   3.1473341790698717E-003   6.3124724384747477E-002
  -1.6139867220488213E-014  -2.0694557179012918E-013   6.7762946494975274E-002
  -2.5195123765087146E-014  -1.6248113965389166E-013   6.7752530474849804E-002
  -3.4243441415782172E-014  -1.2329026688462363E-013   6.7984674406908863E-002
  -4.3291759066477198E-014  -8.9775409328751721E-014   6.8459378291152145E-002
  -5.2347015611076131E-014  -6.2061467076546251E-014   6.9176642127579457E-002
  -2.8453742638764289E-003   7.8683354461223098E-004   6.6760483680010030E-002
  -2.6028496943203555E-003   6.8750210637108511E-004   6.6707900493868544E-002
  -2.3603251247642839E-003   5.9896474167499270E-004   6.6897806494673306E-002
  -2.1178005552082053E-003   5.2122145052416538E-004   6.7330201682423665E-002
  -1.8752759856521251E-003   4.5427223291794050E-004   6.8005086057120634E-002
  -5.7382773479035740E-003   1.5736670894314075E-003   6.5653292389983464E-002
  -5.2532989740205092E-003   1.3750042129045126E-003   6.5569336111376650E-002
  -4.7683206001374583E-003   1.1979294834732757E-003   6.5727798254477499E-002
  -4.2833422262544083E-003   1.0424429011377176E-003   6.6128678819286468E-002
  -3.7983638523713427E-003   9.0854446589788695E-004   6.6771977805803212E-002
  -8.6787092520975422E-003   2.3605006342505841E-003   6.4441372624896201E-002
  -7.9513478391256484E-003   2.0625063194378984E-003   6.4336837327374385E-002
  -7.2239864261537763E-003   1.7968942252714476E-003   6.4474649686322300E-002
  -6.4966250131819007E-003   1.5636643517515196E-003   6.4854809701739957E-002
  -5.7692636002100112E-003   1.3628166988777501E-003   6.5477317373627553E-002
  -1.1666669976458335E-002   3.1473341790698717E-003   6.3124724384747477E-002
  -1.0696996289635788E-002   2.7500084259713953E-003   6.3010404141861542E-002
  -9.7273226028132265E-003   2.3958589670698138E-003   6.3138360790207071E-002
  -8.7576489159906686E-003   2.0848858023651481E-003   6.3508594329784063E-002
  -7.7879752291681176E-003   1.8170889318577244E-003   6.4121104760592962E-002
  -5.2347015611076131E-014  -6.2061467076546251E-014   6.9176642127579457E-002
  -5.1306181525490047E-014  -3.8191672047105385E-014   6.9066468061886765E-002
  -5.0268816886855916E-014  -1.7263968032921184E-014   6.9164625180174855E-002
  -4.9224513354317878E-014   1.2351231148954867E-015   6.9471113482444224E-002
  -4.8190618162635701E-014   1.6764367671839864E-014   6.9985932968694264E-002
  -1.8752759856521251E-003   4.5427223291794050E-004   6.8005086057120634E-002
  -1.6621409888815837E-003   4.0610678758923324E-004   6.7865290658600308E-002
  -1.4490059921110493E-003   3.8471481327034818E-004   6.7943434069638209E-002
  -1.2358709953405054E-003   3.9009630996149347E-004   6.8239516290234031E-002
  -1.0227359985699735E-003   4.2225127766182258E-004   6.8753537320387970E-002
  -3.7983638523713427E-003   9.0854446589788695E-004   6.6771977805803212E-002
  -3.3624862332542619E-003   8.1221357521710225E-004   6.6629334545467905E-002
  -2.9266086141371810E-003   7.6942962655815461E-004   6.6714237720267994E-002
  -2.4907309950201063E-003   7.8019261992163386E-004   6.7026687330202811E-002
  -2.0548533759030194E-003   8.4450255530693630E-004   6.7566683375273079E-002
  -5.7692636002100112E-003   1.3628166988777501E-003   6.5477317373627553E-002
  -5.1010357331693571E-003   1.2183203628447492E-003   6.5358599722489516E-002
  -4.4328078661287039E-003   1.1541444398459749E-003   6.5477036132063737E-002
  -3.7645799990880390E-003   1.1702889298816667E-003   6.5832626602350258E-002
  -3.0963521320473957E-003   1.2667538329519668E-003   6.6425371133348399E-002
  -7.7879752291681176E-003   1.8170889318577244E-003   6.4121104760592962E-002
  -6.8777894886268426E-003   1.6244271504723407E-003   6.4053086189664987E-002
  -5.9676037480855780E-003   1.5388592531336287E-003   6.4231829305026023E-002
  -5.0574180075443134E-003   1.5603852398421020E-003   6.4657334106676151E-002
  -4.1472322670030384E-003   1.6890051105969972E-003   6.5329600594615567E-002
  -4.8190618162635701E-014   1.6764367671839864E-014   6.9985932968694264E-002
  -4.4006465138579642E-014   3.1030733538273125E-014   6.8651041546117342E-002
  -3.9836189902331398E-014   4.4936276921703211E-014   6.7460815332690272E-002
  -3.5655506325227293E-014   5.7974458567144893E-014   6.6415254328412859E-002
  -3.1481761642027095E-014   7.0832228971084987E-014   6.5514358533284911E-002
  -1.0227359985699735E-003   4.2225127766182258E-004   6.8753537320387970E-002
  -8.8115174506011099E-004   4.9670779898564055E-004   6.7435098381474157E-002
  -7.3956749155025363E-004   6.2899395654586465E-004   6.6255162740421619E-002
  -5.9798323804040061E-004   8.1910975034295286E-004   6.5213730397231315E-002
  -4.5639898453054759E-004   1.0670551803763084E-003   6.4310801351902258E-002
  -2.0548533759030194E-003   8.4450255530693630E-004   6.7566683375273079E-002
  -1.7778467801754629E-003   9.9341559794027812E-004   6.6322526556258810E-002
  -1.5008401844479081E-003   1.2579879130471400E-003   6.5210711123818252E-002
  -1.2238335887203586E-003   1.6382195006276017E-003   6.4231237077951669E-002
  -9.4682699299279693E-004   2.1341103606818956E-003   6.3384104418658327E-002
  -3.0963521320473957E-003   1.2667538329519668E-003   6.6425371133348399E-002
  -2.6900851053900917E-003   1.4901233968946798E-003   6.5313326070471314E-002
  -2.2838180787327885E-003   1.8869818695485194E-003   6.4327460482879753E-002
  -1.8775510520755020E-003   2.4573292509125263E-003   6.3467774370573840E-002
  -1.4712840254181812E-003   3.2011655409874273E-003   6.2734267733553964E-002
  -4.1472322670030384E-003   1.6890051105969972E-003   6.5329600594615567E-002
  -3.6178667207039661E-003   1.9868311958495255E-003   6.4407496924112295E-002
  -3.0885011744049076E-003   2.5159758260493714E-003   6.3605410817606622E-002
  -2.5591356281058353E-003   3.2764390011971803E-003   6.2923342275098743E-002
  -2.0297700818067768E-003   4.2682207212927370E-003   6.2361291296588739E-002
  -3.1481761642027095E-014   7.0832228971084987E-014   6.5514358533284911E-002
  -3.4555691641457997E-014   8.6375351315837179E-014   6.0782001452714396E-002
  -3.7608804959177178E-014   1.0602629885170245E-013   5.5929694928453011E-002
  -4.0679265511656126E-014   1.3064549442276530E-013   5.0957438960500312E-002
  -4.3742787170231168E-014   1.6076029396572267E-013   4.5865233548857187E-002
  -4.5639898453054759E-004   1.0670551803763084E-003   6.4310801351902258E-002
  -5.6208267343941035E-004   1.3929167592693914E-003   5.9607682332897038E-002
  -6.6776636234829219E-004   1.8167809996431361E-003   5.4813145379770889E-002
  -7.7345005125715235E-004   2.3386479014980491E-003   4.9927190492524282E-002
  -8.7913374016603679E-004   2.9585174648349977E-003   4.4949817671157133E-002
  -9.4682699299279693E-004   2.1341103606818956E-003   6.3384104418658327E-002
  -1.1296628612371060E-003   2.7858335184519634E-003   5.8808226122695012E-002
  -1.3124987294814063E-003   3.6335619991795798E-003   5.4169461402180819E-002
  -1.4953345977257075E-003   4.6772958028653971E-003   4.9467810257116301E-002
  -1.6781704659700018E-003   5.9170349295087910E-003   4.4703272687501960E-002
  -1.4712840254181812E-003   3.2011655409874273E-003   6.2734267733553964E-002
  -1.7027405634275575E-003   4.1787502776347574E-003   5.8383632822108393E-002
  -1.9341971014369195E-003   5.4503429987165786E-003   5.3998642995682744E-002
  -2.1656536394462711E-003   7.0159437042323289E-003   4.9579298254277447E-002
  -2.3971101774556717E-003   8.8755523941829173E-003   4.5125598597892058E-002
  -2.0297700818067768E-003   4.2682207212927370E-003   6.2361291296588739E-002
  -2.2813157800108397E-003   5.5716670368175514E-003   5.8333902431137674E-002
  -2.5328614782148921E-003   7.2671239982532998E-003   5.4300690160276832E-002
  -2.7844071764189324E-003   9.3545916055998019E-003   5.0261654484007323E-002
  -3.0359528746230074E-003   1.1834069858856822E-002   4.6216795402327371E-002
  -2.5380610507114355E-002   1.5540669381402861E-002   6.0273453873387728E-002
  -2.4447939665842723E-002   1.3637429831361431E-002   6.0241156697198261E-002
  -2.3515268824571143E-002   1.1959633792615873E-002   6.0635916038913912E-002
  -2.2582597983299535E-002   1.0507281265166143E-002   6.1457731898534831E-002
  -2.1649927142027937E-002   9.2803722490122365E-003   6.2706604276060784E-002
  -3.1999582124565620E-002   1.6718155484342467E-002   5.3792144880728338E-002
  -3.0781539865072722E-002   1.4569579651264208E-002   5.4981539099880711E-002
  -2.9563497605579803E-002   1.2772448173680215E-002   5.6314619637570520E-002
  -2.8345455346086922E-002   1.1326761051590566E-002   5.7791386493797815E-002
  -2.7127413086594006E-002   1.0232518284995495E-002   5.9411839668562533E-002
  -3.7543621180386275E-002   1.7895641587282130E-002   4.7002499182932686E-002
  -3.6323577702039832E-002   1.5501729471166861E-002   4.9539585641625430E-002
  -3.5103534223693278E-002   1.3585262554744564E-002   5.1936988219487980E-002
  -3.3883490745346787E-002   1.2146240838015158E-002   5.4194706916520161E-002
  -3.2663447267000288E-002   1.1184664320978754E-002   5.6312741732722230E-002
  -4.2012727674576568E-002   1.9073127690221750E-002   3.9904516780000926E-002
  -4.1074053176744139E-002   1.6433879291069604E-002   4.3915296322432559E-002
  -4.0135378678911697E-002   1.4398076935808909E-002   4.7503021784666290E-002
  -3.9196704181079255E-002   1.2965720624439694E-002   5.0667693166702041E-002
  -3.8258029683246784E-002   1.2136810356961902E-002   5.3409310468539917E-002
  -4.5406901607136257E-002   2.0250613793161398E-002   3.2498197671933016E-002
  -4.5032966289185516E-002   1.7366029110972236E-002   3.8108671142302042E-002
  -4.4659030971234887E-002   1.5210891316873296E-002   4.3012720333105464E-002
  -4.4285095653284187E-002   1.3785200410864142E-002   4.7210345244343296E-002
  -4.3911160335333502E-002   1.3088956392945217E-002   5.0701545876015552E-002
  -2.1649927142027937E-002   9.2803722490122365E-003   6.2706604276060784E-002
  -2.0760716630968366E-002   8.2539589119741130E-003   6.2239222511833725E-002
  -1.9871506119908788E-002   7.4030934218717315E-003   6.1969203328531369E-002
  -1.8982295608849221E-002   6.7277757787048698E-003   6.1896546726153689E-002
  -1.8093085097789632E-002   6.2280059824736944E-003   6.2021252704700824E-002
  -2.7127413086594006E-002   1.0232518284995495E-002   5.9411839668562533E-002
  -2.6040911991292638E-002   9.3725729336482655E-003   5.9032186832780775E-002
  -2.4954410895991260E-002   8.6297780573021954E-003   5.8849752584557824E-002
  -2.3867909800689903E-002   8.0041336559573406E-003   5.8864536923893776E-002
  -2.2781408705388511E-002   7.4956397296139787E-003   5.9076539850788506E-002
  -3.2663447267000288E-002   1.1184664320978754E-002   5.6312741732722230E-002
  -3.1379799580823008E-002   1.0491186955322196E-002   5.5962420453451359E-002
  -3.0096151894645738E-002   9.8564626927326038E-003   5.5809173768373563E-002
  -2.8812504208468433E-002   9.2804915332099225E-003   5.5853001677488717E-002
  -2.7528856522291152E-002   8.7632734767541798E-003   5.6093904180796877E-002
  -3.8258029683246784E-002   1.2136810356961902E-002   5.3409310468539917E-002
  -3.6777379399559454E-002   1.1609800976996071E-002   5.3029923373845711E-002
  -3.5296729115872109E-002   1.1083147328163012E-002   5.2847466879978565E-002
  -3.3816078832184786E-002   1.0556849410462366E-002   5.2861940986938596E-002
  -3.2335428548497407E-002   1.0030907223894339E-002   5.3073345694725688E-002
  -4.3911160335333502E-002   1.3088956392945217E-002   5.0701545876015552E-002
  -4.2233651447502005E-002   1.2728414998670334E-002   5.0234695593963541E-002
  -4.0556142559670459E-002   1.2309831963593421E-002   4.9964631919372809E-002
  -3.8878633671838927E-002   1.1833207287715045E-002   4.9891354852243247E-002
  -3.7201124784007403E-002   1.1298540971034610E-002   5.0014864392575076E-002
  -1.8093085097789632E-002   6.2280059824736944E-003   6.2021252704700824E-002
  -1.7340953954219786E-002   5.8231704607593915E-003   6.1782790435776891E-002
  -1.6588822810649936E-002   5.4326556411433691E-003   6.1750656283740213E-002
  -1.5836691667080079E-002   5.0564615236253496E-003   6.1924850248590929E-002
  -1.5084560523510239E-002   4.6945881082054997E-003   6.2305372330328790E-002
  -2.2781408705388511E-002   7.4956397296139787E-003   5.9076539850788506E-002
  -2.1821440782597047E-002   7.0490589064216846E-003   5.8790960251595026E-002
  -2.0861472859805559E-002   6.6091538145308937E-003   5.8714726093957600E-002
  -1.9901504937014067E-002   6.1759244539412519E-003   5.8847837377876112E-002
  -1.8941537014222576E-002   5.7493708246529884E-003   5.9190294103350749E-002
  -2.7528856522291152E-002   8.7632734767541798E-003   5.6093904180796877E-002
  -2.6358034495609264E-002   8.2749473520841027E-003   5.5753562280536878E-002
  -2.5187212468927363E-002   7.7856519879184183E-003   5.5625583146501623E-002
  -2.4016390442245430E-002   7.2953873842573208E-003   5.5709966778691278E-002
  -2.2845568415563573E-002   6.8041535411003384E-003   5.6006713177105608E-002
  -3.2335428548497407E-002   1.0030907223894339E-002   5.3073345694725688E-002
  -3.0950735093256392E-002   9.5008357977464306E-003   5.2670596522602371E-002
  -2.9566041638015333E-002   8.9621501613059984E-003   5.2483227441372612E-002
  -2.8181348182774298E-002   8.4148503145730844E-003   5.2511238451036391E-002
  -2.6796654727533259E-002   7.8589362575476468E-003   5.2754629551593685E-002
  -3.7201124784007403E-002   1.1298540971034610E-002   5.0014864392575076E-002
  -3.5599542575538476E-002   1.0726724243408814E-002   4.9542062977791512E-002
  -3.3997960367069500E-002   1.0138648334693454E-002   4.9287658978570292E-002
  -3.2396378158600525E-002   9.5343132448892053E-003   4.9251652394911236E-002
  -3.0794795950131598E-002   8.9137189739950662E-003   4.9434043226814661E-002
  -1.5084560523510239E-002   4.6945881082054997E-003   6.2305372330328790E-002
  -1.4230087886747254E-002   4.3318499393565357E-003   6.2202063881075742E-002
  -1.3375615249984287E-002   3.9530615615507719E-003   6.2304186407061285E-002
  -1.2521142613221311E-002   3.5582229747889542E-003   6.2611739908285044E-002
  -1.1666669976458335E-002   3.1473341790698717E-003   6.3124724384747477E-002
  -1.8941537014222576E-002   5.7493708246529884E-003   5.9190294103350749E-002
  -1.7883440095222969E-002   5.3226042181840905E-003   5.9026548103157772E-002
  -1.6825343176223386E-002   4.8887359260528784E-003   5.9064619692199560E-002
  -1.5767246257223783E-002   4.4477659482593523E-003   5.9304508870476141E-002
  -1.4709149338224193E-002   3.9996942848034012E-003   5.9746215637987543E-002
  -2.2845568415563573E-002   6.8041535411003384E-003   5.6006713177105608E-002
  -2.1587460600331024E-002   6.3133584970115342E-003   5.5791478149266882E-002
  -2.0329352785098450E-002   5.8244102905547698E-003   5.5774447324659353E-002
  -1.9071244969865887E-002   5.3373089217299743E-003   5.5955620703282943E-002
  -1.7813137154633330E-002   4.8520543905368752E-003   5.6334998285137716E-002
  -2.6796654727533259E-002   7.8589362575476468E-003   5.2754629551593685E-002
  -2.5342149402071360E-002   7.3041127758392554E-003   5.2496854019403544E-002
  -2.3887644076609503E-002   6.7600846550567688E-003   5.2433669304440787E-002
  -2.2433138751147649E-002   6.2268518952005398E-003   5.2565075406705485E-002
  -2.0978633425685744E-002   5.7044144962702104E-003   5.2891072326197823E-002
  -3.0794795950131598E-002   8.9137189739950662E-003   4.9434043226814661E-002
  -2.9147506500444065E-002   8.2948670546664771E-003   4.9142675713567341E-002
  -2.7500217050756531E-002   7.6957590195588232E-003   4.9042285631543614E-002
  -2.5852927601068991E-002   7.1163948686710637E-003   4.9132872980743841E-002
  -2.4205638151381464E-002   6.5567746020038786E-003   4.9414437761167829E-002
  -1.1666669976458335E-002   3.1473341790698717E-003   6.3124724384747477E-002
  -1.0696996289635788E-002   2.7500084259713953E-003   6.3010404141861542E-002
  -9.7273226028132265E-003   2.3958589670698138E-003   6.3138360790207071E-002
  -8.7576489159906686E-003   2.0848858023651481E-003   6.3508594329784063E-002
  -7.7879752291681176E-003   1.8170889318577244E-003   6.4121104760592962E-002
  -1.4709149338224193E-002   3.9996942848034012E-003   5.9746215637987543E-002
  -1.3506607094653188E-002   3.5625904727623614E-003   5.9597085447319897E-002
  -1.2304064851082179E-002   3.1545240492137083E-003   5.9671415478917411E-002
  -1.1101522607511162E-002   2.7754950141577542E-003   5.9969205732780445E-002
  -9.8989803639401644E-003   2.4255033675940618E-003   6.0490456208908416E-002
  -1.7813137154633330E-002   4.8520543905368752E-003   5.6334998285137716E-002
  -1.6396543023280193E-002   4.3751725195536051E-003   5.6136919240983546E-002
  -1.4979948891927027E-002   3.9131891313580608E-003   5.6143483750128440E-002
  -1.3563354760573843E-002   3.4661042259501416E-003   5.6354691812572362E-002
  -1.2146760629220692E-002   3.0339178033298997E-003   5.6770543428315057E-002
  -2.0978633425685744E-002   5.7044144962702104E-003   5.2891072326197823E-002
  -1.9366804075516740E-002   5.1877545663447655E-003   5.2629905522852662E-002
  -1.7754974725347719E-002   4.6718542135021288E-003   5.2554565603840073E-002
  -1.6143145375178712E-002   4.1567134377424719E-003   5.2665052569160237E-002
  -1.4531316025009695E-002   3.6423322390657653E-003   5.2961366418813230E-002
  -2.4205638151381464E-002   6.5567746020038786E-003   4.9414437761167829E-002
  -2.2417390251362884E-002   6.0003366131358149E-003   4.9076044292926946E-002
  -2.0629142351344304E-002   5.4305192956463355E-003   4.8904661040052366E-002
  -1.8840894451325724E-002   4.8473226495350866E-003   4.8900288002544173E-002
  -1.7052646551307143E-002   4.2507466748019640E-003   4.9062925180402450E-002
  -7.7879752291681176E-003   1.8170889318577244E-003   6.4121104760592962E-002
  -6.8777894886268426E-003   1.6244271504723407E-003   6.4053086189664987E-002
  -5.9676037480855780E-003   1.5388592531336287E-003   6.4231829305026023E-002
  -5.0574180075443134E-003   1.5603852398421020E-003   6.4657334106676151E-002
  -4.1472322670030384E-003   1.6890051105969972E-003   6.5329600594615567E-002
  -9.8989803639401644E-003   2.4255033675940618E-003   6.0490456208908416E-002
  -8.7394302840006766E-003   2.1439723954223555E-003   6.0395754082750608E-002
  -7.5798802040611818E-003   1.9703253835428036E-003   6.0553018949099896E-002
  -6.4203301241216905E-003   1.9045623319555727E-003   6.0962250807956433E-002
  -5.2607800441821957E-003   1.9466832406599410E-003   6.1623449659320761E-002
  -1.2146760629220692E-002   3.0339178033298997E-003   5.6770543428315057E-002
  -1.0732640903664794E-002   2.6635176403720651E-003   5.6649947823172619E-002
  -9.3185211781088816E-003   2.4017915139519508E-003   5.6786524516755504E-002
  -7.9044014525529675E-003   2.2487394240689254E-003   5.7180273509064031E-002
  -6.4902817269970707E-003   2.2043613707231624E-003   5.7831194800097824E-002
  -1.4531316025009695E-002   3.6423322390657653E-003   5.2961366418813230E-002
  -1.2857421347619143E-002   3.1830628853219828E-003   5.2815667410931161E-002
  -1.1183526670228644E-002   2.8332576443611118E-003   5.2932346007992910E-002
  -9.5096319928381200E-003   2.5929165161823926E-003   5.3311402209998235E-002
  -7.8357373154475975E-003   2.4620395007862450E-003   5.3952836016947274E-002
  -1.7052646551307143E-002   4.2507466748019640E-003   4.9062925180402450E-002
  -1.5113771615863802E-002   3.7026081302718450E-003   4.8892912846026371E-002
  -1.3174896680420489E-002   3.2647237747701896E-003   4.8990483422812037E-002
  -1.1236021744977176E-002   2.9370936082957280E-003   4.9355636910759726E-002
  -9.2971468095338350E-003   2.7197176308492166E-003   4.9988373309869050E-002
  -4.1472322670030384E-003   1.6890051105969972E-003   6.5329600594615567E-002
  -3.6178667207039661E-003   1.9868311958495255E-003   6.4407496924112295E-002
  -3.0885011744049076E-003   2.5159758260493714E-003   6.3605410817606622E-002
  -2.5591356281058353E-003   3.2764390011971803E-003   6.2923342275098743E-002
  -2.0297700818067768E-003   4.2682207212927370E-003   6.2361291296588739E-002
  -5.2607800441821957E-003   1.9466832406599410E-003   6.1623449659320761E-002
  -4.5854801119400677E-003   2.2056060039341574E-003   6.0889828052023809E-002
  -3.9101801796979415E-003   2.7902485160545554E-003   6.0328057652615452E-002
  -3.2348802474558075E-003   3.7006107770217386E-003   5.9938138461095358E-002
  -2.5595803152136873E-003   4.9366927868350619E-003   5.9720070477463860E-002
  -6.4902817269970707E-003   2.2043613707231624E-003   5.7831194800097824E-002
  -5.6172137649213236E-003   2.4243808120189003E-003   5.7380456459906609E-002
  -4.7441458028455782E-003   3.0645212060596144E-003   5.7153402971494252E-002
  -3.8710778407698328E-003   4.1247825528458494E-003   5.7150034334860621E-002
  -2.9980098786940874E-003   5.6051648523772757E-003   5.7370350550006333E-002
  -7.8357373154475975E-003   2.4620395007862450E-003   5.3952836016947274E-002
  -6.7130676796477006E-003   2.6431556201037543E-003   5.3879382147760189E-002
  -5.5903980438478194E-003   3.3387938960649580E-003   5.4081446774242620E-002
  -4.4677284080479295E-003   4.5489543286700729E-003   5.4559029896394495E-002
  -3.3450587722480417E-003   6.2736369179194340E-003   5.5312131514215518E-002
  -9.2971468095338350E-003   2.7197176308492166E-003   4.9988373309869050E-002
  -7.8730418561192561E-003   2.8619304281882196E-003   5.0386605115585126E-002
  -6.4489369027046634E-003   3.6130665860699129E-003   5.1112189060860957E-002
  -5.0248319492900845E-003   4.9731261044943659E-003   5.2165125145696989E-002
  -3.6007269958754917E-003   6.9421089834617034E-003   5.3545413370092887E-002
  -2.0297700818067768E-003   4.2682207212927370E-003   6.2361291296588739E-002
  -2.2813157800108397E-003   5.5716670368175514E-003   5.8333902431137674E-002
  -2.5328614782148921E-003   7.2671239982532998E-003   5.4300690160276832E-002
  -2.7844071764189324E-003   9.3545916055998019E-003   5.0261654484007323E-002
  -3.0359528746230074E-003   1.1834069858856822E-002   4.6216795402327371E-002
  -2.5595803152136873E-003   4.9366927868350619E-003   5.9720070477463860E-002
  -2.8342832255844295E-003   6.5620536925268813E-003   5.6189152819592469E-002
  -3.1089861359551892E-003   8.6402526411287206E-003   5.2617744142797185E-002
  -3.3836890463259054E-003   1.1171289632641038E-002   4.9005844447078450E-002
  -3.6583919566966910E-003   1.4155164667063236E-002   4.5353453732435378E-002
  -2.9980098786940874E-003   5.6051648523772757E-003   5.7370350550006333E-002
  -3.3305376147458859E-003   7.5524403482358782E-003   5.4396731496714062E-002
  -3.6630653507977390E-003   1.0013381284004502E-002   5.1347953810983782E-002
  -3.9955930868494829E-003   1.2987987659682391E-002   4.8224017492815532E-002
  -4.3281208229013941E-003   1.6476259475270094E-002   4.5024922542208357E-002
  -3.3450587722480417E-003   6.2736369179194340E-003   5.5312131514215518E-002
  -3.7700789474952867E-003   8.5428270039449306E-003   5.2956638462502079E-002
  -4.1950991227425165E-003   1.1386509926880214E-002   5.0491319164836214E-002
  -4.6201192979897282E-003   1.4804685686723797E-002   4.7916173621217334E-002
  -5.0451394732369918E-003   1.8797354283476619E-002   4.5231201831646473E-002
  -3.6007269958754917E-003   6.9421089834617034E-003   5.3545413370092887E-002
  -4.1529072238324916E-003   9.5332136596540940E-003   5.1868873716957253E-002
  -4.7050874517895469E-003   1.2759638569755843E-002   5.0047840204354876E-002
  -5.2572676797465676E-003   1.6621383713765182E-002   4.8082312832285395E-002
  -5.8094479077036021E-003   2.1118449091683367E-002   4.5972291600749227E-002
  -4.5406901607136257E-002   2.0250613793161398E-002   3.2498197671933016E-002
  -4.5032966289185516E-002   1.7366029110972236E-002   3.8108671142302042E-002
  -4.4659030971234887E-002   1.5210891316873296E-002   4.3012720333105464E-002
  -4.4285095653284187E-002   1.3785200410864142E-002   4.7210345244343296E-002
  -4.3911160335333502E-002   1.3088956392945217E-002   5.0701545876015552E-002
  -4.9416924359846237E-002   1.5942264893686608E-002   3.2007567395072933E-002
  -4.9499601322276376E-002   1.5587102985904294E-002   3.5931768766559125E-002
  -4.9582278284706502E-002   1.5243586397759148E-002   3.9649169856849381E-002
  -4.9664955247136634E-002   1.4911715129251022E-002   4.3159770665943592E-002
  -4.9747632209566794E-002   1.4591489180380113E-002   4.6463571193841785E-002
  -5.5733577314487318E-002   1.1633915994211846E-002   3.4405260676845920E-002
  -5.5773242558928696E-002   1.3808176860836324E-002   3.5925388380996612E-002
  -5.5812907803370081E-002   1.5276281478645036E-002   3.7738339802320740E-002
  -5.5852573047811424E-002   1.6038229847637961E-002   3.9844114940818451E-002
  -5.5892238292252788E-002   1.6094021967815147E-002   4.2242713796489695E-002
  -6.4356860471059582E-002   7.3255670947370982E-003   3.9691277517252280E-002
  -6.3853889999142641E-002   1.2029250735768313E-002   3.8089529985614407E-002
  -6.3350919527225658E-002   1.5308976559530851E-002   3.7280230169519563E-002
  -6.2847949055308661E-002   1.7164744566024841E-002   3.7263378068967838E-002
  -6.2344978583391726E-002   1.7596554755250057E-002   3.8038973683959379E-002
  -7.5286773829562892E-002   3.0172181952622945E-003   4.7865617916291681E-002
  -7.3741543642917962E-002   1.0250324610700412E-002   4.2424193580412439E-002
  -7.2196313456273170E-002   1.5341671640416790E-002   3.8274840958445716E-002
  -7.0651083269628268E-002   1.8291259284411724E-002   3.5417560050391830E-002
  -6.9105853082983393E-002   1.9099087542685134E-002   3.3852350856250601E-002
  -4.3911160335333502E-002   1.3088956392945217E-002   5.0701545876015552E-002
  -4.2233651447502005E-002   1.2728414998670334E-002   5.0234695593963541E-002
  -4.0556142559670459E-002   1.2309831963593421E-002   4.9964631919372809E-002
  -3.8878633671838927E-002   1.1833207287715045E-002   4.9891354852243247E-002
  -3.7201124784007403E-002   1.1298540971034610E-002   5.0014864392575076E-002
  -4.9747632209566794E-002   1.4591489180380113E-002   4.6463571193841785E-002
  -4.7830144461848453E-002   1.4234603953294900E-002   4.5660276197328820E-002
  -4.5912656714130078E-002   1.3792754850144071E-002   4.5140152313128137E-002
  -4.3995168966411743E-002   1.3265941870927358E-002   4.4903199541239780E-002
  -4.2077681218693402E-002   1.2654165015644980E-002   4.4949417881663845E-002
  -5.5892238292252788E-002   1.6094021967815147E-002   4.2242713796489695E-002
  -5.3648387179796558E-002   1.5740792907919660E-002   4.1076051850251774E-002
  -5.1404536067340321E-002   1.5275677736694443E-002   4.0278945521177265E-002
  -4.9160684954884071E-002   1.4698676454139727E-002   3.9851394809266229E-002
  -4.6916833842427855E-002   1.4009789060255268E-002   3.9793399714518687E-002
  -6.2344978583391726E-002   1.7596554755250057E-002   3.8038973683959379E-002
  -5.9688379601346417E-002   1.7246981862544378E-002   3.6482022552732488E-002
  -5.7031780619301156E-002   1.6758600623244954E-002   3.5381011543520212E-002
  -5.4375181637255875E-002   1.6131411037352123E-002   3.4735940656322628E-002
  -5.1718582655210545E-002   1.5365413104865513E-002   3.4546809891139452E-002
  -6.9105853082983393E-002   1.9099087542685134E-002   3.3852350856250601E-002
  -6.5950121726498015E-002   1.8753170817168985E-002   3.1878188304771016E-002
  -6.2794390370012582E-002   1.8241523509795465E-002   3.0446350380157083E-002
  -5.9638659013527190E-002   1.7564145620564409E-002   2.9556837082408791E-002
  -5.6482927657041798E-002   1.6721037149475870E-002   2.9209648411526234E-002
  -3.7201124784007403E-002   1.1298540971034610E-002   5.0014864392575076E-002
  -3.5599542575538476E-002   1.0726724243408814E-002   4.9542062977791512E-002
  -3.3997960367069500E-002   1.0138648334693454E-002   4.9287658978570292E-002
  -3.2396378158600525E-002   9.5343132448892053E-003   4.9251652394911236E-002
  -3.0794795950131598E-002   8.9137189739950662E-003   4.9434043226814661E-002
  -4.2077681218693402E-002   1.2654165015644980E-002   4.4949417881663845E-002
  -4.0266083350549348E-002   1.2002784656701987E-002   4.4500387365772331E-002
  -3.8454485482405286E-002   1.1357161166503274E-002   4.4252990753668620E-002
  -3.6642887614261252E-002   1.0717294545049039E-002   4.4207228045352903E-002
  -3.4831289746117225E-002   1.0083184792339106E-002   4.4363099240825099E-002
  -4.6916833842427855E-002   1.4009789060255268E-002   3.9793399714518687E-002
  -4.4911983826383034E-002   1.3278845069995160E-002   3.9390156147352764E-002
  -4.2907133810338248E-002   1.2575673998313046E-002   3.9171782972200427E-002
  -4.0902283794293483E-002   1.1900275845208986E-002   3.9138280189061583E-002
  -3.8897433778248634E-002   1.1252650610683201E-002   3.9289647797936422E-002
  -5.1718582655210545E-002   1.5365413104865513E-002   3.4546809891139452E-002
  -4.9537244003039424E-002   1.4554905483288222E-002   3.4211369322532909E-002
  -4.7355905350868283E-002   1.3794186830122675E-002   3.4044035634165602E-002
  -4.5174566698697162E-002   1.3083257145369155E-002   3.4044808826037470E-002
  -4.2993228046526034E-002   1.2422116429027158E-002   3.4213688898148506E-002
  -5.6482927657041798E-002   1.6721037149475870E-002   2.9209648411526234E-002
  -5.4141863880518670E-002   1.5830965896581506E-002   2.8964026891312777E-002
  -5.1800800103995501E-002   1.5012699661932652E-002   2.8869748739564272E-002
  -4.9459736327472310E-002   1.4266238445528965E-002   2.8926813956280495E-002
  -4.7118672550949203E-002   1.3591582247371337E-002   2.9135222541461503E-002
  -3.0794795950131598E-002   8.9137189739950662E-003   4.9434043226814661E-002
  -2.9147506500444065E-002   8.2948670546664771E-003   4.9142675713567341E-002
  -2.7500217050756531E-002   7.6957590195588232E-003   4.9042285631543614E-002
  -2.5852927601068991E-002   7.1163948686710637E-003   4.9132872980743841E-002
  -2.4205638151381464E-002   6.5567746020038786E-003   4.9414437761167829E-002
  -3.4831289746117225E-002   1.0083184792339106E-002   4.4363099240825099E-002
  -3.3001401819307156E-002   9.4582148285553835E-003   4.4049835833994661E-002
  -3.1171513892497109E-002   8.8457675738795455E-003   4.3910791950185324E-002
  -2.9341625965687030E-002   8.2458430283117133E-003   4.3945967589397381E-002
  -2.7511738038876993E-002   7.6584411918517725E-003   4.4155362751630345E-002
  -3.8897433778248634E-002   1.1252650610683201E-002   3.9289647797936422E-002
  -3.6901705282518744E-002   1.0621562602444151E-002   3.8947267322410453E-002
  -3.4905976786788806E-002   9.9957761282006008E-003   3.8762348461703053E-002
  -3.2910248291058861E-002   9.3752911879523629E-003   3.8734891215814291E-002
  -3.0914519795328971E-002   8.7601077816997774E-003   3.8864895584743875E-002
  -4.2993228046526034E-002   1.2422116429027158E-002   3.4213688898148506E-002
  -4.0848416890078794E-002   1.1784910376332877E-002   3.3834970178814566E-002
  -3.8703605733631630E-002   1.1145784682521323E-002   3.3596955166096711E-002
  -3.6558794577184410E-002   1.0504739347593179E-002   3.3499643859994821E-002
  -3.4413983420737225E-002   9.8617743715476713E-003   3.3543036260508814E-002
  -4.7118672550949203E-002   1.3591582247371337E-002   2.9135222541461503E-002
  -4.4841536641987395E-002   1.2948258150221603E-002   2.8712944403207430E-002
  -4.2564400733025587E-002   1.2295793236842295E-002   2.8414612063366429E-002
  -4.0287264824063751E-002   1.1634187507233808E-002   2.8240225521938805E-002
  -3.8010128915101971E-002   1.0963440961395787E-002   2.8189784778924643E-002
  -2.4205638151381464E-002   6.5567746020038786E-003   4.9414437761167829E-002
  -2.2417390251362884E-002   6.0003366131358149E-003   4.9076044292926946E-002
  -2.0629142351344304E-002   5.4305192956463355E-003   4.8904661040052366E-002
  -1.8840894451325724E-002   4.8473226495350866E-003   4.8900288002544173E-002
  -1.7052646551307143E-002   4.2507466748019640E-003   4.9062925180402450E-002
  -2.7511738038876993E-002   7.6584411918517725E-003   4.4155362751630345E-002
  -2.5555050822724891E-002   7.0703536305216641E-003   4.3708079771465347E-002
  -2.3598363606572782E-002   6.4683719103439674E-003   4.3430665208201047E-002
  -2.1641676390420667E-002   5.8524960313185090E-003   4.3323119061837279E-002
  -1.9684989174268572E-002   5.2227259934449766E-003   4.3385441332374153E-002
  -3.0914519795328971E-002   8.7601077816997774E-003   3.8864895584743875E-002
  -2.8786535061509071E-002   8.1403706479077353E-003   3.8308208262428672E-002
  -2.6658550327689171E-002   7.5062245250418075E-003   3.7924247558548424E-002
  -2.4530565593869298E-002   6.8576694131018169E-003   3.7713013473102984E-002
  -2.2402580860049426E-002   6.1947053120876006E-003   3.7674506006092429E-002
  -3.4413983420737225E-002   9.8617743715476713E-003   3.3543036260508814E-002
  -3.2111842967715402E-002   9.2103876652938621E-003   3.2876429765817006E-002
  -2.9809702514693479E-002   8.5440771397396545E-003   3.2385408091094373E-002
  -2.7507562061671612E-002   7.8628427948850711E-003   3.2069971236341033E-002
  -2.5205421608649733E-002   7.1666846307306409E-003   3.1930119201556716E-002
  -3.8010128915101971E-002   1.0963440961395787E-002   2.8189784778924643E-002
  -3.5530974541343852E-002   1.0280404682679656E-002   2.7412744281630208E-002
  -3.3051820167585705E-002   9.5819297544375848E-003   2.6814146805839323E-002
  -3.0572665793827586E-002   8.8680161766686236E-003   2.6393992351551793E-002
  -2.8093511420069467E-002   8.1386639493732371E-003   2.6152280918767534E-002
  -1.7052646551307143E-002   4.2507466748019640E-003   4.9062925180402450E-002
  -1.5113771615863802E-002   3.7026081302718450E-003   4.8892912846026371E-002
  -1.3174896680420489E-002   3.2647237747701896E-003   4.8990483422812037E-002
  -1.1236021744977176E-002   2.9370936082957280E-003   4.9355636910759726E-002
  -9.2971468095338350E-003   2.7197176308492166E-003   4.9988373309869050E-002
  -1.9684989174268572E-002   5.2227259934449766E-003   4.3385441332374153E-002
  -1.7519597509233785E-002   4.6215768741956764E-003   4.3179808846170231E-002
  -1.5354205844198943E-002   4.0915637510433034E-003   4.3159626907987692E-002
  -1.3188814179164149E-002   3.6326866239873995E-003   4.3324895517826187E-002
  -1.1023422514129314E-002   3.2449454930287835E-003   4.3675614675685537E-002
  -2.2402580860049426E-002   6.1947053120876006E-003   3.7674506006092429E-002
  -2.0092804828564022E-002   5.5405456181192581E-003   3.7394135175129850E-002
  -1.7783028797078562E-002   4.9184037273167364E-003   3.7217082529047665E-002
  -1.5473252765593096E-002   4.3282796396794006E-003   3.7143348067845548E-002
  -1.3163476734107706E-002   3.7701733552079619E-003   3.7172931791523811E-002
  -2.5205421608649733E-002   7.1666846307306409E-003   3.1930119201556716E-002
  -2.2833393573854503E-002   6.4595143620429646E-003   3.1535891832904256E-002
  -2.0461365539059268E-002   5.7452437035899542E-003   3.1162850285991476E-002
  -1.8089337504264037E-002   5.0238726553712369E-003   3.0810994560817921E-002
  -1.5717309469468803E-002   4.2954012173874456E-003   3.0480324657383775E-002
  -2.8093511420069467E-002   8.1386639493732371E-003   2.6152280918767534E-002
  -2.5741363745105300E-002   7.3784831059666156E-003   2.5605078819494143E-002
  -2.3389216070141147E-002   6.5720836798633386E-003   2.4996930178819543E-002
  -2.1037068395177001E-002   5.7194656710631425E-003   2.4327834996743430E-002
  -1.8684920720212828E-002   4.8206290795665963E-003   2.3597793273265721E-002
  -9.2971468095338350E-003   2.7197176308492166E-003   4.9988373309869050E-002
  -7.8730418561192561E-003   2.8619304281882196E-003   5.0386605115585126E-002
  -6.4489369027046634E-003   3.6130665860699129E-003   5.1112189060860957E-002
  -5.0248319492900845E-003   4.9731261044943659E-003   5.2165125145696989E-002
  -3.6007269958754917E-003   6.9421089834617034E-003   5.3545413370092887E-002
  -1.1023422514129314E-002   3.2449454930287835E-003   4.3675614675685537E-002
  -9.2537874685862803E-003   3.1685000419629517E-003   4.4258435280703057E-002
  -7.4841524230431639E-003   3.6435099545861771E-003   4.5204963930417924E-002
  -5.7145173775001133E-003   4.6699752308991815E-003   4.6515200624829736E-002
  -3.9448823319570142E-003   6.2478958709015764E-003   4.8189145363938590E-002
  -1.3163476734107706E-002   3.7701733552079619E-003   3.7172931791523811E-002
  -1.1011955691299077E-002   3.4750696557373784E-003   3.7882873198989780E-002
  -8.8604346484904388E-003   3.6739533231028576E-003   3.8992878556290106E-002
  -6.7089136056817621E-003   4.3668243573042123E-003   4.0502947863424357E-002
  -4.5573925628731721E-003   5.5536827583419490E-003   4.2413081120392743E-002
  -1.5717309469468803E-002   4.2954012173874456E-003   3.0480324657383775E-002
  -1.3147546524257616E-002   3.7816392695117912E-003   3.1259918870445019E-002
  -1.0577783579046370E-002   3.7043966916192744E-003   3.2475932938477566E-002
  -8.0080206338352354E-003   4.0636734837091355E-003   3.4128366861480838E-002
  -5.4382576886239341E-003   4.8594696457822939E-003   3.6217220639455365E-002
  -1.8684920720212828E-002   4.8206290795665963E-003   2.3597793273265721E-002
  -1.5660559967461990E-002   4.0882088832865371E-003   2.4389572295068773E-002
  -1.2636199214711097E-002   3.7348400601356913E-003   2.5654127076980004E-002
  -9.6118384619602315E-003   3.7605226101140865E-003   2.7391457618999498E-002
  -6.5874777092093662E-003   4.1652565332223057E-003   2.9601563921126783E-002
  -3.6007269958754917E-003   6.9421089834617034E-003   5.3545413370092887E-002
  -4.1529072238324916E-003   9.5332136596540940E-003   5.1868873716957253E-002
  -4.7050874517895469E-003   1.2759638569755843E-002   5.0047840204354876E-002
  -5.2572676797465676E-003   1.6621383713765182E-002   4.8082312832285395E-002
  -5.8094479077036021E-003   2.1118449091683367E-002   4.5972291600749227E-002
  -3.9448823319570142E-003   6.2478958709015764E-003   4.8189145363938590E-002
  -4.5378347346309161E-003   8.6860856571338574E-003   4.7250174082057728E-002
  -5.1307871373049221E-003   1.2293358372136354E-002   4.6374152310210082E-002
  -5.7237395399788657E-003   1.7069714015908025E-002   4.5561080048395763E-002
  -6.3166919426528301E-003   2.3015152588450327E-002   4.4810957296614884E-002
  -4.5573925628731721E-003   5.5536827583419490E-003   4.2413081120392743E-002
  -4.9836737707638218E-003   7.8389576546133433E-003   4.2745440904628340E-002
  -5.4099549786544715E-003   1.1827078174516517E-002   4.3348193568396934E-002
  -5.8362361865451542E-003   1.7518044318051030E-002   4.4221339111699433E-002
  -6.2625173944358264E-003   2.4911856085217288E-002   4.5364877534534442E-002
  -5.4382576886239341E-003   4.8594696457822939E-003   3.6217220639455365E-002
  -5.4904243322311981E-003   6.9918296520927459E-003   3.8354674184668827E-002
  -5.5425909758385168E-003   1.1360797976896743E-002   4.0969963978916071E-002
  -5.5947576194458250E-003   1.7966374620193508E-002   4.4063090022196112E-002
  -5.6469242630530457E-003   2.6808559581984359E-002   4.7634052314510150E-002
  -6.5874777092093662E-003   4.1652565332223057E-003   2.9601563921126783E-002
  -6.0580864190330486E-003   6.1447016495724815E-003   3.4077873922179536E-002
  -5.5286951288567310E-003   1.0894517779277163E-002   3.9239463541765940E-002
  -4.9993038386805105E-003   1.8414704922336704E-002   4.5086332779886024E-002
  -4.4699125485041513E-003   2.8705263078751209E-002   5.1618481636539926E-002
  -7.5286773829562892E-002   3.0172181952622945E-003   4.7865617916291681E-002
  -7.3741543642917962E-002   1.0250324610700412E-002   4.2424193580412439E-002
  -7.2196313456273170E-002   1.5341671640416790E-002   3.8274840958445716E-002
  -7.0651083269628268E-002   1.8291259284411724E-002   3.5417560050391830E-002
  -6.9105853082983393E-002   1.9099087542685134E-002   3.3852350856250601E-002
  -8.3598585480163773E-002   3.5806094770916563E-003   2.4828392709956570E-002
  -8.1447973459337436E-002   1.1430540410616641E-002   2.3987632421928640E-002
  -7.9297361438511085E-002   1.6911271349556459E-002   2.3065564088350893E-002
  -7.7146749417684735E-002   2.0022802293910725E-002   2.2062187709223469E-002
  -7.4996137396858384E-002   2.0765133243679845E-002   2.0977503284546173E-002
  -8.4367563513028682E-002   4.1440007589209904E-003   2.5217123261405266E-003
  -8.2984949417483217E-002   1.2610756210533036E-002   6.0541754771001877E-003
  -8.1602335321938030E-002   1.8480871058695954E-002   8.1319508230475526E-003
  -8.0219721226392635E-002   2.1754345303409722E-002   8.7550383639824654E-003
  -7.8837107130847309E-002   2.2431178944674418E-002   7.9234380999055332E-003
  -7.7593707928157452E-002   4.7073920407503383E-003  -1.9054423235156711E-002
  -7.8352471517355554E-002   1.3790972010449376E-002  -1.1376177254073420E-002
  -7.9111235106553657E-002   2.0050470767835480E-002  -6.5259988374646704E-003
  -7.9869998695751787E-002   2.3485888312908917E-002  -4.5038879853307448E-003
  -8.0628762284949890E-002   2.4097224645668894E-002  -5.3098446976713419E-003
  -6.3277018725550249E-002   5.2707833225796863E-003  -3.9900013973935056E-002
  -6.7550539758954309E-002   1.4971187810365549E-002  -2.8303425771591839E-002
  -7.1824060792358368E-002   2.1620070476975062E-002  -2.0908284893185414E-002
  -7.6097581825762317E-002   2.5217431322407655E-002  -1.7714591338716418E-002
  -8.0371102859166377E-002   2.5763270346663703E-002  -1.8722345108184657E-002
  -6.9105853082983393E-002   1.9099087542685134E-002   3.3852350856250601E-002
  -6.5950121726498015E-002   1.8753170817168985E-002   3.1878188304771016E-002
  -6.2794390370012582E-002   1.8241523509795465E-002   3.0446350380157083E-002
  -5.9638659013527190E-002   1.7564145620564409E-002   2.9556837082408791E-002
  -5.6482927657041798E-002   1.6721037149475870E-002   2.9209648411526234E-002
  -7.4996137396858384E-002   2.0765133243679845E-002   2.0977503284546173E-002
  -7.1523546935052723E-002   2.0266962072396921E-002   2.0688422376719501E-002
  -6.8050956473247048E-002   1.9656986653595832E-002   2.0490735052667630E-002
  -6.4578366011441429E-002   1.8935206987276465E-002   2.0384441312390658E-002
  -6.1105775549635727E-002   1.8101623073438933E-002   2.0369541155888404E-002
  -7.8837107130847309E-002   2.2431178944674418E-002   7.9234380999055332E-003
  -7.5498588606812148E-002   2.1780753327624747E-002   9.3733651700708548E-003
  -7.2160070082777028E-002   2.1072449797396309E-002   1.0463754780920285E-002
  -6.8821551558741909E-002   2.0306268353988577E-002   1.1194606932453735E-002
  -6.5483033034706734E-002   1.9482208997401745E-002   1.1565921624671044E-002
  -8.0628762284949890E-002   2.4097224645668894E-002  -5.3098446976713419E-003
  -7.7875246741776177E-002   2.3294544582852711E-002  -2.0669833151748165E-003
  -7.5121731198602396E-002   2.2487912941196647E-002   3.6540956491507362E-004
  -7.2368215655428642E-002   2.1677329720700689E-002   1.9873339425979996E-003
  -6.9614700112254915E-002   2.0862794921364711E-002   2.7987898178741984E-003
  -8.0371102859166377E-002   2.5763270346663703E-002  -1.8722345108184657E-002
  -7.8653521339944854E-002   2.4808335838080620E-002  -1.3632623079017636E-002
  -7.6935939820723276E-002   2.3903376084997208E-002  -9.8043005953481616E-003
  -7.5218358301501753E-002   2.3048391087412537E-002  -7.2373776571763755E-003
  -7.3500776782280175E-002   2.2243380845327620E-002  -5.9318542645021566E-003
  -5.6482927657041798E-002   1.6721037149475870E-002   2.9209648411526234E-002
  -5.4141863880518670E-002   1.5830965896581506E-002   2.8964026891312777E-002
  -5.1800800103995501E-002   1.5012699661932652E-002   2.8869748739564272E-002
  -4.9459736327472310E-002   1.4266238445528965E-002   2.8926813956280495E-002
  -4.7118672550949203E-002   1.3591582247371337E-002   2.9135222541461503E-002
  -6.1105775549635727E-002   1.8101623073438933E-002   2.0369541155888404E-002
  -5.8628164866125668E-002   1.7235929488678775E-002   2.0414408543679513E-002
  -5.6150554182615581E-002   1.6417820809592351E-002   2.0581026376979644E-002
  -5.3672943499105570E-002   1.5647297036179297E-002   2.0869394655788770E-002
  -5.1195332815595490E-002   1.4924358168439955E-002   2.1279513380106974E-002
  -6.5483033034706734E-002   1.9482208997401745E-002   1.1565921624671044E-002
  -6.2898468367165603E-002   1.8640893080776155E-002   1.1877057807894706E-002
  -6.0313903699624458E-002   1.7822941957252099E-002   1.2280351513671552E-002
  -5.7729339032083278E-002   1.7028355626829680E-002   1.2775802742001751E-002
  -5.5144774364542168E-002   1.6257134089508463E-002   1.3363411492884808E-002
  -6.9614700112254915E-002   2.0862794921364711E-002   2.7987898178741984E-003
  -6.6952774383638475E-002   2.0045856672873591E-002   3.3519746839583420E-003
  -6.4290848655021993E-002   1.9228063104911822E-002   3.9677241496398705E-003
  -6.1628922926405608E-002   1.8409414217479651E-002   4.6460382149186531E-003
  -5.8966997197789098E-002   1.7589910010577303E-002   5.3869168797949785E-003
  -7.3500776782280175E-002   2.2243380845327620E-002  -5.9318542645021566E-003
  -7.0791082915544257E-002   2.1450820264970916E-002  -5.1608408281295648E-003
  -6.8081389048808338E-002   2.0633184252571823E-002  -4.3568557151155152E-003
  -6.5371695182072392E-002   1.9790472808130191E-002  -3.5198989254596330E-003
  -6.2662001315336502E-002   1.8922685931645700E-002  -2.6499704591624873E-003
  -4.7118672550949203E-002   1.3591582247371337E-002   2.9135222541461503E-002
  -4.4841536641987395E-002   1.2948258150221603E-002   2.8712944403207430E-002
  -4.2564400733025587E-002   1.2295793236842295E-002   2.8414612063366429E-002
  -4.0287264824063751E-002   1.1634187507233808E-002   2.8240225521938805E-002
  -3.8010128915101971E-002   1.0963440961395787E-002   2.8189784778924643E-002
  -5.1195332815595490E-002   1.4924358168439955E-002   2.1279513380106974E-002
  -4.8774108774945188E-002   1.4222749286215308E-002   2.0997563415390996E-002
  -4.6352884734294969E-002   1.3516215469347004E-002   2.0879843915638491E-002
  -4.3931660693644708E-002   1.2804756717834737E-002   2.0926354880849665E-002
  -4.1510436652994503E-002   1.2088373031678978E-002   2.1137096311024339E-002
  -5.5144774364542168E-002   1.6257134089508463E-002   1.3363411492884808E-002
  -5.2539177525653180E-002   1.5497240422209013E-002   1.3226005583292441E-002
  -4.9933580686764178E-002   1.4736637701851477E-002   1.3293114805214237E-002
  -4.7327983847875156E-002   1.3975325928435939E-002   1.3564739158649829E-002
  -4.4722387008986189E-002   1.3213305101962225E-002   1.4040878643599375E-002
  -5.8966997197789098E-002   1.7589910010577303E-002   5.3869168797949785E-003
  -5.6136742894111177E-002   1.6771731558203051E-002   5.3982709069123093E-003
  -5.3306488590433174E-002   1.5957059934356345E-002   5.6544247320936721E-003
  -5.0476234286755198E-002   1.5145895139037061E-002   6.1553783553392107E-003
  -4.7645979983077250E-002   1.4338237172245277E-002   6.9011317766490693E-003
  -6.2662001315336502E-002   1.8922685931645700E-002  -2.6499704591624873E-003
  -5.9566804880319180E-002   1.8046222694196867E-002  -2.4856406137503395E-003
  -5.6471608445301968E-002   1.7177482166861130E-002  -2.0362263037231321E-003
  -5.3376412010284674E-002   1.6316464349638189E-002  -1.3017275290818364E-003
  -5.0281215575267435E-002   1.5463169242528663E-002  -2.8214428982620277E-004
  -3.8010128915101971E-002   1.0963440961395787E-002   2.8189784778924643E-002
  -3.5530974541343852E-002   1.0280404682679656E-002   2.7412744281630208E-002
  -3.3051820167585705E-002   9.5819297544375848E-003   2.6814146805839323E-002
  -3.0572665793827586E-002   8.8680161766686236E-003   2.6393992351551793E-002
  -2.8093511420069467E-002   8.1386639493732371E-003   2.6152280918767534E-002
  -4.1510436652994503E-002   1.2088373031678978E-002   2.1137096311024339E-002
  -3.8887641505677487E-002   1.1361810087351654E-002   2.0598174832073879E-002
  -3.6264846358360497E-002   1.0619813561326463E-002   2.0168091878737721E-002
  -3.3642051211043557E-002   9.8623834536018529E-003   1.9846847451015864E-002
  -3.1019256063726547E-002   9.0895197641792658E-003   1.9634441548908477E-002
  -4.4722387008986189E-002   1.3213305101962225E-002   1.4040878643599375E-002
  -4.2025555583999397E-002   1.2443215492023985E-002   1.3740081250820213E-002
  -3.9328724159012528E-002   1.1657697368215356E-002   1.3478517887766925E-002
  -3.6631892734025687E-002   1.0856750730535308E-002   1.3256188554438580E-002
  -3.3935061309038873E-002   1.0040375578985183E-002   1.3073093250835832E-002
  -4.7645979983077250E-002   1.4338237172245277E-002   6.9011317766490693E-003
  -4.4944716776309471E-002   1.3524620896696038E-002   6.8384635378696962E-003
  -4.2243453569541824E-002   1.2695581175103686E-002   6.7454248329265540E-003
  -3.9542190362774163E-002   1.1851118007468872E-002   6.6220156618197554E-003
  -3.6840927156006405E-002   1.0991231393791046E-002   6.4682360245495521E-003
  -5.0281215575267435E-002   1.5463169242528663E-002  -2.8214428982620277E-004
  -4.7645125082607875E-002   1.4606026301368313E-002  -1.0667830677835166E-004
  -4.5009034589948316E-002   1.3733464981993015E-002  -3.1187285783274010E-005
  -4.2372944097288728E-002   1.2845485284402186E-002  -5.5671226840484089E-005
  -3.9736853604629196E-002   1.1942087208596908E-002  -1.8013012995066191E-004
  -2.8093511420069467E-002   8.1386639493732371E-003   2.6152280918767534E-002
  -2.5741363745105300E-002   7.3784831059666156E-003   2.5605078819494143E-002
  -2.3389216070141147E-002   6.5720836798633386E-003   2.4996930178819543E-002
  -2.1037068395177001E-002   5.7194656710631425E-003   2.4327834996743430E-002
  -1.8684920720212828E-002   4.8206290795665963E-003   2.3597793273265721E-002
  -3.1019256063726547E-002   9.0895197641792658E-003   1.9634441548908477E-002
  -2.8711459228075248E-002   8.3119315177156428E-003   1.9093657492529170E-002
  -2.6403662392423963E-002   7.5403277388699230E-003   1.8525118298925447E-002
  -2.4095865556772705E-002   6.7747084276419400E-003   1.7928823968097765E-002
  -2.1788068721121323E-002   6.0150735840311942E-003   1.7304774500045528E-002
  -3.3935061309038873E-002   1.0040375578985183E-002   1.3073093250835832E-002
  -3.1638423908523165E-002   9.2453799294652528E-003   1.2590930287664420E-002
  -2.9341786508007516E-002   8.5085717978768127E-003   1.2114203591446063E-002
  -2.7045149107491839E-002   7.8299511842206196E-003   1.1642913162180940E-002
  -2.4748511706976159E-002   7.2095180884958476E-003   1.1177058999868539E-002
  -3.6840927156006405E-002   1.0991231393791046E-002   6.4682360245495521E-003
  -3.4522257786449136E-002   1.0178828341214238E-002   6.0968972049003228E-003
  -3.2203588416891762E-002   9.4768158568843824E-003   5.7641860563815914E-003
  -2.9884919047334445E-002   8.8851939407993581E-003   5.4701025789928200E-003
  -2.7566249677777120E-002   8.4039625929602513E-003   5.2146467727343312E-003
  -3.9736853604629196E-002   1.1942087208596908E-002  -1.8013012995066191E-004
  -3.7362960861852978E-002   1.1112276752963668E-002  -3.8844175576313589E-004
  -3.4989068119076816E-002   1.0445059915890231E-002  -5.2493430626854298E-004
  -3.2615175376300626E-002   9.9404366973779718E-003  -5.8960778146643911E-004
  -3.0241282633524436E-002   9.5984070974248770E-003  -5.8246218135682426E-004
  -1.8684920720212828E-002   4.8206290795665963E-003   2.3597793273265721E-002
  -1.5660559967461990E-002   4.0882088832865371E-003   2.4389572295068773E-002
  -1.2636199214711097E-002   3.7348400601356913E-003   2.5654127076980004E-002
  -9.6118384619602315E-003   3.7605226101140865E-003   2.7391457618999498E-002
  -6.5874777092093662E-003   4.1652565332223057E-003   2.9601563921126783E-002
  -2.1788068721121323E-002   6.0150735840311942E-003   1.7304774500045528E-002
  -1.8559550616332174E-002   5.3495034803374697E-003   1.8251238321505270E-002
  -1.5331032511543108E-002   4.8660783888597459E-003   1.9133241086933150E-002
  -1.2102514406753952E-002   4.5647983095976272E-003   1.9950782796329558E-002
  -8.8739963019648926E-003   4.4456632425523557E-003   2.0703863449694326E-002
  -2.4748511706976159E-002   7.2095180884958476E-003   1.1177058999868539E-002
  -2.1853073066288482E-002   6.6107980773885133E-003   1.2081301260071398E-002
  -1.8957634425600910E-002   5.9973167175836894E-003   1.2383845648102895E-002
  -1.6062195784913288E-002   5.3690740090815009E-003   1.2084692163962851E-002
  -1.3166757144225716E-002   4.7260699518827942E-003   1.1183840807651529E-002
  -2.7566249677777120E-002   8.4039625929602513E-003   5.2146467727343312E-003
  -2.5541127317330894E-002   7.8720926744391684E-003   5.8797611107673856E-003
  -2.3516004956884589E-002   7.1285550463077996E-003   5.4059407604891349E-003
  -2.1490882596438284E-002   6.1733497085658742E-003   3.7931857218993642E-003
  -1.9465760235992054E-002   5.0064766612129274E-003   1.0414959949987881E-003
  -3.0241282633524436E-002   9.5984070974248770E-003  -5.8246218135682426E-004
  -2.9623713369459348E-002   9.1333872714902675E-003  -3.5338212640712019E-004
  -2.9006144105394094E-002   8.2597933750316876E-003  -1.8004735759086232E-003
  -2.8388574841328867E-002   6.9776254080484712E-003  -4.9237365298609725E-003
  -2.7771005577263752E-002   5.2868833705430607E-003  -9.7231709882644735E-003
  -6.5874777092093662E-003   4.1652565332223057E-003   2.9601563921126783E-002
  -6.0580864190330486E-003   6.1447016495724815E-003   3.4077873922179536E-002
  -5.5286951288567310E-003   1.0894517779277163E-002   3.9239463541765940E-002
  -4.9993038386805105E-003   1.8414704922336704E-002   4.5086332779886024E-002
  -4.4699125485041513E-003   2.8705263078751209E-002   5.1618481636539926E-002
  -8.8739963019648926E-003   4.4456632425523557E-003   2.0703863449694326E-002
  -7.5873285345597341E-003   5.6598935485804303E-003   2.5873406433579604E-002
  -6.3006607671546866E-003   9.3587095885390437E-003   3.1872222753388801E-002
  -5.0139929997496044E-003   1.5542111362428619E-002   3.8700312409121446E-002
  -3.7273252323447026E-003   2.4210098870248942E-002   4.6357675400778842E-002
  -1.3166757144225716E-002   4.7260699518827942E-003   1.1183840807651529E-002
  -1.0978819182201616E-002   5.1750854475884345E-003   1.6760831494945255E-002
  -8.7908812201775571E-003   7.8229013978008272E-003   2.3311089235553209E-002
  -6.6029432581534257E-003   1.2669517802520371E-002   3.0834614029475176E-002
  -4.4150052961293984E-003   1.9714934661746231E-002   3.9331405876711467E-002
  -1.9465760235992054E-002   5.0064766612129274E-003   1.0414959949987881E-003
  -1.6232558361958846E-002   4.6902773465966330E-003   6.7401491062768423E-003
  -1.2999356487925528E-002   6.2870932070621041E-003   1.3556062988259437E-002
  -9.7661546138920995E-003   9.7969242426118718E-003   2.1489237640946596E-002
  -6.5329527398589951E-003   1.5219770453243631E-002   3.0539673064337247E-002
  -2.7771005577263752E-002   5.2868833705430607E-003  -9.7231709882644735E-003
  -2.3348546073831078E-002   4.2054692456048315E-003  -4.1886407324255304E-003
  -1.8926086570398293E-002   4.7512850163246578E-003   2.6071440115074118E-003
  -1.4503627066965508E-002   6.9243306827038581E-003   1.0664183243535269E-002
  -1.0081167563532833E-002   1.0724606244741253E-002   1.9982476963658069E-002
 </DataArray>
 </PointData>
 </Piece>
 </UnstructuredGrid>
 </VTKFile>
