 <VTKFile type="UnstructuredGrid"  version="0.1"   >
 <UnstructuredGrid>
 <Piece  NumberOfPoints="            25 "  NumberOfCells="           16 ">
 <Points>
 <DataArray  type="Float64" NumberOfComponents="3"  format="ascii" >
   0.0000000000000000        0.0000000000000000        0.0000000000000000     
  0.25000000000000000        0.0000000000000000        0.0000000000000000     
  0.50000000000000000        0.0000000000000000        0.0000000000000000     
  0.75000000000000000        0.0000000000000000        0.0000000000000000     
   1.0000000000000000        0.0000000000000000        0.0000000000000000     
   0.0000000000000000       0.25000000000000000        0.0000000000000000     
  0.25000000000000000       0.25000000000000000        0.0000000000000000     
  0.50000000000000000       0.25000000000000000        0.0000000000000000     
  0.75000000000000000       0.25000000000000000        0.0000000000000000     
   1.0000000000000000       0.25000000000000000        0.0000000000000000     
   0.0000000000000000       0.50000000000000000        0.0000000000000000     
  0.25000000000000000       0.50000000000000000        0.0000000000000000     
  0.50000000000000000       0.50000000000000000        0.0000000000000000     
  0.75000000000000000       0.50000000000000000        0.0000000000000000     
   1.0000000000000000       0.50000000000000000        0.0000000000000000     
   0.0000000000000000       0.75000000000000000        0.0000000000000000     
  0.25000000000000000       0.75000000000000000        0.0000000000000000     
  0.50000000000000000       0.75000000000000000        0.0000000000000000     
  0.75000000000000000       0.75000000000000000        0.0000000000000000     
   1.0000000000000000       0.75000000000000000        0.0000000000000000     
   0.0000000000000000        1.0000000000000000        0.0000000000000000     
  0.25000000000000000        1.0000000000000000        0.0000000000000000     
  0.50000000000000000        1.0000000000000000        0.0000000000000000     
  0.75000000000000000        1.0000000000000000        0.0000000000000000     
   1.0000000000000000        1.0000000000000000        0.0000000000000000     
 </DataArray>
 </Points>
 <Cells>
 <DataArray  type="Int32"  Name="connectivity"  format="ascii">
           0           1           6           5
           1           2           7           6
           2           3           8           7
           3           4           9           8
           5           6          11          10
           6           7          12          11
           7           8          13          12
           8           9          14          13
          10          11          16          15
          11          12          17          16
          12          13          18          17
          13          14          19          18
          15          16          21          20
          16          17          22          21
          17          18          23          22
          18          19          24          23
 </DataArray>
 <DataArray  type="Int32"  Name="offsets"  format="ascii"> 
           4
           8
          12
          16
          20
          24
          28
          32
          36
          40
          44
          48
          52
          56
          60
          64
 </DataArray>
 <DataArray  type="UInt8"  Name="types"  format="ascii">
 9
 9
 9
 9
 9
 9
 9
 9
 9
 9
 9
 9
 9
 9
 9
 9
 </DataArray>
 </Cells> 
 <PointData>
 <DataArray  type="Float64" Name="disp" NumberOfComponents="3" format="ascii">
   0.0000000000000000        0.0000000000000000        0.0000000000000000     
   3.0106871731504805E-002   2.4984827797784076E-002   0.0000000000000000     
   5.5189261562203648E-002   5.7627188311546923E-002   0.0000000000000000     
   7.5247169492096519E-002   9.7927081541288555E-002   0.0000000000000000     
   9.0280595521183435E-002  0.14588450748700896        0.0000000000000000     
   0.0000000000000000        0.0000000000000000        0.0000000000000000     
   1.5053435865751632E-002   2.2091962768943742E-002   0.0000000000000000     
   2.7594630781102823E-002   5.3096171624361088E-002   0.0000000000000000     
   3.7623584746053589E-002   9.3012626566252019E-002   0.0000000000000000     
   4.5140297760603909E-002  0.14184132759461657        0.0000000000000000     
   0.0000000000000000        0.0000000000000000        0.0000000000000000     
  -1.2299189444675562E-015   2.1127674425998492E-002   0.0000000000000000     
   2.4980018054066022E-016   5.1585832728633055E-002   0.0000000000000000     
   4.4513004393564870E-015   9.1374474907903680E-002   0.0000000000000000     
   1.1355499873744179E-014  0.14049360096381039        0.0000000000000000     
   0.0000000000000000        0.0000000000000000        0.0000000000000000     
  -1.5053435865753780E-002   2.2091962768948325E-002   0.0000000000000000     
  -2.7594630781104079E-002   5.3096171624362837E-002   0.0000000000000000     
  -3.7623584746050889E-002   9.3012626566243525E-002   0.0000000000000000     
  -4.5140297760594236E-002  0.14184132759459042        0.0000000000000000     
   0.0000000000000000        0.0000000000000000        0.0000000000000000     
  -3.0106871731506019E-002   2.4984827797793239E-002   0.0000000000000000     
  -5.5189261562210171E-002   5.7627188311550420E-002   0.0000000000000000     
  -7.5247169492112437E-002   9.7927081541271555E-002   0.0000000000000000     
  -9.0280595521212856E-002  0.14588450748695664        0.0000000000000000     
 </DataArray>
 <DataArray  type="Float64" Name="stress" NumberOfComponents="3" format="ascii">
   8602842905.1185360        2580852871.5355611        1952867209.8272018     
   6972523455.7095728        1166040227.4837823        1270168457.5403202     
   5474569372.8584003        192445471.95798159        819368869.90636635     
   4108980656.5650215       -339931395.04184246        600468446.92533994     
   2875757306.8294373       -431090373.51568794        613467188.59724200     
   4301421452.5587282        1290426435.7676187        1627923666.9883332     
   3486261727.8550086        583020113.74223304        1061044610.4394639     
   2737284686.4300389        96222735.979347467        726064718.54330277     
   2054490328.2838194       -169965697.52103829        622983991.29984927     
   1437878653.4163489       -215545186.75892359        751802428.70910490     
  -6.8214664686103372E-004  -2.0464399405831010E-004   1519609152.7089655     
   2.1425169330987394E-004   6.1425223881664910E-004   991336661.40589154     
   8.1782108557776042E-004   4.5497031051036548E-004   694963334.75530541     
   1.1279896430824135E-003  -6.8162051094963847E-004   630489172.75720823     
   1.1446887394006078E-003  -2.7957489803074479E-003   797914175.41159940     
  -4301421452.5596981       -1290426435.7679095        1627923666.9890985     
  -3486261727.8548117       -583020113.74107397        1061044610.4396021     
  -2737284686.4292622       -96222735.978694201        726064718.54237461     
  -2054490328.2830491        169965697.51922977        622983991.29741561     
  -1437878653.4161725        215545186.75269896        751802428.70472622     
  -8602842905.1183167       -2580852871.5354953        1952867209.8287320     
  -6972523455.7100706       -1166040227.4828324        1270168457.5405965     
  -5474569372.8602018       -192445471.95810246        819368869.90451002     
  -4108980656.5687132        339931395.03869486        600468446.92047286     
  -2875757306.8356061        431090373.50755870        613467188.58848453     
 </DataArray>
 <DataArray  type="Float64" Name="VM" NumberOfComponents="1" format="ascii">
   8361106792.6006079     
   6832676931.3125038     
   5564933514.9761505     
   4413358583.1433964     
   3290069340.2903495     
   4750491063.1978722     
   3720056394.0689502     
   2969866524.6675944     
   2400695501.1600757     
   2029655943.2109115     
   2632040260.1386209     
   1717045464.9607091     
   1203711805.1936867     
   1092039280.8375559     
   1382027891.8923156     
   4750491063.1993532     
   3720056394.0692606     
   2969866524.6664906     
   2400695501.1565928     
   2029655943.2030456     
   8361106792.6015015     
   6832676931.3134460     
   5564933514.9770164     
   4413358583.1432819     
   3290069340.2866287     
 </DataArray>
 <DataArray  type="Float64" Name="strain" NumberOfComponents="3" format="ascii">
  0.13047645072763114        0.0000000000000000        8.4624245759178748E-002
  0.11037852312440730       -1.5428613487151490E-002   5.5040633160080545E-002
   9.0280595521183435E-002  -2.4165422331658977E-002   3.5505984362609211E-002
   7.0182667917959574E-002  -2.6210426533522485E-002   2.6020299366764733E-002
   5.0084740314735726E-002  -2.1563626092741983E-002   2.6583578172547154E-002
   6.5238225363807384E-002   0.0000000000000000        7.0543358902827771E-002
   5.5189261562205646E-002  -7.7143067435711601E-003   4.5978599785710103E-002
   4.5140297760603909E-002  -1.2082711165827736E-002   3.1462804470209785E-002
   3.5091333959002186E-002  -1.3105213266769736E-002   2.6995972956326802E-002
   2.5042370157400434E-002  -1.0781813046397137E-002   3.2578105244061212E-002
  -1.0345890810725678E-014   0.0000000000000000        6.5849729950721844E-002
   4.9960036108132044E-016   9.1662788470614487E-015   4.2957921994255299E-002
   1.1355499873744179E-014   3.4937330806172895E-015   3.0115077839396570E-002
   2.2207929939455084E-014  -1.7000290064572710E-014   2.7321197486145692E-002
   3.3056890558214036E-014  -5.2319260035460502E-014   3.4576280934502643E-002
  -6.5238225363822094E-002   0.0000000000000000        7.0543358902860939E-002
  -5.5189261562208158E-002   7.7143067435894927E-003   4.5978599785716091E-002
  -4.5140297760594236E-002   1.2082711165834743E-002   3.1462804470169567E-002
  -3.5091333958980300E-002   1.3105213266735742E-002   2.6995972956221345E-002
  -2.5042370157366371E-002   1.0781813046292513E-002   3.2578105243871468E-002
 -0.13047645072762781        0.0000000000000000        8.4624245759245056E-002
 -0.11037852312442034        1.5428613487169812E-002   5.5040633160092514E-002
  -9.0280595521212856E-002   2.4165422331665971E-002   3.5505984362528768E-002
  -7.0182667918005370E-002   2.6210426533488485E-002   2.6020299366553826E-002
  -5.0084740314797899E-002   2.1563626092637345E-002   2.6583578172167666E-002
 </DataArray>
 </PointData>
 </Piece>
 <Piece  NumberOfPoints="            25 "  NumberOfCells="           16 ">
 <Points>
 <DataArray  type="Float64" NumberOfComponents="3"  format="ascii" >
  0.50000000000000000        0.0000000000000000        0.0000000000000000     
  0.75000000000000000        0.0000000000000000        0.0000000000000000     
   1.0000000000000000        0.0000000000000000        0.0000000000000000     
   1.2500000000000000        0.0000000000000000        0.0000000000000000     
   1.5000000000000000        0.0000000000000000        0.0000000000000000     
  0.50000000000000000       0.25000000000000000        0.0000000000000000     
  0.75000000000000000       0.25000000000000000        0.0000000000000000     
   1.0000000000000000       0.25000000000000000        0.0000000000000000     
   1.2500000000000000       0.25000000000000000        0.0000000000000000     
   1.5000000000000000       0.25000000000000000        0.0000000000000000     
  0.50000000000000000       0.50000000000000000        0.0000000000000000     
  0.75000000000000000       0.50000000000000000        0.0000000000000000     
   1.0000000000000000       0.50000000000000000        0.0000000000000000     
   1.2500000000000000       0.50000000000000000        0.0000000000000000     
   1.5000000000000000       0.50000000000000000        0.0000000000000000     
  0.50000000000000000       0.75000000000000000        0.0000000000000000     
  0.75000000000000000       0.75000000000000000        0.0000000000000000     
   1.0000000000000000       0.75000000000000000        0.0000000000000000     
   1.2500000000000000       0.75000000000000000        0.0000000000000000     
   1.5000000000000000       0.75000000000000000        0.0000000000000000     
  0.50000000000000000        1.0000000000000000        0.0000000000000000     
  0.75000000000000000        1.0000000000000000        0.0000000000000000     
   1.0000000000000000        1.0000000000000000        0.0000000000000000     
   1.2500000000000000        1.0000000000000000        0.0000000000000000     
   1.5000000000000000        1.0000000000000000        0.0000000000000000     
 </DataArray>
 </Points>
 <Cells>
 <DataArray  type="Int32"  Name="connectivity"  format="ascii">
           0           1           6           5
           1           2           7           6
           2           3           8           7
           3           4           9           8
           5           6          11          10
           6           7          12          11
           7           8          13          12
           8           9          14          13
          10          11          16          15
          11          12          17          16
          12          13          18          17
          13          14          19          18
          15          16          21          20
          16          17          22          21
          17          18          23          22
          18          19          24          23
 </DataArray>
 <DataArray  type="Int32"  Name="offsets"  format="ascii"> 
           4
           8
          12
          16
          20
          24
          28
          32
          36
          40
          44
          48
          52
          56
          60
          64
 </DataArray>
 <DataArray  type="UInt8"  Name="types"  format="ascii">
 9
 9
 9
 9
 9
 9
 9
 9
 9
 9
 9
 9
 9
 9
 9
 9
 </DataArray>
 </Cells> 
 <PointData>
 <DataArray  type="Float64" Name="disp" NumberOfComponents="3" format="ascii">
   5.5189261562222758E-002   5.7627188311579293E-002   0.0000000000000000     
   7.5247169492112312E-002   9.7927081541288249E-002   0.0000000000000000     
   9.0280595521201670E-002  0.14588450748697968        0.0000000000000000     
  0.10028953964949085       0.20149946614865355        0.0000000000000000     
  0.10527400187697983       0.26477195752630989        0.0000000000000000     
   2.7594630781102490E-002   5.3096171624377117E-002   0.0000000000000000     
   3.7623584746051549E-002   9.3012626566251796E-002   0.0000000000000000     
   4.5140297760598379E-002  0.14184132759460191        0.0000000000000000     
   5.0144769824742974E-002  0.19958227470942749        0.0000000000000000     
   5.2637000938485348E-002  0.26623546791072850        0.0000000000000000     
  -6.7064409581263362E-015   5.1585832728632743E-002   0.0000000000000000     
  -3.6646033430010050E-015   9.1374474907903513E-002   0.0000000000000000     
  -2.2325891135821507E-015  0.14049360096381039        0.0000000000000000     
  -2.4086635463937967E-015  0.19894321089635333        0.0000000000000000     
  -4.1876224710080123E-015  0.26672330470553229        0.0000000000000000     
  -2.7594630781104836E-002   5.3096171624346170E-002   0.0000000000000000     
  -3.7623584746053339E-002   9.3012626566243470E-002   0.0000000000000000     
  -4.5140297760600155E-002  0.14184132759460513        0.0000000000000000     
  -5.0144769824745306E-002  0.19958227470943107        0.0000000000000000     
  -5.2637000938488776E-002  0.26623546791072139        0.0000000000000000     
  -5.5189261562191894E-002   5.7627188311517384E-002   0.0000000000000000     
  -7.5247169492097449E-002   9.7927081541271582E-002   0.0000000000000000     
  -9.0280595521195398E-002  0.14588450748698603        0.0000000000000000     
 -0.10028953964948573       0.20149946614866074        0.0000000000000000     
 -0.10527400187696843       0.26477195752629568        0.0000000000000000     
 </DataArray>
 <DataArray  type="Float64" Name="stress" NumberOfComponents="3" format="ascii">
   5474569372.8554726        192445471.95318484        819368869.90079355     
   4108980656.5649118       -339931395.04185891        600468446.92030609     
   2875757306.8320022       -431090373.51140714        613467188.59181607     
   1774899323.6567392       -81031463.455462694        858365094.91532385     
   806406707.03912425        710245335.12597418        1335162165.8908262     
   2737284686.4285340        96222735.974974155        726064718.54051232     
   2054490328.2831390       -169965697.52122533        622983991.29733002     
   1437878653.4163485       -215545186.75540942        751802428.70639002     
   887449661.82816386       -40515731.727575779        1112520030.7676914     
   403203353.51858068        355122667.56226635        1705136797.4812362     
  -2.1027136076279740E-004  -3.7776100928684567E-003   694963334.75530052     
   2.6027714781974646E-004  -9.2195024508518581E-004   630489172.75720441     
   2.9190249118947757E-004   4.6924460654126037E-004   797914175.41159570     
  -1.1558691275177552E-004   3.9672363379775964E-004   1197238342.7184765     
  -9.6324047639250192E-004  -1.1416234258298707E-003   1828461674.6778438     
  -2737284686.4307613       -96222735.983072042        726064718.54515672     
  -2054490328.2837241        169965697.51904941        622983991.29992986     
  -1437878653.4161692        215545186.75622487        751802428.70743620     
  -887449661.82809722        40515731.728459418        1112520030.7676756     
  -403203353.51950842       -355122667.56424999        1705136797.4806488     
  -5474569372.8631201       -192445471.96290827        819368869.91008198     
  -4108980656.5688143        339931395.03868914        600468446.92550611     
  -2875757306.8330340        431090373.51186192        613467188.59390855     
  -1774899323.6557803        81031463.456613421        858365094.91529000     
  -806406707.03705478       -710245335.12705874        1335162165.8896503     
 </DataArray>
 <DataArray  type="Float64" Name="VM" NumberOfComponents="1" format="ascii">
   5564933514.9730530     
   4413358583.1412449     
   3290069340.2872930     
   2347557945.0518107     
   2435152487.8364191     
   2969866524.6660590     
   2400695501.1576014     
   2029655943.2062764     
   2130320763.5928295     
   2977914185.6687708     
   1203711805.1936781     
   1092039280.8375492     
   1382027891.8923092     
   2073677638.3579614     
   3166988520.2345014     
   2969866524.6680126     
   2400695501.1590619     
   2029655943.2076778     
   2130320763.5929770     
   2977914185.6679344     
   5564933514.9800997     
   4413358583.1454315     
   3290069340.2896910     
   2347557945.0515065     
   2435152487.8342381     
 </DataArray>
 <DataArray  type="Float64" Name="strain" NumberOfComponents="3" format="ascii">
   9.0280595521158608E-002  -2.4165422331724279E-002   3.5505984362367723E-002
   7.0182667917957825E-002  -2.6210426533522208E-002   2.6020299366546595E-002
   5.0084740314757070E-002  -2.1563626092683464E-002   2.6583578172312029E-002
   2.9986812711556302E-002  -1.0225021009208076E-002   3.7195820779664032E-002
   9.8888851083555329E-003   7.8053887169039493E-003   5.7857027188602472E-002
   4.5140297760600696E-002  -1.2082711165893101E-002   3.1462804470088868E-002
   3.5091333958991777E-002  -1.3105213266769451E-002   2.6995972956217633E-002
   2.5042370157382855E-002  -1.0781813046338566E-002   3.2578105243943570E-002
   1.4993406355773944E-002  -5.1125105046004159E-003   4.8209201333266623E-002
   4.9444425541650128E-003   3.9026943584448692E-003   7.3889261224186903E-002
   1.5383527784962325E-014  -6.1908811410660292E-014   3.0115077839396358E-002
   8.9477036890883710E-015  -1.6667223157185163E-014   2.7321197486145525E-002
   2.5188184871183239E-015   6.3612309864069516E-015   3.4576280934502483E-002
  -3.9100667148517232E-015   7.1899951270548712E-015   5.1880328184467320E-002
  -1.0345890810725678E-014  -1.4210854715202004E-014   7.9233339236039896E-002
  -4.5140297760597331E-002   1.2082711165769273E-002   3.1462804470290123E-002
  -3.5091333958990646E-002   1.3105213266736110E-002   2.6995972956330293E-002
  -2.5042370157383947E-002   1.0781813046351261E-002   3.2578105243988902E-002
  -1.4993406355777250E-002   5.1125105046148098E-003   4.8209201333265943E-002
  -4.9444425541705569E-003  -3.9026943584732909E-003   7.3889261224161451E-002
  -9.0280595521237461E-002   2.4165422331600461E-002   3.5505984362770221E-002
  -7.0182667918007008E-002   2.6210426533488887E-002   2.6020299366771932E-002
  -5.0084740314776541E-002   2.1563626092696204E-002   2.6583578172402703E-002
  -2.9986812711546074E-002   1.0225021009222460E-002   3.7195820779662568E-002
  -9.8888851083156204E-003  -7.8053887169323710E-003   5.7857027188551513E-002
 </DataArray>
 </PointData>
 </Piece>
 </UnstructuredGrid>
 </VTKFile>
